1027 59623 011 2
1 211 5 2 9 1 60 1 73 1 74 1 95 1 126 2 137 1 145 1 181 1 194 1 207 2 265 1 292 1 293 1 320 1 322 1 330 1 370 1 371 1 381 1 386 1 403 1 414 1 427 1 441 1 463 2 475 1 496 1 507 1 524 1 541 1 545 1 562 1 575 1 595 1 615 1 629 1 647 1 669 1 687 2 692 1 781 1 790 1 834 1 841 1 844 1 854 1 857 2 868 1 876 1 920 1 964 1 966 1 989 1 995 1 996 1 14 1 28 1 49 1 89 1 97 1 110 1 139 1 148 1 162 1 167 1 189 1 203 1 212 1 231 1 302 1 309 1 311 1 325 1 352 1 387 1 407 1 435 1 439 1 476 1 489 1 490 1 518 1 523 1 534 1 547 1 563 1 565 1 590 1 598 1 614 1 619 1 638 1 650 1 651 1 653 1 663 1 674 1 688 1 699 1 706 1 711 1 722 1 766 1 792 1 811 1 838 1 842 1 877 1 878 1 904 1 929 1 939 1 941 1 943 1 986 1 998 1 1001 1 1023 1 
1 210 4 1 41 1 62 1 72 1 91 1 93 1 109 1 114 1 120 1 137 1 149 1 206 2 223 1 257 1 287 1 292 1 321 1 433 1 438 1 442 1 464 1 484 1 516 2 543 1 568 1 591 1 613 1 634 1 664 1 681 1 712 1 725 1 731 1 735 2 757 1 782 1 797 1 799 1 829 1 911 1 79 1 96 1 103 1 106 1 113 1 117 1 130 1 156 1 178 1 194 1 208 1 214 1 220 1 225 1 243 1 267 1 268 1 300 1 305 1 331 1 332 1 339 1 347 1 357 1 362 1 372 1 391 1 404 1 441 1 490 1 507 1 514 1 519 1 521 1 536 1 578 1 587 1 592 1 602 1 626 1 633 1 653 1 676 1 697 1 704 1 707 1 743 1 754 1 790 1 794 1 804 1 839 1 894 1 896 1 918 1 919 1 922 1 957 1 990 1 1002 1 1009 1 1010 1 1019 1 1022 1 1027 1 
1 215 5 2 7 1 8 1 9 1 17 1 21 1 37 1 76 1 84 1 91 2 96 1 103 1 114 1 134 1 138 1 147 2 156 1 171 1 224 1 244 1 246 1 250 1 262 1 307 1 321 1 338 1 360 1 371 2 397 1 438 1 445 1 446 1 483 1 487 1 494 1 513 1 517 1 530 1 543 1 547 1 556 1 582 1 605 1 629 1 702 1 706 2 739 1 742 1 755 1 759 1 807 1 853 1 857 1 880 1 893 1 907 1 919 1 948 1 952 2 954 1 964 1 987 1 999 1 26 1 33 1 41 1 98 1 101 1 161 1 169 1 178 1 184 1 204 1 210 1 251 1 256 1 293 1 316 1 323 1 329 1 339 1 345 1 349 1 367 1 381 1 508 1 514 1 545 1 601 1 606 1 612 1 617 1 630 1 663 1 698 1 714 1 717 1 721 1 722 1 723 1 748 1 780 1 809 1 860 1 912 1 924 1 930 1 933 1 969 1 970 1 986 1 988 1 1010 1 1015 1 1027 1 
1 209 2 1 30 1 31 1 42 1 83 1 151 1 203 1 213 1 215 1 250 1 257 1 291 1 315 2 397 1 411 1 436 2 443 1 449 1 475 1 557 1 568 1 575 1 610 1 646 1 648 1 654 1 664 1 703 1 720 1 744 2 787 1 791 1 806 1 835 1 849 1 850 2 858 1 864 1 867 1 894 1 903 1 914 1 928 1 937 1 986 1 33 1 37 1 44 1 46 1 51 1 90 1 96 1 118 1 145 1 155 1 161 1 164 1 173 1 208 1 211 1 217 1 226 1 234 1 238 1 278 1 283 1 295 1 304 1 309 1 322 1 332 1 344 1 345 1 364 1 377 1 381 1 409 1 461 1 469 1 477 1 495 1 498 1 502 1 513 1 524 1 536 1 545 1 547 1 564 1 590 1 596 1 604 1 658 1 663 1 677 1 683 1 698 1 736 1 738 1 769 1 771 1 793 1 801 1 805 1 812 1 833 1 845 1 879 1 882 1 887 1 895 1 900 1 918 1 963 1 978 1 1016 1 1023 1 1027 1 
1 211 1 2 3 2 9 1 17 1 20 1 47 1 58 1 66 1 91 1 92 1 156 1 238 1 244 1 256 1 297 1 327 1 340 1 369 1 370 1 429 1 450 2 454 1 484 1 498 1 500 1 518 1 522 1 582 1 587 1 656 1 684 1 716 1 722 1 736 2 739 1 750 1 775 2 780 1 793 1 803 1 869 1 874 1 881 1 986 1 991 1 995 1 21 1 34 1 97 1 136 1 159 1 169 1 200 1 204 1 221 1 227 1 262 1 265 1 289 1 307 1 320 1 322 1 324 1 348 1 361 1 373 1 400 1 430 1 452 1 457 1 473 1 486 1 541 1 547 1 556 1 562 1 590 1 609 1 615 1 655 1 679 1 690 1 701 1 708 1 709 1 719 1 747 1 761 1 779 1 800 1 805 1 813 1 833 1 847 1 854 1 862 1 864 1 865 1 923 1 926 1 939 1 945 1 951 1 977 1 1018 1 1021 1 1024 1 
1 211 43 1 53 1 57 1 62 1 67 1 74 1 100 1 107 1 127 1 133 1 146 1 147 1 152 1 165 1 183 1 185 1 188 1 249 1 266 1 300 1 324 1 346 1 351 1 357 1 375 1 450 1 519 1 527 1 534 1 555 2 568 1 610 1 616 2 619 1 648 1 661 1 663 1 666 1 690 1 701 1 703 1 727 1 740 1 759 1 806 1 861 2 889 1 902 1 903 1 905 1 908 2 915 1 931 1 953 1 18 1 50 1 113 1 114 1 148 1 205 1 240 1 241 1 252 1 272 1 354 1 358 1 384 1 416 1 419 1 422 1 441 1 467 1 470 1 498 1 505 1 531 1 570 1 576 1 607 1 630 1 633 1 635 1 658 1 707 1 716 1 736 1 753 1 767 1 777 1 786 1 809 1 842 1 878 1 890 1 899 1 943 1 948 1 963 1 974 1 976 1 980 1 981 1 992 1 1018 1 1024 1 1027 1 
1 208 3 1 25 1 63 1 94 1 101 1 125 1 128 1 151 1 167 2 175 1 181 1 199 1 205 1 212 1 220 1 222 1 227 1 230 1 256 1 293 1 301 1 319 1 324 1 390 1 418 1 444 1 461 1 464 1 514 1 623 1 637 1 653 1 670 1 673 1 692 1 693 1 712 1 721 1 730 1 735 1 742 1 748 1 753 1 797 1 824 1 827 1 835 1 839 1 856 1 902 1 925 1 942 1 949 2 959 1 973 1 994 1 12 1 53 1 60 1 67 1 68 1 84 1 177 1 178 1 180 1 187 1 194 1 198 1 204 1 215 1 228 1 236 1 251 1 262 1 292 1 311 1 327 1 343 1 344 1 368 1 413 1 419 1 421 1 431 1 436 1 442 1 452 1 480 1 486 1 512 1 536 1 537 1 547 1 576 1 581 1 588 1 605 1 606 1 609 1 612 1 644 1 645 1 655 1 663 1 676 1 679 1 682 1 700 1 734 1 741 1 747 1 801 1 818 1 869 1 890 1 898 1 901 1 924 1 936 1 960 1 996 1 1000 1 1004 1 
1 208 3 1 21 1 58 1 84 1 94 1 161 1 166 1 190 1 214 1 218 1 227 1 247 1 283 1 312 1 324 1 343 1 366 1 388 1 392 1 403 1 432 1 433 1 436 1 484 1 492 1 504 1 520 1 546 1 554 1 560 1 566 1 596 1 614 1 615 1 625 2 643 1 647 1 655 1 670 1 708 1 712 1 729 1 741 1 760 1 766 2 874 1 878 1 885 1 916 2 932 1 948 1 957 1 980 1 997 1 25 1 75 1 87 1 96 1 107 1 119 1 162 1 178 1 182 1 224 1 234 1 240 1 256 1 276 1 290 1 292 1 306 1 331 1 339 1 358 1 361 1 367 1 377 1 389 1 394 1 431 1 434 1 457 1 459 1 460 1 473 1 478 1 505 1 509 1 510 1 523 1 537 1 582 1 653 1 675 1 706 1 707 1 714 1 730 1 755 1 758 1 769 1 775 1 787 1 795 1 804 1 833 1 883 1 923 1 949 1 966 1 985 1 989 1 1006 1 1013 1 1017 1 
1 208 1 1 3 1 5 1 13 1 17 1 20 1 22 1 41 1 49 1 65 1 87 1 92 1 118 1 149 1 177 1 183 1 185 1 190 1 193 1 203 1 229 1 251 1 263 1 267 1 307 1 339 1 349 2 373 1 381 1 402 1 404 1 440 1 453 1 459 1 464 1 481 1 497 1 514 1 515 1 537 2 572 1 588 1 664 1 689 1 700 1 755 1 758 2 760 1 767 1 800 1 859 2 881 1 889 1 902 1 904 1 906 1 921 1 959 1 967 1 971 1 986 1 999 1 12 1 15 1 39 1 71 1 77 1 116 1 143 1 162 1 170 1 200 1 213 1 250 1 254 1 287 1 303 1 312 1 351 1 352 1 354 1 366 1 368 1 428 1 441 1 443 1 454 1 503 1 519 1 532 1 559 1 620 1 623 1 655 1 658 1 701 1 707 1 754 1 787 1 788 1 796 1 804 1 806 1 808 1 809 1 824 1 847 1 855 1 857 1 867 1 920 1 935 1 982 1 990 1 1002 1 1018 1 
1 215 27 1 99 1 132 1 138 1 142 1 162 1 165 1 167 1 191 1 205 1 209 1 216 1 217 1 227 1 249 1 250 1 251 1 262 1 269 1 280 1 284 1 296 1 297 1 342 1 346 1 361 1 363 2 391 1 425 1 441 1 448 1 456 1 466 1 472 1 513 1 518 1 553 1 582 1 590 1 597 1 615 2 619 1 637 1 639 1 677 1 720 1 724 1 729 1 738 1 743 1 749 1 762 1 763 1 799 1 804 2 840 1 857 1 876 1 914 1 919 1 944 1 12 1 47 1 80 1 84 1 130 1 159 1 182 1 183 1 185 1 200 1 244 1 305 1 309 1 350 1 360 1 362 1 378 1 380 1 422 1 445 1 459 1 467 1 495 1 496 1 515 1 549 1 576 1 589 1 596 1 618 1 633 1 653 1 661 1 673 1 689 1 691 1 693 1 699 1 702 1 792 1 796 1 805 1 846 1 883 1 916 1 917 1 925 1 935 1 983 1 987 1 1008 1 1011 1 1016 1 1024 1 
1 213 42 1 52 1 59 1 76 1 83 1 92 1 99 1 130 1 154 1 160 1 179 1 203 1 223 1 254 1 268 1 286 1 306 1 335 2 336 2 352 1 358 1 374 1 379 1 382 1 404 1 418 1 432 1 441 1 498 2 503 1 508 1 542 1 627 2 630 1 634 1 679 1 702 1 742 1 745 1 755 1 763 1 767 1 781 1 799 2 809 1 822 1 832 1 835 1 867 1 874 1 899 1 915 1 938 2 943 1 964 1 974 1 977 1 988 1 991 1 24 1 37 1 44 1 57 1 88 1 89 1 104 1 125 1 187 1 192 1 213 1 224 1 239 1 245 1 251 1 260 1 292 1 321 1 334 1 370 1 371 1 377 1 405 1 410 1 434 1 436 1 445 1 467 1 470 1 516 1 526 1 549 1 578 1 583 1 600 1 604 1 617 1 651 1 669 1 677 1 720 1 744 1 760 1 788 1 812 1 823 1 854 1 896 1 897 1 907 1 909 1 922 1 926 1 975 1 985 1 986 1 1011 1 1019 1 1023 1 1027 1 
1 209 7 1 9 1 10 1 65 1 117 1 121 1 213 1 219 1 226 1 234 1 300 1 304 1 308 1 336 1 337 1 403 1 419 2 424 1 431 1 433 1 450 1 479 1 484 1 487 1 496 1 564 1 617 1 627 1 646 1 693 1 715 1 717 1 729 1 745 2 766 1 779 1 845 1 858 2 881 1 904 2 921 1 923 2 926 1 940 1 946 1 949 1 954 2 970 1 979 1 983 1 991 1 998 1 22 1 23 1 30 1 69 1 80 1 102 1 122 1 138 1 145 1 211 1 233 1 245 1 302 1 324 1 331 1 385 1 394 1 401 1 411 1 423 1 428 1 451 1 465 1 475 1 553 1 557 1 559 1 571 1 586 1 633 1 663 1 684 1 707 1 708 1 726 1 731 1 739 1 742 1 752 1 756 1 821 1 834 1 873 1 898 1 905 1 913 1 948 1 972 1 980 1 996 1 1002 1 1009 1 1014 1 1017 1 
1 210 9 1 16 1 29 1 41 1 61 1 79 1 115 1 121 1 127 1 143 1 150 2 164 1 197 1 224 1 237 1 245 1 253 1 269 1 329 1 336 1 381 1 404 1 408 1 449 1 464 1 607 1 609 1 636 1 643 1 662 1 669 1 693 1 712 1 739 1 754 1 763 1 784 1 824 1 833 1 844 1 893 1 895 1 900 1 929 1 931 1 934 1 945 1 951 1 71 1 104 1 117 1 125 1 128 1 142 1 160 1 223 1 230 1 233 1 267 1 280 1 337 1 369 1 377 1 411 1 438 1 496 1 510 1 513 1 534 1 615 1 620 1 621 1 631 1 633 1 634 1 642 1 652 1 663 1 676 1 697 1 699 1 700 1 745 1 749 1 755 1 756 1 788 1 828 1 837 1 839 1 840 1 845 1 849 1 853 1 871 1 877 1 880 1 889 1 898 1 943 1 954 1 958 1 999 1 1004 1 1024 1 
1 207 1 1 21 1 56 1 58 1 71 1 73 1 93 1 113 1 114 1 132 1 172 1 181 1 188 1 190 1 219 1 235 1 268 1 293 1 297 1 303 1 321 1 327 1 341 1 348 2 358 1 361 1 368 1 386 1 390 1 401 1 429 1 460 1 498 1 563 1 577 1 606 1 619 1 626 1 664 1 700 1 703 1 727 1 746 1 762 1 767 1 769 1 774 1 783 1 789 1 792 2 814 1 839 1 849 1 879 1 907 1 930 1 932 1 955 1 957 1 995 2 25 1 29 1 32 1 33 1 68 1 124 1 137 1 168 1 176 1 183 1 230 1 262 1 283 1 301 1 340 1 404 1 411 1 439 1 442 1 450 1 472 1 511 1 546 1 580 1 594 1 614 1 622 1 627 1 631 1 650 1 651 1 673 1 698 1 708 1 724 1 726 1 742 1 848 1 882 1 899 1 927 1 940 1 954 1 978 1 1004 1 1005 1 1007 1 1008 1 1018 1 
1 212 9 1 28 1 51 2 60 1 64 1 78 1 80 1 123 1 139 1 141 1 150 1 238 1 244 2 245 1 281 1 299 1 336 1 340 1 363 1 372 1 380 1 384 1 406 1 407 1 412 1 438 2 454 1 456 1 479 1 488 1 490 1 494 1 544 2 588 1 597 1 605 1 634 1 667 1 669 1 697 1 701 1 730 1 747 1 769 1 796 1 824 1 826 1 884 1 917 1 944 1 954 1 993 1 998 1 16 1 47 1 57 1 101 1 146 1 176 1 182 1 247 1 256 1 297 1 316 1 349 1 351 1 355 1 366 1 385 1 387 1 396 1 397 1 411 1 429 1 435 1 437 1 439 1 450 1 462 1 466 1 492 1 497 1 527 1 530 1 550 1 569 1 572 1 577 1 595 1 601 1 602 1 611 1 614 1 656 1 663 1 689 1 696 1 728 1 741 1 759 1 771 1 785 1 843 1 851 1 852 1 904 1 906 1 910 1 958 1 1007 1 1013 1 1020 1 1024 1 
1 213 13 1 15 1 50 1 55 1 57 1 72 1 86 1 91 1 96 1 110 1 119 1 146 1 157 1 162 1 164 1 186 1 198 1 217 1 228 1 239 1 266 2 286 1 309 1 311 1 385 1 411 1 438 1 476 1 495 1 524 1 540 1 555 1 568 1 609 1 616 1 622 1 645 1 666 2 685 1 700 1 702 1 713 1 736 1 739 1 741 1 763 1 769 1 779 1 788 1 802 1 822 1 831 1 887 1 909 1 919 1 930 1 963 1 53 1 65 1 68 1 80 1 85 1 105 1 106 1 112 1 117 1 127 1 153 1 178 1 182 1 209 1 237 1 249 1 278 1 292 1 294 1 346 1 347 1 371 1 373 1 400 1 405 1 415 1 420 1 422 1 426 1 445 1 449 1 460 1 474 1 496 1 501 1 509 1 530 1 548 1 606 1 615 1 617 1 637 1 642 1 684 1 687 1 693 1 698 1 706 1 715 1 722 1 746 1 780 1 781 1 782 1 828 1 922 1 929 1 943 1 967 1 983 1 984 1 1014 1 1019 1 1020 1 
1 212 3 1 5 1 9 1 22 1 43 1 61 1 81 1 90 1 101 2 108 1 117 1 136 1 142 1 148 1 159 1 172 1 190 1 192 2 194 1 245 1 308 1 315 1 328 1 335 1 343 1 371 1 401 1 402 1 403 1 405 1 407 2 411 1 414 1 417 1 456 1 461 1 475 1 513 1 520 1 524 1 540 1 561 1 591 1 602 1 613 2 643 1 682 1 688 1 690 1 706 1 711 1 716 1 732 1 795 1 799 1 801 1 819 2 823 1 851 1 875 1 886 1 898 1 901 1 924 1 939 1 961 2 989 1 993 1 39 1 88 1 113 1 158 1 160 1 174 1 201 1 234 1 244 1 322 1 397 1 439 1 458 1 460 1 480 1 496 1 511 1 529 1 530 1 543 1 576 1 577 1 582 1 595 1 600 1 608 1 610 1 647 1 651 1 671 1 674 1 678 1 693 1 728 1 794 1 822 1 856 1 872 1 874 1 887 1 894 1 897 1 951 1 966 1 988 1 1005 1 1016 1 
1 214 6 1 42 1 69 1 79 1 85 1 91 1 95 1 100 1 105 1 109 1 146 1 153 1 167 1 183 1 238 1 246 1 257 1 273 1 277 1 279 1 285 1 322 1 337 1 363 1 370 1 372 1 390 1 470 1 495 1 505 1 534 1 541 1 615 1 617 1 647 1 649 1 661 1 662 1 671 1 692 1 705 1 714 1 720 1 730 1 734 1 738 1 752 1 796 1 803 1 809 1 840 1 843 1 873 1 893 1 896 1 951 1 25 1 89 1 92 1 135 1 147 1 190 1 216 1 221 1 241 1 263 1 307 1 353 1 356 1 365 1 367 1 386 1 392 1 403 1 449 1 458 1 474 1 498 1 539 1 542 1 561 1 566 1 573 1 609 1 624 1 632 1 683 1 686 1 699 1 722 1 736 1 743 1 750 1 781 1 791 1 797 1 808 1 811 1 814 1 826 1 881 1 886 1 928 1 947 1 959 1 965 1 973 1 994 1 998 1 1026 1 
1 217 19 1 19 1 30 1 53 1 67 1 82 1 100 1 165 1 167 1 187 1 203 1 218 1 243 1 255 1 261 1 267 1 277 1 314 1 331 1 344 1 385 1 393 1 397 1 432 1 444 2 465 1 469 1 473 1 482 1 493 1 534 1 578 1 601 1 614 1 634 1 654 1 672 1 673 1 715 1 726 1 781 1 792 1 800 1 809 1 821 1 839 1 871 1 917 1 926 1 947 1 951 1 955 1 981 1 992 1 997 1 34 1 64 1 81 1 104 1 118 1 135 1 137 1 138 1 142 1 160 1 175 1 195 1 222 1 234 1 248 1 280 1 312 1 320 1 323 1 341 1 352 1 356 1 376 1 435 1 439 1 454 1 461 1 468 1 477 1 487 1 496 1 497 1 521 1 522 1 542 1 552 1 568 1 615 1 661 1 690 1 723 1 757 1 773 1 790 1 802 1 820 1 828 1 833 1 835 1 860 1 869 1 892 1 920 1 938 1 991 1 996 1 1003 1 1004 1 1007 1 1009 1 1011 1 1015 1 
1 212 5 1 9 1 46 1 55 1 59 1 66 1 103 1 111 1 123 1 156 1 164 1 168 1 171 1 175 1 177 1 196 1 207 1 215 1 225 1 229 1 255 1 274 1 280 1 282 1 316 1 324 1 334 1 349 1 358 1 380 1 383 1 413 1 416 1 437 1 461 1 530 2 535 1 546 1 596 1 601 1 608 1 624 2 625 1 632 2 650 1 670 1 672 1 688 1 728 1 739 1 753 1 767 1 819 1 825 1 885 2 915 1 925 1 971 1 972 1 982 1 39 1 68 1 77 1 113 1 119 1 120 1 140 1 154 1 163 1 169 1 181 1 238 1 257 1 259 1 261 1 283 1 309 1 319 1 330 1 333 1 341 1 357 1 381 1 432 1 490 1 492 1 494 1 528 1 537 1 538 1 572 1 586 1 593 1 606 1 623 1 647 1 705 1 732 1 736 1 738 1 759 1 793 1 807 1 808 1 817 1 848 1 862 1 863 1 870 1 883 1 924 1 940 1 954 1 961 1 970 1 977 1 987 1 992 1 995 1 1004 1 1008 1 1016 1 1021 1 
1 208 3 1 8 1 14 1 5 1 24 1 32 1 36 1 52 1 63 1 65 1 73 1 107 1 129 1 178 1 212 2 213 1 255 1 260 1 283 1 296 1 311 1 325 1 342 1 406 1 449 1 480 1 495 1 545 1 547 1 554 1 645 1 683 1 688 1 707 1 725 1 739 1 782 1 800 1 801 1 819 1 847 1 849 1 852 1 864 2 877 1 884 1 889 2 892 1 914 1 927 1 934 1 944 1 948 1 975 1 22 1 39 1 45 1 60 1 66 1 70 1 88 1 92 1 96 1 151 1 159 1 183 1 207 1 208 1 220 1 227 1 232 1 261 1 271 1 277 1 278 1 281 1 286 1 289 1 298 1 303 1 316 1 332 1 383 1 393 1 397 1 413 1 424 1 441 1 477 1 485 1 488 1 512 1 518 1 534 1 562 1 563 1 603 1 606 1 640 1 702 1 719 1 787 1 813 1 814 1 866 1 907 1 912 1 926 1 930 1 953 1 968 1 1010 1 1013 1 1018 1 1019 1 
1 210 9 1 17 1 12 1 21 1 23 1 34 1 54 1 56 1 66 1 124 1 136 1 144 1 168 1 183 1 192 1 208 1 211 1 225 1 236 1 246 1 254 1 263 1 303 1 315 1 321 1 344 1 356 1 376 1 396 1 413 1 427 1 431 1 463 1 466 1 475 1 490 1 498 1 499 1 500 1 508 1 520 1 524 2 538 1 554 1 584 1 600 1 603 1 610 1 617 1 693 1 699 1 704 1 724 1 739 1 758 2 770 2 774 1 822 1 830 1 832 1 842 1 862 1 871 1 891 1 901 1 903 1 904 1 923 1 954 1 960 1 977 1 986 1 989 1 40 1 126 1 131 1 153 1 182 1 186 1 217 1 243 1 286 1 296 1 302 1 312 1 313 1 322 1 370 1 372 1 407 1 418 1 459 1 480 1 488 1 495 1 514 1 560 1 596 1 655 1 665 1 688 1 700 1 713 1 728 1 755 1 779 1 782 1 808 1 817 1 828 1 861 1 869 1 881 1 886 1 962 1 963 1 980 1 1010 1 1012 1 1019 1 1024 1 
1 208 22 1 12 1 38 1 57 2 100 1 102 1 122 1 134 1 138 1 145 1 151 1 163 1 178 1 185 1 254 1 309 1 316 2 331 1 340 1 352 1 372 1 377 1 430 1 435 2 441 1 478 1 488 1 493 1 494 1 504 1 521 2 525 1 529 1 530 1 560 1 571 1 592 1 603 1 613 1 619 1 632 1 668 1 764 1 774 1 779 1 784 1 801 1 806 1 843 1 853 1 857 1 879 1 881 1 886 1 911 2 914 1 939 1 948 1 949 1 956 1 964 1 974 2 977 1 982 1 983 1 985 1 993 1 35 1 40 1 66 1 84 1 126 1 130 1 150 1 172 1 207 1 223 1 226 1 265 1 271 1 291 1 292 1 306 1 323 1 327 1 330 1 363 1 383 1 507 1 532 1 541 1 544 1 551 1 556 1 570 1 605 1 606 1 649 1 672 1 719 1 722 1 732 1 758 1 781 1 783 1 799 1 848 1 859 1 871 1 872 1 882 1 887 1 907 1 942 1 946 1 988 1 1016 1 
1 209 21 1 11 1 33 1 39 1 46 1 66 1 84 1 119 1 139 1 148 1 200 1 221 1 237 1 256 1 271 1 287 1 290 1 292 1 300 1 368 1 377 1 397 1 414 1 416 1 424 1 427 1 437 1 464 1 465 1 471 1 490 1 492 1 512 1 529 1 563 1 600 1 645 1 646 1 649 1 680 1 681 1 692 1 746 1 767 1 771 1 774 1 791 1 806 1 816 2 833 1 838 1 873 2 882 1 892 1 894 1 903 1 905 1 906 1 916 1 922 1 946 1 976 1 31 1 47 1 51 1 103 1 159 1 165 1 181 1 186 1 193 1 209 1 218 1 255 1 277 1 310 1 338 1 355 1 363 1 375 1 389 1 402 1 411 1 432 1 455 1 456 1 479 1 496 1 513 1 521 1 524 1 541 1 570 1 587 1 654 1 662 1 671 1 679 1 700 1 738 1 745 1 751 1 755 1 784 1 792 1 798 1 843 1 854 1 891 1 902 1 904 1 912 1 931 1 974 1 1001 1 1004 1 1014 1 1019 1 
1 215 7 1 8 1 14 1 18 1 59 1 60 1 79 1 91 1 101 1 116 1 131 1 139 1 189 1 196 1 199 1 203 1 250 1 320 1 327 1 331 1 367 1 370 1 386 1 388 1 430 1 434 1 536 1 549 1 612 2 658 2 666 1 670 1 689 2 693 1 702 1 714 2 727 1 731 1 757 1 779 1 791 1 799 1 805 1 818 1 832 1 837 1 855 1 872 1 907 1 915 1 931 1 966 1 41 1 118 1 126 1 172 1 195 1 200 1 211 1 234 1 240 1 242 1 297 1 309 1 312 1 336 1 358 1 393 1 411 1 485 1 487 1 490 1 513 1 516 1 523 1 525 1 527 1 534 1 561 1 571 1 593 1 596 1 627 1 635 1 678 1 690 1 695 1 750 1 766 1 767 1 820 1 822 1 823 1 861 1 864 1 876 1 880 1 944 1 946 1 949 1 976 1 986 1 993 1 1010 1 1020 1 1021 1 
1 211 3 1 29 1 89 1 98 1 102 1 119 1 122 1 139 1 144 2 187 1 188 1 190 1 199 1 211 1 216 1 289 1 318 1 329 1 336 1 372 1 412 1 417 1 422 1 463 1 482 1 518 1 561 1 569 1 577 1 586 1 590 1 624 1 627 1 636 1 653 1 702 1 728 1 740 1 742 1 763 1 764 2 774 1 783 1 794 1 808 1 839 1 846 1 851 1 860 1 869 1 891 1 896 1 908 1 918 1 919 1 921 1 926 1 949 2 63 1 72 1 73 1 154 1 177 1 179 1 207 1 240 1 279 1 297 1 308 1 310 1 316 1 320 1 331 1 333 1 334 1 340 1 346 1 354 1 374 1 406 1 409 1 428 1 439 1 441 1 468 1 500 1 504 1 512 1 517 1 576 1 645 1 676 1 713 1 730 1 762 1 786 1 789 1 820 1 822 1 841 1 859 1 867 1 890 1 946 1 954 1 957 1 968 1 975 1 1002 1 1003 1 1006 1 1013 1 1016 1 1024 1 
1 207 10 1 27 1 27 1 40 1 41 1 53 1 57 1 62 1 90 1 102 2 109 1 112 1 121 1 131 2 133 1 136 1 153 1 162 1 201 1 223 1 225 1 245 1 281 1 283 1 284 1 290 2 339 1 344 1 370 1 378 1 397 1 409 1 463 1 471 1 494 1 501 1 502 1 531 1 533 1 536 1 538 1 550 1 612 1 613 1 622 1 640 1 658 1 670 1 675 1 688 1 696 1 699 1 720 1 726 1 730 1 738 1 741 1 760 1 819 1 828 1 833 1 847 1 853 2 887 1 890 1 901 1 937 1 989 1 30 1 52 1 71 1 78 1 106 1 116 1 125 1 128 1 166 1 171 1 186 1 199 1 207 1 252 1 279 1 286 1 326 1 368 1 373 1 442 1 459 1 479 1 486 1 520 1 522 1 537 1 632 1 646 1 663 1 681 1 713 1 727 1 742 1 768 1 777 1 789 1 793 1 802 1 812 1 816 1 821 1 839 1 845 1 851 1 857 1 880 1 897 1 929 1 953 1 973 1 992 1 995 1 1007 1 1015 1 
1 209 15 1 1 1 52 2 132 1 133 1 149 1 151 1 166 1 185 1 194 1 207 2 262 1 266 1 311 1 334 1 339 1 370 1 446 1 451 1 470 1 539 1 545 1 552 1 594 1 619 1 627 1 692 1 700 1 760 1 778 1 783 1 786 1 791 1 793 1 823 1 830 1 837 1 851 1 869 1 877 1 896 1 901 1 902 1 925 1 926 1 950 1 954 1 977 1 978 1 981 1 39 1 44 1 48 1 66 1 67 1 68 1 107 1 114 1 140 1 153 1 183 1 198 1 206 1 215 1 312 1 325 1 352 1 353 1 381 1 409 1 419 1 525 1 587 1 590 1 612 1 613 1 640 1 642 1 698 1 713 1 723 1 744 1 754 1 765 1 788 1 828 1 832 1 840 1 845 1 847 1 848 1 866 1 872 1 904 1 905 1 916 1 952 1 1004 1 1005 1 1006 1 1012 1 1027 1 
1 211 13 1 26 1 14 1 35 2 36 1 44 1 48 1 57 1 63 1 68 1 71 2 72 1 74 2 82 1 105 1 150 1 158 1 206 1 229 1 236 1 254 1 301 1 322 1 348 1 350 1 386 1 390 1 395 1 399 1 400 1 404 1 408 1 442 1 464 1 490 1 493 1 495 1 499 1 546 1 593 1 631 1 652 1 721 2 754 1 787 1 788 1 834 1 868 2 881 1 903 1 934 1 971 1 974 1 975 1 985 1 987 1 33 1 49 1 60 1 70 1 73 1 81 1 129 1 135 1 156 1 167 1 172 1 178 1 187 1 198 1 209 1 214 1 215 1 223 1 232 1 245 1 257 1 291 1 305 1 319 1 323 1 339 1 356 1 359 1 361 1 420 1 421 1 437 1 441 1 487 1 503 1 509 1 525 1 601 1 602 1 603 1 622 1 630 1 696 1 758 1 795 1 823 1 836 1 849 1 866 1 875 1 878 1 885 1 888 1 894 1 899 1 958 1 978 1 1001 1 1008 1 1014 1 
1 213 4 1 19 1 12 1 27 1 55 1 68 1 70 1 71 1 73 1 78 1 111 1 153 1 161 1 186 1 208 2 213 1 224 1 235 1 236 1 295 1 331 1 342 1 362 2 417 1 428 1 436 2 447 1 460 1 468 1 470 1 482 1 488 1 501 1 523 1 524 1 551 1 557 1 559 1 575 1 586 1 597 1 614 1 637 1 660 1 677 1 693 1 700 1 711 1 751 1 786 1 796 1 836 1 862 1 863 1 888 1 898 1 958 1 973 1 977 1 980 1 982 1 61 1 100 1 145 1 148 1 155 1 156 1 174 1 182 1 190 1 262 1 287 1 288 1 325 1 345 1 371 1 378 1 394 1 397 1 400 1 409 1 414 1 424 1 441 1 467 1 497 1 504 1 512 1 515 1 531 1 534 1 540 1 546 1 582 1 592 1 593 1 665 1 722 1 742 1 746 1 756 1 784 1 809 1 812 1 841 1 855 1 858 1 870 1 878 1 882 1 883 1 897 1 913 1 960 1 962 1 1009 1 1011 1 1013 1 1027 1 
1 214 4 1 24 1 39 1 41 1 47 1 84 1 100 1 120 1 133 1 175 1 225 1 241 1 266 2 270 2 275 1 344 1 367 1 385 1 401 1 416 1 438 1 448 1 452 2 473 1 492 1 527 1 540 1 549 1 589 1 590 1 600 1 617 1 628 1 629 1 630 1 650 1 656 1 667 1 685 1 689 1 708 1 757 1 771 1 792 1 819 1 828 1 848 1 865 1 889 2 924 1 939 1 972 1 108 1 114 1 125 1 155 1 160 1 180 1 181 1 250 1 261 1 297 1 322 1 330 1 372 1 379 1 396 1 399 1 423 1 427 1 454 1 468 1 477 1 484 1 489 1 519 1 524 1 529 1 532 1 568 1 593 1 611 1 616 1 620 1 626 1 651 1 676 1 678 1 692 1 695 1 699 1 704 1 724 1 731 1 747 1 762 1 803 1 824 1 833 1 835 1 887 1 899 1 902 1 932 1 943 1 970 1 976 1 993 1 1000 1 1008 1 1013 1 1020 1 
1 210 21 1 14 1 46 2 47 1 63 1 68 1 72 2 73 1 90 1 104 1 109 1 110 1 116 1 121 1 138 1 184 1 188 1 194 1 201 1 216 1 222 1 231 1 249 1 251 2 285 1 304 2 318 1 322 1 358 1 375 1 405 1 422 1 431 1 437 1 440 1 462 1 473 1 480 1 483 1 498 1 500 1 534 1 541 1 566 1 612 1 618 1 652 1 681 1 715 1 722 1 731 1 764 1 768 1 770 1 789 1 806 1 822 1 872 2 893 1 898 1 969 1 985 1 45 1 83 1 99 1 130 1 133 1 151 1 160 1 164 1 205 1 233 1 274 1 276 1 277 1 320 1 326 1 344 1 347 1 360 1 395 1 398 1 401 1 458 1 459 1 477 1 531 1 536 1 540 1 580 1 610 1 620 1 654 1 658 1 669 1 703 1 720 1 721 1 749 1 753 1 760 1 782 1 791 1 819 1 823 1 835 1 838 1 850 1 876 1 922 1 932 1 971 1 981 1 987 1 1011 1 1015 1 
1 210 24 1 3 1 4 1 14 1 29 1 40 1 46 1 55 1 87 1 100 1 101 1 161 1 165 1 232 1 263 1 267 1 269 1 302 2 323 1 335 1 342 1 377 1 379 1 421 1 428 1 429 2 432 1 441 1 445 1 513 1 525 1 532 1 535 1 537 1 542 1 553 1 561 1 575 1 586 1 590 1 638 1 650 1 676 1 683 1 684 1 708 1 759 1 762 1 779 1 788 1 828 1 838 1 843 1 854 1 900 1 906 1 923 1 939 1 945 1 972 1 974 1 975 1 978 1 58 1 76 1 92 1 103 1 132 1 140 1 156 1 191 1 192 1 271 1 313 1 322 1 336 1 341 1 391 1 405 1 413 1 417 1 424 1 426 1 427 1 463 1 501 1 502 1 504 1 538 1 570 1 573 1 592 1 603 1 637 1 670 1 678 1 701 1 743 1 790 1 832 1 833 1 852 1 864 1 907 1 938 1 940 1 950 1 959 1 970 1 989 1 999 1 1000 1 1003 1 1010 1 
1 210 22 1 5 1 19 1 38 2 44 1 92 1 108 1 120 1 122 1 149 1 158 1 173 1 174 1 226 1 247 1 249 1 251 1 254 1 270 1 275 1 277 2 282 1 328 1 333 1 350 1 365 1 367 1 405 1 407 1 418 1 449 1 480 1 489 1 502 1 528 1 544 1 554 1 564 1 570 1 571 1 577 1 596 1 607 1 620 1 652 1 679 1 701 1 712 1 737 1 757 1 781 1 789 1 815 1 846 1 879 1 899 1 907 1 910 1 936 1 955 1 963 1 976 1 981 1 986 1 62 1 78 1 94 1 111 1 118 1 134 1 143 1 268 1 297 1 308 1 366 1 372 1 380 1 396 1 401 1 436 1 446 1 498 1 520 1 549 1 559 1 581 1 601 1 624 1 631 1 655 1 658 1 661 1 682 1 685 1 698 1 708 1 726 1 738 1 763 1 804 1 817 1 835 1 868 1 876 1 881 1 888 1 890 1 906 1 938 1 950 1 965 1 1001 1 1005 1 1015 1 1026 1 1027 1 
1 215 29 2 23 1 59 1 63 1 78 1 84 1 101 1 159 1 191 1 201 1 227 1 231 1 252 1 276 1 295 1 352 1 411 1 413 1 429 1 473 1 487 2 534 2 544 1 546 1 547 1 560 1 573 1 610 1 627 1 644 1 662 1 720 1 730 1 732 1 743 1 744 1 746 1 747 1 752 1 770 1 789 1 791 1 804 1 811 1 834 1 842 1 844 1 851 1 879 1 899 1 905 1 908 1 917 1 949 1 970 1 989 1 996 1 58 1 83 1 111 1 118 1 131 1 134 1 136 1 137 1 162 1 170 1 196 1 225 1 246 1 259 1 281 1 286 1 310 1 328 1 329 1 345 1 349 1 359 1 360 1 363 1 431 1 444 1 479 1 480 1 481 1 492 1 514 1 519 1 538 1 553 1 559 1 604 1 646 1 665 1 673 1 679 1 683 1 685 1 736 1 809 1 818 1 829 1 859 1 861 1 864 1 888 1 892 1 921 1 962 1 984 1 1002 1 1027 1 
1 214 21 1 29 1 39 1 52 1 78 1 90 1 91 1 102 1 135 2 143 1 144 1 180 1 191 1 237 1 244 1 291 1 300 1 361 1 403 1 414 1 419 1 437 1 441 1 493 1 525 1 588 1 592 1 595 1 600 1 642 1 657 1 659 1 662 1 669 1 680 1 704 1 710 1 749 1 761 1 767 1 796 1 810 1 833 1 842 1 844 1 852 1 866 1 872 1 876 1 893 1 918 1 937 1 951 1 971 1 972 1 75 1 79 1 128 1 150 1 155 1 170 1 178 1 186 1 189 1 222 1 223 1 287 1 288 1 290 1 302 1 326 1 355 1 433 1 474 1 494 1 503 1 533 1 542 1 554 1 555 1 568 1 587 1 607 1 632 1 650 1 683 1 686 1 717 1 769 1 794 1 795 1 812 1 823 1 830 1 834 1 858 1 859 1 864 1 874 1 881 1 885 1 903 1 921 1 932 1 939 1 954 1 956 1 1004 1 1017 1 
1 212 3 1 4 1 11 1 76 1 81 2 83 2 92 1 115 1 120 2 124 1 131 1 137 1 170 1 176 1 228 1 235 1 273 1 276 1 282 1 288 1 325 1 331 1 393 1 414 1 424 1 430 1 434 1 445 1 452 1 474 1 478 1 479 1 492 1 507 1 522 1 525 1 535 1 547 1 585 1 603 1 615 1 654 1 667 1 673 1 680 1 709 1 718 1 738 1 753 1 756 1 776 1 779 1 789 1 809 1 811 1 816 1 853 1 859 1 875 1 906 2 932 1 939 1 958 1 974 1 987 1 40 1 53 1 65 1 102 1 116 1 146 1 154 1 171 1 226 1 246 1 260 1 299 1 313 1 341 1 353 1 422 1 449 1 467 1 469 1 473 1 484 1 555 1 591 1 606 1 619 1 644 1 650 1 670 1 672 1 685 1 696 1 698 1 700 1 711 1 713 1 731 1 732 1 750 1 777 1 787 1 796 1 845 1 848 1 865 1 874 1 880 1 897 1 905 1 961 1 964 1 970 1 975 1 996 1 1018 1 1027 1 
1 212 23 1 34 2 39 1 59 1 87 1 96 1 97 1 122 1 128 1 130 1 135 1 140 1 173 1 174 1 184 1 190 1 229 1 240 1 261 1 275 1 289 1 307 1 309 1 363 1 402 1 412 1 468 1 473 1 474 1 485 1 519 1 560 1 613 1 614 1 624 2 625 1 630 1 642 1 664 1 674 1 675 2 679 1 693 1 694 1 734 1 754 1 758 1 762 1 763 1 764 1 775 1 842 1 856 2 863 1 867 1 880 1 886 1 943 1 948 1 982 1 985 1 990 1 92 1 134 1 143 1 171 1 181 1 193 1 197 1 200 1 239 1 241 1 279 1 280 1 284 1 328 1 397 1 419 1 437 1 471 1 503 1 536 1 558 1 564 1 565 1 605 1 641 1 681 1 688 1 690 1 696 1 714 1 725 1 746 1 770 1 771 1 777 1 818 1 832 1 851 1 878 1 891 1 895 1 905 1 918 1 919 1 935 1 967 1 968 1 988 1 1020 1 1022 1 1027 1 
1 215 24 1 31 1 36 1 38 1 9 1 17 1 20 1 21 1 28 1 54 1 61 1 89 1 93 1 123 1 125 1 138 1 151 1 158 1 188 1 192 1 198 1 208 1 234 1 242 1 250 1 261 1 268 1 292 1 307 1 313 1 329 1 333 1 353 1 357 1 363 1 380 1 399 1 404 1 418 1 449 1 489 1 494 1 506 1 509 1 579 1 585 1 587 1 591 1 595 1 603 1 625 1 656 1 660 1 663 1 671 1 673 1 714 1 727 1 744 1 767 1 770 1 772 1 796 1 806 1 807 1 822 1 886 1 916 1 933 1 939 1 967 1 980 1 989 1 994 1 40 1 45 1 53 1 68 1 78 1 107 1 112 1 116 1 119 1 140 1 150 1 152 1 179 1 203 1 217 1 223 1 266 1 273 1 283 1 314 1 375 1 419 1 428 1 429 1 495 1 561 1 613 1 630 1 637 1 683 1 694 1 704 1 705 1 710 1 718 1 725 1 753 1 756 1 768 1 771 1 793 1 802 1 829 1 837 1 839 1 847 1 860 1 894 1 896 1 912 1 946 1 962 1 969 1 979 1 984 1 1015 1 
1 212 27 1 33 1 22 1 23 1 37 1 39 1 140 1 146 1 157 1 164 1 168 1 180 1 181 1 187 1 190 2 199 1 204 1 215 2 219 1 227 1 239 1 251 2 267 1 269 1 319 1 332 1 346 1 365 1 368 1 373 1 396 1 402 1 407 1 410 1 423 1 424 1 429 1 487 1 491 1 496 1 499 1 501 1 575 1 616 1 631 1 660 1 735 1 761 1 791 1 793 1 797 1 833 1 859 1 881 1 882 1 885 1 890 1 896 1 916 1 917 1 939 1 988 1 55 1 64 1 84 1 101 1 135 1 143 1 153 1 158 1 176 1 212 1 242 1 284 1 293 1 297 1 302 1 310 1 315 1 353 1 360 1 367 1 377 1 411 1 416 1 453 1 454 1 474 1 476 1 517 1 522 1 531 1 563 1 592 1 668 1 687 1 713 1 721 1 740 1 756 1 759 1 795 1 850 1 854 1 877 1 912 1 924 1 944 1 945 1 949 1 950 1 967 1 978 1 1004 1 1012 1 
1 211 2 1 9 1 13 1 27 1 31 1 3 1 25 1 42 1 53 2 59 2 76 1 91 1 95 1 97 1 101 1 113 1 145 1 171 1 229 1 257 1 282 1 290 1 291 1 292 1 300 1 315 1 353 1 379 1 383 2 401 2 404 1 421 1 448 1 458 1 474 1 497 1 539 1 541 1 562 1 567 1 601 2 614 1 624 1 642 1 679 1 712 1 756 1 771 1 782 1 807 1 849 1 884 1 906 1 919 1 933 1 934 1 936 1 54 1 61 1 75 1 98 1 115 1 155 1 170 1 175 1 196 1 197 1 255 1 260 1 289 1 341 1 355 1 364 1 371 1 440 1 450 1 469 1 483 1 518 1 534 1 535 1 538 1 549 1 563 1 568 1 587 1 602 1 621 1 667 1 685 1 721 1 734 1 735 1 755 1 781 1 785 1 806 1 810 1 859 1 862 1 869 1 938 1 961 1 966 1 968 1 984 1 995 1 1006 1 1007 1 1009 1 1010 1 1012 1 
1 209 4 1 11 1 18 1 41 1 43 1 70 1 71 1 85 1 126 1 163 1 198 1 204 1 275 1 277 1 309 1 319 2 338 2 394 1 401 1 409 1 410 1 414 1 417 1 419 1 455 1 465 1 472 1 538 1 566 1 575 1 589 1 596 1 604 1 657 1 659 1 665 1 681 1 686 1 689 1 702 1 717 1 731 2 753 1 763 1 772 1 783 1 789 1 806 1 815 1 818 1 828 1 839 1 860 1 883 1 904 1 908 1 929 1 948 1 971 1 987 1 991 1 51 1 55 1 104 1 122 1 137 1 139 1 152 1 161 1 162 1 165 1 170 1 178 1 182 1 232 1 236 1 244 1 247 1 340 1 348 1 352 1 373 1 390 1 439 1 440 1 448 1 452 1 463 1 477 1 495 1 505 1 517 1 536 1 547 1 549 1 582 1 594 1 609 1 634 1 647 1 695 1 701 1 710 1 752 1 774 1 779 1 819 1 826 1 834 1 856 1 869 1 876 1 879 1 882 1 911 1 913 1 942 1 945 1 946 1 954 1 965 1 966 1 975 1 983 1 1005 1 1025 1 
1 210 6 1 17 1 42 1 51 1 61 1 72 1 82 1 110 1 116 1 149 1 150 1 210 2 211 1 212 1 298 1 326 1 330 1 339 1 355 1 387 2 394 1 424 1 470 1 492 1 503 1 552 1 564 1 590 1 609 1 618 1 626 1 628 2 654 1 660 1 673 1 701 1 709 2 718 1 723 1 730 2 741 1 752 1 754 1 785 1 789 1 794 1 842 1 850 1 893 1 894 1 933 1 957 1 84 1 92 1 101 1 134 1 138 1 164 1 165 1 179 1 187 1 216 1 220 1 241 1 246 1 248 1 255 1 277 1 290 1 302 1 304 1 313 1 337 1 374 1 393 1 397 1 407 1 418 1 440 1 462 1 471 1 474 1 475 1 489 1 495 1 507 1 511 1 530 1 533 1 537 1 555 1 577 1 595 1 615 1 685 1 706 1 736 1 747 1 812 1 827 1 862 1 874 1 882 1 887 1 889 1 907 1 909 1 974 1 1009 1 1015 1 1018 1 
1 210 29 1 34 1 4 1 11 1 28 1 45 1 56 1 95 1 121 1 137 1 149 1 154 1 161 1 177 1 178 1 196 1 219 1 262 1 285 2 287 1 297 1 307 1 312 1 338 1 349 2 400 1 441 1 443 1 458 1 466 1 477 1 490 1 495 1 506 1 508 2 515 1 521 1 523 1 530 1 536 1 551 1 561 1 589 2 610 1 647 1 653 1 667 1 670 1 692 1 694 1 697 1 702 1 745 1 754 1 759 1 773 1 792 1 798 1 806 1 814 1 860 1 875 1 879 1 886 1 897 1 944 1 981 1 63 1 92 1 159 1 174 1 182 1 194 1 209 1 230 1 253 1 254 1 259 1 265 1 268 1 273 1 366 1 410 1 421 1 430 1 440 1 469 1 484 1 499 1 517 1 518 1 559 1 571 1 586 1 605 1 628 1 655 1 708 1 728 1 734 1 738 1 762 1 795 1 818 1 830 1 833 1 857 1 889 1 901 1 956 1 967 1 973 1 985 1 1016 1 1022 1 1027 1 
1 212 44 1 21 1 32 1 39 1 48 1 72 1 85 2 106 1 108 2 116 1 117 1 213 1 245 1 249 1 276 1 296 1 318 1 330 1 376 2 380 1 388 1 399 1 407 1 410 1 413 1 429 1 433 1 468 1 476 1 518 2 557 1 568 1 576 1 634 1 642 1 677 1 701 1 703 1 707 1 752 2 753 1 762 1 776 1 817 1 818 1 837 2 857 1 880 1 881 1 926 1 958 1 52 1 97 1 127 1 134 1 161 1 165 1 171 1 182 1 226 1 253 1 263 1 275 1 306 1 323 1 340 1 364 1 401 1 406 1 449 1 459 1 460 1 512 1 519 1 527 1 536 1 537 1 538 1 545 1 550 1 555 1 558 1 593 1 598 1 602 1 606 1 637 1 649 1 652 1 668 1 683 1 706 1 759 1 788 1 801 1 811 1 815 1 829 1 876 1 894 1 902 1 941 1 970 1 977 1 988 1 1001 1 1002 1 1009 1 
1 208 20 1 24 1 32 2 33 1 4 1 50 1 55 1 62 1 63 1 81 1 82 1 102 1 108 1 120 1 121 1 144 1 158 1 207 1 241 1 276 1 288 1 295 1 341 1 386 1 396 1 436 1 475 1 515 1 564 1 580 1 595 1 638 1 719 1 723 1 741 1 742 1 749 2 752 1 756 1 777 1 801 1 826 1 866 1 868 1 873 2 884 2 889 1 893 1 901 1 902 1 944 1 952 1 989 1 61 1 74 1 89 1 132 1 164 1 165 1 167 1 170 1 220 1 233 1 238 1 253 1 274 1 293 1 304 1 306 1 333 1 349 1 361 1 380 1 385 1 409 1 430 1 442 1 443 1 478 1 512 1 514 1 533 1 538 1 542 1 566 1 573 1 584 1 602 1 629 1 631 1 657 1 668 1 669 1 686 1 689 1 737 1 738 1 743 1 751 1 755 1 775 1 817 1 830 1 852 1 924 1 935 1 950 1 958 1 962 1 999 1 1020 1 1024 1 
1 208 5 1 31 1 32 1 10 1 15 1 24 1 49 1 74 1 78 1 93 1 143 1 159 1 177 1 182 1 239 1 244 1 261 1 285 1 295 1 298 1 300 1 301 1 309 1 313 1 321 1 338 1 399 2 425 1 439 1 491 1 509 1 529 1 548 1 549 1 570 1 609 1 617 1 637 1 651 1 655 1 659 2 662 1 667 1 669 1 670 1 740 1 771 1 780 1 797 1 810 1 827 1 832 1 841 1 879 1 990 1 62 1 67 1 72 1 150 1 161 1 202 1 204 1 221 1 223 1 281 1 287 1 289 1 311 1 316 1 324 1 326 1 330 1 369 1 379 1 382 1 409 1 414 1 440 1 504 1 524 1 538 1 541 1 544 1 563 1 568 1 579 1 597 1 646 1 691 1 731 1 733 1 743 1 792 1 830 1 837 1 840 1 846 1 861 1 862 1 873 1 875 1 903 1 931 1 942 1 945 1 959 1 964 1 978 1 1004 1 1021 1 1025 1 
1 208 29 1 45 1 28 1 54 1 61 2 87 1 91 1 138 1 176 1 185 1 190 1 274 1 288 1 295 1 301 1 308 1 384 1 423 1 474 1 480 1 503 1 506 1 548 1 553 1 561 1 568 1 572 1 577 1 583 2 610 1 647 1 653 1 654 1 732 1 736 1 743 1 771 1 776 1 792 1 815 1 840 1 870 1 890 1 919 1 930 2 938 1 945 1 953 1 981 1 985 1 986 1 988 1 58 1 59 1 69 1 72 1 101 1 104 1 109 1 134 1 139 1 141 1 165 1 174 1 193 1 203 1 204 1 266 1 285 1 293 1 329 1 332 1 356 1 373 1 387 1 403 1 413 1 451 1 454 1 457 1 459 1 468 1 490 1 499 1 508 1 518 1 549 1 566 1 606 1 614 1 638 1 666 1 676 1 683 1 754 1 774 1 794 1 796 1 821 1 827 1 881 1 899 1 947 1 995 1 1009 1 1024 1 1025 1 
1 211 9 1 47 1 1 1 29 1 50 1 60 1 76 1 84 1 109 1 122 1 125 1 132 1 133 1 181 1 190 1 191 1 229 1 237 1 276 1 279 1 285 1 296 1 302 1 314 1 325 1 340 1 360 1 366 1 386 1 399 1 403 1 421 1 436 1 439 1 442 1 468 1 474 1 488 1 492 1 494 1 510 1 511 1 512 1 526 1 542 1 559 1 567 1 583 1 641 1 666 1 668 1 689 1 731 1 748 1 750 1 761 1 773 1 794 1 830 1 881 1 898 1 914 1 920 1 925 1 939 1 974 1 51 1 53 1 87 1 99 1 140 1 186 1 195 1 219 1 230 1 253 1 260 1 266 1 291 1 327 1 349 1 357 1 391 1 400 1 401 1 417 1 419 1 433 1 438 1 448 1 450 1 516 1 572 1 579 1 603 1 633 1 678 1 692 1 695 1 698 1 705 1 730 1 735 1 742 1 762 1 818 1 823 1 842 1 890 1 932 1 976 1 994 1 998 1 1001 1 1002 1 
1 205 16 1 46 1 49 1 6 1 66 1 77 1 84 1 126 1 145 1 180 1 181 1 207 1 216 1 249 1 256 1 268 1 278 1 282 1 309 1 311 1 316 1 357 1 372 2 374 1 376 1 391 1 423 1 424 1 430 1 465 1 469 1 483 1 492 1 525 1 530 1 531 1 563 1 569 1 595 1 617 1 621 1 647 1 658 2 659 1 660 1 667 1 699 1 719 1 720 1 754 1 763 1 821 1 824 1 875 1 879 1 897 1 916 1 918 1 925 1 957 1 959 1 965 1 983 1 987 1 96 1 122 1 123 1 127 1 155 1 254 1 257 1 259 1 263 1 284 1 307 1 327 1 355 1 371 1 392 1 397 1 405 1 431 1 449 1 455 1 459 1 466 1 478 1 498 1 515 1 581 1 606 1 628 1 648 1 655 1 661 1 663 1 666 1 672 1 675 1 700 1 705 1 708 1 721 1 757 1 768 1 770 1 809 1 820 1 829 1 867 1 876 1 907 1 909 1 926 1 960 1 977 1 988 1 993 1 1002 1 
1 208 15 2 43 1 4 1 24 1 42 1 49 1 52 1 58 1 61 1 77 1 121 1 188 1 192 1 207 1 212 1 213 1 214 1 235 1 242 1 257 1 258 1 259 1 275 1 284 1 298 1 332 2 342 1 358 1 377 1 381 1 384 1 404 1 415 1 423 1 489 2 507 1 522 1 528 1 540 1 550 1 558 1 570 1 577 1 595 1 596 1 599 1 612 1 624 1 627 1 712 1 764 1 778 1 789 1 799 1 806 1 834 1 838 1 844 1 847 1 879 1 881 1 897 1 929 1 946 1 949 1 966 2 54 1 57 1 122 1 123 1 125 1 126 1 148 1 150 1 159 1 178 1 191 1 206 1 221 1 239 1 276 1 314 1 316 1 323 1 327 1 331 1 334 1 341 1 353 1 360 1 372 1 401 1 410 1 413 1 437 1 464 1 472 1 491 1 494 1 497 1 527 1 544 1 555 1 572 1 575 1 581 1 601 1 631 1 660 1 662 1 701 1 718 1 795 1 820 1 883 1 898 1 899 1 905 1 956 1 959 1 1011 1 1016 1 1026 1 
1 208 11 1 21 1 28 2 36 1 51 1 27 1 45 1 56 1 94 1 109 1 119 1 131 1 142 1 143 1 160 1 168 1 174 1 186 1 188 1 195 1 196 1 199 1 245 1 251 1 274 1 290 1 299 1 310 1 314 1 329 1 333 1 407 1 408 1 424 1 438 1 451 1 465 1 474 1 475 1 483 1 493 2 494 1 496 1 512 1 530 1 532 1 536 1 560 1 608 1 630 1 633 1 670 1 680 1 712 1 725 1 749 1 801 1 812 1 813 2 817 1 832 1 833 1 840 1 859 1 874 2 875 1 896 1 900 1 927 1 957 1 958 1 960 1 965 1 974 1 984 1 997 1 78 1 85 1 116 1 118 1 129 1 159 1 182 1 194 1 229 1 232 1 253 1 257 1 270 1 316 1 319 1 332 1 335 1 341 1 346 1 367 1 372 1 378 1 389 1 489 1 498 1 504 1 551 1 564 1 652 1 671 1 672 1 683 1 693 1 700 1 718 1 752 1 780 1 819 1 843 1 952 1 980 1 990 1 1003 1 1018 1 
1 210 6 1 19 1 27 1 41 2 7 1 16 1 37 1 39 1 49 1 75 1 78 1 87 1 128 2 139 1 144 1 160 1 163 1 186 1 189 1 200 1 225 1 242 1 248 1 371 1 385 1 411 1 412 1 452 1 498 1 506 1 507 1 513 1 522 1 542 1 546 1 590 1 609 1 670 1 677 2 699 1 726 1 727 1 732 1 756 1 763 2 831 1 851 1 867 1 906 1 917 1 985 1 79 1 81 1 83 1 91 1 99 1 111 1 119 1 125 1 136 1 138 1 150 1 156 1 165 1 178 1 208 1 215 1 249 1 272 1 282 1 310 1 321 1 347 1 367 1 379 1 430 1 477 1 485 1 491 1 517 1 534 1 545 1 549 1 554 1 565 1 571 1 601 1 612 1 614 1 626 1 627 1 635 1 636 1 663 1 672 1 696 1 718 1 734 1 739 1 743 1 749 1 761 1 785 1 787 1 852 1 854 1 862 1 897 1 902 1 911 1 930 1 961 1 971 1 994 1 999 1 1002 1 1013 1 
1 208 22 1 39 1 48 1 41 1 51 1 54 1 54 1 65 2 106 1 120 1 127 1 147 2 182 1 184 1 188 1 189 1 191 1 221 1 228 1 266 1 276 1 329 1 334 1 340 1 348 1 369 1 393 1 406 1 408 1 416 1 431 1 446 1 475 1 507 1 520 1 529 1 532 1 541 1 554 1 575 1 622 1 631 1 650 2 656 1 660 1 676 1 697 1 723 1 744 1 748 1 756 1 773 1 775 1 783 1 797 1 804 1 830 1 885 1 891 1 896 1 913 2 930 1 952 2 986 1 71 1 100 1 108 1 131 1 140 1 144 1 152 1 198 1 207 1 218 1 234 1 240 1 253 1 259 1 263 1 271 1 285 1 288 1 293 1 314 1 320 1 323 1 371 1 389 1 401 1 407 1 438 1 452 1 470 1 514 1 527 1 546 1 547 1 572 1 577 1 581 1 587 1 597 1 599 1 604 1 607 1 628 1 652 1 668 1 688 1 708 1 757 1 771 1 784 1 795 1 813 1 828 1 829 1 833 1 845 1 914 1 923 1 932 1 965 1 973 1 980 1 982 1 1005 1 1008 1 1027 1 
1 212 16 1 20 1 30 1 33 1 46 1 40 1 42 1 74 1 93 1 101 1 123 1 160 1 187 1 207 1 248 1 259 1 302 1 308 1 331 1 336 2 359 1 383 1 398 1 417 1 444 1 457 1 460 1 501 1 507 1 550 1 552 1 584 2 618 1 642 2 645 1 678 1 691 1 760 1 778 1 785 1 795 1 809 1 829 1 831 1 853 1 859 1 866 1 896 2 930 1 933 1 953 1 956 1 957 1 979 1 989 2 61 1 63 1 111 1 120 1 139 1 164 1 174 1 212 1 218 1 256 1 314 1 337 1 347 1 351 1 352 1 355 1 362 1 373 1 375 1 422 1 429 1 435 1 459 1 473 1 474 1 476 1 513 1 528 1 539 1 546 1 568 1 569 1 571 1 575 1 655 1 687 1 698 1 728 1 735 1 811 1 838 1 839 1 854 1 864 1 875 1 906 1 909 1 942 1 1011 1 1013 1 1017 1 1023 1 1024 1 1026 1 
1 212 14 1 22 1 44 1 52 1 58 1 60 1 110 1 120 1 178 1 206 2 210 1 215 1 261 1 265 1 286 1 287 1 300 1 343 1 346 1 395 1 449 1 476 1 501 1 507 1 529 1 600 1 611 1 617 1 635 1 640 1 661 1 671 1 681 1 696 1 733 1 736 1 746 1 761 1 770 1 787 1 788 1 796 1 811 1 842 1 845 1 853 1 855 1 900 2 945 1 963 1 967 1 988 1 989 1 117 1 129 1 134 1 143 1 160 1 171 1 173 1 199 1 202 1 209 1 219 1 234 1 255 1 263 1 266 1 270 1 279 1 289 1 292 1 370 1 371 1 372 1 430 1 442 1 447 1 458 1 475 1 483 1 500 1 559 1 591 1 599 1 610 1 646 1 674 1 686 1 707 1 710 1 719 1 725 1 727 1 737 1 740 1 743 1 749 1 755 1 756 1 783 1 785 1 795 1 797 1 821 1 834 1 872 1 873 1 878 1 879 1 913 1 917 1 923 1 929 1 942 1 953 1 966 1 999 1 1004 1 1009 1 1018 1 1022 1 
1 212 6 1 16 1 23 2 27 1 29 1 11 1 15 1 51 1 60 1 70 1 80 1 83 1 129 1 130 1 132 1 153 1 155 1 182 1 214 1 221 1 257 1 265 1 286 1 289 1 320 1 343 1 397 1 415 1 423 1 466 1 472 1 473 2 478 1 489 1 500 2 517 1 546 1 553 1 565 1 621 1 622 1 640 1 641 1 642 1 651 1 655 1 684 1 738 1 758 1 774 1 775 1 869 1 871 1 873 1 875 1 880 1 896 1 897 1 899 1 903 1 913 1 924 1 931 1 932 1 936 1 940 1 986 1 990 1 75 1 100 1 133 1 135 1 161 1 184 1 203 1 207 1 208 1 218 1 222 1 294 1 317 1 325 1 380 1 390 1 393 1 406 1 433 1 438 1 459 1 463 1 464 1 490 1 515 1 545 1 573 1 583 1 605 1 607 1 615 1 617 1 618 1 644 1 653 1 657 1 674 1 703 1 705 1 723 1 740 1 791 1 824 1 828 1 853 1 862 1 916 1 945 1 953 1 963 1 1006 1 1007 1 1008 1 
1 209 5 1 8 1 14 1 51 1 56 1 33 1 35 1 48 1 62 1 66 1 77 1 91 1 99 1 142 1 209 1 211 1 230 1 241 1 249 1 265 2 271 1 280 1 332 1 337 1 346 1 350 1 362 1 384 1 390 1 405 1 414 1 418 1 419 1 440 1 442 1 458 1 465 1 528 1 538 1 541 1 543 1 555 1 567 1 578 1 600 1 607 1 619 1 626 1 628 1 683 1 696 1 698 1 725 1 740 1 757 1 779 1 800 1 817 2 819 1 853 1 858 1 868 1 869 2 909 1 917 1 933 1 938 1 944 1 963 1 983 2 990 1 61 1 90 1 110 1 128 1 133 1 150 1 183 1 210 1 236 1 282 1 338 1 341 1 368 1 406 1 411 1 415 1 477 1 497 1 510 1 511 1 526 1 550 1 554 1 564 1 577 1 587 1 599 1 601 1 606 1 625 1 669 1 687 1 714 1 716 1 732 1 744 1 749 1 753 1 781 1 813 1 846 1 856 1 921 1 926 1 987 1 996 1 1007 1 
1 210 11 1 20 1 25 1 35 1 38 1 41 2 48 1 67 1 73 2 97 1 102 1 127 1 130 1 132 1 141 1 153 1 168 1 182 1 185 1 259 1 261 1 297 1 325 1 333 1 369 1 384 1 390 1 402 2 408 1 443 1 497 1 498 2 521 1 530 1 618 1 638 1 647 1 666 1 674 1 679 1 681 1 683 1 688 1 702 1 724 1 780 1 817 1 869 1 873 1 881 1 882 1 893 1 895 1 900 1 910 1 913 1 926 1 961 1 975 1 72 1 80 1 121 1 122 1 135 1 147 1 163 1 178 1 194 1 234 1 255 1 287 1 305 1 307 1 309 1 336 1 355 1 362 1 374 1 397 1 416 1 456 1 489 1 514 1 523 1 533 1 551 1 639 1 685 1 694 1 838 1 846 1 856 1 877 1 883 1 886 1 917 1 922 1 945 1 960 1 996 1 1017 1 1023 1 
1 209 1 1 15 1 25 1 49 1 56 1 57 1 7 1 21 1 29 1 104 1 110 1 118 1 169 1 174 1 187 1 190 1 199 1 208 1 243 1 246 1 248 1 261 1 269 1 319 1 359 1 383 1 406 1 409 1 415 1 423 1 437 1 452 1 492 1 506 1 521 1 533 1 565 2 580 1 588 1 592 1 611 1 617 1 645 2 652 1 701 1 702 1 706 1 710 1 711 1 750 1 825 1 842 2 852 1 872 1 876 1 908 1 918 1 919 1 930 1 934 1 945 1 948 2 956 1 973 1 976 1 64 1 65 1 68 1 75 1 92 1 105 1 107 1 108 1 116 1 140 1 144 1 165 1 209 1 294 1 315 1 328 1 351 1 353 1 362 1 377 1 388 1 421 1 457 1 493 1 539 1 556 1 578 1 581 1 587 1 591 1 633 1 662 1 672 1 685 1 708 1 712 1 720 1 731 1 755 1 792 1 795 1 826 1 874 1 878 1 910 1 912 1 914 1 916 1 944 1 951 1 972 1 1005 1 1011 1 1015 1 
1 202 13 1 17 1 39 1 43 1 48 2 51 1 30 1 41 1 46 1 55 1 58 1 64 1 92 1 136 1 151 1 161 1 163 1 168 1 169 2 170 1 219 1 225 1 228 1 239 1 244 1 251 1 253 1 255 1 263 2 294 1 317 1 320 1 321 1 323 2 325 1 343 1 378 1 387 1 464 1 472 1 503 1 504 2 512 1 525 1 561 1 569 1 596 1 603 1 615 1 636 1 638 1 640 1 687 1 695 2 720 1 729 1 752 1 758 2 779 1 794 1 799 1 813 1 823 1 827 1 832 1 894 1 904 1 917 1 931 1 937 1 970 1 973 1 996 1 69 1 93 1 94 1 117 1 121 1 145 1 173 1 181 1 200 1 209 1 212 1 222 1 224 1 230 1 313 1 369 1 400 1 401 1 405 1 452 1 469 1 483 1 495 1 499 1 555 1 608 1 644 1 647 1 658 1 709 1 710 1 764 1 838 1 858 1 862 1 876 1 883 1 933 1 935 1 939 1 950 1 957 1 966 1 981 1 1003 1 
1 212 2 1 6 1 27 1 46 1 58 1 34 1 47 1 69 1 78 1 110 1 134 1 143 1 193 1 194 1 196 1 198 1 202 1 210 1 217 1 222 1 224 1 228 2 229 1 236 1 254 1 299 1 303 1 371 1 384 1 392 1 415 1 445 1 470 2 522 1 523 1 538 1 556 1 600 1 610 1 634 1 646 1 666 1 682 1 687 1 701 1 703 2 710 1 756 1 770 1 786 2 941 1 960 1 961 1 971 1 985 1 987 1 77 1 80 1 149 1 162 1 170 1 179 1 235 1 251 1 275 1 282 1 283 1 292 1 315 1 321 1 343 1 346 1 350 1 358 1 407 1 411 1 427 1 433 1 437 1 457 1 463 1 473 1 474 1 478 1 503 1 517 1 531 1 550 1 567 1 621 1 635 1 665 1 706 1 732 1 736 1 752 1 760 1 762 1 765 1 772 1 812 1 863 1 871 1 878 1 886 1 907 1 908 1 920 1 930 1 934 1 937 1 939 1 950 1 1001 1 1003 1 1010 1 1012 1 1013 1 
1 206 7 1 21 1 29 1 32 1 35 1 46 1 26 1 44 1 55 1 68 1 112 1 117 1 127 1 220 1 231 1 232 1 235 1 248 1 334 1 351 1 356 1 382 1 397 1 399 1 417 1 453 1 491 1 505 1 531 1 541 1 543 1 571 1 585 1 604 1 605 1 619 1 644 1 673 1 712 1 714 1 741 1 757 1 787 1 792 1 810 1 858 1 896 1 914 1 941 1 950 1 972 1 81 1 98 1 101 1 126 1 136 1 141 1 147 1 153 1 158 1 161 1 166 1 179 1 182 1 190 1 218 1 249 1 258 1 266 1 310 1 333 1 386 1 401 1 439 1 458 1 473 1 484 1 493 1 529 1 532 1 554 1 559 1 603 1 618 1 624 1 626 1 668 1 682 1 692 1 697 1 708 1 717 1 728 1 730 1 752 1 793 1 840 1 844 1 851 1 852 1 855 1 862 1 898 1 906 1 925 1 947 1 951 1 952 1 982 1 993 1 1020 1 
1 207 15 1 61 1 19 1 40 1 60 1 162 1 166 1 225 1 251 2 253 1 254 1 257 1 298 1 321 1 329 1 359 1 363 1 367 2 370 1 433 1 481 1 489 2 521 1 528 1 549 1 563 1 578 1 588 1 592 2 599 1 607 1 633 1 677 1 678 1 679 1 706 1 711 1 732 1 743 1 772 1 810 1 832 1 838 1 849 1 877 1 915 1 944 1 970 1 121 1 137 1 139 1 144 1 152 1 223 1 228 1 233 1 268 1 290 1 300 1 333 1 373 1 376 1 380 1 381 1 395 1 398 1 405 1 406 1 418 1 429 1 436 1 445 1 451 1 466 1 469 1 482 1 504 1 525 1 541 1 552 1 569 1 604 1 642 1 652 1 653 1 663 1 671 1 700 1 718 1 722 1 755 1 773 1 791 1 796 1 804 1 816 1 817 1 821 1 835 1 868 1 929 1 957 1 959 1 986 1 989 1 992 1 1013 1 1017 1 1019 1 
1 211 9 1 12 1 21 1 54 2 16 1 37 1 60 1 92 2 93 1 102 1 109 1 127 1 143 1 144 1 149 1 180 1 202 1 238 1 248 2 263 2 271 1 362 1 371 1 415 1 421 1 423 1 448 1 466 2 483 1 486 1 509 1 520 1 548 1 554 1 583 1 585 1 599 1 619 1 622 1 629 2 663 1 692 1 703 1 704 1 743 1 749 1 760 1 763 1 764 1 766 1 772 1 778 1 780 1 790 1 796 1 799 1 829 1 846 1 869 1 872 1 874 1 876 1 894 1 906 1 941 1 948 1 952 1 963 1 987 1 71 1 115 1 137 1 152 1 164 1 169 1 175 1 182 1 215 1 217 1 224 1 249 1 256 1 272 1 294 1 295 1 320 1 347 1 361 1 369 1 392 1 399 1 401 1 412 1 430 1 451 1 458 1 507 1 510 1 534 1 542 1 573 1 584 1 601 1 602 1 604 1 608 1 617 1 666 1 697 1 722 1 747 1 771 1 777 1 783 1 793 1 794 1 805 1 809 1 838 1 844 1 868 1 886 1 911 1 927 1 957 1 1007 1 1010 1 1027 1 
1 210 5 1 20 1 22 1 24 1 50 1 58 1 21 1 23 1 28 1 71 1 81 1 84 1 126 1 127 1 179 1 184 1 218 1 240 1 250 1 256 1 276 1 278 1 326 1 333 1 347 1 361 1 381 1 382 1 384 1 385 1 411 1 422 1 435 1 439 1 444 1 492 1 497 1 500 1 502 1 506 1 509 1 518 1 540 1 561 1 597 1 612 1 618 2 626 1 650 1 652 1 698 2 736 1 749 1 756 1 793 2 823 1 825 1 857 1 861 1 924 1 927 1 938 1 985 1 990 1 69 1 73 1 87 1 95 1 99 1 100 1 109 1 114 1 118 1 120 1 138 1 146 1 191 1 212 1 257 1 299 1 302 1 345 1 367 1 393 1 394 1 403 1 464 1 478 1 479 1 486 1 495 1 499 1 503 1 504 1 513 1 526 1 527 1 558 1 577 1 582 1 589 1 624 1 644 1 699 1 710 1 712 1 747 1 748 1 782 1 799 1 805 1 831 1 833 1 860 1 902 1 903 1 909 1 934 1 961 1 977 1 1010 1 1015 1 1016 1 1024 1 1026 1 
1 212 6 1 19 1 59 1 7 1 28 1 47 1 81 1 94 1 105 1 114 1 128 1 152 1 156 1 163 1 180 1 201 1 240 1 250 1 274 1 279 1 284 1 299 1 314 1 317 1 346 1 352 1 355 1 363 1 369 1 370 1 386 1 387 1 414 1 416 1 420 1 427 1 432 1 448 1 450 1 479 1 508 1 528 1 533 1 545 1 546 1 551 1 556 1 563 1 587 1 592 1 597 1 605 1 620 1 633 1 642 1 643 1 687 1 699 1 715 1 716 1 724 1 731 1 733 1 748 1 749 1 753 1 786 1 801 1 816 1 842 2 870 1 875 1 895 1 906 1 934 1 937 1 944 1 948 1 967 1 985 1 999 1 92 1 136 1 141 1 165 1 196 1 269 1 294 1 315 1 318 1 327 1 331 1 404 1 422 1 436 1 447 1 449 1 475 1 476 1 539 1 540 1 555 1 607 1 613 1 614 1 629 1 679 1 681 1 714 1 764 1 768 1 773 1 779 1 796 1 872 1 879 1 889 1 904 1 910 1 942 1 989 1 1000 1 1005 1 1009 1 
1 208 29 1 30 1 32 1 63 1 7 1 14 1 16 1 20 1 28 1 39 1 60 1 77 1 137 1 139 1 197 1 199 1 220 1 225 1 226 1 273 1 275 1 284 1 320 1 342 1 367 1 421 1 435 1 436 1 438 1 444 1 458 1 475 1 535 1 560 1 564 1 581 2 582 1 583 1 585 1 614 1 630 1 639 1 647 1 656 1 662 1 677 1 713 1 795 1 816 1 856 1 857 1 866 1 893 1 939 1 947 2 977 1 74 1 141 1 145 1 150 1 154 1 168 1 211 1 228 1 248 1 257 1 280 1 283 1 297 1 330 1 338 1 362 1 375 1 392 1 400 1 409 1 427 1 443 1 454 1 489 1 504 1 509 1 543 1 561 1 567 1 578 1 598 1 607 1 654 1 657 1 669 1 703 1 750 1 755 1 757 1 775 1 776 1 783 1 814 1 838 1 851 1 863 1 912 1 921 1 924 1 935 1 944 1 996 1 1008 1 1011 1 1023 1 
1 210 18 1 62 1 12 1 48 1 61 1 66 1 103 1 118 1 119 1 126 1 135 1 138 1 164 1 191 1 198 1 208 1 215 1 227 1 237 1 259 2 309 1 320 1 342 1 369 1 381 1 391 1 410 1 422 1 427 1 445 1 462 1 496 1 503 1 527 1 529 1 541 1 545 1 549 1 551 1 572 1 580 2 588 1 605 1 607 1 611 1 625 1 639 1 642 1 667 1 685 1 688 1 689 1 708 2 736 1 739 1 756 1 765 1 778 1 779 1 790 1 792 1 827 1 850 1 931 1 933 1 954 1 997 1 88 1 97 1 141 1 158 1 200 1 209 1 286 1 315 1 346 1 353 1 396 1 397 1 402 1 404 1 429 1 483 1 515 1 517 1 536 1 547 1 575 1 603 1 612 1 618 1 630 1 666 1 669 1 672 1 701 1 706 1 712 1 760 1 767 1 782 1 804 1 819 1 855 1 856 1 887 1 889 1 938 1 943 1 947 1 959 1 974 1 1000 1 1002 1 1010 1 
1 216 30 1 42 1 57 1 21 1 29 1 77 1 81 1 84 2 101 1 102 1 111 1 123 1 129 1 141 1 145 1 174 1 203 1 221 1 231 2 258 1 281 1 292 1 299 1 334 1 345 1 386 2 389 1 397 1 400 1 419 1 423 1 426 2 430 1 460 1 468 1 472 1 517 1 543 1 560 1 564 1 621 1 626 2 646 1 653 1 658 1 670 1 696 1 726 1 738 1 743 1 751 1 760 1 812 1 818 1 821 1 894 1 929 1 932 1 942 1 944 1 975 2 992 1 72 1 85 1 88 1 93 1 96 1 103 1 119 1 120 1 165 1 216 1 226 1 230 1 255 1 256 1 286 1 312 1 316 1 323 1 375 1 382 1 406 1 455 1 465 1 470 1 499 1 512 1 523 1 528 1 539 1 565 1 566 1 603 1 604 1 612 1 615 1 712 1 724 1 731 1 734 1 741 1 770 1 782 1 787 1 792 1 823 1 825 1 831 1 865 1 871 1 873 1 892 1 904 1 906 1 918 1 936 1 960 1 968 1 969 1 1003 1 1005 1 1011 1 1014 1 1019 1 1021 1 1023 1 
1 211 14 1 29 2 30 1 42 1 66 1 9 1 13 1 27 1 54 1 65 1 124 1 157 2 159 1 168 1 194 1 214 1 243 1 248 1 262 1 269 1 286 1 299 1 324 1 334 1 362 1 396 2 438 1 439 1 443 1 532 1 537 1 543 1 578 1 596 1 606 1 612 1 613 1 632 1 635 1 642 1 655 1 675 1 679 1 699 1 721 2 725 1 735 1 741 1 766 1 800 1 805 1 819 1 826 1 840 1 848 1 872 1 918 1 938 1 939 1 956 1 984 1 989 1 998 1 78 1 114 1 237 1 263 1 315 1 352 1 356 1 364 1 387 1 392 1 397 1 402 1 429 1 432 1 442 1 445 1 450 1 482 1 488 1 493 1 501 1 508 1 510 1 557 1 560 1 573 1 592 1 617 1 662 1 680 1 690 1 712 1 726 1 728 1 740 1 744 1 769 1 782 1 811 1 827 1 841 1 853 1 869 1 916 1 981 1 982 1 993 1 1000 1 1011 1 
1 214 2 1 16 1 29 1 32 2 43 1 45 1 26 1 47 1 48 1 59 1 70 1 127 1 137 1 161 1 176 1 188 1 193 1 198 1 201 1 221 1 233 1 242 1 246 1 256 1 296 2 333 1 334 1 359 1 394 1 427 1 434 1 440 1 448 1 463 1 491 1 521 1 526 1 593 1 617 1 671 1 679 1 707 1 784 1 791 1 806 1 813 1 817 2 825 1 840 1 843 1 858 1 864 1 878 1 892 1 901 1 925 1 927 1 941 1 946 1 955 1 987 1 80 1 89 1 111 1 113 1 132 1 142 1 143 1 164 1 179 1 210 1 228 1 239 1 291 1 293 1 321 1 323 1 340 1 358 1 382 1 399 1 450 1 470 1 476 1 478 1 501 1 547 1 548 1 556 1 563 1 574 1 581 1 583 1 614 1 639 1 642 1 687 1 702 1 703 1 715 1 717 1 746 1 754 1 778 1 842 1 921 1 926 1 953 1 990 1 993 1 1008 1 1017 1 1026 1 
1 211 1 1 14 1 21 1 30 1 32 1 59 2 26 1 29 1 66 1 78 1 90 1 114 1 117 1 166 1 176 2 189 1 208 1 226 1 241 1 263 1 278 1 292 1 320 1 339 1 354 1 361 1 372 1 382 1 401 1 459 1 461 1 473 2 475 1 477 2 481 1 496 1 564 1 569 1 583 1 636 1 650 1 706 1 726 1 767 2 769 1 790 1 794 1 828 1 864 2 868 1 878 1 879 1 924 1 940 1 956 1 960 1 965 1 969 1 971 1 979 1 981 1 987 1 74 1 79 1 97 1 112 1 115 1 121 1 137 1 149 1 151 1 155 1 201 1 222 1 258 1 297 1 304 1 327 1 331 1 332 1 343 1 346 1 357 1 420 1 421 1 425 1 443 1 490 1 492 1 554 1 571 1 593 1 595 1 610 1 654 1 660 1 700 1 702 1 711 1 715 1 738 1 744 1 777 1 787 1 799 1 821 1 836 1 852 1 874 1 876 1 915 1 917 1 926 1 933 1 949 1 991 1 1007 1 1015 1 
1 212 1 1 6 1 29 2 47 1 55 1 46 1 68 1 73 1 131 1 148 1 151 1 168 2 191 1 232 1 243 1 279 1 309 1 322 1 334 1 390 1 401 1 415 1 416 1 425 2 443 1 488 1 538 2 566 1 580 1 581 1 611 2 632 1 661 2 665 1 667 1 761 2 791 1 804 1 830 1 859 1 875 1 885 1 888 1 932 1 943 1 947 1 989 1 994 1 104 1 108 1 119 1 141 1 156 1 206 1 223 1 263 1 271 1 284 1 294 1 303 1 306 1 331 1 342 1 351 1 359 1 370 1 398 1 399 1 414 1 433 1 499 1 537 1 539 1 540 1 604 1 631 1 644 1 664 1 670 1 681 1 686 1 698 1 708 1 718 1 736 1 741 1 788 1 800 1 808 1 836 1 843 1 857 1 864 1 900 1 913 1 923 1 930 1 944 1 955 1 978 1 982 1 990 1 1004 1 1008 1 1019 1 1022 1 1023 1 1025 1 
1 208 53 1 8 1 36 1 41 1 57 1 60 1 124 1 139 1 155 1 162 1 190 1 191 1 228 1 259 1 276 1 356 2 370 1 492 1 503 1 507 1 518 1 527 1 529 1 539 1 586 1 608 1 618 1 621 1 633 1 651 1 654 1 675 1 685 2 698 1 712 1 733 1 735 1 757 1 779 1 794 1 821 1 845 1 873 1 891 1 895 1 907 2 952 1 957 1 979 1 77 1 93 1 94 1 98 1 135 1 145 1 153 1 161 1 169 1 233 1 237 1 264 1 268 1 343 1 374 1 387 1 427 1 459 1 462 1 501 1 502 1 524 1 578 1 583 1 587 1 589 1 592 1 597 1 616 1 655 1 656 1 663 1 678 1 702 1 714 1 723 1 737 1 738 1 748 1 758 1 759 1 762 1 763 1 767 1 786 1 799 1 804 1 808 1 825 1 830 1 838 1 843 1 857 1 904 1 955 1 959 1 969 1 970 1 981 1 983 1 988 1 998 1 1026 1 
1 211 3 1 11 1 37 1 41 1 49 1 33 1 79 1 80 1 81 2 85 1 92 1 95 1 104 1 138 1 144 1 157 1 222 1 342 1 355 1 383 1 404 1 405 1 448 1 478 1 486 1 496 1 500 1 516 1 525 1 527 1 559 1 571 1 598 1 615 1 622 1 623 1 624 1 629 1 649 1 662 1 664 1 697 1 739 1 747 1 803 2 831 1 861 1 877 1 894 1 900 1 902 1 935 2 941 1 944 1 947 1 995 1 126 1 127 1 130 1 141 1 154 1 158 1 169 1 185 1 200 1 220 1 228 1 230 1 248 1 249 1 278 1 282 1 307 1 357 1 382 1 384 1 399 1 417 1 433 1 443 1 444 1 445 1 479 1 505 1 522 1 534 1 549 1 560 1 566 1 573 1 575 1 605 1 612 1 633 1 638 1 647 1 681 1 688 1 716 1 724 1 754 1 824 1 828 1 839 1 848 1 849 1 899 1 913 1 915 1 916 1 919 1 970 1 989 1 1009 1 1016 1 1017 1 
1 209 50 1 51 1 58 1 68 1 70 1 9 1 20 1 62 1 75 1 88 1 117 2 131 1 168 1 172 1 176 1 220 1 248 1 269 1 338 1 340 1 364 1 385 1 399 1 403 2 407 1 429 1 436 1 446 1 449 1 455 1 456 2 460 1 470 1 479 1 496 1 508 2 523 1 580 1 588 1 597 1 655 1 668 1 673 1 681 1 704 1 712 1 732 1 752 1 755 1 791 1 800 2 819 1 824 1 859 1 872 1 877 1 881 1 900 1 904 1 918 2 943 1 952 2 975 1 976 2 101 1 122 1 153 1 160 1 171 1 184 1 197 1 209 1 283 1 286 1 292 1 294 1 319 1 321 1 346 1 357 1 376 1 397 1 417 1 432 1 444 1 445 1 458 1 462 1 468 1 510 1 592 1 602 1 615 1 621 1 639 1 644 1 660 1 669 1 675 1 714 1 724 1 750 1 827 1 874 1 882 1 898 1 944 1 953 1 967 1 971 1 1011 1 1017 1 1024 1 
1 210 15 1 30 1 35 1 36 1 47 1 53 1 62 1 73 1 27 1 34 1 39 1 52 1 71 1 111 1 112 1 113 1 119 1 127 1 149 1 166 1 198 2 226 1 245 1 263 1 277 1 280 1 291 1 294 1 303 1 344 1 345 1 355 1 367 1 370 1 389 1 417 1 447 1 467 1 478 1 485 1 498 2 499 1 526 1 562 1 580 1 588 1 637 1 647 1 652 1 670 1 675 1 685 1 691 1 705 1 711 1 719 1 747 1 764 1 781 1 788 2 830 1 853 1 858 1 870 1 877 1 898 1 903 1 932 1 965 1 971 1 974 1 977 1 106 1 115 1 125 1 126 1 171 1 175 1 186 1 192 1 193 1 247 1 254 1 258 1 268 1 283 1 285 1 287 1 310 1 317 1 322 1 323 1 343 1 372 1 376 1 394 1 414 1 431 1 444 1 473 1 522 1 528 1 572 1 581 1 609 1 643 1 649 1 694 1 700 1 745 1 770 1 778 1 795 1 809 1 822 1 839 1 849 1 876 1 900 1 918 1 948 1 949 1 959 1 976 1 987 1 1011 1 1013 1 1017 1 1019 1 
1 210 13 1 18 1 25 1 76 1 2 1 36 1 53 1 73 1 86 1 95 1 112 1 132 2 133 1 155 1 156 1 163 1 170 1 174 1 256 1 322 1 329 1 339 1 341 1 377 1 414 1 478 1 497 1 547 1 555 1 599 1 612 1 621 1 650 1 691 1 694 1 707 1 751 1 754 1 758 1 763 1 766 1 773 1 774 1 801 1 837 1 842 1 850 1 868 1 882 1 886 1 927 2 984 1 998 1 144 1 161 1 166 1 167 1 171 1 180 1 224 1 226 1 247 1 249 1 251 1 299 1 305 1 333 1 336 1 338 1 401 1 409 1 425 1 426 1 452 1 521 1 531 1 570 1 584 1 585 1 592 1 593 1 604 1 625 1 689 1 712 1 714 1 722 1 733 1 747 1 761 1 779 1 797 1 807 1 808 1 813 1 826 1 870 1 921 1 933 1 947 1 950 1 963 1 971 1 996 1 1006 1 1009 1 1018 1 1020 1 1022 1 
1 204 15 1 57 1 76 1 10 1 12 1 16 1 59 1 62 1 72 1 111 1 152 1 176 1 178 1 180 1 187 1 200 1 207 1 210 1 230 2 235 1 244 1 264 1 269 1 279 1 284 1 295 1 301 1 310 1 318 1 346 1 361 1 380 1 412 1 430 1 445 1 460 1 485 1 516 1 621 1 626 1 659 1 663 1 669 1 681 1 682 2 684 1 691 1 696 2 704 1 709 1 742 1 746 1 800 1 815 1 831 2 839 2 876 1 908 1 922 1 932 1 937 2 940 1 970 1 979 1 88 1 150 1 153 1 229 1 238 1 251 1 260 1 265 1 278 1 285 1 306 1 334 1 338 1 356 1 377 1 385 1 388 1 411 1 418 1 427 1 448 1 464 1 475 1 510 1 512 1 531 1 547 1 557 1 579 1 587 1 589 1 611 1 615 1 616 1 676 1 680 1 685 1 686 1 749 1 751 1 759 1 776 1 782 1 816 1 820 1 865 1 905 1 942 1 944 1 958 1 963 1 976 1 986 1 1002 1 1013 1 
1 209 17 1 37 2 46 1 66 1 67 1 70 1 76 2 19 1 29 1 53 1 63 1 104 1 113 1 147 1 167 1 177 1 190 1 222 1 263 1 265 1 268 1 272 1 282 1 301 1 303 1 311 1 338 1 345 1 354 1 398 1 483 1 519 1 522 1 527 1 544 1 548 1 550 1 554 1 580 1 620 1 625 1 630 1 638 1 643 1 646 1 650 1 694 1 697 1 706 1 726 1 753 1 761 1 764 2 772 1 778 1 797 1 813 1 830 1 866 2 891 1 894 1 896 1 898 1 902 1 914 1 943 2 84 1 89 1 110 1 117 1 122 1 123 1 132 1 164 1 181 1 185 1 199 1 206 1 210 1 236 1 245 1 323 1 376 1 409 1 420 1 425 1 435 1 450 1 484 1 485 1 503 1 546 1 562 1 568 1 578 1 589 1 607 1 656 1 666 1 681 1 692 1 719 1 736 1 749 1 755 1 758 1 792 1 800 1 824 1 834 1 844 1 851 1 859 1 863 1 919 1 952 1 990 1 1006 1 1009 1 
1 209 19 1 29 1 43 1 46 1 82 1 82 1 95 1 113 2 116 1 142 1 146 1 150 1 169 1 181 1 227 2 246 1 249 1 272 1 276 1 285 1 290 1 291 1 343 2 374 1 380 2 391 1 394 1 395 1 425 1 427 1 448 1 483 2 484 1 493 1 517 1 547 1 629 1 650 1 708 2 737 1 738 1 761 1 767 1 773 1 778 1 804 1 830 1 846 1 853 1 854 1 865 1 927 1 939 1 952 1 958 1 184 1 188 1 207 1 235 1 242 1 261 1 277 1 284 1 310 1 341 1 393 1 432 1 437 1 438 1 450 1 453 1 456 1 467 1 500 1 502 1 504 1 510 1 544 1 552 1 601 1 608 1 611 1 637 1 662 1 666 1 685 1 713 1 740 1 755 1 765 1 803 1 808 1 825 1 834 1 842 1 843 1 848 1 872 1 877 1 892 1 931 1 959 1 967 1 1000 1 1026 1 
1 210 4 1 11 1 37 2 57 1 32 1 35 1 53 1 87 1 109 1 113 1 143 1 154 1 159 1 206 1 218 1 235 1 289 1 308 1 317 1 318 1 337 1 350 1 352 1 403 1 415 1 420 1 429 1 436 1 471 1 473 1 497 1 542 1 557 1 563 1 565 1 566 1 602 1 640 1 642 1 648 1 650 1 652 1 655 1 676 1 680 1 682 1 702 1 714 1 723 1 725 1 734 1 736 2 741 1 743 1 746 1 750 1 770 1 777 1 794 1 805 1 818 1 822 1 854 1 863 1 908 1 910 1 918 1 931 1 991 1 995 1 108 1 148 1 190 1 215 1 219 1 227 1 246 1 251 1 283 1 312 1 373 1 384 1 389 1 440 1 445 1 474 1 517 1 520 1 530 1 532 1 546 1 569 1 576 1 594 1 625 1 634 1 637 1 686 1 711 1 731 1 756 1 760 1 796 1 809 1 834 1 850 1 869 1 873 1 909 1 923 1 935 1 942 1 944 1 951 1 994 1 1000 1 1005 1 1007 1 1012 1 
1 203 3 1 8 1 24 1 31 1 35 1 49 1 50 1 66 1 70 2 7 1 10 1 23 1 40 1 43 1 81 1 100 1 105 2 131 1 158 1 192 1 209 1 230 1 234 1 262 1 285 1 291 1 308 1 312 1 345 2 348 1 373 1 382 1 424 1 439 2 448 1 457 1 461 1 486 1 500 1 547 1 556 1 558 1 588 1 602 1 606 1 607 1 623 1 624 1 643 1 664 1 672 1 677 1 683 1 690 1 731 1 733 1 771 1 773 1 786 1 805 1 812 1 819 1 859 1 860 1 862 1 885 1 891 1 892 1 894 1 962 1 984 1 87 1 112 1 145 1 154 1 163 1 164 1 179 1 190 1 197 1 207 1 254 1 257 1 278 1 282 1 297 1 306 1 309 1 311 1 363 1 386 1 387 1 432 1 475 1 481 1 532 1 553 1 608 1 611 1 626 1 628 1 634 1 640 1 644 1 649 1 652 1 711 1 756 1 769 1 778 1 779 1 782 1 785 1 851 1 864 1 872 1 899 1 933 1 946 1 960 1 963 1 974 1 988 1 
1 208 18 1 42 1 45 2 76 1 16 1 52 1 70 1 121 2 139 1 161 1 187 2 210 1 219 1 224 1 235 1 262 1 315 1 328 1 341 1 344 1 345 1 357 1 372 1 375 1 396 1 403 1 409 1 414 1 443 1 445 1 455 1 464 1 505 1 506 1 520 1 549 1 599 2 605 1 641 1 693 1 698 1 708 1 710 1 755 1 764 1 787 1 843 1 845 1 849 1 877 1 887 1 912 1 931 1 944 1 947 1 958 1 960 1 965 2 991 1 96 1 116 1 130 1 172 1 181 1 182 1 192 1 215 1 232 1 246 1 254 1 275 1 293 1 312 1 316 1 318 1 323 1 330 1 362 1 367 1 368 1 449 1 503 1 509 1 522 1 523 1 526 1 532 1 544 1 546 1 588 1 591 1 593 1 625 1 644 1 675 1 696 1 769 1 772 1 782 1 828 1 840 1 875 1 876 1 881 1 889 1 899 1 907 1 925 1 1018 1 1021 1 1023 1 1025 1 
1 214 16 1 79 1 89 1 99 1 113 1 120 1 132 1 135 1 186 1 217 2 247 1 252 1 276 1 310 1 314 1 316 1 335 1 351 1 386 1 388 1 395 1 398 1 401 1 436 1 439 2 452 1 456 1 460 1 464 1 483 1 493 1 495 1 527 1 530 1 556 1 576 1 586 1 591 1 595 1 625 1 629 1 640 1 643 1 650 1 659 2 678 1 680 1 688 1 740 1 772 1 776 1 777 1 795 1 831 2 833 1 859 1 865 1 885 1 907 1 924 1 981 2 93 1 119 1 133 1 136 1 149 1 157 1 172 1 193 1 199 1 204 1 220 1 239 1 250 1 266 1 271 1 281 1 290 1 293 1 296 1 302 1 308 1 326 1 426 1 430 1 433 1 458 1 465 1 486 1 498 1 507 1 519 1 526 1 559 1 564 1 566 1 592 1 634 1 647 1 658 1 677 1 704 1 709 1 733 1 734 1 794 1 830 1 892 1 893 1 918 1 926 1 951 1 1005 1 1007 1 1016 1 1017 1 1019 1 1023 1 
1 208 9 1 33 1 38 1 48 1 53 1 83 1 8 1 49 1 66 1 84 1 91 2 154 1 162 1 182 1 233 1 268 1 291 1 296 1 329 1 335 1 345 1 361 1 373 1 378 1 383 1 397 1 434 1 453 1 497 1 499 1 507 1 510 1 549 1 555 1 560 1 567 1 568 1 603 1 628 1 630 1 632 1 665 1 687 1 695 1 745 2 754 1 766 1 780 1 792 1 798 1 801 1 815 1 818 1 842 1 845 1 847 1 866 1 890 1 892 1 897 1 910 1 950 1 963 2 971 1 979 1 980 1 984 1 992 1 89 1 90 1 96 1 110 1 135 1 140 1 144 1 147 1 151 1 170 1 179 1 239 1 275 1 279 1 281 1 316 1 317 1 324 1 350 1 358 1 380 1 392 1 404 1 430 1 441 1 444 1 468 1 483 1 572 1 583 1 590 1 617 1 639 1 662 1 681 1 722 1 723 1 727 1 730 1 733 1 793 1 821 1 827 1 840 1 850 1 859 1 862 1 872 1 896 1 900 1 927 1 936 1 957 1 973 1 1011 1 1012 1 
1 212 77 1 11 1 17 1 21 1 69 1 70 1 80 1 103 1 105 1 109 1 127 1 136 1 147 1 148 1 150 1 164 1 172 1 191 1 203 1 210 1 245 2 282 1 328 2 330 1 337 2 343 1 372 1 386 1 392 1 395 1 402 1 417 1 426 1 430 1 504 2 508 1 518 1 541 1 542 1 543 1 548 1 559 1 585 1 617 2 619 1 632 1 721 1 736 1 770 1 779 1 789 2 793 1 804 1 810 1 849 1 864 1 865 1 886 1 904 1 908 2 945 1 946 1 967 1 977 1 986 1 988 1 991 1 99 1 125 1 161 1 165 1 176 1 180 1 199 1 205 1 238 1 241 1 267 1 268 1 295 1 297 1 324 1 329 1 357 1 369 1 377 1 419 1 431 1 433 1 435 1 480 1 496 1 522 1 534 1 590 1 606 1 627 1 657 1 682 1 696 1 711 1 730 1 743 1 744 1 761 1 816 1 821 1 870 1 872 1 882 1 911 1 955 1 973 1 978 1 995 1 1015 1 1025 1 
1 213 26 1 39 1 86 1 1 1 11 1 18 1 46 1 72 1 81 1 87 1 124 1 139 1 157 1 166 1 171 1 188 1 210 1 222 1 259 1 271 2 320 1 324 1 343 1 347 1 354 1 357 1 370 1 389 1 395 1 443 1 455 1 476 1 488 1 541 1 555 1 588 1 608 1 616 2 660 1 661 1 727 1 755 1 766 1 814 1 847 1 857 1 876 1 889 1 941 1 946 1 962 1 982 1 994 1 995 1 120 1 155 1 161 1 201 1 208 1 216 1 217 1 229 1 232 1 244 1 248 1 290 1 301 1 322 1 349 1 359 1 364 1 406 1 428 1 466 1 477 1 489 1 499 1 513 1 515 1 524 1 539 1 546 1 548 1 579 1 583 1 586 1 591 1 610 1 615 1 628 1 669 1 672 1 675 1 686 1 694 1 702 1 713 1 721 1 732 1 831 1 867 1 874 1 897 1 914 1 926 1 947 1 988 1 992 1 1002 1 1005 1 1009 1 1016 1 1021 1 
1 210 17 1 27 1 32 1 36 1 73 1 4 1 58 1 87 1 101 1 113 1 128 1 147 1 195 1 202 1 216 1 279 1 305 1 368 1 386 1 390 1 392 1 408 1 411 1 418 1 449 1 452 1 481 1 496 1 497 1 575 1 580 2 608 1 617 1 618 1 633 1 645 1 669 2 679 1 692 1 758 1 780 1 796 1 816 1 827 1 846 1 858 1 905 1 969 1 988 1 991 1 993 1 105 1 133 1 164 1 186 1 238 1 256 1 261 1 263 1 264 1 276 1 325 1 332 1 350 1 353 1 354 1 356 1 357 1 364 1 369 1 417 1 424 1 479 1 512 1 520 1 554 1 598 1 631 1 661 1 672 1 681 1 684 1 685 1 694 1 695 1 703 1 718 1 750 1 761 1 779 1 792 1 805 1 815 1 835 1 850 1 856 1 859 1 877 1 883 1 897 1 916 1 921 1 935 1 953 1 965 1 966 1 971 1 1000 1 1002 1 1006 1 1017 1 1018 1 
1 204 2 1 3 2 5 1 16 1 18 1 25 1 36 1 41 1 48 1 58 1 87 2 53 1 149 1 155 1 157 1 160 1 179 1 245 1 258 1 275 2 281 1 292 1 296 1 318 1 322 1 329 1 337 1 364 1 413 1 435 1 457 1 477 1 484 1 487 1 538 1 573 1 614 1 623 1 637 1 641 1 656 1 706 1 745 1 761 1 768 1 771 1 795 1 805 1 822 1 825 1 841 1 887 1 888 1 934 1 942 1 950 1 954 1 961 1 94 1 103 1 105 1 108 1 126 1 164 1 203 1 226 1 246 1 264 1 268 1 279 1 284 1 308 1 317 1 319 1 332 1 360 1 375 1 377 1 410 1 428 1 459 1 469 1 492 1 514 1 559 1 584 1 587 1 620 1 627 1 650 1 654 1 668 1 676 1 711 1 717 1 731 1 748 1 756 1 782 1 823 1 846 1 863 1 892 1 982 1 995 1 1003 1 
1 209 5 1 9 1 11 1 34 1 37 1 61 1 65 2 76 1 18 1 21 1 33 1 38 1 43 1 44 1 60 1 67 1 92 1 92 1 96 1 103 1 125 1 139 1 149 1 150 1 175 1 179 1 189 1 199 1 229 1 233 1 264 1 286 1 294 1 317 1 348 1 392 1 412 1 414 1 422 1 445 1 466 1 479 1 486 1 505 1 514 1 521 1 522 1 528 1 535 1 536 1 551 1 566 1 574 2 587 1 590 1 611 1 634 1 647 1 662 1 687 1 692 1 705 1 718 1 728 1 730 1 752 1 761 1 766 1 777 1 782 1 793 1 813 1 827 1 841 1 876 1 877 1 880 2 893 1 915 1 967 1 968 1 98 1 148 1 157 1 180 1 251 1 256 1 307 1 345 1 347 1 364 1 372 1 390 1 394 1 454 1 471 1 477 1 482 1 507 1 519 1 529 1 553 1 558 1 576 1 610 1 618 1 702 1 720 1 754 1 771 1 781 1 787 1 800 1 837 1 844 1 892 1 917 1 919 1 935 1 951 1 952 1 954 1 958 1 962 1 963 1 1002 1 1007 1 1010 1 1013 1 1027 1 
1 212 2 1 14 1 39 1 47 1 55 1 65 1 61 1 70 1 75 1 86 1 117 1 140 1 142 1 157 1 163 1 197 1 207 1 219 1 220 1 281 1 319 1 349 1 376 1 413 1 444 1 452 1 464 1 475 2 481 1 487 1 514 1 515 1 528 1 571 1 581 1 609 1 627 1 637 1 639 1 690 1 710 1 719 1 743 1 756 1 764 1 783 1 827 1 842 1 849 1 907 1 915 1 933 1 964 1 973 1 987 1 994 1 998 1 103 1 105 1 144 1 159 1 167 1 170 1 179 1 183 1 188 1 212 1 215 1 226 1 263 1 366 1 378 1 382 1 416 1 418 1 419 1 422 1 427 1 434 1 449 1 453 1 469 1 523 1 543 1 561 1 575 1 583 1 606 1 617 1 620 1 623 1 642 1 649 1 654 1 658 1 689 1 704 1 722 1 737 1 794 1 813 1 820 1 841 1 851 1 866 1 892 1 897 1 914 1 919 1 926 1 930 1 931 1 946 1 978 1 985 1 1000 1 1001 1 1004 1 1008 1 1009 1 1022 1 1023 1 
1 215 7 1 8 1 52 1 67 1 34 1 61 1 75 1 91 1 105 1 116 1 126 1 136 1 202 1 208 1 217 1 225 2 227 1 228 1 237 1 266 1 315 1 317 1 325 1 348 1 350 1 375 1 376 1 400 1 402 1 416 1 422 1 431 1 435 1 442 1 443 1 450 1 453 2 464 1 468 1 483 1 501 1 517 1 535 1 569 1 573 1 585 2 625 1 643 1 690 1 708 1 728 1 733 1 745 1 751 1 764 1 765 1 779 1 802 1 822 1 837 1 894 1 897 2 903 1 909 1 923 1 928 1 930 1 931 1 939 1 943 1 947 1 963 1 974 1 982 1 984 2 987 1 997 1 109 1 184 1 223 1 235 1 248 1 251 1 290 1 306 1 343 1 362 1 378 1 385 1 394 1 421 1 430 1 438 1 492 1 521 1 527 1 553 1 556 1 571 1 572 1 586 1 637 1 644 1 648 1 673 1 679 1 700 1 716 1 720 1 737 1 739 1 748 1 780 1 789 1 798 1 847 1 884 1 889 1 914 1 927 1 1000 1 1003 1 1008 1 
1 212 1 1 18 1 41 1 44 1 76 1 79 1 82 1 66 1 117 1 153 1 167 1 185 1 200 1 213 1 233 1 239 1 243 2 275 1 284 1 289 1 309 2 318 1 353 1 357 1 382 1 407 1 408 1 418 1 424 1 425 1 438 1 448 1 491 1 499 1 509 1 560 1 609 1 660 1 668 1 733 1 759 1 765 1 771 1 793 1 798 1 812 1 829 1 840 2 846 1 872 1 878 2 904 2 908 1 924 1 928 1 97 1 148 1 158 1 159 1 177 1 203 1 242 1 263 1 265 1 278 1 341 1 343 1 370 1 409 1 410 1 417 1 434 1 478 1 487 1 562 1 576 1 582 1 604 1 634 1 635 1 642 1 643 1 646 1 673 1 687 1 696 1 704 1 711 1 730 1 736 1 762 1 774 1 777 1 822 1 855 1 867 1 888 1 920 1 947 1 960 1 999 1 1000 1 1002 1 1011 1 1018 1 
1 206 3 1 16 1 38 1 92 1 2 1 4 1 8 1 21 1 50 1 70 1 85 1 87 1 113 1 117 1 131 1 144 1 217 1 228 1 230 1 251 1 307 1 328 1 331 2 350 1 357 1 363 2 384 1 399 1 416 1 421 1 430 1 433 2 437 2 438 1 464 1 518 1 573 1 574 1 592 1 596 1 599 2 603 1 605 1 615 1 619 1 629 1 631 1 632 1 635 1 679 1 680 1 683 1 700 2 709 1 718 1 723 2 734 1 736 1 746 1 756 1 764 1 780 1 792 1 813 1 849 1 868 2 871 1 873 1 874 1 886 1 904 1 966 2 994 1 108 1 114 1 134 1 139 1 160 1 162 1 170 1 199 1 213 1 218 1 220 1 255 1 264 1 298 1 301 1 334 1 361 1 371 1 380 1 404 1 413 1 457 1 460 1 507 1 527 1 540 1 564 1 570 1 578 1 580 1 601 1 704 1 713 1 727 1 751 1 761 1 765 1 770 1 775 1 781 1 785 1 818 1 838 1 847 1 867 1 879 1 885 1 891 1 911 1 922 1 949 1 951 1 958 1 1000 1 1015 1 
1 210 38 1 41 1 59 1 1 1 5 1 45 1 69 1 73 1 95 1 112 1 125 1 126 1 163 1 175 1 177 1 193 1 201 1 207 1 233 1 238 1 273 2 278 1 282 1 313 1 324 1 325 1 343 1 356 1 370 1 400 1 405 1 408 1 428 1 431 2 484 1 489 1 510 1 572 1 578 1 580 1 584 1 604 1 616 1 632 1 655 1 695 2 704 1 713 1 748 1 800 1 830 1 851 1 866 1 896 1 898 1 920 1 957 1 984 1 985 1 101 1 143 1 144 1 182 1 187 1 212 1 249 1 254 1 269 1 270 1 287 1 304 1 312 1 314 1 342 1 351 1 368 1 398 1 416 1 430 1 435 1 494 1 503 1 528 1 538 1 542 1 552 1 554 1 605 1 607 1 614 1 619 1 686 1 708 1 716 1 746 1 860 1 872 1 880 1 893 1 903 1 905 1 910 1 917 1 930 1 947 1 972 1 974 1 977 1 980 1 1012 1 1019 1 1020 1 1022 1 
1 208 26 1 3 1 41 1 63 1 75 1 92 1 108 1 144 1 165 1 183 1 252 1 253 1 288 1 295 1 319 1 320 1 352 1 363 1 377 1 378 2 404 1 425 1 426 1 430 1 458 2 474 1 490 1 500 1 519 2 526 1 531 1 562 1 581 1 594 1 595 1 601 1 609 1 636 2 638 1 640 1 648 1 663 1 674 1 678 1 682 2 699 1 711 1 748 1 766 1 793 1 806 1 818 1 861 1 869 1 877 1 882 2 912 1 924 1 957 2 977 1 101 1 103 1 105 1 128 1 186 1 190 1 244 1 247 1 275 1 278 1 282 1 287 1 310 1 314 1 322 1 326 1 329 1 350 1 416 1 423 1 496 1 505 1 509 1 516 1 564 1 572 1 582 1 586 1 588 1 590 1 598 1 651 1 655 1 684 1 690 1 712 1 716 1 720 1 729 1 760 1 761 1 772 1 780 1 825 1 837 1 853 1 860 1 884 1 920 1 938 1 939 1 958 1 967 1 986 1 1015 1 1019 1 
1 209 10 1 11 1 58 1 86 1 32 1 49 1 53 1 66 1 88 1 106 1 126 1 127 1 128 1 145 1 147 1 172 1 173 1 176 1 179 1 210 1 218 1 254 1 255 1 260 1 261 1 271 1 273 1 289 1 300 1 318 1 325 1 339 1 343 1 349 1 356 1 359 1 363 1 377 1 385 1 406 1 439 1 457 1 461 1 495 1 501 2 556 1 571 1 577 1 581 1 590 1 593 1 597 1 598 1 600 1 616 1 656 1 681 1 697 1 706 1 713 1 732 1 733 1 760 2 776 1 780 2 787 1 817 1 838 1 843 1 941 1 947 1 951 1 960 1 100 1 104 1 117 1 119 1 135 1 142 1 154 1 163 1 178 1 185 1 192 1 194 1 234 1 239 1 247 1 302 1 303 1 324 1 357 1 387 1 392 1 394 1 397 1 398 1 410 1 414 1 423 1 463 1 467 1 480 1 502 1 526 1 533 1 535 1 564 1 566 1 583 1 603 1 605 1 633 1 648 1 658 1 664 1 665 1 710 1 717 1 718 1 807 1 844 1 854 1 858 1 861 1 894 1 907 1 915 1 918 1 931 1 959 1 963 1 983 1 1001 1 
1 208 6 1 18 1 19 1 23 1 31 1 33 1 84 1 30 1 54 1 57 1 66 1 99 1 113 1 131 1 152 1 158 1 186 1 188 1 195 1 197 1 265 1 315 1 323 1 332 1 423 1 433 1 461 1 506 1 524 1 534 1 547 1 576 1 583 2 629 1 693 2 700 1 705 1 746 1 768 1 799 1 822 1 835 2 841 1 878 1 880 2 891 1 899 1 903 1 913 1 914 1 915 1 939 1 959 1 984 1 104 1 111 1 112 1 114 1 115 1 160 1 212 1 214 1 250 1 257 1 260 1 291 1 331 1 379 1 385 1 419 1 464 1 468 1 472 1 481 1 511 1 512 1 514 1 519 1 567 1 604 1 615 1 624 1 643 1 649 1 655 1 668 1 685 1 715 1 722 1 732 1 761 1 779 1 809 1 813 1 823 1 832 1 864 1 886 1 895 1 953 1 985 1 
1 212 7 1 17 2 25 1 33 1 35 1 41 1 55 1 70 1 90 1 3 1 15 1 40 1 43 1 48 1 63 1 77 1 97 1 98 1 105 1 115 1 176 1 186 1 190 1 204 1 206 1 232 1 246 1 253 1 273 1 277 1 279 1 293 1 295 1 303 1 306 1 352 2 363 1 381 2 391 1 394 1 399 1 420 1 438 1 446 1 453 1 472 1 479 1 520 1 530 1 538 1 558 1 560 1 618 1 633 1 664 1 668 1 669 1 672 1 699 1 732 1 748 1 753 1 769 1 770 1 804 1 813 1 843 1 902 1 936 1 938 1 948 1 983 1 987 1 995 1 109 1 120 1 150 1 165 1 336 1 337 1 338 1 357 1 430 1 433 1 488 1 504 1 508 1 511 1 518 1 568 1 573 1 598 1 601 1 643 1 652 1 655 1 658 1 659 1 670 1 681 1 702 1 703 1 744 1 767 1 795 1 799 1 818 1 844 1 860 1 869 1 884 1 885 1 895 1 924 1 939 1 1000 1 1018 1 1019 1 1022 1 1023 1 
1 210 23 1 26 1 27 2 36 1 46 1 59 1 65 1 70 1 12 1 37 1 102 1 102 1 114 1 126 1 132 1 154 1 163 1 171 1 175 1 180 1 190 1 194 1 214 1 229 1 233 1 253 1 261 1 277 1 298 1 301 1 312 1 314 1 316 1 357 1 414 1 423 1 435 1 442 1 451 1 498 1 514 1 528 1 541 1 558 1 579 1 588 1 608 1 610 1 639 1 657 1 667 1 682 1 686 1 688 1 698 1 709 1 718 1 743 1 756 1 766 1 784 1 797 1 801 1 803 1 808 1 823 1 832 1 854 1 864 1 881 1 883 1 912 1 925 1 933 1 952 1 973 1 113 1 138 1 155 1 195 1 225 1 254 1 257 1 259 1 271 1 281 1 303 1 352 1 364 1 383 1 402 1 448 1 489 1 496 1 501 1 507 1 531 1 561 1 591 1 594 1 602 1 617 1 620 1 646 1 655 1 665 1 669 1 687 1 692 1 699 1 724 1 735 1 742 1 776 1 786 1 834 1 876 1 897 1 920 1 963 1 964 1 1005 1 1009 1 1019 1 1026 1 
1 213 3 1 20 1 69 1 88 1 92 1 2 1 24 1 33 1 70 1 91 1 93 1 98 1 108 1 113 1 145 1 151 1 153 1 161 1 192 1 193 1 235 1 278 1 295 1 299 1 307 1 309 1 317 1 328 1 332 1 351 1 357 1 374 1 388 1 390 1 401 1 409 1 416 1 454 1 471 1 474 1 476 1 485 1 503 1 505 1 532 1 542 1 560 1 574 1 576 1 643 1 664 1 666 2 667 2 689 1 702 1 712 1 719 1 734 1 743 1 750 1 767 1 779 1 836 1 868 1 930 1 955 1 990 1 110 1 134 1 141 1 155 1 160 1 180 1 216 1 222 1 230 1 245 1 249 1 276 1 354 1 371 1 397 1 425 1 467 1 468 1 510 1 524 1 536 1 539 1 544 1 553 1 562 1 564 1 571 1 628 1 675 1 684 1 776 1 778 1 784 1 810 1 813 1 826 1 842 1 854 1 906 1 907 1 915 1 983 1 993 1 1004 1 1012 1 1016 1 1018 1 
1 211 32 1 60 1 76 1 81 1 11 1 13 1 19 1 42 1 48 1 74 1 99 1 100 1 120 1 154 1 173 1 194 1 216 1 247 1 251 1 284 2 314 1 338 1 340 1 348 1 350 1 351 1 353 1 362 1 367 1 397 1 420 1 440 1 465 1 469 1 477 1 488 1 491 1 557 1 565 1 583 1 596 1 631 1 647 1 672 2 690 1 708 1 712 1 719 1 735 1 760 1 816 1 876 1 937 1 944 1 954 1 996 1 110 1 134 1 139 1 163 1 164 1 200 1 203 1 209 1 220 1 234 1 236 1 261 1 272 1 286 1 295 1 299 1 302 1 308 1 309 1 327 1 331 1 354 1 365 1 389 1 401 1 418 1 431 1 486 1 501 1 532 1 584 1 591 1 642 1 689 1 805 1 836 1 839 1 905 1 922 1 934 1 938 1 955 1 979 1 991 1 1006 1 1012 1 1018 1 1019 1 1022 1 1023 1 
1 207 18 1 29 1 67 1 84 2 88 1 94 1 101 1 16 1 60 1 90 1 91 1 93 1 98 1 113 1 118 1 124 1 125 1 134 1 158 1 170 1 224 1 228 1 250 1 262 1 271 1 284 1 300 1 308 1 314 1 343 1 395 2 429 1 440 1 442 1 465 1 483 1 491 1 492 1 504 1 519 1 520 1 545 1 547 1 557 1 570 1 624 1 637 1 639 1 651 1 654 1 680 1 683 1 708 1 737 1 738 1 765 1 767 1 775 1 790 1 817 1 819 1 821 1 830 1 849 1 853 1 855 1 859 1 863 1 864 1 880 1 883 1 886 1 921 2 941 1 947 1 953 1 958 1 973 1 980 1 110 1 117 1 166 1 173 1 182 1 206 1 263 1 265 1 275 1 277 1 309 1 317 1 326 1 333 1 337 1 340 1 342 1 360 1 368 1 412 1 422 1 556 1 565 1 573 1 577 1 587 1 609 1 642 1 656 1 673 1 674 1 679 1 709 1 726 1 754 1 757 1 764 1 777 1 792 1 816 1 829 1 879 1 911 1 931 1 938 1 966 1 976 1 979 1 996 1 998 1 1018 1 1022 1 
1 215 45 1 54 1 99 1 2 1 16 1 27 1 78 1 168 1 192 1 194 1 219 1 220 1 232 1 238 1 240 1 246 1 269 1 282 1 288 1 302 1 340 1 358 1 373 1 414 1 434 1 457 2 463 1 490 1 501 1 524 1 536 1 545 2 560 1 568 1 586 1 599 1 604 1 614 1 620 1 633 1 649 1 662 1 696 1 717 1 718 1 735 1 784 1 815 1 827 1 830 1 861 1 906 1 927 1 944 1 951 1 961 1 983 1 999 1 121 1 148 1 158 1 162 1 172 1 180 1 257 1 258 1 263 1 296 1 303 1 318 1 367 1 378 1 425 1 442 1 445 1 485 1 492 1 502 1 515 1 525 1 535 1 558 1 588 1 593 1 603 1 621 1 627 1 654 1 683 1 692 1 695 1 709 1 721 1 731 1 738 1 749 1 754 1 775 1 821 1 839 1 841 1 855 1 863 1 865 1 868 1 911 1 974 1 994 1 997 1 1005 1 1007 1 1008 1 1015 1 1017 1 1022 1 
1 208 6 1 21 1 8 1 28 1 39 1 60 1 109 1 117 1 119 1 133 1 135 1 139 1 148 1 153 1 156 1 209 2 215 1 228 1 236 1 245 1 249 1 265 1 274 1 275 1 280 1 332 1 396 1 419 1 428 1 450 1 460 1 490 1 522 1 591 1 602 1 661 1 666 1 681 1 683 1 707 1 714 1 716 1 718 1 722 2 726 1 737 1 743 1 775 2 789 1 812 1 831 1 860 1 914 1 931 1 932 1 969 1 980 1 994 1 111 1 129 1 130 1 189 1 206 1 214 1 225 1 229 1 256 1 262 1 268 1 273 1 281 1 321 1 331 1 340 1 354 1 361 1 364 1 373 1 385 1 422 1 452 1 518 1 519 1 581 1 586 1 618 1 635 1 645 1 646 1 674 1 679 1 719 1 745 1 746 1 791 1 799 1 801 1 825 1 828 1 844 1 871 1 933 1 941 1 953 1 961 1 968 1 988 1 1011 1 1013 1 1015 1 1017 1 1019 1 
1 214 17 1 34 1 45 2 46 1 98 1 103 1 31 1 54 1 60 1 74 1 83 1 91 1 96 1 134 1 203 1 227 1 271 1 275 1 283 1 291 1 347 1 351 1 361 1 389 1 418 1 421 1 476 2 479 2 488 1 554 1 572 1 606 1 622 1 632 1 670 1 694 1 715 2 734 1 756 1 764 1 771 1 773 1 782 1 787 1 811 1 814 1 828 1 836 1 851 1 868 1 879 1 891 1 903 1 906 1 118 1 126 1 127 1 132 1 135 1 158 1 161 1 189 1 215 1 236 1 272 1 301 1 307 1 378 1 393 1 399 1 451 1 456 1 466 1 468 1 503 1 540 1 547 1 560 1 567 1 569 1 584 1 587 1 631 1 681 1 737 1 761 1 775 1 812 1 821 1 834 1 846 1 848 1 867 1 881 1 900 1 913 1 926 1 971 1 977 1 978 1 984 1 997 1 1003 1 1008 1 1010 1 1019 1 1022 1 1026 1 
1 209 2 1 18 1 27 1 32 1 49 1 52 1 65 1 83 1 88 1 107 1 48 1 66 1 94 1 101 1 109 1 109 1 115 1 127 1 137 1 141 1 144 1 175 1 188 1 216 1 226 1 236 1 244 2 255 1 256 1 280 1 348 2 387 1 401 1 406 1 422 1 432 2 447 1 461 1 468 1 485 1 490 1 520 2 545 1 580 2 584 1 655 1 664 1 666 1 689 1 702 1 762 1 785 1 786 1 797 1 802 1 803 1 804 1 882 1 895 1 932 1 950 1 954 1 960 1 964 1 976 1 110 1 146 1 190 1 218 1 229 1 232 1 251 1 267 1 277 1 286 1 288 1 300 1 331 1 367 1 372 1 409 1 421 1 430 1 449 1 542 1 547 1 548 1 577 1 578 1 581 1 601 1 626 1 637 1 660 1 663 1 690 1 698 1 717 1 729 1 754 1 759 1 807 1 834 1 878 1 881 1 905 1 943 1 974 1 1009 1 1010 1 1011 1 1026 1 
1 209 16 1 32 1 43 1 56 1 60 1 62 1 1 1 58 1 81 1 87 1 103 1 104 1 105 1 109 1 124 1 144 1 154 1 166 1 167 1 211 1 244 1 251 1 270 1 344 1 345 1 376 1 392 1 419 1 476 1 477 1 528 1 534 1 542 1 545 1 567 1 570 1 579 1 590 1 597 1 622 1 630 1 645 1 650 1 654 1 702 2 707 1 743 1 753 1 778 1 806 1 844 1 853 1 860 1 871 1 898 1 929 1 945 1 949 1 112 1 130 1 138 1 152 1 156 1 161 1 175 1 227 1 259 1 274 1 278 1 299 1 330 1 332 1 343 1 350 1 389 1 429 1 432 1 463 1 495 1 501 1 537 1 563 1 594 1 624 1 626 1 644 1 653 1 668 1 701 1 726 1 732 1 734 1 739 1 756 1 764 1 790 1 817 1 902 1 913 1 923 1 933 1 947 1 948 1 991 1 1000 1 1006 1 1008 1 1021 1 1024 1 
1 211 20 1 30 1 70 1 78 1 80 1 34 1 35 1 53 1 55 1 72 1 100 1 107 1 114 1 154 1 164 1 165 2 176 1 219 1 235 1 241 1 245 1 247 1 263 1 266 1 269 1 271 1 290 1 300 1 308 2 311 1 330 1 367 1 368 2 401 1 415 1 509 1 526 1 527 1 561 1 562 1 590 1 597 1 621 1 654 1 655 1 674 1 675 2 688 1 695 1 724 1 754 1 770 1 776 1 793 1 800 1 808 1 820 1 821 1 824 1 877 1 898 1 906 2 912 1 959 1 968 1 115 1 130 1 135 1 185 1 193 1 217 1 220 1 225 1 255 1 323 1 390 1 394 1 410 1 420 1 432 1 473 1 491 1 498 1 503 1 560 1 566 1 579 1 585 1 591 1 614 1 653 1 690 1 732 1 748 1 756 1 763 1 773 1 778 1 812 1 815 1 827 1 836 1 841 1 854 1 858 1 859 1 871 1 899 1 996 1 1003 1 1004 1 1011 1 1025 1 
1 209 27 1 63 1 78 1 79 1 97 1 16 1 39 1 73 1 84 1 100 1 110 1 121 2 150 1 158 1 178 1 179 1 192 1 195 1 212 1 223 1 237 1 271 1 278 1 318 1 327 2 373 1 423 1 449 1 478 1 485 1 500 1 515 1 517 1 521 1 529 1 549 1 566 1 567 1 593 1 594 1 596 1 630 1 636 1 638 1 674 2 704 2 720 1 734 1 736 2 764 1 811 1 845 1 858 1 862 1 923 1 960 1 967 1 149 1 154 1 159 1 175 1 199 1 206 1 244 1 282 1 304 1 314 1 336 1 365 1 381 1 405 1 429 1 437 1 441 1 471 1 475 1 479 1 502 1 504 1 511 1 553 1 557 1 563 1 574 1 580 1 620 1 631 1 647 1 656 1 667 1 715 1 755 1 819 1 825 1 856 1 877 1 890 1 914 1 928 1 965 1 990 1 993 1 1004 1 1009 1 1012 1 1014 1 
1 208 14 1 41 1 78 1 81 1 82 2 83 1 86 1 90 1 96 1 100 1 103 1 105 1 2 1 6 1 17 1 20 1 72 1 102 1 123 1 124 1 137 1 154 1 162 1 187 1 203 1 227 1 229 1 260 1 268 1 270 1 304 1 316 2 320 1 325 1 356 1 370 1 387 1 398 1 410 1 412 1 413 1 419 1 437 1 440 1 493 1 535 1 543 1 578 1 580 1 582 1 611 1 613 1 614 1 624 1 627 1 646 1 649 2 657 1 661 1 681 1 697 1 719 1 734 2 737 1 749 1 752 1 761 1 767 1 773 1 796 1 802 1 814 1 827 1 836 1 881 1 893 1 896 1 900 1 905 1 915 1 919 1 920 1 960 1 143 1 164 1 184 1 191 1 194 1 196 1 213 1 333 1 343 1 352 1 361 1 372 1 399 1 403 1 407 1 429 1 470 1 481 1 482 1 497 1 554 1 563 1 566 1 591 1 600 1 603 1 617 1 662 1 687 1 703 1 710 1 727 1 733 1 806 1 837 1 870 1 916 1 942 1 956 1 969 1 983 1 986 1 1001 1 1007 1 1017 1 
1 209 2 1 3 1 14 1 67 1 73 1 102 1 111 1 6 1 28 1 31 1 66 1 71 1 96 1 100 1 117 1 138 1 150 1 151 1 181 1 188 1 196 1 219 2 256 1 284 1 299 1 305 1 373 1 422 1 423 1 430 1 433 1 464 1 467 1 487 2 495 1 499 1 524 1 537 1 570 1 571 1 590 1 663 1 705 1 742 1 757 1 799 1 804 1 869 1 874 1 876 1 877 1 889 1 892 1 917 1 921 2 927 1 940 1 949 1 955 1 979 1 144 1 160 1 229 1 251 1 252 1 258 1 263 1 277 1 289 1 296 1 308 1 312 1 328 1 336 1 344 1 371 1 376 1 383 1 444 1 455 1 461 1 477 1 483 1 503 1 504 1 550 1 560 1 569 1 587 1 629 1 643 1 670 1 679 1 702 1 704 1 712 1 716 1 718 1 728 1 756 1 770 1 775 1 796 1 819 1 848 1 852 1 857 1 872 1 905 1 943 1 952 1 957 1 961 1 984 1 1001 1 1003 1 1012 1 
1 212 13 1 37 1 101 1 109 1 41 1 65 1 73 1 78 1 100 1 111 1 120 1 184 1 220 1 234 1 241 1 266 1 270 1 311 1 318 1 323 1 324 1 337 1 384 1 398 1 406 1 413 1 449 1 455 1 457 1 498 2 514 2 526 1 546 1 596 2 616 1 620 1 632 1 633 1 649 1 676 1 678 1 743 2 785 1 823 1 866 1 894 1 895 1 922 1 939 1 959 1 967 1 988 1 991 1 992 1 126 1 185 1 215 1 226 1 236 1 237 1 247 1 251 1 285 1 295 1 303 1 357 1 359 1 365 1 383 1 399 1 422 1 434 1 436 1 451 1 478 1 486 1 503 1 513 1 524 1 545 1 549 1 571 1 595 1 613 1 624 1 658 1 697 1 700 1 754 1 756 1 759 1 786 1 788 1 818 1 824 1 833 1 841 1 909 1 969 1 972 1 974 1 1005 1 1010 1 1019 1 1020 1 
1 207 25 1 32 1 43 1 45 1 82 1 94 1 9 1 27 1 37 1 39 1 52 1 60 1 85 1 116 1 116 1 119 1 156 1 180 1 213 1 231 1 258 1 268 1 312 1 315 1 410 2 492 1 505 1 519 1 556 1 614 1 618 1 619 1 652 1 676 1 727 1 728 1 733 1 737 1 742 1 754 1 765 1 768 2 777 1 795 1 800 1 802 1 848 1 850 1 898 1 915 1 919 1 936 1 949 1 961 1 996 1 158 1 167 1 169 1 178 1 181 1 192 1 226 1 227 1 241 1 245 1 272 1 303 1 306 1 341 1 344 1 347 1 373 1 390 1 405 1 431 1 432 1 433 1 453 1 465 1 480 1 487 1 509 1 533 1 541 1 594 1 622 1 640 1 679 1 716 1 723 1 724 1 747 1 807 1 823 1 834 1 857 1 862 1 888 1 910 1 940 1 957 1 968 1 969 1 977 1 992 1 1026 1 
1 209 12 1 17 1 45 1 63 1 73 1 77 2 93 1 95 1 96 1 107 1 114 1 2 1 13 1 16 1 56 1 61 1 81 1 99 1 105 1 185 1 192 1 208 1 235 1 239 1 245 1 262 1 271 2 300 1 321 1 336 1 340 1 355 1 368 1 381 1 393 1 410 1 412 1 417 1 444 1 452 1 459 1 460 2 474 1 492 1 496 1 537 1 539 1 542 1 557 1 586 1 598 1 605 1 618 1 643 1 661 1 668 1 679 1 696 1 750 1 755 1 766 1 784 1 824 1 843 1 849 1 853 1 881 1 888 1 907 1 913 1 171 1 177 1 182 1 199 1 221 1 229 1 234 1 284 1 289 1 293 1 301 1 304 1 328 1 351 1 364 1 365 1 372 1 385 1 397 1 430 1 448 1 451 1 511 1 521 1 559 1 561 1 565 1 592 1 602 1 639 1 648 1 655 1 684 1 715 1 749 1 762 1 800 1 812 1 815 1 835 1 838 1 866 1 890 1 912 1 941 1 948 1 961 1 988 1 1008 1 1015 1 
1 205 9 1 60 1 69 1 105 1 4 1 19 1 25 1 34 1 35 1 52 1 66 1 108 1 125 1 153 2 161 1 169 1 173 1 177 1 189 2 199 1 216 1 226 1 273 1 288 1 296 1 325 1 336 1 355 1 356 1 459 1 462 1 465 1 468 2 501 1 502 1 563 1 566 1 579 1 580 1 615 1 625 1 720 1 730 1 744 1 760 1 777 1 792 1 812 1 820 1 821 1 823 1 904 2 910 1 915 1 925 1 933 1 955 1 978 1 979 1 980 1 191 1 195 1 225 1 227 1 249 1 261 1 276 1 286 1 302 1 341 1 348 1 416 1 442 1 464 1 476 1 483 1 509 1 521 1 525 1 527 1 546 1 584 1 593 1 619 1 624 1 633 1 657 1 694 1 701 1 703 1 711 1 716 1 738 1 748 1 772 1 776 1 780 1 791 1 798 1 808 1 848 1 860 1 861 1 865 1 875 1 881 1 934 1 951 1 953 1 972 1 973 1 984 1 994 1 
1 209 16 1 24 1 26 1 52 1 69 1 78 1 107 1 116 1 8 1 20 1 39 1 53 1 70 1 74 1 86 1 99 1 138 1 151 1 164 1 175 1 178 1 196 1 204 1 242 1 257 1 282 1 303 1 322 2 348 1 361 1 366 1 378 1 400 1 421 1 450 1 476 1 500 1 514 1 548 1 576 1 579 1 585 1 602 1 610 1 618 1 649 1 704 1 725 2 738 1 755 1 796 1 815 1 821 1 832 1 835 1 838 1 843 1 845 1 862 1 865 1 867 1 901 1 913 2 921 2 927 1 933 1 934 1 942 1 127 1 135 1 156 1 176 1 197 1 212 1 220 1 222 1 227 1 239 1 243 1 266 1 274 1 307 1 315 1 334 1 338 1 356 1 363 1 406 1 415 1 423 1 428 1 430 1 453 1 478 1 513 1 516 1 530 1 531 1 534 1 535 1 552 1 567 1 633 1 682 1 730 1 731 1 744 1 746 1 760 1 799 1 814 1 828 1 849 1 884 1 915 1 932 1 981 1 1010 1 1013 1 1026 1 
1 211 2 1 31 1 34 1 37 2 46 1 54 1 56 1 86 1 104 1 115 1 20 1 55 1 66 1 70 1 89 1 101 1 121 1 146 1 170 1 192 1 212 1 291 1 293 1 297 1 301 2 302 2 315 1 317 1 339 1 352 1 433 2 494 1 515 1 543 2 546 1 551 1 561 1 586 1 628 1 634 1 639 1 642 1 643 1 657 1 683 1 706 1 710 1 729 1 738 1 749 1 750 1 753 1 771 1 773 1 774 1 789 1 793 1 813 1 817 2 820 1 824 1 842 1 848 1 867 1 929 1 941 2 956 1 965 1 974 1 977 1 124 1 130 1 140 1 142 1 177 1 191 1 215 1 217 1 255 1 265 1 267 1 289 1 294 1 371 1 384 1 391 1 407 1 415 1 420 1 443 1 451 1 457 1 473 1 488 1 489 1 550 1 576 1 577 1 579 1 645 1 666 1 705 1 716 1 745 1 755 1 778 1 806 1 833 1 843 1 859 1 979 1 984 1 988 1 999 1 1000 1 1009 1 1013 1 1017 1 1018 1 
1 207 12 1 13 1 27 1 32 1 44 1 46 1 51 1 85 2 112 2 120 1 59 1 61 1 64 1 73 1 106 1 126 1 132 1 139 1 174 1 178 1 213 1 232 1 256 1 280 1 284 1 310 1 355 1 367 1 402 1 404 1 415 1 431 1 443 1 460 1 466 1 480 1 503 1 504 1 505 1 508 1 509 1 525 1 538 1 575 1 588 2 610 1 618 1 621 1 638 1 645 1 711 1 724 1 730 1 749 1 750 1 762 1 764 1 768 1 774 1 784 1 785 1 809 1 865 1 873 1 887 1 904 1 945 1 950 1 956 1 982 2 991 1 127 1 135 1 162 1 168 1 169 1 185 1 212 1 215 1 217 1 223 1 236 1 265 1 289 1 319 1 347 1 349 1 358 1 361 1 376 1 419 1 470 1 478 1 521 1 541 1 551 1 573 1 660 1 668 1 678 1 680 1 695 1 705 1 716 1 727 1 744 1 754 1 757 1 782 1 795 1 803 1 829 1 833 1 851 1 898 1 907 1 916 1 965 1 978 1 1015 1 
1 207 23 1 26 1 34 1 38 1 49 1 12 1 42 1 50 1 51 1 59 1 77 1 81 1 123 1 151 1 164 1 179 1 191 1 192 1 198 1 211 1 227 1 237 1 260 1 274 1 295 1 305 1 312 1 372 1 376 1 417 1 418 1 421 1 460 1 499 1 509 1 513 2 518 1 551 1 560 1 572 1 579 1 581 1 595 1 606 1 614 1 632 1 647 1 660 1 698 1 707 1 724 1 725 1 729 1 777 1 807 1 825 1 832 1 836 1 876 1 878 1 892 1 901 1 909 1 922 1 935 1 937 1 991 1 137 1 140 1 155 1 158 1 163 1 203 1 219 1 236 1 257 1 263 1 265 1 271 1 282 1 319 1 321 1 348 1 387 1 420 1 422 1 440 1 447 1 497 1 519 1 525 1 550 1 569 1 629 1 634 1 650 1 670 1 691 1 696 1 715 1 726 1 731 1 754 1 779 1 792 1 813 1 819 1 821 1 823 1 827 1 839 1 866 1 883 1 898 1 906 1 912 1 920 1 924 1 960 1 986 1 1001 1 1003 1 1024 1 
1 212 15 1 20 1 39 1 55 1 70 1 113 1 122 1 50 1 51 1 81 1 140 1 152 1 226 1 228 1 239 1 256 1 302 1 303 1 334 1 342 2 357 1 374 1 389 1 400 1 428 1 450 1 451 1 489 1 503 1 505 1 521 1 542 1 550 1 558 1 577 1 591 1 665 1 691 1 731 1 754 1 767 1 770 1 772 1 784 1 853 1 864 1 891 1 909 1 912 1 932 1 948 1 956 1 988 1 139 1 141 1 192 1 211 1 213 1 271 1 276 1 288 1 307 1 311 1 348 1 378 1 380 1 398 1 413 1 415 1 429 1 434 1 467 1 526 1 573 1 608 1 616 1 638 1 648 1 656 1 668 1 669 1 673 1 680 1 685 1 702 1 713 1 718 1 761 1 796 1 799 1 809 1 829 1 836 1 841 1 852 1 865 1 882 1 907 1 917 1 950 1 966 1 980 1 985 1 990 1 993 1 1001 1 1011 1 1021 1 1027 1 
1 213 22 1 37 1 71 1 75 1 89 1 105 1 110 1 113 1 14 1 120 1 186 1 217 1 228 1 247 2 307 1 324 1 379 1 383 1 388 1 399 1 408 1 427 1 429 2 465 1 483 1 505 1 550 2 567 1 604 1 612 1 648 1 657 1 658 1 676 1 677 1 682 1 696 1 704 1 707 1 715 1 731 1 753 1 782 1 789 1 793 1 802 1 828 1 838 1 841 1 877 2 886 1 908 1 940 1 953 1 956 1 961 1 964 1 989 1 137 1 145 1 157 1 164 1 179 1 188 1 193 1 272 1 275 1 276 1 279 1 340 1 374 1 385 1 391 1 393 1 401 1 474 1 481 1 551 1 561 1 565 1 568 1 574 1 597 1 602 1 622 1 639 1 654 1 674 1 689 1 693 1 724 1 764 1 790 1 808 1 813 1 840 1 882 1 917 1 925 1 939 1 958 1 974 1 1011 1 1014 1 1026 1 1027 1 
1 209 7 1 39 1 49 1 92 1 97 1 105 1 118 1 11 1 13 1 27 1 31 1 51 1 53 1 78 1 88 1 145 1 159 1 201 1 222 2 229 1 291 1 325 1 330 1 378 1 440 1 450 1 467 1 473 1 508 1 536 1 552 1 554 2 573 1 634 1 635 1 642 1 652 1 658 2 690 1 695 1 702 1 730 1 736 1 741 1 751 1 759 1 781 1 784 1 786 1 787 1 796 1 803 1 810 1 834 1 853 1 876 1 886 1 905 1 914 1 940 2 958 1 996 1 137 1 140 1 152 1 203 1 221 1 231 1 241 1 254 1 256 1 343 1 418 1 423 1 433 1 452 1 476 1 478 1 480 1 495 1 499 1 505 1 516 1 527 1 528 1 539 1 540 1 570 1 574 1 613 1 617 1 621 1 682 1 701 1 718 1 725 1 732 1 757 1 765 1 766 1 767 1 779 1 804 1 815 1 818 1 867 1 869 1 871 1 923 1 928 1 953 1 964 1 970 1 972 1 991 1 992 1 1001 1 1015 1 1027 1 
1 208 1 2 42 1 50 1 66 1 69 1 94 1 97 1 99 1 102 1 121 1 22 1 23 1 25 1 51 1 63 1 76 1 78 1 91 1 108 1 115 1 142 1 145 1 197 1 222 1 233 1 242 1 276 1 294 1 297 1 312 1 315 1 358 1 381 1 473 1 475 1 505 1 510 1 517 1 533 1 558 1 562 1 572 1 600 1 607 1 617 1 633 1 640 1 671 1 701 1 724 1 726 1 748 1 810 1 814 1 825 1 828 1 849 1 852 1 853 1 904 2 905 1 931 1 953 1 973 1 979 1 984 2 135 1 136 1 144 1 146 1 169 1 200 1 215 1 219 1 255 1 279 1 340 1 361 1 394 1 401 1 406 1 429 1 537 1 585 1 587 1 593 1 604 1 605 1 610 1 682 1 688 1 693 1 697 1 708 1 712 1 722 1 733 1 741 1 776 1 801 1 808 1 857 1 872 1 882 1 924 1 928 1 952 1 967 1 976 1 982 1 1003 1 1016 1 
1 206 6 1 13 1 54 1 59 1 63 1 65 1 66 1 72 1 78 1 88 1 99 1 109 1 16 1 45 1 50 1 76 1 108 1 119 1 121 1 138 1 157 1 162 1 164 1 216 1 228 1 241 1 253 1 265 1 269 1 329 1 340 1 365 2 369 1 394 1 395 1 426 1 450 1 451 1 499 1 511 1 528 1 538 1 539 1 547 1 564 1 577 1 592 2 601 1 623 1 633 1 636 1 644 1 645 1 648 1 663 1 675 2 717 1 719 1 748 1 789 1 814 1 817 1 830 1 842 1 875 1 934 1 935 1 964 1 973 1 993 1 167 1 207 1 210 1 213 1 237 1 239 1 281 1 303 1 313 1 326 1 334 1 338 1 350 1 372 1 386 1 390 1 408 1 413 1 437 1 442 1 447 1 456 1 464 1 467 1 521 1 527 1 548 1 552 1 578 1 579 1 588 1 604 1 622 1 638 1 674 1 683 1 712 1 774 1 776 1 803 1 805 1 815 1 829 1 877 1 886 1 887 1 892 1 893 1 894 1 911 1 926 1 959 1 967 1 989 1 1007 1 1011 1 1021 1 
1 207 7 1 38 1 53 2 67 1 90 1 99 1 13 1 27 1 36 1 58 1 98 1 134 2 142 2 144 1 147 1 148 1 214 1 241 1 260 1 263 1 269 1 281 1 289 1 302 1 307 1 334 1 365 1 375 1 394 1 395 1 398 1 408 1 420 1 439 1 453 1 461 1 464 1 486 1 514 1 517 1 523 1 531 2 532 1 543 1 544 1 546 1 556 1 571 1 596 1 619 1 629 1 632 2 635 1 639 1 662 1 680 1 688 1 699 1 702 1 731 1 733 1 739 1 779 1 798 1 808 1 818 1 823 1 835 1 844 1 845 1 862 1 864 1 924 1 930 1 933 1 952 1 984 1 135 1 149 1 159 1 163 1 172 1 180 1 201 1 247 1 251 1 267 1 280 1 314 1 338 1 349 1 354 1 370 1 387 1 429 1 483 1 487 1 497 1 572 1 589 1 591 1 612 1 613 1 617 1 638 1 668 1 675 1 677 1 683 1 685 1 711 1 720 1 732 1 745 1 777 1 785 1 821 1 834 1 903 1 904 1 909 1 913 1 917 1 929 1 934 1 975 1 985 1 994 1 1018 1 
1 210 21 1 57 1 70 1 29 1 52 1 56 1 107 1 150 1 171 1 217 1 221 1 224 1 235 1 258 1 272 1 274 1 286 1 321 1 335 1 356 1 367 1 371 1 388 1 406 1 420 1 424 1 441 1 455 1 457 1 470 1 488 1 490 1 496 1 513 1 572 1 599 1 621 1 636 1 639 1 655 1 660 1 666 1 673 1 675 1 685 1 701 1 702 1 711 1 725 1 746 1 753 1 760 1 763 1 781 1 794 1 795 1 812 1 824 2 829 1 840 1 852 1 860 1 871 1 882 2 909 1 912 1 913 1 927 1 950 1 960 1 999 1 135 1 156 1 223 1 231 1 251 1 254 1 261 1 285 1 307 1 317 1 330 1 392 1 434 1 442 1 479 1 503 1 519 1 536 1 544 1 549 1 558 1 561 1 567 1 588 1 591 1 613 1 619 1 630 1 631 1 646 1 653 1 668 1 679 1 712 1 730 1 751 1 809 1 843 1 844 1 849 1 875 1 895 1 906 1 917 1 921 1 959 1 973 1 980 1 1004 1 1013 1 1017 1 1022 1 1024 1 1027 1 
1 211 11 1 38 1 57 1 59 1 2 1 10 1 23 1 32 1 76 1 85 1 107 1 110 1 111 1 120 1 136 1 142 1 148 1 155 1 161 1 183 1 206 1 220 1 238 1 294 1 345 2 363 1 380 1 388 1 392 1 410 2 417 1 483 1 505 1 506 1 508 1 513 1 516 1 524 1 528 1 531 1 539 1 545 1 557 1 587 1 620 1 631 1 660 1 663 1 672 2 675 1 689 1 693 1 695 1 701 1 702 1 713 1 729 2 748 1 750 1 752 1 755 1 765 1 805 1 818 1 830 1 837 1 843 1 863 1 887 1 891 1 908 1 910 1 933 1 964 1 976 1 987 1 988 1 192 1 212 1 218 1 264 1 266 1 301 1 315 1 330 1 336 1 338 1 375 1 405 1 421 1 453 1 458 1 462 1 467 1 502 1 515 1 519 1 546 1 551 1 571 1 592 1 599 1 616 1 618 1 624 1 680 1 711 1 721 1 724 1 740 1 773 1 797 1 802 1 821 1 839 1 878 1 930 1 935 1 945 1 951 1 968 1 1000 1 1002 1 1012 1 1014 1 
1 210 25 1 27 2 37 1 52 1 74 1 77 1 84 1 96 1 100 1 22 1 35 1 54 1 132 1 140 1 188 1 201 1 203 1 239 1 257 1 295 1 299 1 311 1 334 1 356 1 361 1 376 1 408 1 428 1 434 1 441 1 446 1 452 1 458 1 465 1 473 1 474 1 490 1 499 1 509 1 522 1 534 1 581 1 619 1 637 1 646 2 664 1 665 1 678 1 710 1 726 1 789 1 811 1 861 1 867 1 880 2 898 1 925 1 927 1 943 1 982 1 985 1 155 1 166 1 176 1 178 1 182 1 202 1 204 1 205 1 272 1 293 1 307 1 314 1 315 1 321 1 340 1 389 1 392 1 416 1 417 1 501 1 540 1 547 1 556 1 560 1 571 1 580 1 591 1 595 1 600 1 603 1 636 1 698 1 699 1 702 1 704 1 711 1 716 1 717 1 721 1 722 1 724 1 747 1 768 1 787 1 806 1 812 1 827 1 851 1 852 1 877 1 935 1 951 1 960 1 986 1 991 1 1001 1 1014 1 1025 1 1027 1 
1 205 10 1 14 1 28 1 49 1 57 1 59 1 79 2 86 1 102 1 121 1 131 1 33 1 46 1 72 1 81 1 108 1 147 1 154 1 181 1 190 1 220 1 244 1 303 1 326 1 340 1 366 1 371 1 377 2 386 1 390 1 422 1 427 1 440 1 460 1 462 1 477 1 496 1 512 1 516 1 537 1 561 1 568 1 581 1 596 1 648 1 667 1 672 1 676 1 693 1 698 2 702 1 756 1 774 1 804 1 827 1 829 1 830 1 843 1 856 1 857 1 869 1 903 1 941 1 954 1 957 1 961 1 970 1 146 1 165 1 172 1 180 1 182 1 192 1 211 1 226 1 230 1 235 1 258 1 262 1 360 1 375 1 419 1 450 1 485 1 490 1 491 1 495 1 510 1 534 1 558 1 578 1 585 1 626 1 639 1 655 1 659 1 685 1 688 1 711 1 713 1 720 1 731 1 751 1 767 1 776 1 800 1 821 1 825 1 845 1 853 1 870 1 871 1 876 1 888 1 931 1 937 1 940 1 1026 1 
1 208 6 1 27 1 28 1 31 1 49 1 79 1 107 1 32 1 57 1 58 1 86 1 90 1 151 1 163 1 172 1 180 1 245 1 271 1 273 1 277 1 289 2 311 1 312 1 333 1 335 1 342 1 400 2 412 1 432 1 435 2 444 1 472 1 497 1 508 1 531 1 533 1 550 1 593 1 623 1 625 1 630 1 653 1 696 1 737 1 763 1 771 1 836 1 838 1 841 1 844 1 856 1 888 1 916 1 928 1 944 1 949 1 974 1 996 1 153 1 160 1 199 1 212 1 241 1 244 1 261 1 274 1 293 1 304 1 315 1 318 1 330 1 331 1 337 1 354 1 408 1 442 1 471 1 488 1 489 1 502 1 535 1 566 1 583 1 588 1 602 1 622 1 636 1 640 1 701 1 723 1 734 1 743 1 770 1 775 1 780 1 850 1 853 1 869 1 903 1 904 1 907 1 935 1 942 1 945 1 992 1 1024 1 1025 1 
1 209 3 1 23 1 62 1 105 1 108 1 128 2 34 1 35 1 38 1 43 1 45 1 48 1 56 1 96 1 103 1 104 1 134 1 134 1 135 1 150 1 159 1 167 1 190 1 196 1 197 1 230 1 272 1 282 1 287 1 294 1 303 1 318 1 332 1 334 1 341 1 369 1 380 1 386 1 505 1 574 1 591 1 600 1 613 1 616 1 618 1 630 2 637 1 656 1 684 1 696 1 702 1 703 1 726 1 739 1 768 1 770 1 829 1 844 2 863 1 888 1 895 1 899 1 910 1 913 1 945 1 951 1 961 1 978 1 139 1 149 1 151 1 158 1 200 1 201 1 211 1 212 1 235 1 243 1 270 1 277 1 298 1 321 1 344 1 375 1 385 1 401 1 438 1 467 1 531 1 537 1 553 1 577 1 583 1 595 1 621 1 677 1 689 1 690 1 752 1 788 1 796 1 798 1 810 1 883 1 885 1 911 1 919 1 967 1 981 1 994 1 1000 1 1005 1 1011 1 
1 208 36 2 38 1 69 1 86 1 107 1 134 1 18 1 19 1 29 1 40 1 57 1 59 1 75 1 87 1 99 1 108 1 111 1 119 1 121 1 126 1 128 1 129 1 182 1 197 1 274 1 281 1 286 1 290 1 312 1 320 1 356 1 368 1 383 1 398 1 402 1 418 1 419 1 424 1 435 1 454 1 457 1 530 1 533 1 551 1 584 1 590 1 608 1 619 1 630 1 633 1 651 1 655 1 681 2 686 1 703 1 715 1 754 1 796 1 803 1 824 1 830 2 862 1 875 1 890 1 900 1 905 2 942 2 956 2 974 1 981 1 173 1 177 1 192 1 199 1 213 1 236 1 245 1 279 1 306 1 316 1 341 1 351 1 355 1 360 1 367 1 394 1 406 1 430 1 432 1 455 1 479 1 493 1 520 1 521 1 602 1 624 1 644 1 670 1 673 1 680 1 736 1 739 1 745 1 751 1 769 1 776 1 810 1 831 1 856 1 883 1 888 1 920 1 921 1 925 1 926 1 940 1 943 1 944 1 966 1 991 1 
1 208 17 1 22 1 27 1 61 1 88 1 94 1 130 1 5 1 35 1 53 1 63 1 67 1 86 1 126 1 147 1 150 1 155 1 174 1 232 1 284 1 316 1 317 1 341 1 350 1 357 1 363 1 433 1 457 2 458 1 461 1 469 1 481 1 505 1 526 1 536 1 558 1 559 1 595 1 604 1 612 1 649 1 659 1 685 1 709 1 735 1 745 1 765 1 808 1 809 1 814 1 841 1 855 1 856 1 864 1 875 1 879 1 908 1 914 1 915 1 925 1 939 1 940 1 960 1 999 1 171 1 172 1 179 1 186 1 193 1 204 1 218 1 234 1 238 1 296 1 336 1 337 1 352 1 367 1 385 1 396 1 401 1 404 1 423 1 424 1 442 1 473 1 495 1 497 1 524 1 528 1 544 1 557 1 570 1 608 1 615 1 626 1 629 1 651 1 663 1 666 1 676 1 699 1 700 1 706 1 717 1 741 1 743 1 746 1 761 1 763 1 791 1 821 1 831 1 843 1 901 1 936 1 950 1 958 1 1027 1 
1 211 1 1 2 1 37 1 44 1 68 1 72 1 109 1 113 1 14 1 19 1 35 1 42 1 64 1 65 1 73 1 122 1 124 1 125 1 160 1 226 1 232 1 233 1 242 1 261 1 276 1 298 1 300 1 339 1 340 1 357 1 373 1 433 1 436 1 510 1 512 1 540 1 574 1 580 2 592 1 602 1 603 1 634 1 647 1 669 1 673 1 712 1 746 1 824 1 857 1 862 1 874 1 884 1 912 1 916 1 935 1 942 1 161 1 218 1 250 1 288 1 349 1 356 1 397 1 409 1 410 1 421 1 441 1 459 1 466 1 473 1 480 1 481 1 527 1 556 1 566 1 572 1 579 1 584 1 590 1 597 1 609 1 612 1 615 1 627 1 630 1 650 1 656 1 674 1 687 1 694 1 696 1 721 1 738 1 752 1 772 1 774 1 816 1 831 1 854 1 861 1 866 1 876 1 881 1 886 1 925 1 940 1 946 1 963 1 975 1 991 1 994 1 1005 1 1009 1 
1 211 3 1 10 1 23 1 32 1 39 1 48 1 69 1 76 1 114 1 119 1 127 1 12 1 19 1 43 1 53 1 66 1 102 1 110 1 139 1 149 1 158 1 222 2 246 1 255 2 275 1 288 1 317 1 321 1 342 1 356 1 359 1 378 1 396 1 406 1 420 1 442 1 479 1 535 1 536 1 544 1 583 1 608 2 609 1 614 1 626 1 648 1 664 1 674 1 687 1 707 1 739 1 742 1 750 1 756 1 774 1 818 1 821 1 822 1 859 1 871 2 940 1 952 2 961 1 982 1 999 1 162 1 166 1 181 1 192 1 226 1 258 1 261 1 276 1 328 1 334 1 345 1 364 1 376 1 385 1 389 1 403 1 418 1 435 1 440 1 460 1 477 1 489 1 491 1 522 1 526 1 534 1 550 1 555 1 570 1 602 1 679 1 686 1 704 1 789 1 808 1 811 1 814 1 824 1 864 1 868 1 875 1 910 1 913 1 919 1 921 1 942 1 967 1 
1 211 15 1 24 1 25 1 26 1 53 1 68 1 75 1 85 1 89 1 92 1 107 1 121 1 138 1 1 1 42 1 48 1 55 1 64 1 96 1 104 1 123 1 134 1 144 1 149 1 163 1 165 1 166 1 173 1 176 1 182 1 195 1 209 1 274 1 277 1 287 1 305 1 317 1 327 1 337 1 340 1 344 1 398 1 403 1 408 1 411 1 414 1 440 1 444 1 452 1 460 1 481 1 489 1 508 1 512 1 514 1 567 1 584 1 590 1 605 1 606 1 610 1 621 2 680 1 701 1 734 1 767 2 793 1 808 1 819 1 825 1 849 1 860 1 873 2 882 1 888 1 911 1 912 1 957 1 982 1 994 1 146 1 154 1 161 1 168 1 220 1 227 1 228 1 233 1 269 1 298 1 302 1 307 1 329 1 334 1 343 1 345 1 350 1 358 1 401 1 412 1 420 1 428 1 450 1 456 1 461 1 477 1 478 1 507 1 522 1 525 1 527 1 551 1 552 1 556 1 561 1 604 1 611 1 616 1 619 1 684 1 690 1 755 1 764 1 777 1 806 1 809 1 812 1 814 1 835 1 846 1 866 1 871 1 874 1 905 1 918 1 978 1 985 1 986 1 998 1 1006 1 1024 1 
1 205 38 1 40 1 93 1 123 1 131 1 20 1 28 1 33 1 39 1 49 1 54 1 60 1 87 1 120 1 122 1 125 1 145 1 152 1 177 1 185 2 203 1 208 1 220 1 226 1 257 1 258 1 276 1 296 1 310 1 313 2 315 1 319 1 322 1 342 1 345 1 367 1 375 1 376 1 385 1 390 1 391 1 400 2 402 1 410 2 516 1 535 1 537 1 546 1 560 1 564 1 565 1 575 2 592 1 600 1 635 1 651 1 654 1 662 1 678 1 682 1 685 1 690 1 705 1 734 1 745 1 757 2 774 1 778 1 797 1 817 1 832 1 892 1 899 1 937 1 956 1 964 1 978 1 161 1 191 1 228 1 251 1 267 1 301 1 314 1 317 1 344 1 366 1 408 1 409 1 417 1 431 1 438 1 447 1 485 1 492 1 504 1 511 1 515 1 522 1 539 1 602 1 612 1 634 1 646 1 695 1 744 1 781 1 782 1 794 1 795 1 822 1 845 1 848 1 873 1 877 1 889 1 895 1 929 1 944 1 946 1 991 1 
1 208 15 1 59 1 70 1 109 1 48 1 63 1 67 1 68 1 69 1 74 1 76 1 103 1 123 1 142 1 160 1 179 1 210 1 212 1 242 2 253 1 258 1 267 1 337 1 362 1 375 1 437 1 438 1 460 1 470 1 472 1 491 1 527 2 544 1 551 1 559 1 568 1 595 1 621 1 640 1 656 1 664 2 676 1 679 1 690 1 703 1 710 1 720 1 722 1 723 1 731 1 738 1 751 1 777 1 779 1 784 1 785 1 809 1 814 1 848 1 921 1 949 1 970 1 972 1 980 1 988 1 992 1 143 1 147 1 155 1 174 1 206 1 262 1 272 1 286 1 302 1 313 1 343 1 349 1 360 1 412 1 414 1 419 1 443 1 454 1 462 1 489 1 496 1 534 1 558 1 577 1 593 1 599 1 602 1 624 1 629 1 645 1 677 1 692 1 729 1 734 1 737 1 742 1 757 1 769 1 786 1 841 1 892 1 894 1 899 1 902 1 932 1 958 1 974 1 978 1 1014 1 
1 214 10 1 17 1 52 1 58 1 82 1 93 1 126 1 128 2 130 1 141 1 13 1 19 1 72 1 99 1 120 1 148 1 168 1 191 1 202 1 213 1 216 1 235 1 243 1 247 1 280 1 289 1 307 1 332 1 335 1 343 1 366 1 385 1 394 1 395 1 425 1 437 1 440 1 461 2 465 1 501 1 549 1 556 1 598 2 611 1 639 1 649 1 651 1 663 1 672 1 682 1 721 1 752 1 780 1 786 1 794 1 801 1 817 1 820 1 834 1 863 1 879 1 887 1 898 1 907 1 910 2 916 1 961 1 979 1 994 1 153 1 171 1 180 1 199 1 225 1 270 1 284 1 286 1 352 1 357 1 370 1 384 1 416 1 418 1 439 1 449 1 463 1 464 1 484 1 495 1 513 1 544 1 566 1 568 1 592 1 597 1 605 1 609 1 656 1 660 1 665 1 703 1 716 1 747 1 757 1 768 1 795 1 798 1 814 1 823 1 831 1 912 1 918 1 949 1 973 1 985 1 998 1 1000 1 1016 1 1020 1 1022 1 
1 212 13 1 36 1 47 1 52 1 62 1 65 1 83 1 9 1 34 1 38 1 40 1 56 1 72 1 97 1 113 1 141 1 155 1 199 1 215 1 226 1 249 1 262 1 277 1 302 1 350 2 360 1 378 2 393 1 419 1 445 1 470 1 471 1 481 1 496 1 498 1 519 1 523 1 553 1 601 1 620 1 643 1 647 1 658 1 660 1 694 1 704 1 713 1 732 2 766 1 794 1 807 1 831 1 867 1 919 1 927 1 936 1 959 1 975 1 976 1 196 1 216 1 254 1 266 1 267 1 271 1 300 1 305 1 333 1 335 1 340 1 347 1 370 1 385 1 395 1 406 1 417 1 432 1 439 1 464 1 488 1 500 1 521 1 557 1 569 1 611 1 629 1 675 1 680 1 684 1 710 1 733 1 748 1 765 1 771 1 786 1 792 1 812 1 825 1 827 1 847 1 853 1 855 1 857 1 865 1 876 1 922 1 952 1 960 1 966 1 1001 1 1009 1 1017 1 1019 1 
1 213 22 1 26 2 36 1 46 1 53 1 65 1 76 1 96 1 98 1 109 1 110 1 128 1 139 1 54 1 60 1 64 1 79 1 87 1 93 1 97 1 114 1 126 1 148 1 156 1 197 1 205 1 217 1 247 1 248 1 264 1 293 1 307 1 325 1 383 1 396 1 411 1 431 1 441 1 485 1 496 1 527 1 532 1 536 1 574 1 584 1 587 1 592 1 598 1 600 1 641 1 667 1 675 1 679 1 689 1 709 1 728 1 741 1 810 1 818 1 820 1 824 1 870 1 908 2 917 2 930 1 967 1 179 1 244 1 257 1 274 1 308 1 326 1 327 1 339 1 361 1 393 1 402 1 413 1 416 1 422 1 456 1 470 1 500 1 544 1 559 1 599 1 621 1 625 1 648 1 684 1 715 1 737 1 762 1 845 1 850 1 889 1 898 1 901 1 907 1 921 1 922 1 924 1 946 1 955 1 977 1 999 1 1000 1 1008 1 
1 212 1 1 23 1 41 1 50 1 70 1 99 1 103 1 125 1 126 1 140 1 4 1 12 1 30 1 61 1 68 1 75 1 84 1 124 1 151 1 186 1 189 1 208 1 209 1 215 1 219 1 255 1 261 1 276 2 280 1 321 1 380 1 393 1 400 1 424 1 444 1 447 1 469 1 503 1 508 1 537 1 578 1 592 1 604 1 606 1 607 1 616 1 633 1 634 1 658 1 673 1 690 1 723 1 780 1 803 1 815 1 835 1 836 1 861 1 864 1 867 1 884 1 934 1 948 1 959 1 966 1 990 1 152 1 165 1 176 1 190 1 213 1 223 1 231 1 247 1 333 1 369 1 384 1 388 1 398 1 421 1 468 1 489 1 514 1 539 1 567 1 589 1 598 1 603 1 610 1 622 1 626 1 629 1 630 1 682 1 687 1 700 1 720 1 721 1 759 1 766 1 788 1 797 1 837 1 860 1 881 1 890 1 918 1 940 1 977 1 1010 1 1012 1 
1 206 6 1 16 1 18 1 40 1 82 1 120 1 15 1 37 1 66 1 109 1 126 1 132 1 139 1 184 1 185 1 204 1 205 1 206 1 209 1 234 1 243 1 245 1 248 1 249 1 259 1 267 1 281 1 285 1 298 1 305 1 337 1 351 1 359 1 398 1 400 1 408 1 434 2 444 2 465 1 472 1 487 1 489 1 516 1 519 1 526 1 589 1 601 1 658 1 661 2 664 1 676 1 681 1 690 1 714 1 716 1 717 1 719 1 733 1 754 1 758 1 774 1 785 1 829 2 831 1 837 1 845 1 882 1 905 1 924 1 945 1 952 1 976 1 989 1 999 1 149 1 153 1 179 1 192 1 198 1 200 1 216 1 246 1 278 1 300 1 301 1 334 1 363 1 367 1 376 1 401 1 410 1 414 1 436 1 440 1 449 1 461 1 476 1 507 1 521 1 535 1 544 1 556 1 574 1 575 1 580 1 648 1 671 1 700 1 731 1 737 1 761 1 764 1 780 1 823 1 864 1 874 1 889 1 892 1 893 1 907 1 912 1 914 1 919 1 959 1 964 1 967 1 1014 1 
1 209 3 2 6 1 54 2 81 1 88 1 90 1 99 1 128 1 132 1 136 1 18 1 59 1 63 1 87 1 141 1 162 1 167 1 189 1 240 1 254 1 263 1 266 1 267 1 272 1 321 1 343 1 362 1 386 1 425 1 442 1 446 1 460 1 499 1 543 2 562 1 570 1 590 1 609 1 619 1 622 1 623 1 624 1 685 1 706 1 709 1 744 1 769 1 816 2 824 1 827 1 850 1 869 1 871 1 914 1 933 1 943 1 945 1 951 1 974 1 977 1 982 1 154 1 163 1 186 1 190 1 193 1 208 1 220 1 223 1 228 1 282 1 284 1 295 1 298 1 325 1 328 1 329 1 346 1 355 1 370 1 390 1 400 1 439 1 470 1 478 1 516 1 528 1 546 1 560 1 599 1 605 1 618 1 649 1 671 1 675 1 683 1 716 1 737 1 762 1 764 1 766 1 781 1 791 1 813 1 814 1 846 1 852 1 888 1 903 1 983 1 988 1 
1 209 17 1 24 1 74 1 88 1 107 1 128 1 130 1 142 1 144 1 1 1 6 1 30 1 51 1 83 1 92 1 95 1 106 1 150 1 162 1 184 1 191 2 218 1 221 1 230 1 238 1 266 1 279 1 293 1 295 1 306 1 311 1 338 1 364 1 367 1 440 1 462 1 467 1 494 1 505 1 546 1 592 1 661 1 686 1 704 2 733 1 751 1 759 1 770 1 777 2 783 1 821 1 841 1 849 1 853 1 856 1 872 1 873 1 885 1 898 1 909 1 919 2 935 1 936 1 945 1 971 1 996 1 164 1 166 1 178 1 182 1 201 1 220 1 242 1 243 1 265 1 286 1 301 1 307 1 329 1 331 1 344 1 356 1 390 1 392 1 393 1 409 1 429 1 431 1 443 1 458 1 482 1 506 1 513 1 555 1 558 1 570 1 583 1 602 1 643 1 650 1 653 1 656 1 674 1 675 1 678 1 687 1 753 1 765 1 828 1 861 1 867 1 878 1 886 1 895 1 922 1 926 1 929 1 940 1 977 1 986 1 1023 1 1024 1 1027 1 
1 212 2 1 9 1 28 1 34 1 43 1 44 1 65 1 78 1 91 1 92 1 138 1 139 1 62 1 73 1 86 1 112 1 128 1 134 1 146 1 151 1 159 1 172 1 187 1 188 2 206 1 211 1 250 1 259 1 265 1 267 1 290 1 307 1 328 1 339 1 354 1 363 1 399 1 413 1 433 1 469 1 473 1 488 1 499 1 528 1 532 1 581 1 624 1 632 1 647 1 649 1 687 1 691 1 702 1 720 1 735 1 772 1 822 1 865 1 893 1 901 1 924 1 956 1 967 2 968 1 972 1 978 1 983 1 177 1 195 1 218 1 244 1 262 1 294 1 340 1 357 1 374 1 411 1 417 1 421 1 423 1 444 1 446 1 476 1 493 1 509 1 523 1 544 1 556 1 563 1 578 1 592 1 593 1 611 1 640 1 663 1 680 1 683 1 717 1 722 1 747 1 750 1 766 1 790 1 792 1 829 1 832 1 861 1 889 1 897 1 905 1 922 1 945 1 965 1 996 1 1014 1 1016 1 1021 1 1022 1 1025 1 1027 1 
1 209 13 2 15 1 29 1 43 1 82 1 88 1 92 1 112 1 114 1 129 1 134 1 136 1 148 1 23 1 36 1 39 1 47 1 51 1 53 1 58 1 68 1 80 1 101 1 154 1 173 1 185 1 196 1 199 1 229 1 231 1 237 1 241 1 258 1 305 1 318 1 341 1 353 1 361 1 382 1 413 1 432 1 434 1 458 1 462 1 474 1 484 1 493 1 514 1 517 1 519 1 547 1 561 1 568 1 570 1 572 1 590 1 604 1 609 1 611 1 626 1 639 1 712 1 726 1 727 1 729 1 735 1 751 1 781 1 788 1 823 1 847 1 869 1 872 1 879 1 886 1 892 1 897 1 907 1 912 1 939 1 941 1 949 1 963 1 973 1 974 1 985 1 995 1 996 1 162 1 177 1 197 1 207 1 210 1 244 1 259 1 268 1 372 1 383 1 392 1 404 1 407 1 433 1 445 1 467 1 471 1 478 1 483 1 488 1 498 1 520 1 548 1 595 1 616 1 620 1 632 1 715 1 734 1 753 1 771 1 819 1 828 1 856 1 873 1 923 1 950 1 961 1 967 1 979 1 984 1 1010 1 1020 1 
1 206 4 1 7 1 23 1 28 1 39 1 61 1 74 1 103 1 114 1 119 1 122 1 133 1 145 1 149 1 21 1 32 1 73 1 87 1 134 1 196 1 207 1 267 1 356 1 368 1 394 1 406 1 421 1 423 1 432 1 434 1 458 1 459 1 494 1 532 1 540 1 559 2 582 1 598 1 622 1 626 1 631 1 664 1 666 1 678 1 679 1 680 2 707 1 719 1 727 1 731 1 741 1 758 1 763 1 772 1 776 1 829 1 840 1 875 1 877 1 903 1 921 1 928 1 947 1 984 1 996 1 162 1 200 1 269 1 276 1 322 1 340 1 360 1 375 1 379 1 388 1 412 1 424 1 428 1 430 1 457 1 468 1 479 1 481 1 493 1 513 1 556 1 564 1 580 1 587 1 599 1 603 1 605 1 618 1 621 1 670 1 691 1 706 1 720 1 721 1 751 1 793 1 879 1 884 1 888 1 907 1 949 1 958 1 974 1 1014 1 
1 209 6 1 67 1 80 1 100 1 123 1 140 1 39 1 42 1 54 1 64 1 65 1 110 1 125 1 145 1 164 1 188 1 197 1 221 1 251 1 328 1 332 2 350 2 377 1 402 1 406 1 415 1 461 1 494 1 503 1 512 1 513 1 554 1 584 1 603 1 615 2 643 1 644 1 645 1 648 1 673 1 690 1 699 1 738 1 787 1 792 1 796 1 809 1 829 1 843 1 844 1 849 1 860 1 871 1 888 1 913 1 924 1 943 1 946 1 999 1 155 1 186 1 229 1 239 1 266 1 310 1 317 1 356 1 362 1 370 1 381 1 383 1 384 1 388 1 418 1 423 1 428 1 433 1 464 1 465 1 466 1 490 1 495 1 525 1 552 1 556 1 572 1 609 1 614 1 634 1 637 1 669 1 681 1 682 1 689 1 719 1 739 1 750 1 767 1 802 1 806 1 831 1 862 1 879 1 886 1 892 1 897 1 907 1 916 1 918 1 1006 1 1008 1 1009 1 1012 1 1018 1 1024 1 
1 211 18 1 27 1 30 1 57 1 59 1 95 1 103 1 107 1 118 2 16 1 22 1 28 1 40 1 63 1 75 1 77 1 80 1 133 1 142 1 146 1 205 1 207 1 231 1 237 1 243 1 258 1 283 1 291 1 306 1 313 2 315 1 318 1 324 1 330 1 349 1 387 1 399 1 400 1 406 1 411 1 424 1 426 1 436 1 438 1 439 1 454 1 458 1 469 1 497 1 507 1 546 2 550 1 553 1 622 1 627 1 650 1 654 2 674 1 679 1 686 2 707 1 713 1 726 1 727 1 736 1 747 1 758 1 789 1 790 1 797 1 886 1 910 1 912 1 989 1 215 1 241 1 250 1 253 1 269 1 290 1 293 1 294 1 298 1 308 1 346 1 348 1 356 1 390 1 448 1 462 1 475 1 479 1 480 1 495 1 515 1 545 1 557 1 558 1 580 1 604 1 606 1 618 1 642 1 698 1 701 1 711 1 716 1 729 1 740 1 762 1 769 1 773 1 780 1 794 1 807 1 835 1 841 1 846 1 854 1 856 1 892 1 900 1 919 1 932 1 935 1 937 1 956 1 962 1 978 1 990 1 1009 1 1012 1 1014 1 1023 1 
1 207 11 1 44 1 83 1 87 1 102 1 104 1 110 1 111 1 113 1 132 1 150 1 20 1 26 1 37 1 68 1 76 1 84 1 99 1 112 1 139 1 147 1 167 1 176 1 200 1 220 2 242 1 243 1 245 1 257 2 280 1 288 1 300 1 312 1 313 1 321 1 329 1 342 1 360 1 368 1 461 1 463 1 499 1 505 1 508 2 532 1 562 1 591 1 598 1 621 2 624 1 657 1 664 1 702 1 719 1 720 1 754 1 756 1 760 1 768 1 775 1 783 1 787 1 813 1 819 2 856 1 891 1 905 1 908 1 958 1 966 1 997 1 169 1 172 1 177 1 179 1 194 1 212 1 232 1 236 1 237 1 240 1 271 1 279 1 314 1 316 1 322 1 346 1 372 1 382 1 388 1 402 1 404 1 444 1 480 1 492 1 518 1 540 1 593 1 605 1 641 1 667 1 686 1 743 1 757 1 771 1 802 1 803 1 854 1 868 1 879 1 882 1 919 1 923 1 926 1 936 1 956 1 994 1 1005 1 1010 1 
1 211 57 1 75 1 79 1 91 1 130 1 136 1 143 1 4 1 30 1 31 1 36 1 41 1 50 1 73 1 89 1 102 1 103 1 122 1 131 1 141 1 152 1 163 1 193 1 200 1 202 1 246 1 248 1 260 1 269 1 271 1 301 1 354 1 363 1 381 1 397 1 423 1 428 2 445 1 458 1 477 1 481 1 483 1 516 1 520 1 533 1 552 1 583 1 641 1 660 1 669 1 683 1 687 1 715 1 727 1 789 1 792 1 793 1 827 1 828 1 829 1 848 2 931 1 939 1 955 1 963 1 978 1 989 1 992 2 998 2 162 1 171 1 172 1 268 1 270 1 279 1 283 1 293 1 323 1 346 1 355 1 360 1 389 1 404 1 414 1 430 1 455 1 484 1 487 1 489 1 507 1 509 1 558 1 595 1 611 1 632 1 668 1 692 1 693 1 695 1 702 1 766 1 779 1 782 1 788 1 797 1 808 1 836 1 857 1 863 1 894 1 895 1 904 1 943 1 972 1 1002 1 1010 1 1015 1 1020 1 
1 208 3 1 5 1 20 1 67 1 79 1 107 1 116 1 144 1 2 1 29 1 30 1 33 1 53 1 74 1 110 1 119 1 129 1 161 1 162 1 169 1 173 1 191 1 211 1 226 1 261 1 278 2 282 1 307 1 313 1 318 1 329 1 364 1 410 1 411 1 434 1 448 1 476 1 477 1 570 1 588 1 623 1 638 1 686 1 695 1 709 1 721 1 748 1 791 1 806 1 831 2 883 1 908 1 971 1 977 1 978 1 185 1 187 1 192 1 208 1 218 1 243 1 272 1 286 1 291 1 302 1 311 1 314 1 316 1 342 1 345 1 346 1 371 1 394 1 423 1 426 1 445 1 468 1 519 1 528 1 545 1 549 1 578 1 587 1 590 1 592 1 639 1 647 1 678 1 694 1 729 1 740 1 749 1 750 1 756 1 777 1 789 1 798 1 827 1 841 1 843 1 893 1 897 1 901 1 930 1 939 1 942 1 949 1 968 1 1006 1 1009 1 1014 1 1027 1 
1 208 16 1 40 1 71 2 76 1 89 1 91 1 93 1 127 1 86 1 92 1 124 1 161 1 171 1 178 2 194 1 195 1 204 1 212 1 217 1 219 1 224 1 235 1 260 1 265 1 284 1 291 2 300 1 307 1 337 1 338 1 339 1 373 1 412 1 428 1 443 1 457 1 468 1 481 1 499 1 509 1 549 1 558 1 605 1 622 1 661 1 677 1 685 1 714 1 718 1 727 1 743 1 774 1 824 1 846 1 850 1 851 1 866 1 889 1 897 1 900 1 922 1 938 1 940 1 969 2 977 1 979 1 184 1 205 1 274 1 328 1 345 1 359 1 367 1 380 1 382 1 384 1 416 1 448 1 476 1 495 1 513 1 542 1 552 1 561 1 602 1 609 1 613 1 645 1 647 1 650 1 652 1 667 1 684 1 700 1 770 1 778 1 786 1 793 1 801 1 809 1 858 1 886 1 890 1 892 1 896 1 929 1 936 1 941 1 952 1 990 1 1001 1 1005 1 1019 1 1027 1 
1 208 29 1 34 1 39 1 46 1 84 1 100 1 105 1 112 1 138 1 17 1 40 1 63 1 69 1 76 1 95 1 106 1 108 1 116 1 122 1 134 1 161 1 193 2 199 1 200 1 207 1 231 1 248 1 252 1 287 1 290 1 300 1 323 1 335 1 342 1 348 1 354 2 359 1 360 1 373 1 380 1 382 1 406 1 414 1 425 1 444 1 466 2 476 1 480 1 523 1 526 1 561 1 579 1 588 1 608 1 662 1 704 1 712 1 718 1 757 1 767 1 773 1 774 1 780 1 813 1 814 1 849 1 851 1 863 1 866 1 879 1 898 1 932 1 948 1 955 1 961 1 966 1 969 1 990 1 996 1 194 1 219 1 229 1 253 1 262 1 264 1 328 1 346 1 358 1 368 1 372 1 407 1 411 1 428 1 429 1 449 1 461 1 489 1 492 1 506 1 522 1 557 1 559 1 580 1 581 1 596 1 635 1 639 1 640 1 674 1 697 1 706 1 707 1 724 1 748 1 753 1 790 1 791 1 812 1 858 1 862 1 876 1 900 1 907 1 940 1 941 1 994 1 1021 1 1025 1 
1 213 17 1 35 1 47 1 71 1 83 1 125 1 134 1 149 1 5 1 10 1 21 1 24 1 44 1 51 1 52 1 93 1 95 1 112 1 128 1 174 2 232 1 258 1 287 1 292 1 300 1 305 1 307 2 327 2 342 1 349 1 365 1 395 1 404 1 428 1 450 1 471 1 496 1 499 1 502 1 513 1 515 1 533 1 534 1 546 1 608 1 676 1 697 1 700 1 705 2 720 2 759 1 774 1 783 1 798 1 801 1 805 1 816 1 839 1 925 1 955 1 973 1 977 1 161 1 170 1 214 1 244 1 249 1 251 1 280 1 289 1 310 1 329 1 357 1 359 1 394 1 402 1 406 1 440 1 441 1 447 1 456 1 481 1 487 1 495 1 517 1 559 1 602 1 631 1 727 1 731 1 756 1 799 1 809 1 820 1 822 1 826 1 841 1 862 1 874 1 891 1 958 1 967 1 992 1 1005 1 1019 1 1020 1 1025 1 
1 209 11 1 52 1 53 1 55 1 91 1 137 1 141 1 13 1 17 1 19 1 31 1 32 1 56 1 77 1 96 1 100 1 103 1 114 1 133 1 184 1 186 1 199 1 218 1 223 1 232 1 238 1 257 1 273 1 279 1 280 1 297 1 304 1 308 1 317 1 324 1 330 2 332 1 348 1 358 2 384 1 408 1 411 1 422 1 427 1 446 1 472 1 479 1 481 1 491 2 493 1 511 1 548 1 560 1 568 1 576 1 591 1 598 1 614 1 616 1 622 1 633 1 646 1 696 1 711 1 715 1 726 1 819 1 827 1 853 1 857 1 865 2 886 1 899 1 900 1 901 1 924 2 203 1 217 1 220 1 239 1 243 1 254 1 272 1 277 1 311 1 320 1 325 1 336 1 400 1 406 1 415 1 424 1 429 1 457 1 471 1 489 1 500 1 519 1 559 1 567 1 580 1 595 1 603 1 619 1 624 1 639 1 648 1 690 1 728 1 783 1 784 1 814 1 824 1 837 1 844 1 869 1 880 1 888 1 907 1 915 1 929 1 932 1 943 1 973 1 986 1 1012 1 1018 1 1027 1 
1 212 8 1 30 1 33 1 44 1 61 1 72 1 85 1 103 1 118 1 130 1 156 1 157 1 158 1 3 1 4 1 42 1 45 1 47 1 57 1 63 1 75 1 79 1 88 1 89 1 108 1 110 1 137 1 139 1 140 1 159 1 165 1 218 1 251 1 258 1 262 1 279 2 282 1 293 1 296 1 374 1 406 1 408 1 434 1 450 1 451 1 479 1 482 1 522 1 531 1 532 1 544 1 546 1 556 1 559 1 562 1 591 1 605 1 628 1 629 1 653 1 657 1 659 1 666 1 687 2 697 1 702 1 704 1 708 1 720 1 740 1 744 1 748 1 759 1 772 1 797 1 807 1 808 1 849 1 866 1 897 1 923 1 932 1 967 1 969 1 174 1 190 1 225 1 231 1 239 1 254 1 265 1 272 1 320 1 351 1 356 1 357 1 365 1 373 1 402 1 403 1 443 1 454 1 463 1 481 1 503 1 507 1 545 1 560 1 587 1 688 1 689 1 755 1 758 1 791 1 863 1 865 1 955 1 963 1 989 1 1010 1 1014 1 1019 1 1024 1 
1 208 10 1 16 1 27 1 64 1 75 1 87 1 113 1 127 1 147 1 148 1 156 1 1 1 8 1 9 1 35 1 42 1 62 1 96 1 106 1 121 1 138 1 150 1 151 1 155 1 169 1 181 1 211 1 215 1 250 1 332 2 444 2 450 1 456 2 458 1 484 1 520 1 523 1 557 1 577 1 590 1 593 1 601 2 700 1 728 1 733 1 735 1 742 1 775 1 776 1 849 1 869 1 884 1 908 1 911 1 913 1 934 1 938 1 961 1 962 1 971 1 973 2 987 1 174 1 176 1 219 1 223 1 238 1 253 1 256 1 340 1 349 1 371 1 392 1 502 1 526 1 531 1 543 1 608 1 676 1 677 1 682 1 687 1 697 1 706 1 707 1 737 1 740 1 750 1 780 1 781 1 784 1 789 1 798 1 887 1 892 1 941 1 953 1 954 1 955 1 991 1 1018 1 1019 1 1021 1 1023 1 1026 1 
1 213 23 1 42 1 53 1 61 1 67 1 79 1 93 1 97 1 102 1 133 1 139 1 155 1 20 1 59 1 84 1 99 1 104 1 122 1 128 1 147 1 179 1 181 1 206 1 207 1 213 1 238 1 293 1 294 1 295 1 307 1 312 1 313 1 317 1 333 1 335 1 350 1 379 1 391 1 432 1 445 1 456 1 509 2 544 1 630 1 677 1 680 1 702 1 710 1 733 1 743 1 749 1 761 1 762 1 766 1 774 1 781 1 782 1 783 1 804 1 832 1 853 1 857 1 879 2 900 1 901 1 903 1 914 2 929 1 949 1 960 1 965 1 968 1 973 1 175 1 180 1 221 1 300 1 334 1 359 1 375 1 406 1 431 1 462 1 488 1 505 1 545 1 574 1 581 1 589 1 606 1 609 1 646 1 653 1 705 1 707 1 716 1 779 1 796 1 802 1 803 1 805 1 809 1 817 1 867 1 911 1 923 1 942 1 953 1 995 1 1003 1 1016 1 1020 1 1025 1 
1 210 13 1 16 1 20 1 40 1 69 1 88 1 111 1 119 1 122 1 127 1 152 1 4 1 32 1 43 1 46 1 55 1 65 1 72 1 81 1 84 1 90 1 91 1 104 1 113 1 124 1 148 1 164 1 164 1 166 1 296 1 311 1 331 1 343 1 365 2 367 1 405 1 463 1 478 2 498 1 541 1 550 1 551 1 557 1 565 1 570 2 585 1 599 1 615 1 617 1 623 1 632 1 638 1 654 1 675 1 679 1 681 1 692 1 709 1 747 1 748 1 751 1 754 1 791 1 837 1 854 2 858 1 859 1 872 1 912 1 919 1 956 1 997 1 168 1 186 1 187 1 200 1 224 1 228 1 237 1 287 1 305 1 412 1 424 1 454 1 469 1 487 1 490 1 525 1 527 1 555 1 559 1 569 1 576 1 627 1 642 1 669 1 689 1 716 1 729 1 773 1 781 1 828 1 830 1 840 1 884 1 886 1 906 1 910 1 937 1 967 1 987 1 1000 1 1001 1 1002 1 1010 1 1013 1 1018 1 1023 1 
1 211 6 1 10 1 19 1 33 1 98 1 111 2 139 1 161 1 24 1 42 1 43 1 45 1 46 1 48 1 53 1 60 1 67 1 70 1 88 1 101 1 132 1 145 1 175 1 198 2 234 1 253 1 296 1 330 1 368 1 391 1 409 1 426 1 428 1 435 1 445 1 471 1 505 1 521 1 577 1 601 1 610 1 622 1 630 1 638 1 651 1 671 1 673 1 696 1 721 1 737 1 738 1 751 1 753 1 757 1 769 1 783 1 829 1 832 1 849 1 873 1 897 1 899 1 903 1 913 2 934 1 941 1 969 1 971 1 974 1 998 1 174 1 186 1 213 1 239 1 244 1 263 1 274 1 276 1 308 1 323 1 342 1 348 1 351 1 491 1 518 1 566 1 568 1 579 1 581 1 603 1 628 1 648 1 657 1 688 1 690 1 697 1 702 1 772 1 788 1 811 1 812 1 853 1 868 1 869 1 895 1 926 1 946 1 966 1 967 1 976 1 979 1 982 1 993 1 997 1 999 1 1003 1 1007 1 1011 1 1018 1 1024 1 1027 1 
1 217 8 1 28 1 64 1 73 1 78 1 89 1 110 1 139 1 164 1 27 1 63 1 79 1 105 1 131 1 138 1 148 1 175 1 180 1 199 1 229 1 244 1 249 1 261 1 267 1 279 1 287 1 326 1 350 1 356 1 376 1 410 1 416 2 427 1 431 1 435 2 445 1 457 1 469 1 476 1 487 2 515 1 518 1 583 1 591 1 601 1 606 1 628 1 632 1 700 1 706 1 713 1 743 1 757 1 764 2 813 1 826 1 846 1 876 1 884 1 893 1 908 1 910 2 919 1 936 1 947 1 970 1 989 1 991 1 186 1 204 1 242 1 251 1 257 1 275 1 293 1 311 1 353 1 363 1 470 1 479 1 528 1 544 1 545 1 566 1 582 1 587 1 621 1 634 1 648 1 663 1 665 1 670 1 673 1 684 1 693 1 694 1 703 1 778 1 791 1 796 1 801 1 812 1 825 1 831 1 839 1 848 1 849 1 851 1 856 1 866 1 882 1 889 1 896 1 1001 1 1004 1 1005 1 
1 215 7 2 10 1 18 1 19 1 81 1 95 1 110 1 134 1 147 1 154 1 1 1 29 1 46 1 79 1 93 1 116 1 127 1 176 2 211 2 212 1 236 2 252 1 279 1 284 1 306 1 326 1 341 2 347 1 378 1 410 2 430 1 431 1 453 1 455 1 471 2 497 1 521 1 530 1 560 1 564 1 582 1 595 1 600 1 615 1 645 1 669 1 684 1 696 1 707 2 730 1 773 1 775 1 787 1 803 1 815 1 816 1 864 1 876 1 890 1 892 1 908 1 983 1 986 1 171 1 207 1 209 1 242 1 246 1 256 1 290 1 302 1 305 1 346 1 356 1 393 1 411 1 436 1 466 1 468 1 491 1 516 1 563 1 568 1 573 1 578 1 603 1 616 1 658 1 674 1 675 1 711 1 733 1 760 1 767 1 805 1 811 1 839 1 879 1 936 1 938 1 941 1 963 1 992 1 997 1 1002 1 1005 1 1015 1 
1 209 20 1 22 1 40 1 52 1 59 1 61 1 71 1 74 2 77 1 106 1 142 1 14 1 68 1 121 1 139 1 164 1 178 1 207 1 213 1 217 1 230 1 239 1 262 1 268 1 303 1 305 2 311 1 316 1 326 1 334 1 340 1 348 1 349 1 356 1 370 1 383 1 410 1 417 1 418 1 419 1 449 1 450 2 468 1 481 1 493 1 494 2 495 1 503 1 504 1 508 2 509 1 539 1 630 1 650 1 685 1 688 1 707 1 725 1 752 1 753 1 780 1 791 1 831 1 872 1 882 1 904 1 910 1 917 1 921 2 926 1 931 1 945 1 992 2 181 1 196 1 201 1 222 1 246 1 299 1 313 1 324 1 328 1 336 1 362 1 369 1 390 1 398 1 401 1 427 1 461 1 534 1 537 1 546 1 548 1 553 1 569 1 571 1 578 1 607 1 611 1 639 1 657 1 663 1 675 1 719 1 732 1 745 1 771 1 773 1 774 1 789 1 793 1 794 1 799 1 809 1 819 1 833 1 874 1 885 1 913 1 923 1 1009 1 1012 1 1023 1 1027 1 
1 211 60 1 61 2 82 1 118 1 156 1 162 1 3 1 5 1 20 1 65 1 75 1 76 1 116 1 121 1 126 1 154 1 172 1 208 1 216 1 218 1 227 1 255 1 258 1 259 1 290 1 313 1 326 1 356 1 362 1 406 2 418 1 454 1 475 1 491 1 558 1 564 1 570 1 614 1 625 1 649 2 661 1 669 1 705 1 706 1 737 1 745 1 763 1 776 1 789 1 790 1 791 1 826 1 858 1 864 1 876 1 890 1 901 1 920 1 927 1 986 1 174 1 187 1 194 1 214 1 223 1 249 1 250 1 266 1 304 1 334 1 421 1 470 1 487 1 495 1 537 1 554 1 555 1 561 1 583 1 624 1 636 1 651 1 656 1 658 1 659 1 663 1 665 1 718 1 746 1 759 1 773 1 777 1 779 1 794 1 810 1 823 1 852 1 855 1 882 1 884 1 924 1 932 1 951 1 956 1 966 1 991 1 1006 1 1008 1 1014 1 1017 1 
1 210 37 1 61 1 79 1 105 1 120 1 9 1 35 1 36 1 41 1 42 1 46 1 62 1 87 1 93 1 96 1 159 1 184 2 185 1 201 1 221 1 230 1 237 1 238 1 241 1 255 1 269 1 306 1 315 1 316 2 323 1 327 1 331 1 341 1 353 1 361 1 464 1 474 1 481 1 489 1 494 1 513 1 520 1 553 1 586 1 589 1 622 1 644 1 654 1 687 1 691 1 725 1 726 1 740 1 758 1 767 1 775 1 846 1 856 1 861 1 881 1 888 1 919 1 928 1 931 1 944 1 965 1 970 1 991 1 994 1 175 1 189 1 200 1 223 1 285 1 303 1 305 1 354 1 359 1 374 1 394 1 407 1 454 1 479 1 498 1 499 1 506 1 521 1 524 1 528 1 544 1 547 1 548 1 567 1 575 1 592 1 629 1 650 1 652 1 666 1 692 1 717 1 730 1 731 1 774 1 783 1 797 1 799 1 808 1 816 1 886 1 894 1 943 1 971 1 998 1 1009 1 1023 1 
1 208 3 1 20 1 41 1 89 1 102 1 129 1 157 1 27 1 37 1 38 1 45 1 56 1 77 1 78 1 79 1 117 1 136 1 142 1 155 1 167 1 175 1 182 1 196 1 197 1 216 1 222 1 232 1 235 1 270 1 302 1 311 1 352 1 376 1 377 1 388 2 397 2 407 1 412 1 421 1 470 1 501 1 517 1 525 1 527 1 528 2 538 1 566 1 608 1 614 1 623 1 633 1 653 1 659 1 661 1 671 1 729 1 797 1 821 1 846 1 877 1 884 1 886 1 897 1 909 1 919 1 940 1 946 1 956 1 968 1 972 1 979 1 983 1 984 1 985 1 997 1 192 1 219 1 221 1 236 1 259 1 275 1 276 1 285 1 289 1 294 1 308 1 345 1 356 1 395 1 419 1 438 1 440 1 477 1 486 1 492 1 578 1 598 1 610 1 611 1 618 1 625 1 626 1 732 1 758 1 768 1 782 1 820 1 835 1 838 1 856 1 872 1 874 1 883 1 896 1 911 1 914 1 920 1 932 1 936 1 959 1 961 1 980 1 993 1 1001 1 1004 1 1006 1 1011 1 1025 1 1027 1 
1 209 14 1 17 1 77 1 88 1 99 1 133 1 149 1 169 1 23 1 25 1 29 1 85 1 86 1 106 1 128 1 132 1 136 1 154 1 155 1 206 1 222 1 253 1 254 1 261 1 316 1 320 1 331 1 333 1 359 1 366 1 367 1 495 1 521 1 546 1 588 1 591 1 620 2 633 2 639 1 679 1 708 1 725 1 740 1 744 1 764 1 770 1 773 1 788 1 808 1 821 1 822 2 869 1 870 1 879 1 882 1 923 1 927 1 929 1 931 1 949 1 962 1 998 1 181 1 230 1 267 1 275 1 303 1 315 1 335 1 353 1 377 1 378 1 385 1 387 1 401 1 420 1 421 1 430 1 460 1 462 1 465 1 468 1 498 1 505 1 515 1 520 1 528 1 531 1 547 1 619 1 625 1 631 1 643 1 694 1 704 1 727 1 733 1 761 1 765 1 769 1 779 1 799 1 834 1 868 1 925 1 958 1 983 1 994 1 999 1 1018 1 1020 1 1025 1 
1 208 34 1 38 1 99 1 104 1 118 1 139 1 150 1 156 1 4 1 56 1 61 1 105 1 135 1 178 1 200 1 214 1 217 1 225 1 254 1 257 2 258 1 286 1 294 1 303 1 317 1 328 1 338 1 347 1 373 1 378 1 388 1 398 1 412 1 415 1 421 1 450 1 463 1 492 1 509 1 543 1 558 1 573 2 579 1 583 1 588 1 592 1 601 2 641 1 644 1 653 1 682 2 683 1 684 1 690 1 700 1 733 1 736 1 745 1 759 1 772 1 787 1 800 1 824 1 839 1 865 1 875 1 893 1 926 1 930 1 935 1 949 2 952 1 956 1 978 1 988 1 198 1 204 1 252 1 263 1 264 1 298 1 322 1 326 1 341 1 368 1 392 1 396 1 400 1 404 1 419 1 427 1 454 1 466 1 477 1 496 1 511 1 512 1 525 1 540 1 554 1 564 1 571 1 616 1 627 1 647 1 668 1 672 1 678 1 695 1 737 1 777 1 785 1 823 1 852 1 855 1 863 1 878 1 886 1 909 1 918 1 942 1 948 1 958 1 971 1 981 1 1004 1 1005 1 
1 208 34 1 38 1 52 1 60 1 70 1 79 1 121 1 136 1 159 2 17 1 30 1 44 1 48 1 55 1 141 1 161 1 162 1 165 1 169 1 174 1 174 1 180 1 181 1 187 1 190 1 200 1 204 1 241 1 260 1 265 1 269 1 275 1 276 1 332 2 340 1 361 2 368 1 371 1 387 1 388 1 397 1 436 1 455 1 456 1 459 1 463 1 477 2 479 1 507 1 519 1 521 1 551 1 560 1 563 1 568 1 571 1 583 1 645 2 654 1 663 1 664 1 667 1 668 2 679 1 683 1 695 1 753 1 764 1 784 2 788 1 828 1 851 1 855 1 863 1 919 1 934 2 958 1 976 1 979 1 192 1 209 1 216 1 221 1 228 1 244 1 312 1 370 1 423 1 447 1 450 1 457 1 469 1 478 1 518 1 553 1 565 1 593 1 606 1 647 1 698 1 719 1 721 1 791 1 798 1 805 1 872 1 874 1 887 1 889 1 901 1 930 1 975 1 983 1 984 1 990 1 999 1 1000 1 1005 1 1010 1 1025 1 
1 206 7 1 20 1 31 1 92 1 97 1 102 1 109 1 119 1 165 1 166 1 171 1 19 1 41 1 65 1 78 1 110 1 112 1 163 1 170 1 177 1 193 1 271 1 280 1 302 1 306 1 313 1 325 1 337 1 353 1 358 1 371 1 384 1 386 1 450 1 474 1 477 1 487 1 526 1 551 1 553 1 579 1 585 1 595 1 617 1 647 2 668 1 703 1 755 1 776 1 801 2 826 1 851 1 874 1 877 1 883 1 915 1 930 1 182 1 211 1 238 1 244 1 250 1 255 1 260 1 277 1 284 1 299 1 310 1 344 1 350 1 368 1 383 1 403 1 406 1 451 1 490 1 494 1 498 1 499 1 512 1 513 1 574 1 578 1 600 1 608 1 654 1 657 1 665 1 715 1 762 1 778 1 806 1 810 1 824 1 834 1 837 1 852 1 869 1 927 1 929 1 943 1 947 1 975 1 979 1 980 1 992 1 1000 1 1004 1 
1 206 37 1 48 1 72 1 73 2 77 1 80 1 99 1 101 1 111 1 139 1 154 1 167 2 14 1 15 1 40 1 88 1 119 1 131 1 145 1 162 1 206 1 215 1 242 1 244 1 246 1 256 1 306 1 310 1 313 1 316 1 329 2 345 1 368 1 395 1 421 1 432 1 437 1 453 1 493 2 503 1 521 1 532 1 552 1 570 1 574 1 580 1 584 1 630 1 635 1 650 1 667 2 675 1 730 1 777 1 794 2 812 1 824 1 846 1 864 1 882 1 891 1 932 1 937 1 960 1 985 2 988 1 989 1 991 1 225 1 227 1 235 1 333 1 356 1 370 1 372 1 384 1 400 1 426 1 434 1 435 1 462 1 480 1 502 1 507 1 576 1 600 1 617 1 639 1 654 1 703 1 709 1 748 1 752 1 753 1 760 1 816 1 817 1 835 1 836 1 843 1 853 1 859 1 860 1 867 1 905 1 951 1 957 1 1014 1 
1 211 9 1 20 1 44 1 47 1 81 1 97 1 118 1 140 1 175 1 7 1 26 1 95 1 117 1 120 1 135 1 149 1 150 1 154 1 179 2 185 1 210 1 217 1 228 1 242 1 253 1 266 1 285 1 310 1 322 2 326 1 346 1 367 1 369 1 443 1 445 1 464 1 467 1 473 2 474 1 495 1 540 1 547 1 557 1 574 1 580 1 631 1 641 1 702 1 724 1 751 1 756 1 766 1 774 1 804 1 820 1 828 1 845 1 862 1 876 1 881 1 892 1 913 1 916 1 965 1 993 1 995 1 187 1 194 1 197 1 245 1 276 1 314 1 348 1 350 1 351 1 362 1 373 1 433 1 449 1 456 1 463 1 502 1 518 1 554 1 578 1 591 1 597 1 601 1 605 1 619 1 621 1 637 1 645 1 686 1 687 1 691 1 695 1 704 1 705 1 716 1 742 1 745 1 798 1 810 1 839 1 873 1 882 1 894 1 927 1 933 1 950 1 999 1 1006 1 1011 1 1014 1 1018 1 
1 210 21 1 23 1 44 1 56 1 80 1 112 1 119 1 121 1 157 2 168 1 173 1 2 1 3 1 7 1 8 1 16 1 29 1 36 1 42 1 51 1 53 1 59 1 99 1 116 1 131 1 148 1 181 1 194 1 198 1 211 1 212 1 231 1 233 1 236 1 243 1 253 1 263 1 268 1 275 1 293 1 345 1 351 2 359 1 361 2 362 1 366 1 394 2 406 1 410 1 423 1 428 1 433 1 440 1 484 1 495 1 537 1 563 1 566 1 568 1 572 1 573 1 582 1 585 1 602 1 632 1 638 2 677 1 681 1 696 1 699 1 709 1 719 1 740 1 757 1 763 1 766 1 767 1 829 1 851 1 866 1 895 1 900 1 930 1 933 1 937 2 938 1 957 1 971 1 983 1 993 2 999 1 184 1 288 1 295 1 305 1 308 1 325 1 328 1 340 1 353 1 368 1 369 1 373 1 384 1 400 1 434 1 445 1 454 1 461 1 475 1 612 1 628 1 629 1 667 1 717 1 723 1 759 1 802 1 818 1 848 1 870 1 884 1 975 1 986 1 989 1 996 1 998 1 1000 1 1002 1 1006 1 1015 1 1022 1 
1 213 11 1 66 1 91 1 92 1 99 1 112 1 122 1 141 1 163 1 177 2 26 1 39 1 43 1 62 1 63 1 72 1 84 1 87 1 93 1 124 1 136 1 144 1 146 1 154 1 207 1 215 1 256 2 274 1 275 1 279 1 281 1 300 1 317 1 343 1 377 1 404 1 441 1 458 1 472 1 475 1 478 2 479 1 499 1 514 1 519 1 528 1 542 1 544 2 550 1 556 1 575 1 654 1 741 1 750 1 758 1 760 1 774 1 780 1 783 1 844 1 863 1 881 1 965 1 981 1 989 1 995 1 999 1 198 1 214 1 237 1 257 1 261 1 271 1 278 1 308 1 320 1 338 1 348 1 351 1 376 1 411 1 420 1 437 1 497 1 508 1 536 1 539 1 545 1 617 1 618 1 631 1 632 1 640 1 651 1 656 1 659 1 668 1 679 1 700 1 727 1 740 1 773 1 782 1 786 1 788 1 796 1 826 1 827 1 861 1 869 1 901 1 932 1 949 1 967 1 969 1 1004 1 1006 1 1011 1 1013 1 1025 1 
1 207 36 1 40 1 50 1 65 1 67 1 80 1 102 1 116 1 133 1 166 1 174 1 7 1 31 1 79 1 88 1 92 1 103 1 106 1 128 1 132 1 142 1 163 1 227 1 233 1 234 1 240 1 251 1 257 1 264 1 268 1 294 1 300 1 302 1 308 1 340 1 347 1 356 1 361 1 365 1 382 1 386 1 392 1 401 1 404 1 417 1 475 1 491 1 531 1 561 1 650 2 663 1 687 1 696 1 708 1 725 1 749 1 754 1 760 1 761 1 809 1 856 1 858 1 859 1 866 1 872 1 876 1 906 1 909 1 918 1 936 1 961 1 962 1 970 1 977 1 983 1 204 1 213 1 255 1 288 1 292 1 355 1 363 1 385 1 442 1 456 1 463 1 486 1 502 1 508 1 526 1 533 1 544 1 560 1 579 1 616 1 620 1 633 1 673 1 682 1 736 1 739 1 769 1 789 1 792 1 822 1 826 1 868 1 897 1 900 1 953 1 960 1 964 1 1005 1 1008 1 1023 1 1026 1 
1 209 1 1 7 1 14 1 40 1 49 1 50 1 82 1 114 1 132 1 162 1 163 1 174 1 178 1 20 1 24 1 31 1 38 1 61 1 81 1 85 1 116 1 138 1 168 1 172 1 203 1 232 1 233 1 273 1 311 1 312 1 347 1 354 1 381 1 395 1 407 1 411 2 412 1 417 1 429 1 457 1 463 1 508 1 545 1 582 1 590 1 620 1 644 1 690 1 710 1 719 1 723 1 760 1 766 1 778 1 800 1 801 1 813 2 847 1 868 1 872 1 900 1 925 1 950 1 956 1 974 1 984 1 200 1 211 1 214 1 217 1 240 1 255 1 256 1 260 1 292 1 299 1 315 1 333 1 348 1 350 1 366 1 389 1 427 1 431 1 447 1 450 1 472 1 496 1 521 1 534 1 539 1 560 1 588 1 607 1 609 1 616 1 631 1 711 1 720 1 724 1 740 1 751 1 775 1 786 1 796 1 804 1 845 1 852 1 854 1 919 1 923 1 938 1 943 1 946 1 960 1 971 1 1002 1 1010 1 1025 1 
1 214 47 1 54 1 57 1 59 1 87 1 135 1 139 1 171 1 8 1 10 1 15 1 16 1 22 1 30 1 42 1 44 1 45 1 52 1 63 1 65 1 85 1 97 1 105 1 117 1 131 1 132 1 148 1 175 1 185 1 202 1 203 2 254 1 262 1 272 1 290 1 310 2 329 1 353 1 410 1 454 1 481 1 515 1 516 1 538 1 572 1 601 2 628 1 638 1 640 1 642 1 648 1 664 1 673 2 685 2 698 1 703 1 746 1 748 1 770 1 790 1 796 2 829 1 852 1 853 1 874 1 877 1 880 1 887 1 897 1 908 1 925 2 955 1 959 1 975 1 991 1 187 1 208 1 216 1 252 1 258 1 271 1 328 1 341 1 383 1 398 1 429 1 432 1 453 1 502 1 507 1 509 1 517 1 551 1 557 1 561 1 585 1 609 1 617 1 620 1 621 1 632 1 678 1 737 1 753 1 780 1 797 1 798 1 801 1 802 1 812 1 860 1 890 1 891 1 893 1 899 1 907 1 937 1 953 1 966 1 972 1 983 1 986 1 1011 1 1015 1 1024 1 1027 1 
1 214 6 1 9 1 18 1 22 1 98 1 130 1 10 1 14 1 21 1 28 1 58 1 93 1 192 1 196 1 197 1 215 1 221 1 226 1 248 1 255 1 258 1 261 1 270 1 319 1 331 1 334 1 359 1 364 1 418 2 458 1 476 1 481 1 497 1 509 2 515 1 531 1 539 1 572 1 596 1 628 1 653 1 668 1 771 1 773 1 790 1 803 1 834 1 860 1 862 1 878 1 881 1 884 1 909 2 913 1 917 1 930 1 952 1 955 2 962 1 992 2 193 1 222 1 243 1 244 1 251 1 273 1 279 1 282 1 287 1 294 1 299 1 315 1 316 1 346 1 362 1 411 1 427 1 469 1 474 1 483 1 502 1 503 1 505 1 507 1 514 1 532 1 535 1 540 1 562 1 570 1 597 1 646 1 647 1 669 1 688 1 702 1 704 1 726 1 780 1 785 1 787 1 811 1 838 1 867 1 871 1 892 1 899 1 914 1 923 1 939 1 941 1 944 1 967 1 988 1 1008 1 1010 1 1020 1 1025 1 
1 206 32 1 38 1 54 1 66 1 115 1 146 1 148 1 160 1 170 2 3 1 57 1 77 1 82 1 94 1 113 1 157 1 178 1 194 1 204 1 216 1 235 1 259 1 262 1 270 1 282 1 314 1 326 1 330 1 347 1 383 1 440 1 441 1 457 1 467 2 501 1 525 1 528 2 535 1 562 1 567 2 610 1 626 1 631 1 645 1 668 1 696 1 699 1 709 1 753 1 769 1 814 1 818 1 841 1 888 1 897 1 911 1 925 1 962 1 971 1 192 1 193 1 205 1 221 1 226 1 229 1 238 1 243 1 253 1 267 1 284 1 298 1 304 1 345 1 353 1 378 1 381 1 403 1 409 1 414 1 415 1 422 1 443 1 485 1 512 1 521 1 543 1 550 1 557 1 601 1 615 1 653 1 658 1 671 1 673 1 691 1 718 1 730 1 738 1 765 1 776 1 786 1 802 1 831 1 837 1 846 1 847 1 868 1 881 1 973 1 975 1 1001 1 1008 1 1020 1 
1 207 6 1 9 1 23 1 28 1 48 1 59 1 95 1 117 1 140 2 146 1 150 1 170 1 177 1 182 1 10 1 76 1 81 1 99 1 111 1 115 1 121 1 156 1 226 1 261 2 266 1 329 1 339 1 346 2 366 1 402 1 403 1 404 1 409 1 413 1 420 1 449 1 467 1 471 1 518 2 519 1 600 1 603 1 615 1 619 2 623 1 653 1 654 1 670 1 678 1 699 1 744 1 758 1 778 1 780 1 781 1 784 1 793 1 815 1 837 1 850 1 867 1 880 1 892 1 902 1 911 1 928 1 957 1 976 1 984 1 186 1 194 1 198 1 205 1 208 1 240 1 255 1 268 1 274 1 275 1 277 1 336 1 371 1 411 1 415 1 456 1 473 1 494 1 524 1 538 1 564 1 581 1 633 1 646 1 648 1 688 1 710 1 721 1 743 1 770 1 809 1 810 1 857 1 873 1 887 1 901 1 944 1 950 1 959 1 974 1 980 1 1009 1 1012 1 
1 213 16 1 30 1 52 1 53 1 86 1 100 1 101 1 124 1 145 1 160 1 22 1 24 1 27 1 36 1 49 1 78 1 90 1 98 1 136 1 147 1 152 1 164 1 165 1 166 1 185 1 186 1 186 1 204 1 206 1 223 1 231 1 240 1 258 1 268 1 279 1 289 2 306 1 321 1 324 1 341 1 342 1 374 1 438 1 465 1 516 1 543 1 568 1 575 1 576 1 578 1 607 1 620 1 656 1 661 1 662 2 691 1 732 1 783 1 793 1 846 1 864 1 878 1 890 1 895 1 925 1 938 1 997 1 203 1 241 1 242 1 253 1 266 1 277 1 294 1 315 1 348 1 360 1 370 1 382 1 394 1 404 1 406 1 411 1 415 1 417 1 441 1 461 1 463 1 464 1 476 1 491 1 529 1 559 1 586 1 590 1 601 1 637 1 641 1 655 1 699 1 713 1 788 1 794 1 812 1 825 1 879 1 920 1 923 1 929 1 945 1 951 1 996 1 1004 1 1005 1 1009 1 1017 1 1024 1 1026 1 
1 209 19 1 26 1 40 1 55 1 60 1 80 1 85 2 113 1 149 1 174 1 7 1 11 1 29 1 43 1 97 1 156 1 164 1 169 1 177 1 182 1 210 1 245 1 253 1 277 2 296 1 311 1 319 1 325 2 326 1 340 1 373 1 392 1 393 1 408 1 413 1 436 1 437 1 471 1 473 1 487 1 519 1 521 1 551 1 554 1 559 2 567 1 577 1 591 2 593 1 637 1 645 1 651 1 674 2 689 1 691 1 705 1 718 1 729 1 743 2 763 1 766 2 779 1 788 1 789 1 790 1 807 1 839 1 890 1 898 1 901 1 933 1 961 1 204 1 231 1 281 1 282 1 286 1 317 1 327 1 333 1 347 1 352 1 362 1 366 1 440 1 444 1 447 1 454 1 479 1 540 1 548 1 557 1 589 1 596 1 607 1 615 1 623 1 636 1 643 1 677 1 720 1 725 1 736 1 760 1 774 1 811 1 837 1 853 1 854 1 856 1 866 1 928 1 943 1 977 1 982 1 1000 1 1007 1 1014 1 1020 1 
1 210 6 1 14 1 26 1 32 1 39 1 51 1 52 1 54 1 72 1 89 1 100 1 109 1 114 1 131 1 149 2 152 1 82 1 93 1 124 1 188 1 188 1 189 1 204 1 228 1 249 1 262 1 267 1 293 1 305 1 310 1 327 2 344 1 354 1 371 1 388 1 399 1 409 1 433 1 434 1 435 1 437 1 449 1 472 1 569 1 634 1 663 1 675 1 730 1 753 1 780 1 785 1 788 1 796 1 812 1 824 1 836 1 838 1 862 1 885 1 912 1 930 1 936 1 946 1 949 1 953 1 959 1 201 1 222 1 236 1 241 1 275 1 279 1 299 1 312 1 382 1 394 1 443 1 462 1 489 1 502 1 523 1 533 1 562 1 575 1 635 1 660 1 668 1 671 1 682 1 686 1 688 1 705 1 768 1 771 1 784 1 818 1 826 1 870 1 882 1 888 1 894 1 911 1 937 1 958 1 973 1 984 1 1019 1 1020 1 1027 1 
1 210 25 1 53 1 54 1 73 1 92 1 118 2 145 1 147 1 188 1 1 1 36 1 107 1 108 1 170 1 246 1 249 1 282 2 285 1 298 1 299 1 311 1 343 1 347 1 361 1 404 2 410 1 443 2 459 1 468 2 495 1 502 1 504 1 522 1 530 1 602 1 608 1 613 1 621 1 676 1 687 1 690 1 697 1 702 1 755 1 769 2 773 1 779 1 788 1 867 1 870 1 872 1 876 1 879 1 891 2 934 1 937 2 953 1 975 1 216 1 218 1 226 1 275 1 279 1 293 1 297 1 342 1 349 1 354 1 357 1 378 1 379 1 400 1 421 1 455 1 458 1 465 1 492 1 506 1 515 1 529 1 556 1 569 1 591 1 637 1 638 1 692 1 712 1 743 1 775 1 785 1 789 1 804 1 831 1 850 1 860 1 907 1 915 1 923 1 957 1 988 1 998 1 1008 1 1013 1 
1 214 8 1 9 1 14 1 17 1 26 1 38 1 40 2 48 1 49 1 60 1 75 1 81 1 101 1 102 1 132 1 134 1 174 1 18 1 30 1 63 1 83 1 84 1 98 1 109 1 145 1 147 1 161 1 209 1 223 1 237 1 261 1 266 1 284 1 290 1 305 1 346 1 371 1 436 1 443 1 526 1 538 1 548 1 549 1 551 2 559 2 568 1 587 1 595 1 673 1 694 1 713 1 714 1 724 1 730 1 732 1 768 2 771 1 792 1 818 1 822 1 840 1 862 1 872 1 890 1 898 1 930 1 943 1 970 2 982 1 988 1 990 1 997 1 210 1 264 1 269 1 271 1 311 1 348 1 349 1 356 1 364 1 367 1 377 1 395 1 404 1 408 1 475 1 481 1 497 1 525 1 544 1 560 1 589 1 603 1 665 1 674 1 721 1 747 1 751 1 752 1 778 1 779 1 833 1 844 1 942 1 962 1 965 1 977 1 992 1 1001 1 1008 1 1018 1 1022 1 
1 209 10 1 35 1 36 1 49 1 54 1 69 1 74 1 75 1 88 1 122 1 142 1 148 2 156 1 33 1 51 1 66 1 113 1 118 1 120 1 140 1 273 1 285 1 286 1 313 1 314 1 340 1 344 1 367 1 376 1 418 1 468 1 469 1 480 1 518 1 531 1 593 1 613 1 634 1 642 1 694 1 723 1 743 1 747 1 760 1 777 1 778 1 793 1 815 1 821 1 825 1 829 2 844 1 864 1 875 1 888 1 890 1 901 1 928 1 942 1 952 1 965 1 972 1 996 1 193 1 201 1 223 1 225 1 233 1 249 1 259 1 262 1 287 1 301 1 320 1 345 1 371 1 381 1 390 1 401 1 404 1 406 1 411 1 424 1 454 1 472 1 473 1 522 1 534 1 537 1 591 1 603 1 629 1 669 1 683 1 688 1 691 1 715 1 716 1 740 1 741 1 751 1 830 1 853 1 907 1 926 1 944 1 979 1 980 1 986 1 1007 1 1010 1 1021 1 1024 1 
1 210 17 2 22 1 39 1 51 1 84 1 103 1 106 1 112 1 117 1 120 1 122 1 183 1 11 1 33 1 78 1 85 1 99 1 116 1 123 1 130 1 132 1 135 1 138 1 146 1 156 1 171 1 174 1 184 1 214 1 236 1 242 1 245 1 261 1 274 1 289 1 290 1 302 1 327 1 333 1 349 1 355 1 357 1 379 1 396 1 409 1 442 1 462 1 496 1 554 1 583 2 599 2 618 1 639 2 644 1 652 1 654 1 668 1 708 1 712 1 734 1 739 1 743 1 749 1 760 1 769 2 780 1 851 1 871 1 908 1 914 1 943 1 982 1 206 1 210 1 215 1 225 1 227 1 238 1 263 1 275 1 342 1 394 1 400 1 407 1 417 1 422 1 465 1 467 1 474 1 511 1 534 1 550 1 559 1 573 1 675 1 679 1 695 1 715 1 730 1 756 1 761 1 774 1 777 1 793 1 797 1 800 1 830 1 854 1 858 1 868 1 874 1 877 1 890 1 910 1 965 1 968 1 988 1 1013 1 1014 1 1021 1 
1 212 9 1 62 1 72 1 97 1 103 1 155 1 158 2 175 1 24 1 38 1 48 1 78 1 86 1 111 1 124 1 136 1 147 1 183 1 184 1 191 1 230 1 238 1 248 1 254 1 299 1 303 1 305 1 316 1 327 1 334 1 373 1 418 1 462 1 464 1 523 1 553 1 554 2 597 1 603 1 609 1 648 1 671 1 672 1 679 1 686 2 732 2 733 1 744 1 783 1 791 1 800 1 801 1 813 1 815 1 835 1 836 1 876 1 936 1 942 1 971 1 978 1 981 1 208 1 213 1 218 1 282 1 314 1 329 1 333 1 341 1 344 1 347 1 352 1 382 1 393 1 409 1 422 1 424 1 425 1 432 1 435 1 475 1 479 1 480 1 501 1 531 1 547 1 607 1 608 1 635 1 647 1 699 1 703 1 766 1 782 1 784 1 786 1 789 1 817 1 839 1 846 1 873 1 896 1 911 1 945 1 1000 1 1002 1 1010 1 1013 1 1017 1 1024 1 
1 210 1 1 17 1 28 1 32 1 62 1 71 1 102 1 104 1 106 1 157 1 178 1 184 1 2 1 7 1 44 1 52 1 59 1 99 1 113 1 154 1 158 1 169 1 177 1 185 1 219 1 221 2 270 1 272 1 287 1 291 1 300 1 305 1 318 1 343 1 345 1 376 1 387 1 414 1 428 1 431 1 440 1 502 1 519 1 565 2 582 1 590 1 594 1 656 1 657 1 671 1 686 1 695 1 703 1 707 1 713 1 723 1 727 1 728 1 735 1 758 1 762 1 779 1 809 1 815 1 829 1 845 1 850 1 861 1 870 1 892 1 894 1 906 1 919 1 942 1 945 1 947 1 981 1 985 1 196 1 203 1 242 1 247 1 265 1 268 1 273 1 332 1 338 1 340 1 380 1 425 1 429 1 452 1 465 1 480 1 508 1 530 1 532 1 539 1 548 1 650 1 658 1 685 1 696 1 701 1 717 1 752 1 769 1 786 1 798 1 830 1 839 1 842 1 843 1 851 1 868 1 876 1 878 1 879 1 883 1 900 1 908 1 910 1 911 1 939 1 977 1 983 1 1006 1 
1 216 52 1 90 1 100 1 112 1 139 1 157 1 19 1 25 1 49 1 102 1 118 1 149 1 219 1 244 1 271 1 291 1 310 1 316 1 324 1 330 1 336 1 356 1 363 1 392 1 425 1 429 1 434 1 483 1 484 1 486 1 504 1 514 1 544 1 547 1 560 1 569 1 576 1 578 1 595 1 597 1 600 1 603 1 610 1 614 1 684 1 706 1 710 1 722 1 739 1 775 1 776 1 800 1 824 1 843 1 882 1 887 1 896 1 897 1 906 1 912 1 915 1 925 1 930 1 939 1 947 1 950 1 957 1 973 1 978 1 985 2 237 1 249 1 262 1 272 1 298 1 335 1 343 1 370 1 382 1 422 1 444 1 451 1 485 1 520 1 527 1 549 1 551 1 557 1 593 1 605 1 606 1 607 1 621 1 641 1 653 1 675 1 717 1 724 1 725 1 742 1 760 1 762 1 795 1 803 1 854 1 893 1 914 1 926 1 928 1 940 1 969 1 974 1 975 1 1003 1 1004 1 1010 1 1015 1 1025 1 
1 209 20 1 25 1 44 1 52 1 62 1 114 1 119 1 134 1 150 1 151 1 171 1 183 1 35 1 41 1 67 1 113 1 143 1 168 1 194 1 234 1 239 1 245 1 252 1 259 1 285 1 298 1 368 1 397 1 416 1 443 1 446 1 451 1 472 1 577 1 610 1 612 1 613 1 631 1 655 1 689 1 697 1 703 1 731 2 739 1 769 1 807 1 828 1 831 1 834 1 835 1 873 1 917 1 921 1 922 1 931 1 941 1 199 1 209 1 231 1 266 1 271 1 288 1 313 1 327 1 360 1 377 1 385 1 410 1 419 1 432 1 438 1 455 1 483 1 503 1 504 1 514 1 516 1 527 1 549 1 599 1 618 1 637 1 639 1 663 1 691 1 695 1 712 1 723 1 726 1 728 1 749 1 789 1 799 1 847 1 848 1 862 1 886 1 887 1 897 1 912 1 915 1 918 1 935 1 964 1 994 1 995 1 1007 1 1014 1 1017 1 1023 1 
1 214 13 1 68 1 93 1 100 1 126 1 134 1 135 1 144 1 152 1 171 1 183 1 38 1 41 1 77 1 84 1 119 1 150 1 177 1 212 1 224 1 239 1 253 1 257 1 320 1 347 1 349 1 351 1 369 1 372 1 381 2 399 1 431 1 458 1 467 1 492 1 518 1 528 1 537 1 542 1 548 1 566 1 569 2 584 1 587 1 595 1 607 1 613 1 618 1 632 1 661 1 666 1 671 1 672 1 688 1 707 1 709 1 718 1 737 1 760 1 789 1 790 1 794 1 845 2 867 1 868 1 877 1 900 1 948 1 955 1 995 1 208 1 227 1 237 1 258 1 267 1 291 1 345 1 361 1 388 1 411 1 420 1 423 1 446 1 473 1 485 1 488 1 493 1 532 1 540 1 558 1 639 1 640 1 654 1 659 1 677 1 689 1 697 1 734 1 735 1 769 1 806 1 810 1 840 1 888 1 889 1 903 1 938 1 987 1 988 1 993 1 1010 1 1012 1 1014 1 1021 1 
1 209 16 1 39 1 42 1 62 1 69 1 72 1 78 2 122 1 165 2 178 1 7 1 28 1 29 1 54 1 146 1 173 1 179 1 185 1 207 1 210 1 217 1 221 1 229 1 230 1 252 1 263 1 287 1 288 1 293 1 308 1 322 1 346 2 391 1 424 1 500 1 548 1 566 1 582 1 594 1 605 1 609 1 613 1 615 1 618 1 621 1 624 1 662 1 735 1 752 1 791 1 792 1 820 1 843 1 854 1 870 1 910 1 945 1 952 1 957 1 961 1 980 1 995 1 213 1 223 1 256 1 257 1 266 1 289 1 332 1 364 1 373 1 384 1 396 1 407 1 411 1 449 1 450 1 466 1 482 1 483 1 486 1 490 1 503 1 506 1 513 1 515 1 533 1 559 1 572 1 578 1 583 1 597 1 617 1 619 1 622 1 653 1 672 1 676 1 680 1 724 1 749 1 787 1 798 1 808 1 831 1 863 1 918 1 931 1 951 1 953 1 964 1 975 1 976 1 998 1 1002 1 1016 1 
1 212 7 1 25 1 26 1 40 1 52 1 60 1 68 1 92 1 118 1 143 1 150 1 158 1 160 1 166 1 27 1 56 1 81 1 86 1 88 1 96 1 112 1 117 1 133 1 135 1 142 1 196 1 204 1 206 1 208 1 211 2 261 1 281 1 284 1 336 1 342 1 360 1 361 1 381 1 402 1 410 1 417 1 432 1 444 1 446 2 476 1 506 1 508 1 510 1 514 1 517 1 520 1 525 1 529 1 540 1 570 1 608 1 609 1 632 1 682 1 720 1 722 1 726 1 738 1 768 1 794 1 816 1 821 1 831 1 856 1 871 1 888 1 892 1 915 1 952 1 967 1 996 1 232 1 238 1 241 1 248 1 260 1 273 1 278 1 328 1 332 1 343 1 344 1 348 1 363 1 385 1 387 1 422 1 466 1 475 1 488 1 491 1 495 1 509 1 528 1 531 1 536 1 564 1 572 1 574 1 583 1 585 1 586 1 644 1 648 1 670 1 683 1 697 1 700 1 723 1 762 1 764 1 771 1 800 1 806 1 818 1 844 1 853 1 857 1 859 1 895 1 902 1 905 1 930 1 946 1 973 1 975 1 1005 1 1015 1 1019 1 1021 1 
1 212 24 1 53 1 80 1 95 1 154 1 155 1 158 1 173 1 174 1 5 1 9 1 10 1 25 1 38 1 61 1 69 1 76 1 104 1 126 1 134 1 146 1 151 1 164 1 170 1 181 1 205 1 206 1 213 1 230 1 245 1 277 1 292 1 370 2 391 1 393 1 405 1 414 1 416 1 417 1 437 1 459 1 479 1 482 2 490 1 491 1 509 1 526 1 539 1 553 1 573 1 579 1 592 1 606 1 625 1 627 1 630 1 655 1 698 1 715 1 724 1 753 1 768 1 769 1 783 1 826 1 861 1 884 1 889 1 902 1 913 2 964 1 977 1 215 1 222 1 223 1 238 1 279 1 304 1 312 1 326 1 332 1 429 1 466 1 498 1 557 1 631 1 643 1 656 1 664 1 677 1 734 1 735 1 743 1 744 1 749 1 755 1 761 1 773 1 815 1 836 1 844 1 852 1 877 1 882 1 917 1 942 1 968 1 972 1 975 1 987 1 1017 1 1026 1 
1 216 27 1 32 1 35 1 67 1 72 1 97 1 125 1 131 1 170 1 17 1 73 1 89 1 128 1 134 1 148 1 168 1 188 1 191 1 204 1 205 1 212 1 223 1 232 1 313 1 326 1 337 1 386 1 397 1 398 1 423 1 427 1 435 1 442 1 448 1 460 1 474 1 509 1 517 1 520 1 545 1 555 1 556 1 558 1 586 1 595 1 606 1 616 1 624 2 664 1 665 1 674 1 690 2 691 1 693 2 727 1 745 1 759 1 764 1 769 1 771 1 789 1 790 1 803 1 807 1 814 1 835 1 868 1 869 1 886 1 887 1 905 1 917 2 922 1 926 1 959 1 215 1 271 1 281 1 302 1 311 1 319 1 340 1 348 1 360 1 429 1 459 1 466 1 470 1 496 1 505 1 534 1 547 1 570 1 581 1 629 1 672 1 684 1 709 1 770 1 775 1 776 1 778 1 811 1 841 1 865 1 872 1 878 1 895 1 912 1 934 1 993 1 1000 1 1001 1 1003 1 1005 1 1022 1 1024 1 1027 1 
1 209 62 1 65 1 90 1 94 1 142 1 155 1 182 1 47 1 56 1 131 1 206 1 236 1 264 1 270 1 283 1 324 2 330 1 331 1 351 1 380 1 391 1 400 1 434 1 436 2 438 1 447 1 452 1 524 1 586 1 592 1 632 1 640 1 651 1 658 1 688 1 689 2 710 1 727 1 743 1 766 1 840 1 877 1 883 1 903 1 914 1 919 1 934 1 939 1 951 1 986 1 989 1 993 1 235 1 246 1 284 1 285 1 290 1 302 1 304 1 309 1 317 1 333 1 359 1 366 1 374 1 384 1 413 1 418 1 426 1 432 1 442 1 468 1 476 1 496 1 516 1 540 1 552 1 574 1 588 1 595 1 597 1 616 1 639 1 655 1 673 1 699 1 700 1 703 1 706 1 708 1 740 1 867 1 879 1 891 1 925 1 930 1 953 1 959 1 962 1 966 1 985 1 997 1 1007 1 1009 1 1011 1 1012 1 
1 211 4 1 9 1 11 1 19 1 25 1 70 1 88 1 108 1 113 1 131 1 140 1 181 1 182 2 1 1 39 1 48 1 57 1 91 1 95 1 104 1 122 1 125 1 160 1 186 1 194 1 240 1 271 1 280 1 292 1 314 1 334 1 337 1 376 1 399 1 427 1 452 1 481 1 505 1 510 1 560 1 592 1 594 1 661 1 685 1 687 1 695 1 717 1 733 1 742 1 757 1 772 1 776 1 812 2 824 1 826 1 855 2 861 1 870 1 888 1 899 1 901 1 910 1 936 1 979 1 986 1 988 1 990 1 231 1 239 1 308 1 309 1 312 1 317 1 345 1 360 1 366 1 383 1 384 1 401 1 454 1 475 1 521 1 524 1 571 1 578 1 590 1 598 1 606 1 616 1 620 1 634 1 642 1 664 1 694 1 699 1 724 1 750 1 761 1 763 1 770 1 860 1 897 1 909 1 920 1 943 1 944 1 965 1 974 1 1000 1 1011 1 1018 1 
1 215 40 1 42 1 101 1 119 1 146 1 157 1 174 1 184 1 186 1 188 1 199 1 201 1 3 1 5 1 7 1 47 1 48 1 86 1 131 1 136 1 166 1 173 1 180 1 187 1 204 1 204 1 218 1 246 1 257 1 314 2 349 1 372 1 386 1 405 1 452 1 476 1 490 1 493 1 509 1 526 1 541 1 542 1 545 1 559 1 561 1 570 1 574 1 598 1 611 1 637 1 641 1 655 1 691 1 773 2 774 1 779 1 798 1 816 1 849 1 861 1 889 1 906 1 910 1 912 1 922 1 930 1 979 1 980 1 211 1 250 1 260 1 316 1 355 1 380 1 381 1 382 1 384 1 424 1 433 1 442 1 458 1 462 1 521 1 536 1 547 1 571 1 576 1 577 1 595 1 597 1 606 1 608 1 646 1 676 1 678 1 679 1 692 1 697 1 701 1 756 1 778 1 786 1 812 1 855 1 858 1 859 1 868 1 890 1 911 1 942 1 948 1 959 1 990 1 993 1 999 1 1007 1 1008 1 1009 1 1013 1 1020 1 1025 1 
1 217 7 1 10 1 144 1 146 1 153 1 200 1 201 1 6 1 32 1 88 1 131 1 157 1 184 1 185 1 217 1 239 1 245 1 258 1 265 1 270 1 280 2 293 1 317 1 349 1 386 1 406 1 421 1 429 1 459 1 460 1 469 1 484 2 485 1 548 1 554 1 558 1 572 1 600 1 617 1 631 1 632 1 661 1 678 1 695 1 699 2 720 2 724 1 792 1 800 1 805 1 819 1 830 1 898 1 909 1 949 1 973 1 984 2 282 1 316 1 329 1 340 1 359 1 374 1 376 1 381 1 388 1 398 1 400 1 416 1 427 1 436 1 444 1 481 1 491 1 536 1 539 1 577 1 606 1 609 1 638 1 651 1 682 1 700 1 718 1 748 1 758 1 806 1 808 1 845 1 850 1 875 1 891 1 894 1 899 1 907 1 912 1 914 1 965 1 982 1 992 1 1011 1 1012 1 1015 1 1022 1 1024 1 1025 1 
1 206 2 2 29 1 56 2 83 1 101 1 130 1 146 1 149 1 163 1 172 1 176 1 186 1 199 1 200 1 202 1 28 1 51 1 74 1 81 1 105 1 107 1 112 1 141 1 192 1 250 1 253 1 324 1 326 1 327 1 336 2 371 1 376 1 386 1 413 1 457 1 476 1 477 1 487 1 489 1 511 1 565 1 581 1 591 1 596 1 660 1 711 1 716 1 729 1 732 1 740 1 743 1 761 1 815 1 831 1 838 1 887 1 896 1 939 1 941 1 966 1 275 1 278 1 281 1 296 1 305 1 375 1 380 1 385 1 422 1 423 1 438 1 443 1 481 1 515 1 556 1 561 1 574 1 607 1 634 1 647 1 669 1 674 1 692 1 696 1 705 1 787 1 790 1 806 1 859 1 862 1 866 1 883 1 886 1 894 1 903 1 904 1 907 1 945 1 953 1 956 1 1002 1 
1 214 1 2 20 1 28 2 46 1 50 1 51 1 55 1 80 1 93 1 97 1 151 1 153 1 158 1 163 1 168 1 179 1 198 1 21 1 23 1 26 1 27 1 54 1 57 1 82 1 84 1 127 1 150 1 167 1 215 1 238 1 245 1 246 1 252 1 284 1 315 1 332 1 344 1 347 1 352 1 358 1 367 1 372 1 390 1 392 1 429 1 449 1 457 1 458 1 475 1 480 1 481 2 483 1 486 1 490 1 521 1 528 1 547 1 562 1 577 1 668 1 680 1 712 1 721 1 730 1 731 1 768 1 778 1 784 1 788 1 817 1 844 1 845 1 851 1 852 1 876 1 897 1 906 1 907 1 919 1 949 2 968 1 990 2 997 1 232 1 234 1 257 1 278 1 300 1 342 1 346 1 357 1 369 1 408 1 413 1 414 1 418 1 477 1 515 1 516 1 532 1 568 1 582 1 592 1 609 1 654 1 660 1 664 1 677 1 678 1 691 1 702 1 724 1 753 1 776 1 799 1 900 1 921 1 933 1 1001 1 1011 1 1015 1 1016 1 
1 210 22 1 30 2 39 1 60 1 69 1 73 1 94 1 117 1 140 1 145 1 169 1 199 1 2 1 4 1 21 1 53 1 57 1 89 1 147 1 156 1 182 1 185 1 193 1 197 1 212 1 227 1 239 1 243 1 248 1 264 1 268 1 283 1 291 1 311 1 314 1 319 1 353 2 375 1 389 1 395 1 411 2 439 1 454 1 472 1 484 1 488 1 521 1 538 1 539 1 541 1 554 1 596 1 647 1 671 1 679 1 681 1 712 1 722 1 728 1 730 1 749 1 779 1 783 1 800 1 842 1 876 1 924 1 930 1 945 1 996 1 210 1 224 1 235 1 263 1 284 1 313 1 315 1 331 1 341 1 356 1 362 1 367 1 429 1 434 1 437 1 441 1 518 1 531 1 571 1 600 1 603 1 619 1 648 1 666 1 695 1 706 1 715 1 731 1 745 1 761 1 772 1 787 1 792 1 823 1 845 1 912 1 919 1 956 1 966 1 977 1 978 1 995 1 1009 1 1022 1 
1 211 10 1 58 1 84 1 107 2 139 1 145 1 146 1 190 1 16 1 24 1 29 1 44 1 56 1 60 1 61 1 69 1 77 1 104 1 167 1 174 1 196 1 210 1 231 1 232 1 253 1 326 1 329 2 333 1 375 1 404 1 414 1 432 1 451 1 493 1 497 1 511 1 512 1 520 1 522 1 547 1 549 1 563 1 574 1 586 1 675 1 692 1 696 1 709 2 757 1 759 1 825 1 839 1 854 1 875 1 878 1 886 1 910 1 917 1 931 1 937 1 939 1 940 1 945 1 975 1 986 1 259 1 266 1 280 1 283 1 284 1 290 1 296 1 301 1 308 1 316 1 318 1 322 1 342 1 365 1 415 1 418 1 437 1 480 1 526 1 529 1 620 1 634 1 636 1 645 1 716 1 749 1 767 1 823 1 824 1 851 1 858 1 859 1 879 1 897 1 904 1 964 1 972 1 992 1 1009 1 1013 1 1020 1 
1 205 43 2 56 1 62 1 80 1 85 1 88 1 89 1 99 1 141 1 177 1 187 1 198 1 209 1 3 1 58 1 72 1 81 1 127 1 150 1 190 1 192 1 208 1 238 1 269 1 305 2 310 1 329 1 330 1 339 1 363 1 388 1 391 1 478 2 479 1 521 2 523 1 626 1 637 1 685 1 719 1 729 1 738 1 787 1 805 1 829 1 850 1 878 1 887 1 914 1 934 1 949 1 952 1 236 1 260 1 307 1 336 1 353 1 365 1 382 1 395 1 405 1 421 1 432 1 480 1 491 1 512 1 544 1 552 1 576 1 579 1 586 1 613 1 615 1 630 1 650 1 664 1 670 1 689 1 716 1 763 1 771 1 772 1 773 1 782 1 789 1 794 1 810 1 830 1 844 1 861 1 871 1 901 1 932 1 959 1 987 1 992 1 1008 1 1010 1 
1 206 22 1 26 1 43 1 58 1 110 1 122 1 149 1 156 1 162 1 167 2 178 1 199 2 4 1 12 1 25 1 68 1 123 1 132 1 134 1 175 1 181 1 204 1 212 1 231 1 236 1 262 1 331 1 338 1 343 1 385 1 386 1 435 1 454 1 479 1 487 1 503 1 511 1 523 1 551 1 557 1 561 1 564 1 572 1 617 1 637 1 640 1 671 1 700 1 732 1 758 1 765 1 775 1 830 1 884 1 914 1 936 1 946 1 970 1 218 1 225 1 227 1 234 1 254 1 278 1 296 1 334 1 347 1 356 1 376 1 412 1 421 1 436 1 441 1 448 1 496 1 531 1 542 1 544 1 547 1 552 1 568 1 600 1 622 1 625 1 648 1 676 1 690 1 701 1 708 1 711 1 712 1 717 1 723 1 747 1 750 1 757 1 761 1 774 1 804 1 816 1 831 1 839 1 841 1 858 1 859 1 898 1 900 1 905 1 920 1 965 1 967 1 976 1 979 1 1003 1 1023 1 1025 1 
1 211 7 1 21 2 43 1 51 1 112 1 120 1 141 1 157 1 167 1 178 1 197 1 201 1 208 1 211 1 1 1 40 1 55 1 61 1 66 1 93 1 97 1 100 1 119 1 121 1 130 1 133 1 134 1 154 1 222 1 275 1 306 1 340 1 381 1 402 1 431 1 450 1 466 1 501 1 513 1 523 1 544 2 550 1 551 1 579 2 580 1 584 1 601 1 633 1 680 1 682 1 741 1 750 1 817 1 825 1 832 1 846 1 855 1 860 1 873 1 889 1 892 1 969 1 972 1 995 1 215 1 229 1 261 1 296 1 309 1 345 1 348 1 388 1 394 1 413 1 439 1 469 1 470 1 493 1 506 1 512 1 538 1 540 1 542 1 545 1 554 1 570 1 571 1 576 1 595 1 596 1 666 1 679 1 686 1 689 1 718 1 754 1 788 1 794 1 802 1 806 1 830 1 854 1 870 1 886 1 888 1 917 1 945 1 958 1 974 1 982 1 1007 1 1014 1 
1 209 4 1 12 1 21 1 30 1 45 1 51 1 95 1 116 1 121 1 142 1 163 1 168 1 200 1 9 1 11 1 96 1 113 1 123 1 127 1 135 1 145 1 165 1 180 1 193 1 198 1 217 1 229 1 249 1 298 2 300 1 303 1 323 1 369 1 382 1 399 1 408 1 411 1 420 1 430 1 442 1 447 1 448 1 453 1 498 1 508 1 518 1 534 1 553 1 554 1 564 1 577 1 582 1 590 1 602 1 640 1 646 1 652 1 694 1 698 1 703 1 737 1 743 1 748 1 753 1 755 1 768 1 797 1 826 1 829 1 864 1 873 1 924 1 925 1 930 1 948 1 949 1 971 1 980 1 990 1 239 1 253 1 261 1 279 1 306 1 322 1 324 1 351 1 410 1 427 1 428 1 431 1 441 1 460 1 478 1 513 1 514 1 520 1 544 1 557 1 568 1 592 1 598 1 623 1 667 1 673 1 688 1 722 1 729 1 758 1 763 1 781 1 796 1 805 1 811 1 813 1 834 1 852 1 866 1 875 1 939 1 953 1 954 1 976 1 984 1 992 1 1006 1 1019 1 
1 214 8 1 51 1 57 1 71 1 102 1 128 1 173 1 192 1 2 1 29 1 100 1 107 1 159 1 169 1 179 1 181 1 218 2 234 1 247 1 271 1 290 1 292 1 294 1 298 1 326 1 343 1 344 1 351 2 359 1 364 1 400 1 421 1 428 1 440 1 462 1 528 1 534 1 554 2 560 1 580 1 598 1 613 1 616 1 628 1 643 1 689 1 706 1 711 1 715 1 716 1 741 1 766 1 769 1 799 1 810 1 834 1 850 1 880 1 903 1 922 1 946 1 973 1 975 1 983 1 992 1 224 1 235 1 254 1 262 1 281 1 284 1 285 1 295 1 299 1 320 1 322 1 341 1 353 1 406 1 415 1 438 1 443 1 479 1 494 1 504 1 505 1 555 1 557 1 568 1 585 1 587 1 630 1 637 1 650 1 655 1 662 1 684 1 693 1 701 1 702 1 718 1 751 1 777 1 792 1 802 1 827 1 914 1 952 1 974 1 987 1 1011 1 1015 1 1023 1 1027 1 
1 214 4 1 20 1 40 2 56 1 69 1 107 1 143 1 145 1 162 1 176 1 179 1 183 1 207 1 7 1 28 1 29 1 53 1 65 1 83 1 85 1 93 1 108 1 115 1 120 1 121 1 126 1 153 1 192 1 200 1 201 1 212 1 218 1 264 1 330 1 331 1 394 1 404 1 434 1 437 1 443 1 445 1 462 1 465 1 466 1 469 1 507 1 516 1 543 1 552 1 601 1 607 1 618 1 627 1 685 1 697 1 736 2 746 1 749 2 757 1 787 1 788 1 808 1 821 1 824 1 829 1 834 1 839 1 879 1 885 1 911 1 945 1 981 1 249 1 250 1 284 1 289 1 297 1 300 1 301 1 310 1 342 1 378 1 390 1 392 1 411 1 422 1 449 1 457 1 478 1 499 1 501 1 517 1 554 1 582 1 585 1 621 1 635 1 677 1 706 1 714 1 754 1 777 1 852 1 871 1 872 1 921 1 927 1 937 1 965 1 1002 1 1012 1 1015 1 
1 212 10 1 26 1 32 1 50 1 90 1 104 1 109 1 118 1 127 1 142 1 169 1 171 1 184 1 18 1 43 1 70 1 89 1 103 1 143 1 146 1 174 1 182 1 189 1 230 2 234 1 260 1 267 1 277 1 286 1 320 1 324 1 327 1 354 1 356 2 369 1 385 1 401 2 449 1 457 1 507 1 510 1 519 1 520 1 565 1 571 1 573 1 577 1 583 1 588 1 590 1 635 1 639 1 649 1 653 1 668 2 673 1 680 2 686 1 695 1 697 2 702 1 729 1 732 1 739 1 753 1 765 1 782 1 796 1 806 1 874 1 908 1 926 1 949 1 951 1 958 1 983 1 990 2 229 1 240 1 251 1 297 1 307 1 309 1 310 1 316 1 372 1 374 1 386 1 416 1 483 1 500 1 514 1 528 1 539 1 543 1 596 1 602 1 659 1 661 1 682 1 685 1 742 1 756 1 773 1 798 1 805 1 818 1 837 1 858 1 880 1 884 1 893 1 912 1 929 1 1000 1 1016 1 1020 1 1021 1 
1 214 10 1 16 1 62 1 86 2 94 1 96 1 124 1 129 1 144 1 157 1 168 1 173 1 177 1 198 1 205 1 213 1 4 1 22 1 39 1 65 1 89 1 111 1 120 1 121 1 160 1 181 1 227 1 242 1 252 1 287 1 305 1 328 1 343 1 366 1 379 1 383 1 388 1 418 1 438 1 452 1 455 1 500 1 509 1 513 1 562 1 602 1 639 1 649 1 656 1 674 1 686 2 695 1 698 1 720 1 742 1 749 1 768 1 838 1 862 1 880 1 898 1 906 1 934 1 949 1 950 1 957 1 964 1 992 1 284 1 333 1 340 1 372 1 384 1 414 1 425 1 534 1 548 1 551 1 575 1 583 1 629 1 663 1 668 1 717 1 726 1 738 1 759 1 774 1 781 1 783 1 788 1 790 1 795 1 829 1 834 1 844 1 884 1 890 1 918 1 930 1 944 1 960 1 979 1 983 1 1006 1 1012 1 1019 1 
1 214 8 1 19 1 66 1 83 1 99 1 148 1 160 1 161 1 169 1 204 1 214 2 215 1 24 1 54 1 55 1 57 1 63 1 96 1 109 1 130 1 136 1 137 1 149 1 156 1 189 1 193 1 211 1 218 1 218 1 272 1 276 1 306 1 313 1 331 1 353 1 359 1 363 1 377 1 380 1 402 1 425 1 429 1 438 1 458 1 479 1 508 2 514 1 526 1 532 1 556 1 563 1 565 1 570 1 595 1 597 1 620 1 662 1 670 1 674 1 675 1 684 2 697 1 707 1 717 1 721 1 819 1 834 1 838 1 851 1 900 1 904 2 906 1 937 1 940 1 983 1 226 1 245 1 274 1 293 1 312 1 350 1 355 1 374 1 396 1 414 1 420 1 423 1 447 1 450 1 452 1 453 1 473 1 500 1 518 1 591 1 594 1 601 1 629 1 639 1 673 1 681 1 688 1 689 1 765 1 787 1 814 1 816 1 842 1 868 1 880 1 882 1 919 1 935 1 944 1 995 1 1005 1 1007 1 1011 1 1012 1 1020 1 
1 215 12 1 14 1 40 1 44 1 61 1 85 1 93 1 106 1 111 1 114 2 145 1 157 1 194 1 195 1 49 1 56 1 83 1 122 1 126 1 158 1 162 1 171 1 226 1 239 1 244 1 263 1 269 1 271 1 272 1 273 1 289 1 293 1 298 2 336 1 337 1 358 1 387 1 388 1 393 1 406 1 407 1 431 1 438 1 444 1 447 1 452 1 467 1 477 1 504 1 507 1 525 1 535 1 537 1 551 1 561 1 568 1 604 1 607 1 621 1 649 1 703 1 707 1 711 1 717 1 753 1 757 1 767 1 768 2 789 1 823 1 851 1 853 1 872 1 940 1 949 1 952 1 993 2 999 1 230 1 234 1 276 1 315 1 338 1 374 1 377 1 384 1 403 1 417 1 422 1 466 1 481 1 489 1 500 1 519 1 522 1 562 1 564 1 623 1 628 1 659 1 661 1 675 1 677 1 683 1 689 1 709 1 713 1 724 1 791 1 836 1 857 1 880 1 918 1 944 1 947 1 955 1 960 1 972 1 974 1 975 1 996 1 1005 1 1006 1 1013 1 1015 1 1017 1 1018 1 1021 1 
1 208 7 1 63 1 68 1 77 1 93 1 106 1 115 1 130 1 132 1 140 1 154 2 2 1 21 1 43 1 46 1 76 1 86 1 96 1 104 1 111 1 119 1 139 1 147 1 148 1 160 1 225 2 227 1 241 1 244 1 248 1 249 1 268 1 284 1 290 1 313 1 342 1 350 1 355 1 358 1 407 1 463 1 471 1 481 1 484 1 498 1 507 1 510 1 513 1 527 1 538 1 594 1 626 1 635 1 650 1 658 1 669 1 691 1 701 1 758 1 793 1 803 1 860 1 868 1 894 1 904 1 908 1 919 1 921 1 931 1 968 1 970 1 994 2 240 1 247 1 298 1 312 1 315 1 329 1 356 1 365 1 373 1 375 1 388 1 402 1 426 1 451 1 461 1 476 1 497 1 516 1 524 1 575 1 585 1 610 1 611 1 630 1 651 1 673 1 695 1 724 1 771 1 810 1 825 1 840 1 854 1 857 1 876 1 932 1 946 1 963 1 984 1 991 1 1017 1 1026 1 
1 209 24 1 54 1 57 1 70 1 72 1 129 1 148 1 152 1 170 1 183 1 194 2 198 1 5 1 18 1 47 1 51 1 117 1 125 1 163 1 171 1 174 1 184 1 224 1 230 1 246 1 282 1 283 1 297 1 304 1 316 1 347 2 375 1 385 1 414 1 451 1 452 2 526 1 546 1 567 1 571 1 648 1 703 1 741 1 742 1 760 1 765 1 806 1 816 1 818 1 833 1 875 1 923 1 954 1 980 1 252 1 274 1 276 1 295 1 329 1 333 1 335 1 374 1 383 1 387 1 396 1 428 1 438 1 477 1 480 1 493 1 497 1 519 1 533 1 575 1 578 1 631 1 635 1 641 1 650 1 651 1 655 1 681 1 685 1 700 1 712 1 768 1 795 1 801 1 805 1 812 1 828 1 842 1 852 1 859 1 887 1 889 1 911 1 922 1 932 1 951 1 970 1 981 1 997 1 1003 1 1012 1 
1 208 7 1 32 1 62 1 76 1 81 1 89 1 125 2 126 1 138 2 171 1 172 1 212 1 19 1 36 1 57 1 61 1 73 1 103 1 119 1 168 1 183 1 188 1 200 1 229 1 259 1 275 1 300 1 318 1 329 1 337 1 338 1 379 1 381 1 413 1 416 1 429 1 456 1 460 1 480 1 488 1 496 1 509 1 515 1 531 1 537 1 543 1 546 1 551 1 558 1 572 1 600 1 610 1 627 1 651 1 653 2 660 1 738 1 747 1 751 1 761 1 765 2 832 1 878 1 887 1 894 1 901 1 960 1 965 1 967 2 231 1 261 1 270 1 297 1 299 1 321 1 331 1 378 1 401 1 410 1 417 1 428 1 438 1 444 1 469 1 474 1 492 1 495 1 539 1 555 1 573 1 574 1 617 1 647 1 663 1 666 1 677 1 706 1 713 1 731 1 739 1 815 1 854 1 890 1 910 1 922 1 975 1 981 1 983 1 1006 1 1013 1 1015 1 1016 1 1017 1 1019 1 
1 209 2 1 11 1 27 1 112 1 160 1 186 1 190 1 201 1 13 1 23 1 29 1 36 1 39 1 47 1 64 1 74 1 94 1 121 1 129 1 145 1 147 1 162 1 169 1 170 1 191 1 198 1 200 1 228 1 252 1 283 1 302 1 305 1 309 1 327 1 397 1 401 1 413 1 436 1 451 1 512 1 523 1 539 1 569 1 581 1 584 1 590 1 596 1 598 1 609 1 621 1 624 1 626 1 630 1 664 1 671 1 681 1 687 1 701 1 718 1 747 2 773 1 794 1 839 1 844 1 851 1 853 1 856 1 861 1 913 1 931 1 953 1 960 2 963 1 967 2 984 1 230 1 246 1 299 1 307 1 334 1 356 1 369 1 423 1 424 1 441 1 459 1 461 1 475 1 488 1 497 1 505 1 526 1 577 1 612 1 640 1 679 1 695 1 717 1 728 1 735 1 737 1 741 1 750 1 762 1 765 1 776 1 797 1 800 1 809 1 822 1 825 1 836 1 857 1 873 1 920 1 941 1 972 1 982 1 1021 1 
1 207 3 1 13 1 30 1 62 1 85 1 105 1 129 1 157 1 197 1 221 1 8 1 11 1 61 1 65 1 79 1 164 1 208 1 214 1 226 1 231 1 244 1 280 1 302 1 346 1 352 1 358 1 369 1 380 1 406 1 451 2 472 1 476 2 491 1 517 1 568 1 592 1 611 1 641 1 644 1 697 1 702 2 703 1 743 1 747 1 771 1 780 1 784 1 791 1 831 1 850 1 860 1 946 1 964 2 968 2 258 1 263 1 277 1 286 1 308 1 310 1 326 1 356 1 364 1 376 1 387 1 400 1 414 1 429 1 432 1 467 1 469 1 490 1 494 1 508 1 509 1 561 1 567 1 579 1 584 1 604 1 617 1 686 1 716 1 719 1 726 1 754 1 768 1 808 1 811 1 841 1 851 1 861 1 868 1 885 1 924 1 937 1 938 1 942 1 995 1 1001 1 1008 1 1024 1 
1 208 20 1 22 1 27 1 31 1 53 1 61 1 64 1 68 1 94 2 173 1 220 2 2 1 35 1 102 1 107 1 111 1 118 1 142 1 161 1 176 1 191 1 192 1 211 1 318 1 347 1 349 1 362 1 366 1 374 1 375 1 406 1 408 1 424 1 425 1 444 1 460 1 524 1 540 1 557 2 574 1 614 1 615 1 642 1 654 1 665 1 672 1 682 1 705 1 726 1 757 1 761 1 790 1 811 1 817 1 822 1 864 1 876 1 884 1 885 1 940 1 945 1 946 1 947 1 963 1 966 1 994 1 253 1 275 1 299 1 312 1 315 1 334 1 353 1 378 1 410 1 453 1 455 1 464 1 488 1 489 1 491 1 494 1 507 1 521 1 538 1 565 1 591 1 592 1 600 1 662 1 668 1 676 1 690 1 693 1 708 1 710 1 739 1 743 1 777 1 780 1 835 1 867 1 898 1 907 1 918 1 931 1 938 1 950 1 974 1 975 1 1010 1 1013 1 
1 209 12 1 34 1 68 1 73 1 78 1 109 1 118 1 123 1 137 1 140 1 143 1 156 1 183 1 185 1 219 1 224 1 4 1 23 1 37 1 45 1 70 1 79 1 91 1 93 1 115 1 116 1 132 1 138 1 184 1 189 1 218 1 245 1 304 1 309 1 318 1 328 1 335 2 337 1 370 1 385 1 386 1 393 1 395 1 415 1 438 2 442 1 445 2 451 1 476 1 498 1 512 1 589 1 610 1 618 2 623 1 642 1 680 1 681 1 690 1 698 1 699 1 731 1 767 1 807 1 815 1 832 1 836 1 894 1 908 1 953 1 959 1 971 1 979 1 983 1 999 1 231 1 265 1 267 1 273 1 280 1 286 1 290 1 296 1 323 1 327 1 332 1 384 1 402 1 414 1 416 1 419 1 423 1 469 1 482 1 496 1 500 1 533 1 575 1 601 1 630 1 637 1 650 1 667 1 705 1 732 1 744 1 751 1 813 1 856 1 876 1 881 1 915 1 937 1 943 1 952 1 961 1 973 1 985 1 1003 1 1004 1 1016 1 1017 1 1019 1 
1 211 7 1 8 1 10 1 35 1 40 1 69 1 82 2 94 1 108 1 113 1 122 1 169 1 180 1 208 1 217 1 220 1 5 1 21 1 83 1 110 1 116 1 118 1 119 1 139 1 176 1 192 1 197 1 211 1 267 1 270 1 277 1 278 1 280 1 308 1 322 1 327 1 356 1 361 1 371 1 391 1 398 1 402 1 409 1 467 1 468 1 495 1 499 1 533 1 555 1 618 1 664 1 717 1 756 1 765 1 832 1 838 1 849 1 852 1 860 1 913 1 915 1 916 1 923 1 955 1 977 1 988 1 238 1 264 1 269 1 272 1 282 1 298 1 324 1 333 1 345 1 378 1 424 1 481 1 487 1 492 1 496 1 530 1 590 1 603 1 619 1 641 1 652 1 704 1 705 1 755 1 762 1 774 1 777 1 800 1 802 1 806 1 814 1 847 1 850 1 857 1 867 1 872 1 883 1 887 1 893 1 909 1 968 1 992 1 1008 1 1009 1 1012 1 1014 1 1022 1 
1 211 16 1 37 1 54 1 61 1 62 2 75 1 94 1 96 1 105 1 107 1 123 1 124 1 127 1 177 1 188 1 223 1 7 1 64 1 68 1 72 1 76 1 139 1 140 1 147 1 164 1 174 1 238 1 239 1 254 1 269 1 276 1 284 1 287 1 288 1 299 1 320 1 327 1 331 2 334 1 350 1 383 1 385 1 442 1 445 1 452 1 461 1 478 1 501 1 509 1 515 1 516 1 522 1 523 1 558 1 572 1 598 1 612 1 619 1 620 1 633 1 673 1 752 1 770 1 787 1 796 1 802 1 819 1 859 1 870 1 898 1 924 1 945 1 255 1 285 1 316 1 333 1 337 1 355 1 363 1 364 1 443 1 457 1 472 1 496 1 533 1 541 1 545 1 568 1 570 1 575 1 602 1 604 1 606 1 608 1 649 1 678 1 679 1 729 1 747 1 749 1 754 1 760 1 808 1 812 1 838 1 853 1 868 1 880 1 889 1 900 1 908 1 930 1 968 1 972 1 974 1 986 1 1004 1 1008 1 1016 1 1024 1 
1 210 9 1 20 1 29 1 38 1 41 1 49 1 62 1 92 1 102 1 113 1 125 1 150 1 166 1 198 1 213 1 222 1 52 1 80 1 89 1 107 1 109 1 114 1 117 1 152 1 158 1 184 1 212 1 216 1 235 1 251 1 259 1 260 1 262 1 282 1 286 1 308 1 331 1 338 2 354 1 374 1 378 1 392 1 403 1 454 1 459 1 470 1 478 1 483 1 509 1 515 1 521 1 529 1 538 1 551 1 586 1 608 1 633 1 692 1 696 1 741 1 742 1 750 1 770 1 778 1 784 1 809 2 818 1 820 1 822 1 836 1 849 1 881 1 899 1 931 1 934 1 936 2 938 1 953 1 954 1 970 1 989 1 237 1 317 1 319 1 364 1 398 1 429 1 434 1 440 1 455 1 457 1 485 1 486 1 490 1 500 1 516 1 545 1 548 1 626 1 630 1 632 1 638 1 644 1 653 1 654 1 677 1 716 1 733 1 734 1 783 1 801 1 805 1 875 1 884 1 911 1 914 1 928 1 949 1 956 1 961 1 965 1 1001 1 1004 1 1009 1 1018 1 
1 210 7 1 58 1 80 2 84 1 96 1 134 1 148 1 168 1 170 1 193 1 198 1 200 1 216 2 221 1 13 1 14 1 44 1 49 1 61 1 70 1 76 1 103 1 132 1 172 1 219 1 223 1 238 1 251 1 254 1 268 1 285 1 290 1 295 1 311 1 315 1 336 1 353 1 356 1 397 1 402 1 428 1 454 1 465 1 560 1 564 1 600 1 626 1 632 1 640 1 658 1 659 1 662 1 682 1 685 1 703 1 764 1 775 1 781 1 813 1 817 1 819 1 820 1 826 1 952 1 992 1 242 1 249 1 258 1 274 1 275 1 284 1 301 1 313 1 319 1 340 1 344 1 351 1 358 1 370 1 379 1 384 1 400 1 401 1 415 1 433 1 446 1 467 1 474 1 477 1 493 1 516 1 519 1 529 1 539 1 542 1 575 1 663 1 665 1 666 1 693 1 748 1 753 1 766 1 776 1 777 1 785 1 800 1 846 1 883 1 897 1 899 1 905 1 913 1 920 1 923 1 945 1 956 1 958 1 974 1 980 1 1003 1 1007 1 1014 1 1017 1 
1 211 32 1 35 1 63 1 70 2 116 1 150 1 153 1 158 1 178 1 186 1 209 1 211 1 224 1 1 1 125 1 129 1 145 1 161 1 187 1 196 1 203 1 222 1 226 1 241 1 258 1 276 2 280 1 290 1 337 1 350 1 352 2 373 1 388 1 391 1 407 1 416 1 434 2 449 1 469 1 471 1 484 1 494 1 521 1 537 1 582 1 585 1 628 1 640 1 657 1 693 1 695 1 704 1 751 1 759 1 779 1 783 1 805 1 824 1 827 1 834 1 850 1 855 1 879 2 882 1 887 1 908 1 919 1 965 1 971 1 976 1 980 1 269 1 319 1 330 1 331 1 354 1 367 1 376 1 378 1 383 1 393 1 399 1 419 1 436 1 438 1 443 1 474 1 487 1 495 1 496 1 507 1 549 1 564 1 565 1 567 1 599 1 601 1 650 1 688 1 696 1 701 1 708 1 743 1 756 1 821 1 835 1 876 1 931 1 946 1 962 1 988 1 1010 1 1013 1 1025 1 
1 209 33 1 63 1 74 1 101 1 106 1 121 1 136 1 137 1 159 1 160 1 171 1 181 1 201 1 209 1 21 1 29 1 42 1 52 1 85 1 89 1 109 1 154 1 199 1 207 1 265 1 348 1 390 1 415 1 423 1 476 1 478 2 500 1 512 1 528 1 573 1 596 1 604 1 607 1 648 1 657 1 696 1 741 1 752 1 757 1 767 1 774 1 775 1 789 2 805 1 811 1 835 1 842 1 850 1 858 1 860 1 872 1 890 1 909 1 927 2 934 1 937 1 953 1 981 1 985 1 242 1 251 1 255 1 264 1 269 1 271 1 277 1 281 1 317 1 342 1 373 1 413 1 456 1 501 1 505 1 515 1 555 1 588 1 590 1 595 1 608 1 614 1 630 1 642 1 647 1 706 1 713 1 727 1 728 1 744 1 753 1 800 1 823 1 832 1 834 1 865 1 875 1 901 1 913 1 974 1 976 1 1004 1 1012 1 1027 1 
1 209 72 1 87 1 92 1 95 1 97 1 102 1 126 1 137 1 178 1 180 1 181 1 12 1 13 1 32 1 46 1 64 1 75 1 139 1 191 1 256 1 285 1 304 1 323 1 357 1 360 1 378 1 403 1 438 1 488 1 499 1 509 2 516 1 571 1 598 1 599 1 604 1 631 1 636 1 675 1 681 1 695 1 756 1 759 1 822 1 823 1 837 1 878 1 885 1 887 1 889 1 891 1 898 1 940 1 992 2 246 1 259 1 268 1 284 1 316 1 330 1 356 1 361 1 415 1 421 1 430 1 439 1 446 1 467 1 491 1 497 1 503 1 515 1 517 1 524 1 562 1 563 1 621 1 622 1 637 1 686 1 725 1 735 1 786 1 809 1 815 1 863 1 868 1 886 1 900 1 923 1 926 1 950 1 971 1 973 1 981 1 989 1 999 1 1006 1 1021 1 1025 1 
1 214 12 1 39 1 84 1 115 1 146 1 165 1 180 1 196 1 214 1 216 1 4 1 8 1 17 1 19 1 25 1 54 1 56 1 59 1 99 1 104 1 117 1 136 1 207 1 211 1 219 1 249 1 253 1 268 1 284 1 288 1 291 1 295 1 298 1 315 1 321 1 343 1 351 1 375 1 387 1 399 1 410 1 439 1 474 2 498 1 525 2 530 1 551 1 599 1 606 1 613 1 638 1 642 1 679 1 734 1 779 1 819 1 833 1 845 1 855 1 872 1 876 1 892 1 896 1 906 1 920 1 939 1 942 1 943 1 958 1 272 1 276 1 289 1 322 1 339 1 346 1 363 1 385 1 408 1 413 1 429 1 436 1 441 1 447 1 456 1 475 1 476 1 510 1 519 1 526 1 529 1 549 1 562 1 588 1 609 1 658 1 671 1 691 1 695 1 714 1 726 1 742 1 757 1 777 1 780 1 782 1 791 1 814 1 837 1 846 1 868 1 899 1 936 1 952 1 969 1 999 1 1003 1 1019 1 1026 1 1027 1 
1 208 14 1 30 1 37 1 51 1 63 1 80 1 83 1 85 1 103 1 111 1 117 1 129 1 142 1 157 1 171 1 184 1 229 1 62 1 82 1 94 1 132 1 134 1 176 1 202 1 208 1 214 1 294 1 298 1 351 1 369 1 373 1 388 1 402 1 408 1 421 1 425 1 453 1 459 1 477 1 481 1 528 1 546 1 548 2 549 1 576 1 620 1 661 1 692 1 710 1 729 1 734 1 735 1 738 1 739 1 750 1 758 1 761 1 828 1 864 1 865 1 867 1 881 1 908 1 986 1 987 1 989 2 243 1 244 1 254 1 272 1 275 1 301 1 304 1 324 1 339 1 346 1 365 1 419 1 433 1 464 1 467 1 499 1 530 1 532 1 535 1 552 1 564 1 568 1 582 1 596 1 611 1 660 1 665 1 673 1 679 1 703 1 721 1 760 1 789 1 794 1 820 1 832 1 849 1 885 1 893 1 915 1 917 1 953 1 968 1 1001 1 1002 1 
1 201 22 1 29 1 30 1 62 1 107 1 109 1 167 2 178 1 192 1 202 1 211 1 7 1 42 1 58 1 81 1 104 1 108 1 115 1 121 1 122 1 135 1 154 1 171 1 188 1 210 1 290 1 295 1 301 1 308 2 329 1 362 1 420 1 440 1 453 1 454 1 458 1 468 1 495 1 539 1 548 2 575 1 612 1 619 1 629 1 639 1 678 1 685 1 691 1 700 1 706 1 725 1 736 1 743 1 756 1 837 1 855 1 899 1 907 1 911 1 953 1 964 1 967 1 980 1 983 1 991 1 251 1 276 1 283 1 293 1 296 1 331 1 333 1 345 1 357 1 370 1 402 1 419 1 423 1 456 1 467 1 475 1 480 1 507 1 530 1 571 1 623 1 638 1 642 1 647 1 674 1 680 1 697 1 722 1 747 1 759 1 787 1 788 1 810 1 838 1 858 1 866 1 876 1 897 1 908 1 950 1 
1 206 13 1 24 1 36 1 49 1 69 1 94 1 112 1 122 1 150 1 153 1 170 1 190 1 16 1 71 1 75 1 115 1 127 1 154 1 164 1 179 1 195 1 197 1 229 1 252 1 267 1 274 1 288 1 308 1 317 1 340 1 343 1 359 1 363 1 365 1 382 1 392 1 397 1 411 1 413 1 419 1 469 2 479 1 488 1 519 1 529 1 533 1 563 1 612 1 618 1 639 1 642 1 659 1 666 1 677 1 693 1 715 1 738 1 759 1 783 1 816 1 830 1 865 1 885 2 887 1 895 1 899 1 931 1 967 1 247 1 271 1 289 1 293 1 331 1 347 1 373 1 385 1 391 1 412 1 414 1 436 1 438 1 445 1 449 1 455 1 460 1 474 1 505 1 556 1 581 1 611 1 624 1 649 1 674 1 709 1 723 1 766 1 769 1 793 1 801 1 836 1 845 1 850 1 859 1 861 1 925 1 930 1 935 1 943 1 980 1 986 1 992 1 997 1 1023 1 
1 205 5 1 15 1 18 1 65 1 97 1 106 1 130 1 148 1 160 1 163 1 170 1 193 1 207 1 210 1 228 1 230 1 4 1 20 1 46 1 80 1 88 1 90 1 136 1 162 1 175 1 184 1 192 1 199 1 200 1 227 1 260 1 265 1 293 1 393 1 405 1 424 1 425 1 447 1 466 1 477 1 513 2 540 1 548 1 578 1 606 1 618 1 629 1 633 1 644 1 669 1 729 1 779 1 810 1 827 1 832 1 866 2 878 1 888 1 894 1 932 1 941 1 972 1 975 1 995 1 996 1 275 1 287 1 297 1 304 1 309 1 311 1 335 1 346 1 362 1 376 1 377 1 430 1 452 1 453 1 462 1 467 1 480 1 483 1 488 1 515 1 528 1 538 1 556 1 558 1 577 1 607 1 634 1 642 1 652 1 671 1 685 1 721 1 723 1 766 1 783 1 784 1 799 1 805 1 812 1 817 1 833 1 834 1 845 1 857 1 861 1 900 1 948 1 983 1 988 1 1015 1 1019 1 
1 213 16 1 40 1 47 1 61 1 95 1 117 1 123 1 131 1 168 1 196 1 197 1 205 1 208 1 219 1 228 1 11 1 38 1 51 1 72 1 86 1 87 1 99 1 119 1 127 1 152 1 160 1 161 1 165 1 203 1 213 1 251 1 264 1 291 1 298 1 325 1 338 1 385 1 387 1 390 1 395 1 404 1 407 1 410 1 447 1 481 1 482 1 485 1 540 1 546 1 550 1 557 1 567 1 571 1 583 1 611 1 696 1 710 1 745 1 792 2 806 1 822 1 829 1 859 1 877 1 897 1 898 1 915 1 925 1 929 1 965 1 976 1 981 1 985 1 992 1 260 1 261 1 296 1 304 1 332 1 360 1 413 1 421 1 439 1 443 1 454 1 459 1 475 1 484 1 489 1 520 1 537 1 549 1 559 1 560 1 593 1 604 1 618 1 648 1 702 1 720 1 721 1 728 1 747 1 763 1 779 1 780 1 816 1 838 1 884 1 912 1 934 1 936 1 957 1 964 1 968 1 973 1 977 1 993 1 999 1 1004 1 1014 1 1017 1 1020 1 1023 1 
1 207 38 1 66 1 67 1 106 1 147 1 180 1 186 1 203 1 6 1 8 1 25 1 26 1 54 1 154 1 181 1 185 1 216 1 220 1 243 1 256 1 258 1 304 1 321 2 354 2 388 1 394 2 397 2 407 1 425 1 449 1 467 1 493 1 498 1 514 1 517 1 561 1 565 1 568 1 574 1 580 1 585 1 595 1 598 1 649 1 666 1 675 1 697 1 723 1 744 1 761 1 771 1 773 1 774 1 786 1 812 1 839 1 869 1 903 1 923 1 941 1 944 1 948 1 954 1 963 1 976 1 984 1 986 1 990 1 246 1 247 1 308 1 322 1 324 1 334 1 355 1 380 1 390 1 408 1 411 1 431 1 448 1 465 1 475 1 485 1 487 1 508 1 511 1 513 1 522 1 532 1 597 1 610 1 617 1 618 1 628 1 648 1 664 1 674 1 676 1 740 1 770 1 780 1 789 1 791 1 794 1 803 1 808 1 817 1 820 1 824 1 863 1 865 1 907 1 928 1 970 1 998 1 1002 1 1020 1 1021 1 1026 1 1027 1 
1 215 31 1 46 1 58 1 73 1 111 1 115 1 127 1 128 1 150 1 170 1 174 1 220 1 231 1 6 1 18 1 38 1 43 1 88 1 116 1 125 1 133 1 153 1 186 1 188 1 199 1 262 1 281 1 297 1 322 1 324 1 347 1 361 1 371 1 405 1 416 1 420 1 436 1 437 1 453 1 459 1 499 1 507 1 509 1 573 1 623 1 668 1 695 1 707 1 770 1 771 1 776 1 805 1 815 1 823 1 864 1 887 1 901 1 918 1 948 1 965 2 986 1 993 1 246 1 273 1 288 1 301 1 335 1 367 1 375 1 379 1 395 1 433 1 485 1 491 1 496 1 524 1 542 1 585 1 590 1 597 1 602 1 621 1 661 1 665 1 674 1 678 1 687 1 690 1 708 1 712 1 749 1 761 1 766 1 790 1 809 1 834 1 871 1 882 1 890 1 920 1 922 1 926 1 939 1 969 1 994 1 1003 1 1015 1 1025 1 
1 210 39 1 51 1 53 1 72 1 119 1 126 1 137 1 141 2 154 1 176 1 177 1 192 1 217 1 25 1 40 1 82 1 95 1 148 1 166 1 167 1 186 1 194 1 230 1 232 1 251 1 299 1 300 1 303 1 305 1 306 1 308 1 318 1 336 1 356 1 418 1 471 1 506 1 561 1 568 2 583 1 587 1 619 1 637 1 650 1 659 1 662 2 669 1 671 1 675 1 687 1 690 1 699 1 721 1 740 1 746 2 757 1 780 2 801 2 819 1 831 1 853 1 861 1 867 1 870 1 881 1 920 1 935 1 953 1 960 1 975 1 976 1 992 1 252 1 287 1 301 1 319 1 332 1 368 1 385 1 411 1 447 1 461 1 490 1 526 1 531 1 534 1 540 1 541 1 566 1 613 1 652 1 661 1 702 1 707 1 712 1 724 1 731 1 737 1 781 1 817 1 820 1 863 1 885 1 889 1 896 1 908 1 909 1 916 1 923 1 925 1 958 1 994 1 1001 1 1005 1 1015 1 1022 1 
1 208 19 1 60 1 71 1 74 1 95 2 142 1 146 1 153 1 154 1 178 1 208 1 240 1 2 1 22 1 119 1 134 1 148 1 156 1 160 1 183 1 184 1 235 1 246 1 269 1 276 1 294 1 305 1 326 1 339 1 341 1 343 2 346 1 390 1 392 2 395 1 406 1 413 1 421 1 432 1 438 1 453 1 469 1 497 1 507 1 533 1 539 1 541 1 585 1 610 1 612 1 617 1 621 1 626 1 630 1 637 1 676 1 713 1 714 1 739 2 750 1 753 1 786 1 806 1 922 1 951 1 960 1 249 1 251 1 253 1 290 1 300 1 328 1 357 1 364 1 365 1 372 1 442 1 458 1 476 1 480 1 515 1 540 1 566 1 570 1 575 1 597 1 608 1 616 1 670 1 711 1 733 1 736 1 778 1 785 1 797 1 809 1 817 1 823 1 824 1 844 1 868 1 881 1 906 1 946 1 975 1 996 1 999 1 1017 1 
1 210 3 1 5 1 15 2 36 1 47 1 61 1 80 1 109 2 110 1 132 1 166 1 176 1 195 1 219 1 220 1 224 1 10 1 17 1 42 1 89 1 98 1 112 1 133 1 144 1 149 1 150 1 159 1 165 1 174 1 175 1 183 1 235 1 259 1 264 1 265 1 286 1 293 1 312 1 314 1 319 1 355 1 361 1 390 1 442 1 448 1 462 1 463 1 480 1 510 1 517 1 558 1 571 1 574 1 577 1 589 1 605 1 614 1 641 1 648 1 651 1 660 1 727 1 736 1 759 1 782 1 791 1 792 1 809 1 817 1 850 1 880 1 904 1 915 1 919 2 947 1 951 1 253 1 267 1 290 1 326 1 339 1 352 1 366 1 367 1 382 1 386 1 415 1 431 1 465 1 473 1 494 1 497 1 499 1 525 1 537 1 543 1 565 1 581 1 587 1 591 1 616 1 618 1 681 1 693 1 696 1 699 1 734 1 744 1 749 1 752 1 753 1 758 1 786 1 821 1 836 1 838 1 867 1 899 1 906 1 926 1 949 1 957 1 959 1 1002 1 1016 1 
1 211 13 1 15 1 17 1 27 1 45 1 52 1 78 1 88 2 91 1 107 1 111 1 117 1 133 1 146 1 154 1 187 1 192 1 196 1 200 1 205 1 207 1 226 1 11 1 12 1 29 1 81 1 103 1 116 1 135 1 177 1 218 1 247 1 261 2 274 1 295 1 308 1 338 1 347 1 354 1 364 1 375 2 380 1 394 1 400 1 401 1 406 1 423 1 431 1 452 1 476 1 479 1 481 1 510 1 545 1 584 1 696 1 719 1 724 1 761 1 763 1 781 1 794 1 797 1 808 1 815 1 822 1 839 1 850 1 863 2 891 2 895 1 898 1 928 1 939 1 962 1 984 1 278 1 281 1 294 1 335 1 336 1 358 1 363 1 365 1 369 1 371 1 393 1 395 1 419 1 428 1 450 1 457 1 463 1 503 1 526 1 544 1 551 1 567 1 580 1 588 1 629 1 641 1 645 1 653 1 666 1 701 1 716 1 760 1 805 1 840 1 842 1 855 1 856 1 887 1 896 1 903 1 946 1 955 1 979 1 992 1 1001 1 1002 1 1007 1 1014 1 1022 1 
1 212 3 1 18 1 22 1 60 1 72 1 82 1 101 1 106 1 138 1 155 1 176 1 189 1 204 1 207 1 221 1 243 1 35 1 37 1 43 1 83 1 85 1 91 1 146 1 167 1 168 1 202 1 223 1 233 1 240 1 241 1 247 1 276 1 283 1 289 1 308 1 332 1 341 1 348 1 353 1 357 1 400 1 435 2 459 1 502 1 515 1 570 1 572 1 640 1 674 1 695 1 774 1 780 1 813 1 854 1 862 1 871 1 873 1 879 1 884 1 888 2 901 1 902 1 907 1 908 1 918 1 921 1 943 1 953 1 984 1 991 1 252 1 272 1 311 1 318 1 323 1 364 1 374 1 392 1 409 1 420 1 438 1 448 1 527 1 532 1 540 1 573 1 583 1 608 1 611 1 624 1 635 1 684 1 691 1 692 1 727 1 751 1 752 1 790 1 832 1 839 1 865 1 866 1 883 1 942 1 986 1 990 1 1001 1 1012 1 1013 1 1016 1 
1 208 8 1 34 1 86 1 104 1 111 1 124 2 142 1 144 1 214 1 245 1 246 1 15 1 42 1 78 1 79 1 98 1 99 1 115 1 128 1 145 1 194 1 220 1 237 1 240 1 260 1 262 1 269 1 315 1 332 1 348 1 359 1 376 1 385 1 388 1 413 1 417 1 419 1 453 1 480 1 497 1 502 1 526 1 580 1 582 1 602 1 623 1 640 1 641 1 659 1 663 1 672 1 696 1 704 1 731 1 737 1 740 1 745 1 754 1 767 1 780 2 782 1 786 1 790 1 827 1 840 1 841 1 849 1 850 1 851 1 852 1 856 1 863 1 864 1 897 1 907 1 929 1 955 1 978 1 984 1 271 1 292 1 297 1 323 1 329 1 342 1 347 1 362 1 391 1 400 1 401 1 404 1 415 1 421 1 460 1 473 1 488 1 503 1 530 1 538 1 568 1 579 1 583 1 649 1 657 1 687 1 716 1 756 1 768 1 889 1 916 1 946 1 956 1 965 1 967 1 1006 1 1007 1 1019 1 
1 212 53 1 55 1 60 1 63 1 65 2 71 1 77 1 144 1 146 1 155 1 158 1 183 1 193 1 208 1 220 1 19 1 43 1 68 1 76 1 89 1 94 1 199 1 276 1 296 1 298 1 309 1 324 1 334 1 392 1 411 1 447 1 459 1 463 1 490 2 533 1 581 1 611 1 626 1 651 1 654 2 657 1 659 1 665 1 673 1 688 1 698 1 713 1 738 1 755 1 766 1 781 1 835 1 851 1 855 1 859 1 863 1 884 1 893 1 894 1 897 1 916 1 921 1 935 1 954 1 986 1 251 1 295 1 327 1 341 1 356 1 378 1 409 1 430 1 535 1 546 1 555 1 566 1 569 1 582 1 598 1 625 1 641 1 644 1 650 1 661 1 676 1 691 1 703 1 708 1 709 1 711 1 716 1 717 1 790 1 804 1 807 1 818 1 821 1 845 1 849 1 852 1 873 1 918 1 928 1 960 1 985 1 1017 1 1022 1 1027 1 
1 210 6 1 10 1 32 1 34 1 45 1 50 1 58 1 82 1 107 1 143 1 146 1 166 1 188 1 189 1 213 1 220 1 234 1 16 1 53 1 63 1 65 1 76 1 79 1 97 1 103 1 118 1 159 1 169 1 191 1 195 1 215 1 230 1 243 1 254 1 261 1 305 1 364 1 394 1 396 1 438 2 444 1 451 1 452 1 474 1 542 1 591 1 607 1 609 1 619 1 621 1 622 1 627 1 646 1 673 2 762 1 764 1 768 1 794 1 802 1 814 1 815 1 843 1 889 1 906 1 930 1 942 1 970 1 262 1 271 1 293 1 302 1 307 1 309 1 342 1 343 1 361 1 363 1 385 1 401 1 410 1 453 1 521 1 531 1 583 1 614 1 615 1 633 1 641 1 651 1 660 1 664 1 668 1 694 1 707 1 717 1 734 1 763 1 780 1 850 1 857 1 869 1 899 1 904 1 923 1 941 1 951 1 953 1 956 1 973 1 995 1 996 1 1003 1 1011 1 1018 1 1020 1 
1 207 3 1 4 1 10 1 25 1 39 1 66 1 67 1 105 1 149 1 162 1 206 1 9 1 31 1 86 1 100 1 137 1 153 1 169 1 175 1 204 1 215 1 255 1 258 2 281 2 289 1 310 1 315 1 318 1 332 1 336 1 341 1 363 1 373 1 374 1 396 1 433 1 434 1 438 1 445 1 446 1 457 1 471 1 473 1 478 1 482 1 492 1 495 1 520 1 530 1 531 1 540 1 564 1 570 1 575 1 595 1 623 1 664 1 669 1 673 1 682 1 698 2 709 1 760 1 769 1 777 1 796 1 831 1 866 1 879 1 890 1 917 1 921 1 937 1 944 1 959 1 970 1 998 1 266 1 285 1 316 1 347 1 376 1 380 1 454 1 529 1 541 1 546 1 557 1 565 1 587 1 613 1 614 1 615 1 657 1 685 1 694 1 723 1 730 1 753 1 756 1 816 1 826 1 841 1 850 1 860 1 895 1 902 1 927 1 957 1 1002 1 1004 1 1009 1 1024 1 
1 210 9 1 10 1 32 2 34 1 40 2 52 1 61 1 64 2 96 1 104 1 110 1 152 1 161 1 180 1 229 1 230 1 239 1 242 1 3 1 7 1 11 1 62 1 79 1 80 1 83 1 92 1 94 1 109 1 114 1 115 1 128 1 129 1 140 1 159 1 166 1 183 1 216 1 232 1 236 1 243 1 248 1 273 1 274 1 285 1 294 1 315 1 330 1 335 1 360 1 365 1 366 1 393 1 397 1 414 1 417 1 420 1 425 1 456 1 486 1 517 1 519 1 535 1 540 1 559 1 562 1 602 1 634 1 658 1 663 1 684 1 704 1 708 1 718 1 729 1 736 1 744 1 756 1 759 1 764 1 770 1 771 1 779 1 821 1 841 1 846 1 872 1 892 1 902 1 904 2 911 1 935 1 953 1 968 2 987 1 262 1 270 1 280 1 323 1 362 1 363 1 392 1 412 1 439 1 484 1 554 1 570 1 588 1 613 1 622 1 651 1 682 1 727 1 757 1 789 1 807 1 828 1 830 1 837 1 838 1 857 1 869 1 890 1 900 1 933 1 949 1 973 1 985 1 991 1 1006 1 1022 1 
1 213 35 1 86 1 98 1 158 1 167 1 196 1 198 1 207 1 217 1 223 1 237 1 6 1 27 1 114 1 173 1 182 1 221 1 242 1 246 1 260 1 265 1 272 1 291 1 311 1 329 1 351 1 369 1 396 1 407 1 408 1 414 1 459 1 477 1 505 1 508 1 524 1 559 1 569 1 576 1 588 1 592 1 593 1 609 1 620 1 626 1 650 1 655 1 665 1 682 1 683 1 714 1 730 1 736 1 738 1 748 1 757 1 766 1 806 1 832 1 851 1 883 1 911 1 918 1 928 1 937 1 952 1 953 1 964 1 970 1 253 1 259 1 299 1 421 1 427 1 452 1 457 1 458 1 472 1 474 1 492 1 512 1 558 1 587 1 622 1 637 1 654 1 657 1 662 1 674 1 686 1 687 1 719 1 721 1 737 1 774 1 811 1 813 1 825 1 840 1 855 1 860 1 896 1 936 1 971 1 973 1 1015 1 1021 1 1026 1 
1 210 13 1 61 1 64 1 98 1 101 1 102 1 127 1 141 1 165 1 172 1 177 1 178 1 187 1 197 1 206 1 209 1 234 1 44 1 45 1 46 1 49 1 52 1 54 1 153 1 158 1 162 1 184 1 186 1 213 1 225 1 243 1 244 1 252 1 280 1 286 1 307 1 319 1 327 1 332 1 365 1 401 1 449 1 453 1 455 2 460 1 467 1 469 1 473 1 480 1 491 1 542 1 550 1 577 2 582 1 585 1 596 1 599 1 602 1 657 2 678 1 698 1 721 1 725 1 737 1 764 1 794 1 870 1 871 1 889 1 892 1 893 2 895 2 912 1 936 1 947 1 262 1 289 1 328 1 331 1 372 1 377 1 382 1 385 1 389 1 409 1 412 1 419 1 421 1 427 1 439 1 445 1 463 1 503 1 507 1 516 1 519 1 529 1 539 1 553 1 573 1 580 1 617 1 650 1 661 1 669 1 695 1 752 1 783 1 818 1 830 1 848 1 863 1 865 1 868 1 907 1 931 1 932 1 1003 1 1022 1 1026 1 
1 214 11 1 22 1 23 1 29 1 34 1 62 1 64 1 99 1 147 1 172 1 173 1 182 1 193 1 228 1 230 1 249 1 9 1 44 1 50 1 78 1 84 1 85 1 97 1 102 1 125 1 129 1 143 1 160 1 161 1 211 1 214 1 235 1 270 1 271 1 280 1 325 1 328 1 331 1 348 1 391 1 433 1 446 1 469 1 476 1 497 1 500 1 545 1 557 1 558 1 569 1 571 1 621 1 632 1 634 1 646 1 653 1 656 2 681 1 695 1 740 1 755 1 773 1 791 1 810 1 852 1 865 1 876 1 877 1 878 1 900 1 907 1 915 1 949 1 978 1 981 1 982 1 310 1 311 1 334 1 392 1 393 1 424 1 442 1 448 1 478 1 480 1 489 1 501 1 527 1 539 1 542 1 546 1 564 1 575 1 580 1 597 1 605 1 610 1 684 1 687 1 701 1 703 1 714 1 742 1 752 1 762 1 776 1 783 1 792 1 824 1 855 1 868 1 901 1 920 1 966 1 984 1 1009 1 1016 1 1017 1 1023 1 
1 211 19 1 20 1 21 1 61 1 99 1 109 1 138 2 145 1 169 1 170 1 183 1 250 1 24 1 41 1 43 1 56 1 59 1 70 1 96 1 111 1 120 1 126 1 175 1 180 1 181 1 185 1 228 1 232 1 272 1 273 1 285 1 286 1 296 1 330 1 368 1 384 1 387 1 390 1 396 1 399 1 458 1 491 2 494 1 522 1 556 1 570 1 598 1 647 1 680 1 699 1 704 1 711 1 712 1 719 1 742 1 745 1 776 1 780 1 791 1 802 1 804 1 817 1 829 1 837 1 873 1 879 1 939 1 940 1 949 1 964 1 981 1 998 1 275 1 276 1 279 1 304 1 314 1 334 1 335 1 343 1 356 1 424 1 426 1 435 1 469 1 484 1 515 1 519 1 534 1 564 1 568 1 573 1 574 1 580 1 593 1 624 1 663 1 682 1 686 1 693 1 738 1 756 1 786 1 798 1 854 1 867 1 875 1 876 1 895 1 929 1 931 1 952 1 960 1 1004 1 1010 1 1027 1 
1 208 5 1 7 1 24 1 50 1 66 1 72 1 79 1 109 1 114 1 121 1 123 1 176 1 179 2 233 1 240 1 3 1 8 1 15 1 55 1 65 1 70 1 90 1 92 1 107 1 125 1 162 1 167 1 181 1 198 1 281 1 289 1 345 1 355 1 361 1 365 2 366 1 369 1 375 1 388 1 392 1 399 2 402 1 412 1 449 1 459 1 464 1 476 1 481 1 493 1 560 1 562 1 582 1 618 1 655 1 696 1 701 1 722 1 755 1 785 1 817 1 837 2 858 1 860 1 871 1 911 1 941 1 949 1 965 1 264 1 327 1 349 1 367 1 378 1 408 1 409 1 432 1 445 1 447 1 456 1 463 1 467 1 491 1 494 1 499 1 515 1 522 1 531 1 540 1 556 1 559 1 594 1 604 1 610 1 611 1 615 1 629 1 674 1 675 1 679 1 685 1 713 1 743 1 749 1 780 1 846 1 885 1 886 1 895 1 938 1 947 1 970 1 1007 1 1008 1 1009 1 1021 1 1024 1 
1 209 2 1 4 1 18 1 41 1 51 1 57 1 64 1 119 1 131 1 140 1 154 2 160 1 173 2 180 1 197 1 204 1 20 1 29 1 50 1 52 1 66 1 68 1 84 1 100 1 102 1 106 1 122 1 144 1 166 1 179 1 198 1 207 1 257 1 257 1 285 1 287 1 323 1 335 1 338 1 369 1 380 1 382 1 400 1 404 1 410 1 447 1 463 1 467 1 502 1 512 1 519 1 535 1 563 1 614 1 625 1 653 1 670 1 718 2 719 1 781 1 798 1 829 2 835 1 871 1 874 1 880 1 884 1 261 1 313 1 326 1 344 1 379 1 441 1 455 1 484 1 487 1 509 1 514 1 515 1 545 1 557 1 564 1 576 1 594 1 621 1 715 1 731 1 740 1 757 1 760 1 807 1 821 1 842 1 873 1 890 1 903 1 918 1 957 1 959 1 965 1 984 1 999 1 1017 1 1025 1 
1 214 51 1 70 1 91 1 116 1 129 1 140 1 141 1 150 1 153 1 159 1 161 1 169 1 173 1 183 1 186 1 205 1 231 1 240 1 250 2 63 1 73 1 78 1 106 1 114 1 132 1 138 1 182 1 197 1 224 1 230 1 268 1 271 1 285 1 288 1 290 1 343 1 348 1 379 1 411 1 414 1 420 1 457 1 462 1 472 1 478 1 480 2 482 1 524 1 526 1 529 1 568 1 572 1 573 1 588 1 605 1 646 1 674 1 680 1 681 2 683 1 688 1 689 1 713 1 717 1 731 1 746 1 755 1 757 1 765 1 795 1 822 1 851 1 859 1 875 1 877 1 906 1 916 1 943 1 951 1 953 1 321 1 330 1 394 1 400 1 446 1 453 1 467 1 492 1 499 1 506 1 541 1 564 1 580 1 586 1 593 1 598 1 617 1 649 1 657 1 671 1 675 1 690 1 720 1 794 1 803 1 823 1 827 1 852 1 861 1 865 1 868 1 890 1 913 1 966 1 991 1 997 1 998 1 1003 1 1009 1 1020 1 
1 206 51 1 55 1 59 1 69 2 75 1 89 1 146 1 149 1 169 1 184 1 196 1 222 1 229 1 244 1 20 1 35 1 44 1 50 1 54 1 102 1 110 1 150 1 171 1 191 1 209 1 233 1 252 1 261 1 262 1 293 1 295 1 305 1 314 1 321 1 322 1 343 1 351 1 404 2 432 1 441 1 484 1 493 1 512 1 522 1 539 1 553 1 578 1 586 1 629 1 634 1 664 1 715 1 723 1 744 1 778 1 786 1 790 1 831 1 838 1 846 1 882 1 895 1 921 1 935 1 992 1 286 1 318 1 337 1 357 1 360 1 362 1 373 1 395 1 417 1 423 1 520 1 523 1 524 1 554 1 572 1 579 1 589 1 618 1 624 1 692 1 700 1 705 1 741 1 765 1 775 1 779 1 801 1 810 1 811 1 822 1 855 1 937 1 943 1 946 1 964 1 984 1 985 1 1015 1 
1 212 21 1 99 1 113 1 122 1 128 1 155 1 157 1 174 1 216 1 229 1 238 1 247 1 252 1 11 1 37 1 41 1 49 1 80 1 100 1 175 1 181 1 199 1 204 1 210 1 239 1 289 1 290 1 307 1 324 1 328 1 334 1 340 1 356 1 371 1 442 1 448 1 493 1 511 1 543 1 581 1 595 1 625 1 633 1 670 1 683 1 690 1 743 1 755 1 765 1 769 1 782 1 872 1 873 1 876 1 883 1 890 1 893 2 924 1 935 1 938 1 950 1 954 1 969 1 995 1 280 1 282 1 291 1 294 1 315 1 338 1 360 1 368 1 401 1 405 1 414 1 418 1 486 1 522 1 523 1 558 1 583 1 596 1 647 1 661 1 671 1 673 1 701 1 724 1 746 1 775 1 795 1 802 1 806 1 812 1 818 1 819 1 848 1 870 1 941 1 948 1 1002 1 1016 1 1018 1 1019 1 1023 1 1026 1 
1 212 19 1 38 1 39 1 47 1 56 1 59 1 60 1 99 1 102 1 137 1 145 1 156 1 166 1 172 1 183 1 185 2 190 1 192 1 199 1 245 2 249 1 259 1 20 1 21 1 31 1 82 1 90 1 104 1 118 1 129 1 133 1 138 1 179 1 212 1 213 1 222 1 239 1 257 1 263 1 268 1 279 1 319 1 323 1 327 1 330 1 338 1 350 1 369 1 396 1 402 1 420 1 425 1 436 1 448 1 464 1 514 1 522 1 530 1 539 1 547 1 557 1 593 1 625 1 634 1 642 1 654 1 669 1 672 1 759 1 808 1 813 1 814 1 823 1 841 1 852 1 862 1 905 1 948 1 949 1 990 1 276 1 326 1 355 1 358 1 362 1 469 1 487 1 496 1 503 1 506 1 507 1 529 1 588 1 605 1 636 1 645 1 652 1 667 1 673 1 681 1 715 1 731 1 741 1 750 1 779 1 794 1 822 1 839 1 840 1 849 1 854 1 877 1 888 1 933 1 968 1 969 1 985 1 1006 1 1012 1 1020 1 
1 209 3 1 10 1 28 1 44 1 71 1 84 1 85 1 105 1 117 1 143 1 161 1 168 1 182 1 184 1 188 1 211 1 229 1 241 1 247 1 259 1 5 1 7 1 14 1 30 1 107 1 132 1 141 1 149 1 158 1 191 1 195 1 214 1 249 1 251 1 253 1 264 1 267 1 317 1 331 1 347 1 357 1 363 1 364 1 383 1 391 1 401 1 422 1 532 1 571 1 599 1 626 1 643 1 710 1 713 1 722 1 730 1 735 1 766 1 770 1 774 1 836 1 849 1 869 1 879 1 886 1 899 1 926 1 936 1 979 1 986 1 265 1 277 1 295 1 305 1 313 1 328 1 406 1 416 1 435 1 441 1 442 1 445 1 455 1 511 1 529 1 531 1 553 1 590 1 615 1 638 1 639 1 641 1 657 1 664 1 673 1 685 1 692 1 711 1 720 1 729 1 762 1 776 1 794 1 803 1 815 1 820 1 840 1 856 1 864 1 901 1 909 1 924 1 948 1 954 1 987 1 1008 1 1009 1 1012 1 1013 1 1021 1 1022 1 
1 209 9 1 22 1 33 1 61 2 65 2 73 1 78 1 81 1 111 1 128 1 147 1 178 1 198 1 219 1 261 1 18 1 45 1 50 1 54 1 56 1 71 1 74 1 90 1 93 1 95 1 105 1 106 1 114 1 122 1 165 1 173 1 192 1 208 1 224 1 292 1 308 1 310 1 330 1 368 1 372 1 382 1 390 1 403 1 435 1 472 1 489 2 533 1 535 1 540 1 544 2 551 1 559 1 565 1 593 1 623 1 677 1 721 1 760 1 794 1 800 1 801 1 804 1 827 1 876 1 883 1 891 1 899 1 900 2 913 1 916 1 941 1 954 1 957 1 999 1 264 1 309 1 315 1 318 1 325 1 332 1 392 1 393 1 432 1 455 1 496 1 531 1 545 1 554 1 573 1 575 1 604 1 634 1 649 1 670 1 673 1 688 1 725 1 768 1 776 1 793 1 835 1 839 1 851 1 852 1 902 1 905 1 939 1 949 1 952 1 988 1 1022 1 
1 206 80 1 92 1 144 1 180 1 202 1 208 1 215 1 239 1 244 1 262 1 75 1 90 1 91 1 96 1 130 1 158 1 173 1 190 1 227 1 232 1 256 1 263 1 264 1 264 1 348 1 371 1 377 1 387 1 400 1 410 1 413 1 443 1 451 1 465 1 533 1 538 1 541 1 552 1 562 1 572 2 585 1 608 1 626 1 647 1 681 1 691 1 744 1 753 1 761 1 771 1 796 1 815 1 824 1 834 1 910 1 919 1 926 1 927 1 939 1 275 1 276 1 303 1 306 1 307 1 337 1 369 1 379 1 380 1 384 1 434 1 440 1 444 1 450 1 471 1 535 1 536 1 540 1 551 1 553 1 570 1 576 1 577 1 593 1 609 1 620 1 623 1 668 1 680 1 684 1 726 1 751 1 762 1 767 1 789 1 806 1 825 1 833 1 837 1 838 1 853 1 900 1 938 1 940 1 1015 1 1018 1 
1 211 1 1 56 1 57 1 58 2 81 1 100 1 107 1 127 1 149 1 157 1 174 1 205 1 232 1 238 1 244 1 252 1 5 1 23 1 44 1 80 1 95 1 105 1 120 1 121 1 122 1 148 1 161 1 194 1 226 1 262 1 280 1 293 1 304 1 305 1 309 1 312 1 333 1 354 1 377 1 399 1 405 1 408 2 433 1 522 1 529 1 544 1 548 1 556 1 568 1 569 1 571 2 588 1 589 1 672 1 679 1 685 1 689 1 702 1 753 2 786 1 818 1 828 2 869 1 871 1 880 1 887 1 897 1 901 1 964 1 968 1 270 1 278 1 283 1 292 1 332 1 380 1 382 1 393 1 400 1 404 1 406 1 419 1 431 1 447 1 463 1 470 1 528 1 533 1 579 1 599 1 626 1 653 1 695 1 709 1 768 1 799 1 814 1 826 1 845 1 856 1 857 1 867 1 873 1 902 1 930 1 936 1 988 1 1002 1 1016 1 1020 1 
1 208 6 1 16 2 28 1 31 2 54 1 94 1 111 1 115 1 147 1 148 1 177 1 185 1 190 1 39 1 48 1 49 1 56 1 63 1 86 1 119 1 130 1 143 1 152 1 169 1 186 1 196 1 198 1 209 1 250 1 272 1 280 1 298 1 306 1 318 1 319 1 387 1 391 1 418 1 430 1 443 1 487 1 499 1 509 2 582 2 587 1 592 1 600 1 601 1 611 1 616 2 626 1 658 1 707 1 725 2 745 1 776 1 799 1 846 1 865 1 868 1 871 1 882 1 892 1 909 1 915 1 922 1 926 1 932 1 939 1 988 1 999 1 283 1 321 1 357 1 369 1 435 1 441 1 458 1 470 1 471 1 478 1 570 1 584 1 590 1 591 1 627 1 639 1 644 1 663 1 669 1 670 1 685 1 711 1 712 1 724 1 730 1 741 1 758 1 767 1 769 1 811 1 844 1 848 1 884 1 885 1 894 1 921 1 937 1 978 1 993 1 
1 211 9 1 19 1 33 1 40 1 141 1 146 1 147 1 149 1 151 1 166 1 188 1 216 1 227 1 237 1 262 1 2 1 13 1 88 1 109 1 120 1 128 1 140 1 143 1 172 1 184 1 197 1 226 1 244 1 290 2 300 1 318 1 322 1 331 1 355 1 358 1 362 1 370 1 373 1 387 1 389 1 393 1 396 1 401 1 448 1 493 1 494 1 526 1 570 1 577 1 594 1 602 1 606 1 648 1 658 1 726 1 770 1 793 1 794 1 816 1 832 1 836 1 837 1 840 1 860 1 873 1 966 1 973 1 293 1 294 1 306 1 324 1 360 1 367 1 380 1 394 1 416 1 434 1 435 1 454 1 460 1 468 1 534 1 588 1 601 1 656 1 659 1 663 1 692 1 697 1 712 1 730 1 733 1 799 1 807 1 820 1 821 1 869 1 878 1 895 1 903 1 910 1 917 1 934 1 949 1 1007 1 1008 1 1012 1 1017 1 
1 216 11 1 14 1 39 1 50 1 81 1 87 1 113 1 116 1 168 1 178 1 180 1 186 1 208 1 220 1 230 1 234 1 258 1 261 1 2 1 34 1 44 1 64 1 75 1 78 1 88 1 91 1 107 1 150 1 155 1 185 1 194 1 233 1 271 1 288 1 301 1 334 1 347 1 366 1 367 1 386 1 392 1 397 1 402 1 424 2 430 1 523 1 526 1 531 1 534 1 564 1 568 1 574 1 579 1 593 1 595 1 596 1 612 1 639 1 646 1 655 1 659 1 667 1 681 1 686 1 695 1 734 1 737 1 742 1 754 1 772 1 789 1 835 1 875 1 891 1 900 1 933 2 989 2 280 1 281 1 308 1 310 1 319 1 330 1 333 1 434 1 452 1 455 1 463 1 466 1 520 1 536 1 542 1 556 1 622 1 645 1 664 1 672 1 683 1 704 1 713 1 716 1 725 1 727 1 729 1 761 1 774 1 778 1 792 1 800 1 902 1 925 1 935 1 937 1 948 1 990 1 999 1 1000 1 1002 1 1007 1 1010 1 1021 1 1022 1 
1 210 10 1 13 1 33 1 40 1 60 1 71 1 77 1 80 1 106 1 111 1 127 1 128 1 155 1 170 1 174 1 210 1 219 1 228 1 243 1 247 1 67 1 97 1 139 1 151 1 153 1 190 1 227 1 231 1 232 1 276 1 277 1 296 2 310 1 317 1 341 1 358 1 384 1 396 1 415 1 429 1 449 1 451 1 457 1 489 1 513 1 517 1 529 1 533 1 551 1 559 1 582 1 631 1 639 1 641 1 645 1 673 1 676 1 721 1 723 1 726 1 731 2 740 1 771 1 775 1 837 1 844 1 865 1 870 1 871 1 884 1 885 1 896 1 899 1 935 1 943 1 944 1 998 1 290 1 292 1 301 1 335 1 383 1 387 1 398 1 473 1 486 1 512 1 523 1 524 1 535 1 664 1 685 1 692 1 707 1 715 1 759 1 783 1 786 1 820 1 848 1 873 1 880 1 887 1 900 1 918 1 927 1 934 1 964 1 970 1 982 1 1019 1 1023 1 
1 208 31 2 34 1 110 1 113 1 115 1 171 1 183 1 184 1 194 1 202 1 205 1 227 1 254 1 52 1 56 1 97 1 134 1 142 1 155 1 222 1 251 1 265 1 287 1 295 1 307 1 317 1 344 1 359 1 360 1 376 1 392 1 399 1 417 1 421 1 437 1 520 1 534 1 582 1 585 1 586 1 591 1 620 1 632 2 649 1 672 1 684 1 754 1 756 1 765 1 774 1 793 1 794 1 796 1 845 2 847 1 854 1 859 1 860 1 902 1 948 1 951 1 954 1 959 1 970 1 973 1 298 1 326 1 335 1 355 1 357 1 380 1 391 1 395 1 416 1 419 1 443 1 454 1 467 1 487 1 503 1 505 1 509 1 510 1 539 1 548 1 569 1 603 1 616 1 692 1 727 1 749 1 759 1 766 1 813 1 816 1 829 1 834 1 850 1 858 1 870 1 926 1 969 1 991 1 996 1 1004 1 1008 1 1022 1 
1 209 24 1 58 1 65 1 89 2 99 1 105 1 108 1 111 1 112 1 117 2 133 1 155 1 175 1 195 1 203 1 214 1 219 1 254 1 258 1 268 1 21 1 23 1 33 1 54 1 74 1 86 1 102 1 122 1 123 1 143 1 154 1 179 1 182 1 190 1 196 1 201 1 232 1 237 1 247 1 249 1 302 1 308 1 319 1 333 1 335 1 350 1 357 1 376 1 403 1 499 1 502 1 511 1 544 1 558 1 578 1 598 1 621 1 625 1 637 1 642 1 651 1 667 1 669 1 678 1 689 1 705 1 706 1 728 1 733 1 751 1 775 1 831 1 881 1 883 1 890 1 909 1 955 1 972 1 277 1 324 1 360 1 410 1 458 1 482 1 512 1 519 1 540 1 586 1 604 1 608 1 628 1 634 1 638 1 663 1 676 1 700 1 718 1 726 1 737 1 768 1 771 1 787 1 797 1 803 1 838 1 841 1 843 1 856 1 928 1 929 1 951 1 975 1 976 1 984 1 1002 1 1016 1 1021 1 
1 204 81 1 82 1 129 1 134 1 147 1 182 1 194 1 218 1 219 1 252 1 255 1 266 1 6 1 53 1 65 1 104 1 108 1 116 1 124 1 131 1 141 1 156 1 160 1 161 1 195 1 227 1 234 1 235 1 246 1 281 1 309 1 310 1 312 1 327 1 343 1 353 1 371 1 379 1 384 1 418 1 426 2 432 1 439 1 448 1 453 2 459 1 460 1 487 1 493 1 495 1 520 1 571 1 618 1 629 1 662 1 701 1 714 1 735 1 774 1 775 1 782 1 784 1 789 1 799 1 820 1 844 1 872 1 876 1 891 1 933 1 964 1 280 1 290 1 349 1 351 1 354 1 399 1 416 1 421 1 455 1 467 1 478 1 482 1 528 1 603 1 620 1 634 1 635 1 649 1 710 1 713 1 746 1 752 1 758 1 783 1 788 1 801 1 803 1 871 1 878 1 931 1 953 1 962 1 968 1 984 1 994 1 1018 1 
1 209 18 1 37 1 68 1 97 2 99 1 101 1 118 1 133 1 160 1 181 1 191 1 219 1 251 1 255 1 39 1 44 1 107 1 183 1 194 1 199 1 226 1 241 1 309 1 344 1 354 1 368 1 386 1 390 1 405 1 439 1 464 1 482 1 486 1 500 1 526 1 533 1 541 1 546 1 560 1 567 1 582 1 588 2 593 1 635 1 638 1 677 2 681 1 684 1 711 1 717 1 731 1 734 1 738 2 752 1 765 1 787 1 791 1 805 1 824 2 834 1 839 1 840 1 876 1 921 1 935 1 939 1 990 1 311 1 333 1 335 1 341 1 347 1 364 1 380 1 389 1 414 1 438 1 443 1 444 1 449 1 480 1 534 1 537 1 538 1 558 1 576 1 577 1 578 1 596 1 624 1 640 1 663 1 705 1 712 1 725 1 735 1 758 1 761 1 763 1 788 1 796 1 827 1 847 1 860 1 874 1 885 1 886 1 889 1 900 1 948 1 981 1 1001 1 1012 1 1015 1 
1 212 20 1 48 1 52 1 67 1 107 1 122 1 129 1 135 1 139 1 179 1 192 1 237 1 245 1 251 1 32 1 46 1 110 1 119 1 133 1 144 1 157 1 165 1 185 1 218 1 221 1 230 1 319 1 328 1 329 1 331 1 334 2 336 1 356 1 373 1 395 1 415 1 424 1 432 1 433 2 470 1 487 1 493 1 495 1 530 1 558 1 559 2 577 1 578 1 579 1 610 1 613 1 631 1 634 1 668 1 677 1 680 1 686 1 696 1 703 1 721 1 738 1 755 2 771 1 799 1 805 1 884 1 887 1 890 1 901 1 907 1 908 1 931 1 954 1 987 1 288 1 292 1 317 1 330 1 333 1 364 1 396 1 397 1 402 1 405 1 420 1 429 1 447 1 489 1 500 1 503 1 589 1 615 1 633 1 713 1 715 1 725 1 741 1 743 1 758 1 760 1 770 1 783 1 788 1 809 1 847 1 863 1 911 1 916 1 937 1 1002 1 1005 1 1014 1 
1 211 31 1 34 1 38 1 42 1 51 1 68 1 91 2 95 1 107 1 108 1 138 1 174 1 178 1 179 1 212 1 222 1 45 1 62 1 85 1 87 1 98 1 105 1 124 1 166 1 171 1 172 1 185 1 188 1 189 1 192 1 206 1 225 1 230 1 235 1 238 1 255 1 264 1 281 1 296 1 326 1 330 2 359 1 378 1 398 1 409 1 425 1 427 1 429 1 437 1 459 1 469 1 489 1 492 1 503 1 518 1 526 1 569 1 576 1 627 1 701 1 714 1 746 1 751 1 756 1 777 1 815 2 822 2 882 1 897 1 903 1 904 1 910 1 946 1 949 1 957 1 965 1 984 1 990 1 300 1 301 1 315 1 319 1 325 1 380 1 381 1 406 1 412 1 413 1 449 1 450 1 479 1 481 1 501 1 512 1 513 1 528 1 533 1 553 1 594 1 604 1 617 1 626 1 641 1 676 1 684 1 698 1 717 1 740 1 770 1 783 1 790 1 826 1 831 1 850 1 944 1 970 1 1005 1 1020 1 1025 1 
1 211 35 1 37 1 45 1 46 1 49 1 54 1 66 1 75 1 82 1 86 1 126 1 137 1 140 1 145 2 174 1 218 1 228 1 231 2 243 1 246 1 248 1 269 1 8 1 32 1 51 1 90 1 103 1 118 1 123 1 124 1 138 1 151 1 165 1 171 1 177 1 219 1 221 1 234 1 236 1 255 1 261 1 264 1 279 1 307 1 326 1 345 1 359 1 422 1 431 1 438 1 456 1 473 2 530 1 531 1 556 1 572 1 622 1 641 1 642 1 693 1 750 1 755 1 845 1 870 1 903 1 917 1 933 1 959 1 995 1 284 1 291 1 295 1 302 1 305 1 318 1 344 1 353 1 354 1 391 1 410 1 426 1 435 1 453 1 462 1 472 1 480 1 532 1 543 1 560 1 574 1 587 1 590 1 621 1 628 1 678 1 700 1 714 1 769 1 785 1 805 1 811 1 819 1 823 1 839 1 863 1 897 1 918 1 927 1 938 1 940 1 945 1 970 1 987 1 990 1 997 1 1008 1 
1 210 18 1 19 1 34 2 42 1 78 1 101 1 102 1 133 1 139 1 143 1 187 2 200 1 216 1 227 1 269 1 21 1 24 1 32 1 43 1 82 1 105 1 109 1 114 1 134 1 160 1 175 1 185 1 186 1 224 1 232 1 262 1 271 1 288 1 315 1 361 1 378 1 383 1 396 1 398 1 403 1 412 1 419 1 426 1 437 1 449 1 492 1 501 1 516 1 525 1 531 1 541 1 551 1 592 2 595 1 619 1 634 2 640 1 656 1 665 1 718 1 760 1 805 1 832 1 842 1 854 1 862 1 868 1 875 1 880 1 906 1 907 1 926 1 966 1 980 1 996 1 294 1 303 1 308 1 342 1 365 1 389 1 447 1 448 1 450 1 455 1 457 1 513 1 521 1 534 1 576 1 593 1 596 1 607 1 629 1 630 1 639 1 660 1 661 1 662 1 735 1 751 1 757 1 780 1 794 1 855 1 858 1 869 1 924 1 929 1 935 1 956 1 1002 1 1006 1 1007 1 1022 1 
1 209 50 1 66 1 73 1 97 1 103 1 112 1 156 2 227 1 4 1 16 1 21 1 76 1 80 1 84 1 95 1 98 1 110 1 146 1 179 1 199 1 206 1 207 1 211 1 245 1 265 1 278 1 278 1 294 1 305 1 330 1 340 1 357 1 363 1 385 1 387 1 411 1 422 1 463 1 486 1 521 1 532 1 534 1 559 2 583 1 593 2 619 1 628 1 643 1 658 1 668 1 700 1 707 1 753 1 765 1 812 1 817 1 841 1 845 1 851 1 856 2 860 1 874 1 879 1 891 1 931 1 966 1 979 1 296 1 307 1 313 1 318 1 320 1 331 1 337 1 338 1 342 1 346 1 359 1 435 1 440 1 456 1 474 1 480 1 481 1 499 1 503 1 516 1 552 1 558 1 591 1 650 1 652 1 699 1 709 1 739 1 757 1 797 1 852 1 906 1 909 1 921 1 942 1 961 1 991 1 994 1 1017 1 1018 1 1023 1 1027 1 
1 209 18 1 49 1 67 1 74 1 80 1 90 1 101 1 148 1 160 1 161 2 166 1 167 1 179 1 186 1 261 1 276 1 26 1 27 1 38 1 56 1 87 1 91 1 124 1 126 1 135 1 154 1 155 1 183 1 188 1 189 1 200 1 213 1 255 1 327 1 334 1 342 1 365 2 378 1 386 1 392 1 416 1 428 1 454 1 456 1 460 1 601 1 602 1 603 1 609 1 623 1 627 1 668 1 709 1 710 1 721 1 738 1 740 1 747 1 762 1 807 1 812 1 875 1 879 1 904 1 935 1 937 1 955 1 976 2 985 1 293 1 302 1 333 1 337 1 348 1 355 1 358 1 375 1 387 1 446 1 483 1 513 1 542 1 553 1 571 1 594 1 620 1 645 1 675 1 681 1 683 1 691 1 702 1 714 1 716 1 719 1 743 1 744 1 775 1 796 1 798 1 811 1 848 1 872 1 881 1 882 1 884 1 886 1 898 1 900 1 912 1 927 1 941 1 953 1 1003 1 1006 1 1015 1 1025 1 
1 210 10 1 20 1 58 1 78 1 107 1 109 1 121 1 142 1 145 1 154 1 160 1 175 1 203 1 205 2 224 1 227 1 231 1 253 1 254 1 265 1 266 1 13 1 19 1 38 1 68 1 128 1 159 1 209 1 226 1 251 1 260 1 268 1 272 1 310 1 322 1 323 1 352 1 382 1 468 1 478 1 490 1 511 1 536 1 543 1 549 1 572 1 636 1 649 1 675 1 676 1 688 1 691 1 697 1 720 1 724 1 731 1 748 1 763 1 776 1 805 1 808 1 841 1 899 1 902 1 903 1 932 1 288 1 332 1 350 1 372 1 408 1 435 1 454 1 459 1 467 1 515 1 547 1 560 1 564 1 570 1 589 1 590 1 603 1 627 1 634 1 650 1 653 1 674 1 711 1 730 1 760 1 835 1 852 1 859 1 881 1 885 1 900 1 929 1 961 1 972 1 1000 1 1008 1 1009 1 1023 1 1024 1 
1 214 15 1 27 1 70 1 91 1 93 1 128 1 135 1 146 1 179 1 199 1 241 1 250 2 256 1 272 1 275 1 21 1 35 1 47 1 86 1 87 1 102 1 107 1 127 1 187 1 201 1 206 1 214 1 232 1 245 1 268 1 290 2 293 1 299 1 305 1 321 2 334 1 364 1 367 1 382 1 385 1 388 1 408 2 439 1 453 1 454 1 459 1 462 1 476 1 481 1 483 2 500 1 504 1 529 1 538 1 571 1 581 1 614 1 627 1 647 1 659 1 661 1 669 1 671 1 679 1 712 1 718 1 726 1 743 1 768 1 784 1 801 1 812 2 813 2 847 1 855 1 896 1 907 1 922 1 932 1 935 1 943 1 973 1 991 2 373 1 399 1 400 1 424 1 447 1 471 1 502 1 515 1 518 1 524 1 527 1 534 1 541 1 542 1 554 1 568 1 573 1 590 1 603 1 617 1 630 1 655 1 658 1 668 1 684 1 725 1 745 1 748 1 818 1 830 1 884 1 891 1 909 1 980 1 986 1 988 1 1009 1 1022 1 1024 1 1027 1 
1 212 20 1 34 1 37 1 41 1 50 1 81 1 88 1 97 1 106 1 119 1 134 1 156 1 161 1 184 1 189 2 221 1 229 1 53 1 58 1 62 1 76 1 84 1 98 1 112 1 122 1 147 1 183 1 187 1 193 1 205 1 227 1 260 1 326 1 328 1 343 1 352 1 400 1 405 1 439 1 460 1 473 1 496 1 499 1 515 1 533 1 539 1 543 1 570 1 581 1 594 1 612 1 643 1 661 1 671 1 680 1 702 1 708 1 711 1 723 1 727 1 761 2 766 1 767 1 768 1 769 1 772 1 782 1 794 1 818 1 824 1 827 1 828 2 840 1 846 1 860 1 886 1 902 1 286 1 301 1 310 1 311 1 313 1 336 1 337 1 351 1 368 1 380 1 494 1 525 1 548 1 578 1 595 1 602 1 640 1 646 1 684 1 792 1 802 1 844 1 869 1 870 1 932 1 935 1 945 1 955 1 977 1 984 1 1001 1 1004 1 1006 1 
1 208 8 1 21 1 27 1 108 1 153 1 202 1 208 1 221 1 223 1 246 1 4 1 14 1 20 1 39 1 62 1 68 1 77 1 78 1 83 1 155 1 209 1 236 1 265 1 266 1 320 1 352 1 356 1 368 1 401 1 412 1 425 1 439 1 444 1 464 1 483 1 497 1 526 1 533 2 637 1 653 1 655 1 662 1 665 1 675 1 690 1 695 1 716 1 718 1 722 1 744 1 747 1 766 1 777 1 783 1 808 1 833 1 838 1 841 1 855 1 858 1 881 1 892 1 965 1 968 1 982 1 988 1 292 1 312 1 327 1 336 1 358 1 362 1 383 1 418 1 440 1 467 1 468 1 482 1 506 1 530 1 548 1 564 1 612 1 618 1 620 1 622 1 635 1 667 1 685 1 710 1 736 1 765 1 778 1 817 1 818 1 820 1 821 1 824 1 829 1 831 1 863 1 888 1 906 1 914 1 918 1 935 1 949 1 952 1 955 1 985 1 1005 1 1013 1 1023 1 1026 1 
1 208 10 1 27 1 51 1 67 1 68 1 80 1 95 1 104 2 105 1 114 1 121 1 136 1 157 1 167 1 190 1 199 1 207 1 220 1 228 1 234 1 38 1 40 1 50 1 74 1 82 1 91 1 117 1 142 1 147 1 175 1 184 1 202 1 208 1 209 1 214 1 215 1 217 1 230 1 233 1 276 1 289 1 338 1 348 1 354 1 391 1 401 1 416 1 418 1 420 1 437 1 456 1 498 1 513 1 526 1 571 1 612 1 644 1 676 1 686 1 712 1 734 1 759 1 814 1 826 1 837 1 849 1 883 1 899 1 901 1 903 1 904 2 915 1 952 1 989 1 997 1 295 1 297 1 312 1 362 1 365 1 392 1 398 1 400 1 411 1 422 1 427 1 469 1 473 1 478 1 499 1 540 1 544 1 546 1 548 1 575 1 582 1 606 1 625 1 636 1 647 1 703 1 707 1 787 1 810 1 869 1 890 1 923 1 925 1 943 1 954 1 1004 1 1008 1 1022 1 
1 219 18 1 32 1 44 2 47 1 49 1 82 1 84 1 146 1 177 1 189 1 191 1 196 1 230 1 233 1 251 1 255 1 257 1 258 1 48 1 54 1 78 1 80 1 115 1 129 1 170 1 171 1 202 1 214 1 228 1 250 1 287 1 301 1 306 1 316 1 336 1 369 1 412 1 417 1 419 1 423 2 432 1 433 1 436 1 463 1 481 1 501 1 506 1 513 1 526 1 546 1 579 1 589 1 624 1 626 1 628 1 635 1 639 1 649 1 659 1 679 1 694 1 710 1 713 1 716 1 717 1 732 1 735 1 751 1 769 1 794 1 800 1 813 1 819 1 835 2 845 1 852 1 853 1 867 1 870 1 891 1 905 1 915 1 926 1 927 1 938 1 973 1 985 1 998 1 307 1 311 1 320 1 329 1 345 1 348 1 367 1 375 1 394 1 401 1 427 1 445 1 450 1 459 1 464 1 472 1 490 1 508 1 520 1 530 1 540 1 542 1 577 1 587 1 590 1 650 1 666 1 678 1 691 1 704 1 705 1 706 1 725 1 760 1 816 1 832 1 908 1 921 1 935 1 1000 1 1017 1 1019 1 1020 1 1025 1 
1 213 11 1 16 1 56 1 57 1 71 1 92 1 129 1 135 1 173 1 191 1 216 1 229 1 244 1 253 1 255 1 21 1 22 1 27 1 35 1 69 1 70 1 77 1 104 1 109 1 118 1 141 1 142 1 148 1 156 1 187 1 224 1 226 1 259 1 282 1 311 1 318 1 346 1 362 1 388 1 400 2 407 1 494 1 499 1 532 1 534 2 566 1 570 1 601 1 602 1 621 2 639 1 678 1 696 1 707 1 739 1 766 1 769 1 775 1 824 1 828 1 832 1 856 1 897 1 900 1 927 1 928 1 956 1 966 1 997 1 999 1 305 1 310 1 319 1 329 1 336 1 342 1 358 1 397 1 405 1 425 1 442 1 443 1 462 1 478 1 513 1 535 1 538 1 539 1 559 1 564 1 585 1 594 1 598 1 605 1 618 1 635 1 643 1 651 1 706 1 719 1 738 1 756 1 797 1 803 1 813 1 823 1 829 1 867 1 871 1 875 1 891 1 983 1 985 1 1001 1 1003 1 1004 1 1007 1 1023 1 1024 1 
1 207 2 1 24 1 44 1 56 1 134 1 139 1 158 1 159 1 166 1 194 1 198 1 217 1 228 1 257 1 270 1 285 1 9 1 30 1 36 1 47 1 59 1 78 1 97 1 98 1 164 1 183 1 191 1 238 1 242 1 303 1 318 1 322 1 336 1 342 1 358 1 382 1 409 1 421 2 426 1 465 1 472 1 478 1 502 1 506 1 523 1 528 1 537 1 552 1 559 1 565 1 576 1 578 1 590 1 612 1 621 1 669 1 680 1 694 2 711 1 718 1 750 1 751 1 767 1 809 1 818 1 823 1 848 1 849 1 851 1 863 1 888 1 946 1 968 1 972 1 973 1 978 1 984 1 997 1 293 1 299 1 306 1 312 1 313 1 345 1 348 1 362 1 370 1 414 1 433 1 435 1 446 1 467 1 473 1 497 1 540 1 555 1 579 1 583 1 587 1 614 1 622 1 626 1 638 1 653 1 655 1 660 1 673 1 682 1 722 1 723 1 736 1 740 1 742 1 758 1 788 1 822 1 835 1 874 1 886 1 925 1 951 1 993 1 999 1 1014 1 
1 209 37 1 46 1 48 1 98 1 106 1 118 1 138 1 154 1 198 1 228 1 234 1 237 1 258 1 268 1 277 1 30 1 36 1 54 1 109 1 123 1 137 1 178 1 180 1 196 1 241 1 274 1 280 1 312 1 321 1 384 1 388 1 412 1 421 1 503 1 540 1 555 1 559 1 560 1 566 1 573 1 594 1 605 1 610 1 627 1 631 1 640 1 642 1 644 1 657 1 694 1 720 1 743 1 751 1 753 1 771 2 774 1 785 1 788 1 792 1 820 1 854 1 859 1 879 1 891 1 923 1 947 1 982 1 984 1 990 1 290 1 296 1 298 1 301 1 316 1 322 1 323 1 333 1 357 1 358 1 372 1 390 1 411 1 416 1 425 1 448 1 476 1 493 1 495 1 498 1 499 1 507 1 543 1 544 1 623 1 656 1 660 1 671 1 679 1 700 1 740 1 754 1 760 1 782 1 940 1 966 1 986 1 1001 1 1012 1 1015 1 1016 1 1020 1 1023 1 
1 218 26 1 38 1 57 1 83 1 95 1 99 1 128 1 133 2 142 1 186 2 192 1 219 1 246 1 250 1 256 1 260 1 284 1 5 1 21 1 41 1 47 1 56 1 114 1 117 1 120 1 121 1 159 1 171 1 198 1 215 1 234 1 237 1 253 1 289 1 289 1 294 1 301 1 303 1 310 2 319 1 326 1 328 1 342 1 344 1 354 1 356 1 359 1 368 1 369 1 401 1 423 1 433 1 450 2 457 1 494 1 497 1 501 1 517 1 549 2 552 1 553 1 556 1 565 1 571 1 601 1 611 1 622 1 681 1 688 1 693 1 708 1 709 1 803 1 805 1 811 1 838 1 840 1 852 1 856 1 899 2 901 1 910 1 915 1 922 1 929 1 934 1 950 1 959 1 981 1 290 1 376 1 380 1 393 1 438 1 449 1 465 1 473 1 477 1 485 1 493 1 533 1 570 1 583 1 585 1 597 1 606 1 630 1 656 1 670 1 679 1 740 1 741 1 744 1 765 1 780 1 786 1 814 1 829 1 842 1 847 1 854 1 892 1 905 1 927 1 955 1 962 1 969 1 976 1 1004 1 1009 1 1014 1 1016 1 1021 1 1022 1 1025 1 
1 211 24 1 27 2 41 1 52 1 82 1 111 1 135 1 149 1 158 1 169 1 182 1 190 1 192 1 214 1 220 1 230 1 231 1 236 1 258 1 260 1 267 2 281 2 8 1 36 1 43 1 64 1 86 1 89 1 94 1 153 1 167 1 202 1 209 1 226 1 243 1 244 1 269 1 272 1 288 1 289 1 310 1 362 1 387 1 437 1 446 1 448 1 456 1 480 1 486 1 492 1 498 1 541 1 545 1 546 2 548 1 551 1 572 1 575 1 582 1 629 1 640 1 701 1 721 1 729 1 745 1 759 1 765 1 773 1 796 1 797 1 800 2 823 1 828 1 848 1 862 1 871 1 880 1 891 1 913 1 934 1 971 1 986 1 990 1 993 1 291 1 306 1 317 1 326 1 356 1 374 1 395 1 459 1 484 1 514 1 530 1 534 1 560 1 585 1 596 1 600 1 603 1 617 1 657 1 663 1 673 1 750 1 778 1 785 1 838 1 882 1 885 1 909 1 919 1 958 1 969 1 979 1 1006 1 1010 1 1011 1 1015 1 1022 1 
1 206 4 1 36 1 41 1 78 1 82 1 84 1 87 1 108 1 120 1 125 1 153 1 157 2 194 1 195 1 208 1 234 1 239 1 252 1 23 1 29 1 49 1 72 1 100 1 156 1 197 1 260 1 276 1 290 1 291 1 291 1 311 1 382 1 384 1 400 1 408 1 412 1 444 1 458 1 459 1 470 1 475 1 476 1 486 1 505 1 545 1 572 1 614 1 633 1 634 1 672 1 675 1 691 1 713 2 763 1 767 1 770 1 778 1 820 2 822 1 839 1 848 2 882 1 891 1 937 1 941 1 958 1 989 1 995 2 996 1 297 1 305 1 306 1 334 1 340 1 346 1 356 1 362 1 385 1 386 1 395 1 426 1 438 1 464 1 469 1 523 1 529 1 539 1 581 1 583 1 597 1 612 1 722 1 731 1 734 1 761 1 787 1 795 1 802 1 814 1 851 1 855 1 865 1 869 1 894 1 911 1 922 1 929 1 1005 1 1025 1 
1 208 1 1 2 1 24 1 39 1 41 1 70 1 73 1 91 1 159 1 200 1 203 1 214 1 263 1 7 1 8 1 11 1 16 1 23 1 56 1 62 1 77 1 180 1 181 1 247 1 265 1 269 1 274 1 283 1 361 1 401 1 409 1 426 1 427 1 443 1 444 1 465 1 530 1 562 1 570 1 576 1 582 1 618 1 621 1 624 1 628 1 629 1 660 1 697 1 717 1 734 1 739 1 809 1 814 1 836 1 853 1 855 1 883 2 884 1 924 1 932 1 947 1 953 1 962 1 972 1 973 1 982 1 994 2 995 1 302 1 347 1 359 1 366 1 377 1 439 1 454 1 474 1 498 1 519 1 521 1 539 1 548 1 549 1 587 1 591 1 595 1 619 1 627 1 630 1 633 1 678 1 683 1 715 1 729 1 731 1 742 1 744 1 751 1 778 1 788 1 817 1 823 1 841 1 864 1 885 1 898 1 903 1 925 1 926 1 940 1 945 1 958 1 966 1 971 1 1014 1 
1 205 1 1 7 1 14 1 101 1 120 1 144 1 148 1 161 1 163 1 178 1 188 1 198 1 205 1 219 1 238 1 244 1 259 1 265 1 281 1 3 1 40 1 46 1 48 1 54 1 72 1 85 1 86 1 117 1 131 1 133 1 153 1 155 1 166 1 189 1 218 1 236 1 237 1 249 1 267 1 279 1 287 1 309 1 316 1 331 1 384 1 394 1 428 1 439 1 453 1 473 1 500 1 525 1 552 1 559 1 583 1 612 1 649 1 654 1 657 1 670 1 704 1 711 1 752 1 781 1 783 1 800 1 815 1 824 1 826 1 845 1 868 1 877 1 883 1 892 1 964 1 991 1 342 1 347 1 434 1 444 1 448 1 454 1 460 1 464 1 509 1 513 1 516 1 532 1 537 1 573 1 575 1 608 1 635 1 659 1 692 1 736 1 741 1 747 1 780 1 871 1 874 1 876 1 908 1 976 1 990 1 
1 210 61 1 78 1 92 1 126 1 130 1 134 1 163 1 173 1 180 1 214 1 235 1 243 1 251 1 278 1 289 1 16 1 57 1 60 1 65 1 67 1 74 1 77 1 120 1 149 1 153 1 171 1 183 1 186 1 245 1 260 1 267 1 277 1 317 1 325 1 343 1 380 1 392 1 402 1 407 1 410 1 427 1 436 1 439 1 466 1 473 1 488 1 498 1 503 1 507 1 525 1 530 1 552 1 560 1 565 1 599 1 623 1 628 1 655 1 693 1 710 1 737 1 755 1 788 1 790 1 796 1 812 1 832 1 839 1 841 1 887 1 917 1 959 1 967 2 979 1 998 1 301 1 308 1 309 1 312 1 353 1 358 1 365 1 369 1 377 1 378 1 386 1 404 1 472 1 523 1 527 1 553 1 558 1 567 1 573 1 575 1 584 1 592 1 593 1 681 1 685 1 694 1 728 1 749 1 786 1 849 1 852 1 855 1 865 1 867 1 888 1 897 1 908 1 1006 1 1020 1 1024 1 
1 213 30 1 35 1 46 1 47 1 48 1 80 1 98 1 101 1 103 1 122 1 131 1 148 1 163 1 230 1 234 1 236 1 245 1 259 1 270 1 4 1 65 1 88 1 104 1 115 1 147 1 178 1 214 1 221 1 248 1 262 1 276 1 284 1 295 1 295 1 303 1 356 1 360 1 372 1 387 1 388 1 429 1 432 1 441 2 444 1 462 1 485 1 494 1 510 1 554 1 580 1 598 1 626 1 671 1 672 1 675 1 687 1 695 1 725 1 732 1 733 1 785 1 786 1 801 1 815 1 825 1 859 1 866 1 871 1 925 1 931 1 933 1 970 1 996 1 997 1 296 1 333 1 380 1 398 1 411 1 437 1 443 1 452 1 455 1 505 1 523 1 524 1 525 1 581 1 590 1 629 1 642 1 651 1 652 1 668 1 682 1 708 1 714 1 754 1 787 1 810 1 829 1 848 1 876 1 887 1 911 1 912 1 927 1 998 1 1003 1 1010 1 1016 1 1025 1 
1 220 10 1 21 1 45 1 49 1 72 2 87 1 91 1 118 1 140 1 161 1 164 1 165 1 187 1 248 1 255 1 269 2 275 1 22 1 86 1 106 1 114 1 136 1 206 1 209 1 211 1 212 1 226 1 236 1 239 1 278 1 288 1 295 1 315 1 324 1 351 1 381 1 384 1 393 1 418 1 462 1 470 2 476 1 538 1 542 1 628 1 631 1 653 1 658 2 687 1 688 1 711 1 745 1 759 1 767 1 780 1 803 1 808 1 810 1 858 1 869 1 877 1 898 1 917 1 918 1 945 1 948 1 954 1 961 1 994 2 331 1 374 1 379 1 433 1 437 1 453 1 459 1 465 1 482 1 492 1 550 1 555 1 557 1 560 1 561 1 572 1 678 1 709 1 750 1 755 1 804 1 831 1 842 1 845 1 865 1 873 1 883 1 895 1 906 1 933 1 936 1 952 1 990 1 1001 1 1008 1 1009 1 1010 1 1016 1 1023 1 1024 1 
1 211 5 1 10 1 14 1 44 1 59 1 120 1 126 1 160 1 221 1 241 1 15 1 25 1 26 1 31 1 34 1 40 1 68 1 73 1 84 1 88 1 189 1 215 1 216 1 222 1 238 1 247 1 284 1 291 1 306 1 329 2 366 1 381 1 401 1 406 1 435 1 438 1 447 1 455 1 456 1 460 1 482 1 489 1 508 1 512 1 534 1 535 2 558 1 580 1 585 1 596 1 600 1 606 1 619 1 635 1 638 2 670 1 681 1 686 1 688 1 691 2 778 1 798 1 894 1 920 1 926 1 929 2 946 1 961 1 974 1 992 1 337 1 338 1 359 1 382 1 392 1 396 1 412 1 425 1 454 1 459 1 471 1 491 1 496 1 503 1 546 1 559 1 566 1 567 1 598 1 603 1 646 1 647 1 652 1 695 1 721 1 828 1 859 1 880 1 913 1 917 1 977 1 982 1 986 1 988 1 1001 1 1010 1 1023 1 1027 1 
1 210 43 1 47 1 51 1 64 1 102 1 137 1 146 1 189 1 196 1 213 2 214 1 219 2 234 1 235 1 239 1 248 1 266 1 21 1 96 1 134 1 139 1 147 1 153 1 173 1 184 1 195 1 220 1 227 1 270 1 288 1 300 1 312 1 339 1 340 1 341 1 416 1 428 1 460 1 470 1 473 1 487 1 513 1 516 1 529 1 549 1 554 1 585 1 596 1 597 1 604 1 625 1 638 1 650 1 655 1 673 1 689 1 716 1 724 1 747 1 762 1 763 1 787 1 795 1 811 1 813 1 818 2 823 1 834 1 855 2 866 1 900 1 924 1 928 1 938 1 958 1 977 1 985 1 999 1 331 1 336 1 342 1 343 1 360 1 417 1 425 1 451 1 458 1 491 1 507 1 510 1 519 1 537 1 570 1 631 1 670 1 674 1 705 1 711 1 721 1 726 1 730 1 751 1 753 1 770 1 830 1 835 1 837 1 845 1 862 1 947 1 969 1 976 1 980 1 983 1 995 1 1001 1 
1 214 15 1 52 1 62 1 67 1 70 1 71 1 103 1 114 1 131 1 189 1 193 1 228 1 242 1 281 1 37 1 66 1 79 1 104 1 110 1 168 1 175 1 181 1 183 1 188 1 214 1 222 1 223 1 225 1 252 1 287 1 303 1 310 1 325 1 330 1 333 1 342 1 380 1 393 1 413 1 434 1 442 1 450 1 457 1 459 1 468 1 470 1 490 1 501 2 510 1 540 1 563 1 581 1 588 1 592 1 595 1 609 1 616 1 617 1 656 1 659 1 661 1 670 1 673 1 679 1 694 1 804 1 807 1 831 1 848 1 850 1 860 1 863 1 871 1 876 1 898 1 908 1 915 1 931 1 944 2 949 1 953 1 960 1 307 1 311 1 317 1 322 1 338 1 425 1 451 1 461 1 471 1 475 1 548 1 554 1 556 1 600 1 610 1 623 1 629 1 639 1 647 1 687 1 722 1 753 1 762 1 763 1 770 1 787 1 817 1 822 1 870 1 901 1 916 1 920 1 945 1 951 1 963 1 966 1 967 1 982 1 1010 1 1016 1 1027 1 
1 212 6 1 12 1 24 1 36 1 41 1 47 1 56 1 99 1 105 1 111 1 117 1 137 1 154 1 157 1 158 1 159 1 179 1 180 1 194 1 213 1 222 1 242 1 267 1 298 1 2 1 64 1 109 1 143 1 146 1 163 1 207 1 215 1 243 1 275 1 330 1 336 1 347 1 348 1 350 1 463 1 469 1 477 1 485 1 486 1 488 1 532 1 535 1 557 1 560 1 562 1 578 1 589 1 596 1 604 2 620 1 630 1 656 1 659 1 697 1 703 1 715 1 754 1 763 1 764 1 787 1 799 1 827 1 837 1 841 1 855 1 866 2 882 1 899 1 901 1 915 1 919 1 922 1 935 1 963 1 968 1 975 1 306 1 308 1 316 1 322 1 358 1 392 1 422 1 436 1 467 1 471 1 479 1 500 1 517 1 608 1 619 1 664 1 752 1 775 1 781 1 796 1 833 1 836 1 870 1 891 1 892 1 898 1 923 1 924 1 927 1 958 1 960 1 964 1 1000 1 1007 1 1009 1 1014 1 
1 210 7 1 29 1 47 1 48 1 80 1 81 1 102 1 120 2 155 1 236 1 268 1 285 1 289 1 14 1 89 1 96 1 108 1 117 1 130 1 140 1 146 1 148 1 191 1 209 1 215 1 230 1 235 1 241 1 242 1 269 1 275 1 282 1 288 1 294 1 309 1 313 1 314 1 322 1 355 1 362 1 366 1 401 1 411 1 414 1 424 1 436 1 453 1 485 1 508 1 566 1 596 1 599 1 615 1 644 1 669 1 671 1 693 1 716 1 746 1 750 1 752 1 757 1 779 1 781 1 795 1 853 1 869 1 878 1 881 1 885 1 905 1 919 1 946 1 948 1 950 1 967 1 320 1 347 1 359 1 363 1 458 1 476 1 490 1 516 1 554 1 559 1 600 1 638 1 649 1 651 1 659 1 664 1 715 1 730 1 768 1 773 1 775 1 812 1 830 1 833 1 840 1 848 1 862 1 872 1 913 1 935 1 944 1 979 1 1000 1 1006 1 1017 1 1021 1 1027 1 
1 212 33 2 49 1 55 1 106 1 120 2 123 1 128 1 143 1 171 1 175 1 180 1 192 1 223 1 224 1 271 1 1 1 12 1 22 1 36 1 40 1 43 1 66 1 86 1 99 1 104 1 118 1 139 1 141 1 156 1 167 1 201 1 202 1 249 1 276 1 279 1 292 1 314 1 344 1 348 1 398 1 416 1 420 1 467 1 474 1 513 1 537 1 560 1 594 1 612 1 643 1 645 1 647 1 678 1 739 1 757 1 823 1 834 1 889 1 896 1 905 2 923 1 935 1 943 1 952 1 306 1 311 1 331 1 353 1 361 1 374 1 410 1 411 1 418 1 434 1 445 1 472 1 477 1 478 1 479 1 538 1 549 1 552 1 558 1 579 1 581 1 596 1 622 1 653 1 699 1 720 1 740 1 746 1 754 1 766 1 769 1 814 1 825 1 827 1 830 1 849 1 853 1 855 1 865 1 912 1 930 1 953 1 957 1 997 1 1001 1 1009 1 1017 1 1026 1 
1 211 14 1 22 1 62 1 78 1 81 1 101 1 119 1 123 1 132 1 134 1 168 1 173 1 193 1 213 1 242 1 287 1 289 1 295 1 299 1 9 1 21 1 74 1 99 1 102 1 106 1 115 1 116 1 127 1 170 1 172 1 264 1 277 1 320 1 350 1 352 1 355 1 473 1 486 1 503 1 507 2 544 1 553 1 582 1 593 1 610 1 665 1 667 1 720 1 734 1 740 1 746 1 752 1 763 1 766 1 770 1 781 1 787 1 805 1 831 1 883 1 898 1 909 1 913 1 934 1 935 1 940 2 942 2 983 1 987 1 306 1 330 1 409 1 464 1 468 1 505 1 520 1 529 1 543 1 548 1 550 1 565 1 583 1 614 1 617 1 620 1 638 1 662 1 701 1 715 1 723 1 744 1 756 1 804 1 813 1 823 1 829 1 851 1 905 1 911 1 915 1 931 1 1004 1 1007 1 1016 1 1022 1 1024 1 1027 1 
1 210 12 1 32 2 113 1 160 1 221 1 226 1 233 1 240 1 265 1 4 1 43 1 46 1 73 1 97 1 112 1 117 1 133 1 169 1 184 1 200 1 202 1 235 1 238 1 239 1 255 1 310 1 314 1 320 1 344 1 361 1 369 1 400 1 420 1 441 1 446 1 472 1 489 1 490 1 493 1 521 1 537 1 543 1 553 1 558 2 578 1 591 1 607 1 614 2 628 1 643 1 685 1 693 1 710 1 730 1 734 1 742 1 750 1 757 1 768 1 783 1 810 1 817 1 844 1 879 1 884 1 918 2 919 1 925 1 927 1 968 1 973 1 309 1 327 1 347 1 409 1 417 1 455 1 466 1 480 1 515 1 524 1 539 1 540 1 565 1 567 1 596 1 603 1 650 1 664 1 668 1 709 1 722 1 797 1 824 1 828 1 830 1 851 1 867 1 877 1 881 1 898 1 912 1 953 1 988 1 999 1 1002 1 1004 1 1023 1 1026 1 
1 215 90 1 114 1 122 1 139 1 146 1 150 1 159 1 168 2 188 1 190 1 193 1 194 1 210 2 217 1 223 1 242 1 243 1 249 1 259 1 265 1 278 1 281 1 2 1 10 1 29 1 59 1 79 1 143 1 164 1 167 1 170 1 178 1 206 1 262 1 276 1 286 1 291 1 316 1 335 1 368 1 381 1 388 1 398 1 399 1 411 1 414 1 422 1 464 1 471 1 503 1 512 1 524 1 525 1 526 1 529 1 537 1 616 1 636 1 639 1 646 1 660 1 678 1 707 1 711 1 714 1 716 1 719 1 725 1 734 1 739 1 752 1 793 1 809 1 819 1 820 1 863 1 901 1 923 1 937 1 959 1 972 1 979 1 315 1 321 1 328 1 348 1 351 1 370 1 378 1 396 1 401 1 440 1 442 1 452 1 475 1 510 1 521 1 560 1 577 1 578 1 590 1 605 1 610 1 633 1 637 1 641 1 648 1 655 1 676 1 684 1 701 1 740 1 790 1 800 1 835 1 838 1 855 1 867 1 872 1 885 1 889 1 940 1 961 1 963 1 973 1 987 1 1003 1 1007 1 1016 1 1022 1 
1 211 11 1 101 1 148 1 153 1 167 1 170 1 175 1 176 1 186 1 212 1 218 1 242 1 266 1 285 1 297 1 8 1 23 1 45 1 46 1 74 1 80 1 84 1 94 1 116 1 135 1 213 1 264 1 267 1 287 1 290 1 291 1 300 1 302 1 303 1 345 1 356 1 359 1 360 1 364 1 376 1 381 1 407 1 445 1 456 1 465 1 466 1 467 1 480 1 483 1 489 1 490 1 507 1 513 1 538 1 544 2 549 1 589 1 632 1 663 1 671 1 675 2 677 1 732 1 750 1 752 1 765 1 774 1 809 1 818 1 828 1 842 1 843 1 849 1 874 1 878 1 886 1 888 1 922 1 928 1 937 1 958 1 963 1 994 1 330 1 334 1 343 1 352 1 377 1 390 1 393 1 494 1 497 1 501 1 503 1 505 1 564 1 588 1 611 1 615 1 620 1 622 1 668 1 702 1 706 1 726 1 743 1 786 1 788 1 802 1 838 1 857 1 865 1 926 1 927 1 947 1 964 1 978 1 991 1 1004 1 1017 1 1019 1 1022 1 
1 212 3 1 9 1 38 1 39 1 44 1 96 1 103 1 124 1 128 1 142 1 144 1 149 1 156 1 157 1 159 2 163 1 253 1 260 1 270 1 276 1 5 1 18 1 50 1 59 1 76 1 92 1 108 1 119 1 123 1 129 1 131 1 139 1 148 1 210 1 216 1 223 1 249 1 264 1 278 1 285 1 299 1 338 1 340 1 354 1 380 1 393 1 399 1 411 1 422 1 424 1 444 1 450 1 473 1 474 1 486 1 509 1 517 1 519 1 530 1 552 1 572 1 573 1 575 1 612 1 647 1 650 1 726 1 776 2 782 1 803 1 809 1 814 1 817 1 843 1 864 1 896 1 922 1 971 1 986 1 989 1 998 1 316 1 326 1 334 1 344 1 358 1 390 1 408 1 413 1 421 1 436 1 479 1 482 1 507 1 528 1 545 1 555 1 564 1 568 1 591 1 676 1 690 1 694 1 709 1 712 1 741 1 794 1 830 1 837 1 865 1 889 1 892 1 906 1 933 1 939 1 944 1 948 1 950 1 951 1 953 1 959 1 963 1 991 1 995 1 996 1 1010 1 1019 1 1023 1 1025 1 1027 1 
1 208 12 1 17 1 48 1 55 1 83 1 84 1 105 1 111 2 160 1 180 1 198 1 227 1 229 1 236 2 237 1 242 1 245 1 246 1 263 1 271 1 26 1 34 1 86 1 91 1 104 1 114 1 144 1 153 1 165 1 171 1 178 1 179 1 203 1 209 1 224 1 240 1 268 1 277 1 294 1 300 1 314 1 319 1 322 1 334 1 337 1 352 1 363 1 429 1 453 1 458 1 495 1 498 1 510 1 524 2 525 1 545 1 548 1 570 1 571 1 572 1 597 1 652 1 661 1 670 1 676 1 701 1 721 1 731 1 777 1 809 1 813 1 824 1 849 1 850 1 908 1 915 1 938 1 953 1 961 1 978 1 345 1 365 1 369 1 385 1 399 1 414 1 433 1 434 1 479 1 496 1 514 1 552 1 600 1 616 1 623 1 628 1 684 1 690 1 692 1 702 1 705 1 735 1 736 1 755 1 774 1 785 1 840 1 841 1 863 1 885 1 952 1 979 1 990 1 992 1 1000 1 
1 210 16 1 23 1 38 1 42 1 47 1 50 1 69 1 74 1 95 2 103 1 223 1 226 1 248 1 265 1 272 1 273 1 293 1 301 1 1 1 4 1 10 1 20 1 25 1 59 1 84 1 104 1 105 1 202 1 203 1 212 1 216 1 238 1 249 1 263 1 294 1 304 1 315 1 390 1 396 1 411 1 422 1 429 2 446 1 531 1 537 1 546 1 552 1 559 1 612 1 617 1 620 1 684 1 725 1 738 1 745 1 755 1 775 1 812 1 850 1 852 1 854 1 860 1 887 1 896 1 909 1 911 2 959 1 966 1 968 1 971 1 983 1 995 1 319 1 321 1 327 1 350 1 360 1 371 1 392 1 461 1 475 1 482 1 487 1 524 1 548 1 551 1 560 1 570 1 606 1 627 1 675 1 678 1 682 1 724 1 733 1 737 1 761 1 769 1 777 1 782 1 795 1 802 1 840 1 857 1 880 1 890 1 908 1 940 1 942 1 946 1 967 1 974 1 980 1 985 1 1006 1 1018 1 1025 1 
1 211 52 1 80 1 86 1 121 1 140 1 176 1 177 1 182 2 188 1 195 1 210 1 250 1 263 1 269 1 272 1 280 1 289 2 290 1 299 1 304 1 24 1 26 1 35 1 40 1 53 1 63 1 78 1 82 1 98 1 152 1 159 1 175 1 215 1 216 1 224 1 254 1 268 1 282 1 286 1 325 1 364 1 422 1 430 2 469 1 489 1 498 1 502 1 530 1 541 1 547 1 576 1 590 1 603 1 665 1 682 1 705 1 718 1 732 1 748 1 750 1 783 1 800 1 802 1 803 1 809 1 833 1 899 1 905 1 925 1 930 1 944 1 955 1 961 1 965 1 985 1 351 1 357 1 379 1 383 1 385 1 388 1 404 1 417 1 440 1 482 1 496 1 548 1 554 1 556 1 643 1 658 1 719 1 757 1 815 1 834 1 845 1 848 1 857 1 861 1 888 1 898 1 923 1 931 1 943 1 974 1 989 1 990 1 997 1 1005 1 1009 1 1026 1 1027 1 
1 208 16 1 21 1 28 1 50 1 81 1 111 1 115 1 131 1 133 1 148 1 164 1 168 1 171 1 181 1 187 1 189 1 208 1 230 1 252 1 286 1 291 1 1 1 7 1 47 1 84 1 123 1 156 1 160 1 166 1 190 1 201 1 238 1 246 1 254 1 273 1 282 1 285 1 299 1 302 1 394 1 417 1 420 1 469 1 485 2 495 2 526 1 532 1 549 1 563 1 572 1 583 1 597 1 609 1 624 1 630 1 659 1 664 1 678 1 705 1 715 1 719 1 729 1 737 1 751 1 755 1 772 2 775 1 807 2 810 1 819 1 821 1 856 1 868 1 874 1 876 1 879 1 908 1 909 1 978 1 990 1 353 1 365 1 372 1 389 1 390 1 432 1 446 1 448 1 449 1 451 1 474 1 489 1 507 1 508 1 514 1 524 1 557 1 562 1 576 1 580 1 613 1 682 1 699 1 700 1 709 1 722 1 734 1 788 1 792 1 835 1 847 1 852 1 865 1 870 1 893 1 899 1 918 1 947 1 972 1 997 1 1009 1 1010 1 1024 1 
1 206 8 1 44 1 84 1 102 1 116 1 122 1 126 1 133 1 135 1 154 1 163 1 181 1 244 1 265 1 272 1 288 1 298 1 9 1 19 1 22 1 25 1 28 1 70 1 83 1 85 1 97 1 114 1 174 1 188 1 200 1 203 1 218 1 220 1 225 1 283 1 284 1 287 1 294 1 335 1 448 1 544 1 553 1 571 1 602 1 612 1 631 1 639 1 641 1 651 1 687 1 688 1 711 1 718 1 728 1 733 1 744 2 759 1 780 1 794 1 799 1 861 1 879 1 917 1 932 1 957 1 971 1 986 2 990 1 991 1 993 1 334 1 337 1 342 1 350 1 358 1 363 1 368 1 374 1 411 1 473 1 495 1 506 1 522 1 530 1 547 1 551 1 555 1 558 1 573 1 594 1 606 1 628 1 649 1 656 1 664 1 692 1 694 1 700 1 724 1 735 1 736 1 745 1 761 1 805 1 812 1 817 1 825 1 840 1 867 1 902 1 903 1 913 1 920 1 953 1 960 1 1007 1 1027 1 
1 211 39 1 47 1 97 1 140 2 153 2 154 1 156 1 163 1 169 1 175 1 176 1 191 1 201 1 218 1 220 1 301 1 22 1 33 1 37 1 43 1 61 1 127 1 141 1 168 1 196 1 208 1 230 1 257 1 262 1 278 1 282 1 287 1 331 1 350 1 357 1 376 1 386 2 407 1 410 2 419 1 432 1 452 1 472 1 473 1 475 1 518 1 524 1 532 1 536 1 547 1 551 1 584 1 618 1 620 1 624 1 625 1 644 1 646 1 662 1 664 2 668 1 676 1 680 1 701 1 708 1 715 1 722 1 727 1 748 1 754 1 758 1 762 1 765 1 772 1 778 2 784 1 797 1 801 1 832 1 839 1 858 2 880 1 889 1 893 1 900 1 913 1 966 1 973 1 989 1 362 1 389 1 398 1 453 1 505 1 516 1 542 1 629 1 658 1 689 1 696 1 723 1 725 1 820 1 853 1 854 1 877 1 903 1 911 1 942 1 951 1 983 1 1004 1 1023 1 
1 214 19 1 49 1 52 1 67 1 86 1 102 1 104 1 105 1 184 1 191 1 203 1 204 2 208 1 244 1 259 1 301 1 302 1 304 1 308 1 39 1 51 1 54 1 55 1 97 1 98 1 112 1 128 1 131 1 140 1 154 1 156 1 177 1 193 1 255 1 321 1 342 1 348 1 366 1 369 1 386 1 398 1 416 2 426 2 446 1 479 1 483 1 494 1 500 1 522 1 578 1 602 1 619 1 621 1 709 1 731 1 735 1 747 1 753 1 759 1 767 1 769 1 791 1 792 1 793 1 802 1 828 1 885 1 904 2 907 1 912 1 916 1 923 1 926 1 928 1 929 1 930 2 958 2 978 1 326 1 354 1 358 1 430 1 448 1 459 1 462 1 464 1 478 1 488 1 489 1 499 1 506 1 516 1 521 1 580 1 600 1 634 1 636 1 648 1 697 1 715 1 732 1 740 1 741 1 763 1 795 1 800 1 810 1 830 1 837 1 861 1 863 1 867 1 872 1 903 1 913 1 920 1 942 1 951 1 990 1 992 1 1003 1 1006 1 1009 1 1014 1 1025 1 
1 210 4 2 17 1 22 1 41 1 85 1 94 1 100 1 116 1 120 1 126 1 140 1 153 1 170 1 207 1 230 1 234 1 247 1 250 1 251 1 277 1 296 1 309 1 40 1 60 1 62 1 67 1 69 1 71 1 119 1 130 1 131 1 133 1 172 1 181 1 183 1 186 1 208 1 219 1 220 1 225 1 260 1 263 1 275 1 305 1 326 1 349 1 350 1 365 1 420 1 431 1 446 1 483 1 495 2 516 1 556 1 581 1 616 1 653 1 669 1 706 2 708 2 713 1 717 1 756 1 767 1 787 1 793 1 800 1 836 1 845 1 850 1 852 1 870 1 891 1 953 1 971 1 972 1 983 1 988 1 340 1 343 1 355 1 390 1 393 1 395 1 396 1 398 1 428 1 429 1 443 1 449 1 466 1 469 1 491 1 493 1 500 1 567 1 569 1 580 1 583 1 594 1 620 1 632 1 643 1 657 1 683 1 697 1 700 1 709 1 751 1 772 1 808 1 818 1 868 1 903 1 918 1 922 1 975 1 1019 1 1027 1 
1 207 20 1 23 2 50 1 86 1 102 1 113 2 136 1 168 1 170 2 172 1 176 1 193 1 195 1 221 1 285 1 293 1 305 1 3 1 15 1 21 1 26 1 47 1 51 1 52 1 70 1 85 1 87 1 135 1 154 1 156 1 183 1 204 1 205 1 209 1 216 1 228 1 233 1 250 1 288 1 300 1 307 1 318 1 368 2 381 1 406 1 448 1 465 1 500 1 545 1 567 1 579 1 596 1 624 2 631 1 691 1 696 1 741 1 751 1 772 1 775 2 778 1 790 1 802 1 805 1 864 1 878 1 904 1 927 2 931 1 944 1 948 1 950 1 983 1 326 1 340 1 343 1 371 1 383 1 387 1 412 1 415 1 421 1 433 1 435 1 439 1 467 1 510 1 511 1 514 1 573 1 580 1 584 1 609 1 621 1 640 1 642 1 655 1 680 1 710 1 718 1 740 1 750 1 756 1 758 1 768 1 777 1 803 1 804 1 817 1 842 1 846 1 863 1 865 1 883 1 914 1 924 1 959 1 971 1 995 1 996 1 1002 1 1017 1 1026 1 
1 210 61 1 67 1 83 1 92 1 94 1 103 1 120 1 136 1 138 1 139 1 160 1 163 1 173 1 179 1 205 1 237 1 262 1 269 1 270 1 294 1 57 1 78 1 87 1 91 1 105 1 129 1 140 1 152 1 187 1 202 1 203 1 229 1 232 1 274 1 290 1 299 1 325 1 340 2 350 1 405 1 415 1 417 1 432 2 455 1 468 1 475 1 515 1 522 1 524 1 529 1 556 1 612 1 615 1 619 1 621 1 624 1 634 1 644 1 655 1 676 1 684 1 688 1 744 1 769 1 774 1 818 1 833 1 835 1 878 1 881 1 919 1 944 1 955 1 956 1 963 1 966 1 977 1 982 2 983 1 984 1 329 1 378 1 381 1 436 1 449 1 485 1 496 1 505 1 569 1 595 1 598 1 618 1 643 1 663 1 682 1 733 1 737 1 739 1 785 1 794 1 822 1 823 1 845 1 861 1 870 1 916 1 926 1 938 1 971 1 980 1 986 1 987 1 1002 1 1011 1 
1 206 26 1 32 1 45 1 80 1 83 1 91 1 95 1 99 1 112 1 115 1 134 1 150 1 153 1 156 1 194 1 222 1 225 1 226 1 242 1 250 1 266 1 267 1 286 1 287 1 316 1 67 1 85 1 106 1 133 1 209 1 246 1 259 1 263 1 276 1 278 1 345 1 360 1 370 1 416 1 421 1 426 1 430 1 442 1 444 1 461 1 481 1 507 1 520 1 522 1 528 1 541 1 572 1 578 1 580 1 590 1 595 1 598 1 604 1 627 1 628 1 634 1 635 1 640 1 658 1 664 1 714 1 736 1 740 1 757 1 779 1 782 2 791 1 826 1 835 1 848 1 857 1 860 1 923 1 935 1 944 1 968 1 979 1 996 1 328 1 344 1 413 1 446 1 480 1 504 1 505 1 514 1 530 1 539 1 567 1 576 1 606 1 613 1 624 1 637 1 653 1 655 1 680 1 686 1 688 1 711 1 717 1 729 1 745 1 751 1 765 1 815 1 888 1 890 1 891 1 892 1 895 1 906 1 934 1 950 1 958 1 988 1 990 1 992 1 998 1 1002 1 1017 1 1018 1 
1 211 7 1 40 1 42 2 60 1 93 1 98 1 140 1 183 1 187 1 208 1 244 1 253 1 261 1 266 1 271 1 274 1 289 1 308 1 20 1 29 1 52 1 77 1 91 1 121 1 122 1 201 1 229 1 230 1 231 1 242 1 268 1 275 1 286 1 309 1 341 1 352 1 353 1 367 1 387 1 416 1 459 1 460 1 476 1 477 1 486 1 554 1 618 1 652 1 690 1 697 1 703 1 728 1 749 1 771 1 797 1 803 1 815 1 822 1 826 1 835 1 855 1 878 1 880 1 883 1 912 1 940 1 952 1 959 1 964 1 977 1 983 1 987 1 336 1 339 1 345 1 357 1 378 1 381 1 425 1 426 1 429 1 470 1 484 1 499 1 506 1 509 1 519 1 523 1 545 1 571 1 592 1 607 1 614 1 623 1 638 1 648 1 657 1 663 1 666 1 684 1 702 1 712 1 726 1 732 1 778 1 779 1 783 1 790 1 795 1 798 1 837 1 839 1 873 1 886 1 910 1 920 1 932 1 934 1 976 1 1006 1 1017 1 1020 1 
1 205 1 1 25 1 57 1 61 1 68 1 69 1 73 1 89 1 98 1 113 1 135 1 172 1 197 1 216 1 228 1 283 1 303 1 304 1 5 1 19 1 26 1 32 1 54 1 65 1 160 1 161 1 179 1 191 1 214 1 278 1 285 1 301 1 352 1 368 1 369 1 410 2 425 2 456 1 477 1 485 1 492 1 494 1 536 1 539 1 542 1 572 1 613 1 622 1 632 1 660 1 666 1 727 1 761 1 772 1 778 1 812 1 816 1 888 1 916 1 948 1 981 2 326 1 328 1 329 1 330 1 344 1 360 1 384 1 415 1 422 1 432 1 447 1 483 1 505 1 522 1 550 1 554 1 597 1 599 1 636 1 639 1 653 1 664 1 677 1 702 1 717 1 756 1 790 1 792 1 802 1 833 1 884 1 903 1 913 1 943 1 950 1 995 1 1017 1 
1 207 2 1 3 1 14 1 22 1 47 1 61 1 64 1 117 1 129 1 138 1 145 1 147 1 154 1 186 1 234 1 240 2 259 1 281 2 288 1 314 1 11 1 53 1 62 1 72 1 77 1 107 1 122 1 131 1 134 1 222 1 258 1 266 1 305 1 309 1 322 1 347 1 360 1 371 1 375 1 386 1 390 1 393 1 472 1 475 1 515 1 525 1 533 1 540 1 567 1 571 1 574 1 580 1 604 1 608 1 631 1 635 1 637 1 680 1 685 1 720 1 728 1 731 1 734 1 740 1 742 1 812 1 874 1 880 1 884 1 914 1 943 1 971 1 972 1 979 1 350 1 377 1 379 1 404 1 411 1 434 1 462 1 493 1 523 1 543 1 555 1 559 1 572 1 586 1 590 1 593 1 614 1 655 1 659 1 664 1 682 1 718 1 738 1 757 1 764 1 765 1 773 1 778 1 788 1 805 1 822 1 826 1 849 1 853 1 860 1 888 1 911 1 918 1 921 1 924 1 927 1 944 1 996 1 1003 1 1008 1 1014 1 1016 1 
1 208 1 1 18 1 29 1 32 1 74 1 79 1 91 1 119 2 140 1 177 2 198 1 227 1 241 1 259 1 267 1 280 1 287 1 301 1 308 1 321 1 4 1 5 1 17 1 22 1 31 1 33 1 78 1 89 1 98 1 151 1 154 1 173 1 209 1 213 1 214 1 234 1 240 1 288 1 299 1 300 1 323 1 342 1 377 1 386 1 389 1 439 1 443 1 446 1 522 1 527 1 554 1 575 1 608 1 615 1 683 1 685 1 693 1 719 1 721 1 747 1 749 1 752 1 767 1 784 1 796 1 806 1 853 1 860 1 866 1 906 1 915 1 918 1 919 1 979 1 980 1 365 1 372 1 373 1 415 1 423 1 462 1 483 1 495 1 501 1 520 1 536 1 565 1 582 1 611 1 614 1 620 1 636 1 655 1 667 1 668 1 674 1 703 1 704 1 718 1 739 1 758 1 776 1 782 1 793 1 812 1 819 1 847 1 870 1 898 1 905 1 913 1 926 1 930 1 940 1 978 1 1000 1 1009 1 
1 205 33 1 61 2 100 1 115 1 158 1 170 1 213 1 233 1 257 1 261 1 280 1 322 1 3 1 19 1 23 1 29 1 45 1 51 1 54 1 70 1 72 1 78 1 81 1 85 1 111 1 155 1 165 1 226 1 246 1 247 1 251 1 288 1 324 1 354 1 382 1 392 1 399 2 401 1 406 1 411 1 413 1 450 1 487 1 490 1 500 1 506 1 523 1 543 1 551 1 592 1 625 1 635 1 651 1 666 1 669 1 673 1 697 1 698 1 704 1 717 1 728 1 749 1 789 1 806 1 839 1 847 1 902 1 905 1 914 1 934 1 958 1 331 1 363 1 441 1 466 1 468 1 471 1 481 1 484 1 512 1 526 1 532 1 560 1 578 1 579 1 596 1 618 1 633 1 637 1 678 1 690 1 707 1 725 1 738 1 752 1 770 1 817 1 820 1 844 1 848 1 869 1 877 1 899 1 916 1 938 1 970 1 994 1 1001 1 1006 1 
1 211 6 1 7 1 8 1 20 1 71 1 89 1 97 1 115 1 124 1 153 1 160 1 186 1 195 1 202 2 206 1 216 1 241 1 248 1 260 1 296 1 323 1 5 1 12 1 47 1 87 1 88 1 99 1 168 1 213 1 227 1 235 1 240 1 267 1 271 1 340 1 407 2 416 1 433 1 435 1 513 1 563 1 585 1 588 1 604 1 655 1 657 1 665 1 669 1 684 1 691 1 722 1 786 1 818 1 849 1 851 1 853 1 861 1 917 1 929 1 949 1 967 1 983 2 990 1 327 1 339 1 343 1 346 1 356 1 357 1 364 1 369 1 374 1 379 1 398 1 404 1 417 1 456 1 472 1 477 1 500 1 503 1 509 1 540 1 560 1 571 1 574 1 576 1 594 1 625 1 641 1 661 1 701 1 736 1 739 1 767 1 775 1 797 1 804 1 806 1 808 1 850 1 854 1 856 1 880 1 899 1 906 1 911 1 923 1 926 1 939 1 946 1 951 1 959 1 968 1 1003 1 1007 1 1018 1 1024 1 1025 1 
1 211 21 1 37 1 49 1 59 1 61 1 94 1 97 1 99 1 113 1 118 1 125 1 144 1 175 1 187 2 239 1 254 1 294 1 299 1 310 1 317 1 1 1 28 1 30 1 57 1 90 1 147 1 160 1 178 1 263 1 275 1 326 1 329 1 339 1 369 1 392 1 421 1 460 1 476 1 484 1 496 1 539 1 547 1 558 1 578 1 580 1 594 1 604 2 615 1 619 1 647 1 648 1 728 1 736 1 738 1 768 1 769 1 786 1 789 1 822 1 850 1 857 1 859 1 865 1 877 2 913 1 919 1 935 1 936 1 937 1 953 2 988 1 344 1 346 1 359 1 364 1 385 1 389 1 409 1 415 1 438 1 472 1 487 1 507 1 526 1 535 1 555 1 575 1 611 1 623 1 630 1 638 1 655 1 666 1 752 1 754 1 756 1 762 1 787 1 878 1 879 1 904 1 924 1 932 1 958 1 970 1 979 1 981 1 989 1 1011 1 1017 1 
1 207 43 1 66 1 132 1 166 1 167 1 168 1 169 1 177 1 184 1 187 1 201 1 206 1 209 1 214 1 243 1 275 1 276 1 282 1 289 1 315 1 325 1 27 1 32 1 36 1 47 1 86 1 98 1 105 1 127 1 144 1 173 1 200 1 224 1 244 1 257 1 261 1 270 1 290 1 307 1 314 1 316 1 320 1 333 1 336 1 339 1 352 1 379 1 389 1 398 1 425 1 429 1 447 1 451 1 467 1 468 1 488 1 540 1 566 1 598 1 604 1 606 1 607 1 615 1 637 1 652 1 664 1 665 1 724 1 735 1 736 1 760 1 765 1 768 1 785 1 803 1 805 1 806 1 827 1 847 1 893 1 924 1 936 1 938 1 942 1 950 1 959 1 970 1 995 1 343 1 346 1 357 1 390 1 411 1 446 1 470 1 474 1 505 1 507 1 513 1 526 1 529 1 534 1 546 1 547 1 560 1 621 1 646 1 662 1 679 1 712 1 713 1 732 1 749 1 755 1 773 1 801 1 821 1 838 1 854 1 903 1 904 1 908 1 947 1 993 1 1013 1 
1 214 5 1 14 1 25 1 112 2 139 1 159 2 170 1 188 2 192 1 193 1 206 1 216 1 223 1 227 1 228 1 253 1 261 1 272 1 279 1 7 1 23 1 49 1 50 1 51 1 67 1 73 1 104 1 144 1 187 1 196 1 226 1 248 1 256 1 283 1 304 1 309 1 324 1 329 1 353 1 378 1 389 1 401 1 414 1 422 1 445 1 446 1 453 1 478 1 488 1 509 1 519 1 531 1 537 1 538 1 544 1 547 1 560 1 574 1 576 1 604 1 667 1 678 1 711 1 718 1 746 1 756 1 769 1 776 1 779 1 783 1 794 1 834 1 841 1 852 1 877 1 898 1 910 2 934 1 959 1 972 1 979 1 333 1 385 1 388 1 415 1 442 1 452 1 551 1 620 1 643 1 651 1 652 1 660 1 701 1 703 1 717 1 770 1 773 1 814 1 815 1 816 1 863 1 890 1 899 1 900 1 907 1 927 1 937 1 953 1 969 1 983 1 990 1 999 1 1011 1 1012 1 
1 204 17 1 34 1 85 1 88 2 96 1 103 1 149 1 152 1 173 1 217 1 226 1 254 1 260 1 274 1 282 1 289 1 35 1 38 1 60 1 114 1 117 1 138 1 147 1 157 1 158 1 168 1 178 1 182 1 199 1 243 1 253 1 262 1 305 1 318 1 320 1 348 1 352 1 364 1 378 1 385 1 400 1 402 1 414 1 427 1 449 1 451 1 453 1 461 1 483 1 492 1 505 1 508 1 535 1 537 1 542 1 561 1 577 1 581 1 588 1 593 1 611 1 645 1 647 1 682 1 706 1 720 1 723 1 738 1 760 1 772 1 784 1 786 1 805 1 828 1 883 1 898 1 918 1 958 1 959 1 979 1 995 1 337 1 339 1 357 1 384 1 389 1 479 1 485 1 494 1 502 1 525 1 563 1 564 1 576 1 592 1 598 1 603 1 608 1 610 1 612 1 616 1 628 1 632 1 671 1 690 1 708 1 716 1 718 1 732 1 890 1 894 1 901 1 929 1 940 1 952 1 954 1 962 1 974 1 1003 1 1023 1 
1 211 13 1 26 1 39 1 52 1 54 1 64 1 79 1 87 1 91 1 127 1 154 1 156 1 176 2 182 1 185 1 209 2 210 1 222 1 236 1 252 1 274 1 297 2 325 1 327 1 3 1 35 1 48 1 88 1 98 1 139 1 147 1 148 1 159 1 193 1 205 1 220 1 221 1 247 1 285 1 286 1 317 1 320 1 331 1 339 1 358 1 364 1 378 1 386 1 389 1 410 1 414 1 415 1 465 1 485 1 503 1 529 1 530 1 576 1 594 1 602 1 626 1 641 1 667 1 719 1 721 1 723 1 725 1 758 1 765 1 773 1 781 1 786 1 814 1 818 1 849 1 859 1 875 1 881 1 902 1 922 1 943 1 955 1 984 1 337 1 376 1 377 1 423 1 458 1 468 1 472 1 484 1 495 1 524 1 539 1 540 1 548 1 558 1 562 1 618 1 622 1 642 1 652 1 709 1 711 1 715 1 731 1 738 1 757 1 779 1 785 1 805 1 828 1 842 1 856 1 857 1 865 1 869 1 886 1 895 1 898 1 904 1 964 1 969 1 972 1 1016 1 1023 1 1027 1 
1 208 1 1 43 1 45 1 88 1 111 1 125 1 153 1 160 2 165 1 184 1 195 1 202 1 210 1 215 1 251 1 255 1 261 1 263 1 275 2 278 1 299 1 300 1 20 1 23 1 31 1 47 1 68 1 85 1 110 1 129 1 130 1 133 1 231 1 233 1 258 1 268 1 274 1 303 1 306 1 320 1 355 1 423 1 445 1 457 1 469 1 481 1 508 1 526 1 550 1 552 1 555 1 581 1 641 1 646 2 647 1 662 1 674 1 688 1 708 1 719 1 735 1 737 1 750 1 781 1 827 1 848 1 856 2 872 1 904 1 916 1 943 1 969 1 982 1 988 1 997 1 333 1 338 1 359 1 378 1 381 1 401 1 450 1 454 1 459 1 466 1 501 1 502 1 503 1 512 1 522 1 525 1 542 1 547 1 584 1 589 1 592 1 601 1 609 1 625 1 643 1 712 1 730 1 764 1 795 1 858 1 909 1 913 1 928 1 934 1 951 1 980 1 989 1 1009 1 1012 1 1019 1 1020 1 
1 208 19 1 23 1 25 1 30 1 37 1 55 1 96 2 164 1 170 1 172 1 183 1 202 1 211 1 215 1 218 1 228 2 229 1 254 1 262 1 267 1 274 1 293 1 313 1 329 1 2 1 8 1 12 1 26 1 51 1 67 1 73 1 74 1 100 1 104 1 107 1 109 1 133 1 148 1 208 1 222 1 231 1 236 1 237 1 253 1 278 1 296 1 298 1 302 1 323 1 346 1 349 1 353 1 376 1 380 1 385 1 391 1 396 1 400 1 404 2 407 1 416 1 430 1 439 1 447 1 456 1 463 1 474 1 486 1 534 2 547 1 552 1 565 1 570 1 588 1 595 1 609 1 641 1 658 1 663 2 680 1 689 1 697 2 704 1 705 1 716 1 737 1 749 1 798 1 805 1 824 1 827 1 852 1 861 1 904 1 910 1 978 1 335 1 355 1 357 1 372 1 462 1 501 1 513 1 516 1 522 1 524 1 598 1 604 1 651 1 695 1 733 1 736 1 754 1 768 1 774 1 779 1 784 1 800 1 803 1 825 1 838 1 894 1 919 1 927 1 965 1 973 1 977 1 985 1 1010 1 
1 205 40 1 51 2 58 1 100 1 103 1 107 1 134 1 142 1 152 2 160 1 162 2 174 2 207 1 246 1 247 1 250 1 253 1 2 1 4 1 21 1 48 1 52 1 73 1 90 1 91 1 110 1 194 1 198 1 199 1 200 1 226 1 239 1 242 1 263 1 265 1 280 1 333 1 335 1 341 1 360 1 375 1 379 1 399 1 411 1 412 1 421 1 438 1 468 1 502 1 541 1 587 1 626 1 642 1 682 1 712 1 739 1 750 1 765 1 782 1 811 1 828 1 834 1 839 1 862 2 877 1 884 1 925 1 927 1 936 1 949 1 964 1 971 1 346 1 361 1 386 1 400 1 405 1 427 1 428 1 448 1 455 1 462 1 464 1 491 1 503 1 524 1 534 1 540 1 549 1 558 1 566 1 584 1 612 1 616 1 617 1 640 1 661 1 685 1 689 1 707 1 708 1 713 1 796 1 802 1 812 1 815 1 819 1 829 1 831 1 844 1 849 1 892 1 951 1 960 1 980 1 1002 1 1025 1 
1 209 34 1 39 1 52 1 59 1 66 1 72 1 133 1 163 1 172 1 192 1 209 1 265 1 271 1 299 1 326 1 332 1 20 1 26 1 46 1 63 1 64 1 79 1 105 1 113 1 143 1 145 1 176 1 181 1 187 1 193 1 202 1 217 1 221 1 227 1 228 1 236 1 268 1 273 1 274 1 279 1 288 1 295 1 327 1 330 1 333 1 333 1 334 1 337 1 355 1 358 1 374 1 377 1 394 1 424 1 435 1 465 1 480 1 488 1 505 1 524 1 546 1 552 1 565 1 575 1 576 1 609 1 640 1 649 1 665 1 685 1 693 1 723 1 741 1 742 1 770 2 777 1 782 2 786 1 797 1 818 1 832 2 833 1 846 1 884 1 916 1 943 1 947 1 948 1 953 1 986 1 360 1 379 1 410 1 432 1 434 1 464 1 471 1 490 1 494 1 519 1 520 1 540 1 544 1 561 1 566 1 570 1 594 1 616 1 646 1 650 1 680 1 684 1 691 1 712 1 724 1 730 1 746 1 758 1 781 1 802 1 849 1 877 1 899 1 918 1 936 1 945 1 949 1 951 1 967 1 
1 211 20 1 28 1 54 1 63 1 70 1 71 1 72 1 74 1 123 1 128 1 131 1 134 1 168 1 183 1 193 1 203 1 228 1 248 1 260 1 268 1 274 2 279 1 281 1 308 1 333 1 11 1 26 1 51 1 80 1 96 1 119 1 127 1 138 1 139 1 146 1 163 1 169 1 211 1 223 1 225 1 240 1 254 1 255 1 291 1 306 1 307 1 312 1 352 1 354 1 364 1 372 1 397 1 417 1 421 1 425 1 461 1 471 1 491 1 496 1 498 1 553 1 559 2 564 1 566 1 593 1 638 1 653 1 677 1 686 1 695 1 707 1 736 1 766 1 767 1 833 1 851 1 862 1 863 1 887 1 911 1 920 1 926 1 943 1 972 1 379 1 405 1 419 1 434 1 435 1 442 1 454 1 505 1 514 1 544 1 548 1 561 1 576 1 596 1 601 1 636 1 700 1 717 1 734 1 743 1 781 1 816 1 852 1 928 1 962 1 964 1 977 1 993 1 1004 1 1005 1 1010 1 1021 1 
1 210 11 2 17 1 33 1 86 1 87 1 129 1 133 1 142 1 158 1 163 1 226 2 251 1 257 1 271 1 305 1 312 1 332 1 52 1 143 1 172 1 195 1 221 1 238 1 241 1 245 1 255 1 269 1 270 1 273 1 331 1 337 1 348 1 358 1 404 1 412 1 430 1 434 1 448 1 453 1 463 1 468 1 470 1 505 1 567 1 578 1 584 1 600 2 649 1 660 1 668 1 746 1 747 1 766 1 774 1 786 1 789 1 794 1 808 1 822 1 843 1 919 2 930 1 951 1 952 1 975 1 976 1 983 1 984 1 995 1 336 1 383 1 406 1 417 1 435 1 473 1 474 1 475 1 484 1 514 1 534 1 547 1 558 1 559 1 562 1 576 1 577 1 594 1 606 1 616 1 624 1 634 1 637 1 694 1 736 1 743 1 764 1 796 1 801 1 811 1 825 1 898 1 899 1 909 1 962 1 965 1 1003 1 1008 1 1014 1 
1 208 11 2 12 1 13 1 15 1 26 1 55 2 117 1 118 1 195 1 199 1 206 2 219 1 230 1 242 1 250 1 274 1 285 1 287 1 300 1 326 1 25 1 33 1 59 1 79 1 101 1 112 1 114 1 130 1 136 1 160 1 168 1 185 1 210 1 245 1 282 1 283 1 286 1 298 1 319 1 335 1 341 1 357 1 362 1 388 1 396 1 403 1 405 1 407 1 431 1 447 1 493 1 516 1 532 1 549 1 552 2 560 1 568 1 581 1 617 1 634 1 679 1 680 1 714 1 720 1 766 1 771 1 810 1 854 1 888 1 919 1 922 1 925 1 940 1 974 1 990 1 998 1 999 1 344 1 364 1 368 1 402 1 409 1 411 1 416 1 499 1 509 1 528 1 548 1 556 1 578 1 599 1 622 1 656 1 658 1 659 1 674 1 724 1 739 1 751 1 759 1 815 1 820 1 874 1 892 1 907 1 966 1 968 1 970 1 977 1 985 1 1006 1 1015 1 1021 1 1026 1 
1 212 12 1 18 1 58 1 83 1 88 2 91 1 115 1 139 1 141 1 146 1 157 1 175 1 201 1 203 1 219 1 222 1 226 1 231 1 308 1 333 1 335 1 13 1 43 1 55 1 101 1 105 1 133 1 136 1 228 1 259 1 264 1 278 1 279 1 282 1 297 1 312 1 328 1 329 1 341 1 370 1 381 1 382 1 389 1 420 1 452 1 469 1 475 1 490 1 497 1 520 1 535 1 540 1 542 1 627 2 629 1 632 1 635 1 643 1 669 1 684 1 708 1 729 1 768 1 784 1 791 1 817 1 841 1 935 1 936 1 946 1 976 1 987 1 362 1 374 1 376 1 378 1 398 1 419 1 421 1 439 1 445 1 479 1 511 1 513 1 521 1 524 1 536 1 541 1 581 1 603 1 616 1 638 1 672 1 712 1 773 1 796 1 803 1 810 1 830 1 834 1 836 1 858 1 874 1 880 1 886 1 889 1 907 1 917 1 925 1 952 1 970 1 984 1 988 1 989 1 1006 1 1009 1 1013 1 1014 1 1015 1 1019 1 1022 1 
1 209 3 1 42 2 44 1 47 1 77 1 81 1 104 1 148 1 157 1 173 1 211 1 222 1 229 2 239 1 245 1 257 1 261 1 284 1 307 1 24 1 58 1 68 1 79 1 80 1 101 1 119 1 127 1 128 1 130 1 179 1 194 1 219 1 260 1 278 1 297 1 299 1 330 1 344 1 388 1 425 1 428 1 441 1 453 1 458 1 474 1 503 1 548 1 552 1 554 1 560 1 586 1 603 1 609 1 610 1 613 1 627 1 630 1 653 1 664 1 678 1 679 1 685 1 699 1 714 1 768 1 781 1 783 1 822 1 835 1 877 1 899 1 921 1 928 1 929 1 930 1 947 1 948 1 964 1 971 1 979 1 993 1 358 1 390 1 405 1 406 1 409 1 423 1 449 1 461 1 487 1 546 1 549 1 568 1 569 1 578 1 596 1 597 1 614 1 741 1 758 1 785 1 799 1 819 1 865 1 869 1 875 1 881 1 915 1 922 1 924 1 933 1 936 1 1009 1 1020 1 
1 202 9 1 27 1 28 1 43 1 73 1 79 1 99 1 120 1 137 1 149 1 157 1 185 1 210 1 243 1 298 1 325 1 326 1 329 1 2 1 3 1 8 1 29 1 144 1 234 1 235 1 244 1 319 1 324 1 328 1 350 1 358 1 362 1 378 1 404 1 420 1 429 1 432 1 443 1 503 1 507 1 519 1 537 1 540 1 547 1 587 1 628 1 675 1 689 1 708 1 709 2 723 1 731 1 734 1 739 1 784 1 805 1 809 1 839 1 852 1 861 1 868 1 881 1 903 1 920 1 927 1 989 1 380 1 397 1 398 1 414 1 415 1 422 1 431 1 457 1 512 1 518 1 550 1 594 1 605 1 637 1 649 1 661 1 677 1 693 1 694 1 741 1 746 1 773 1 801 1 808 1 811 1 823 1 830 1 842 1 854 1 870 1 872 1 889 1 916 1 935 1 954 1 960 1 967 1 976 1 978 1 992 1 
1 211 5 1 15 1 23 1 49 1 54 1 77 1 104 1 106 1 117 1 127 1 132 1 137 1 139 1 168 1 174 1 180 1 187 1 191 1 212 1 237 1 260 1 278 1 298 1 307 1 317 2 324 1 14 1 26 1 42 1 45 1 72 1 105 1 107 1 124 1 126 1 131 1 143 1 149 1 151 1 162 1 178 1 194 1 201 1 205 1 217 1 230 1 291 1 315 1 316 1 341 1 342 1 361 1 364 1 373 1 382 1 391 1 402 1 431 1 481 1 502 1 504 1 535 1 543 1 549 1 582 1 594 1 595 1 610 1 628 1 647 1 670 2 671 1 675 1 679 1 692 1 694 1 751 1 764 1 768 1 776 1 790 1 800 1 815 1 831 1 858 1 860 1 886 1 887 1 891 1 917 1 920 1 941 1 962 1 343 1 351 1 355 1 358 1 375 1 378 1 383 1 384 1 429 1 446 1 474 1 491 1 516 1 581 1 604 1 643 1 651 1 674 1 688 1 784 1 795 1 827 1 830 1 848 1 872 1 900 1 926 1 949 1 950 1 966 1 980 1 1001 1 1003 1 1017 1 1018 1 1020 1 
1 211 14 1 46 1 79 1 85 1 134 1 136 1 150 1 167 2 170 1 186 1 243 1 246 1 250 1 269 1 298 1 319 1 332 1 336 1 337 1 340 1 19 1 20 1 33 1 37 1 41 1 51 1 52 1 58 1 82 1 95 1 116 1 118 1 135 1 173 1 182 1 193 1 208 1 214 1 248 1 273 1 352 1 356 1 367 1 386 1 395 1 403 1 418 1 428 1 431 1 450 1 524 1 536 1 544 1 562 1 564 1 565 1 580 1 587 1 588 1 596 1 639 1 648 1 654 1 659 1 672 1 674 1 676 1 689 2 698 1 711 1 720 1 721 1 732 1 736 1 752 1 758 1 759 1 816 1 832 1 853 1 927 1 959 1 991 1 348 1 364 1 412 1 414 1 419 1 436 1 443 1 449 1 472 1 497 1 505 1 521 1 550 1 551 1 553 1 567 1 573 1 578 1 622 1 626 1 651 1 658 1 700 1 718 1 730 1 747 1 807 1 808 1 833 1 837 1 839 1 864 1 881 1 910 1 940 1 947 1 973 1 985 1 1000 1 1005 1 1023 1 
1 209 10 1 21 1 30 1 33 1 51 1 68 1 69 1 76 1 123 2 133 1 138 1 140 1 154 1 158 1 159 1 186 1 199 1 220 1 279 1 287 1 289 1 299 1 314 1 322 1 340 1 74 1 97 1 105 1 156 1 165 1 189 1 192 1 207 1 209 1 215 1 232 1 247 1 249 1 277 1 278 1 286 1 293 1 298 1 312 1 345 1 346 1 351 1 382 1 428 1 455 1 457 1 469 1 472 1 479 1 492 1 493 1 517 1 544 1 552 1 584 1 589 1 597 1 612 1 647 1 655 1 666 1 699 1 704 1 705 1 724 1 741 1 756 1 813 1 816 1 859 1 886 1 917 1 924 1 925 1 976 1 987 1 997 1 355 1 385 1 396 1 418 1 434 1 446 1 453 1 542 1 569 1 582 1 590 1 594 1 596 1 598 1 600 1 644 1 677 1 684 1 804 1 852 1 872 1 888 1 894 1 909 1 913 1 952 1 953 1 993 1 1018 1 
1 207 8 1 17 1 56 1 57 1 61 1 82 2 88 1 89 1 97 1 99 1 105 1 142 1 147 1 164 1 179 1 189 1 194 1 211 1 214 1 217 1 234 1 237 1 243 2 258 1 259 1 272 1 282 1 294 1 7 1 62 1 73 1 75 1 78 1 94 1 95 1 110 1 113 1 125 1 139 1 141 1 195 1 199 1 249 1 255 1 298 1 306 1 315 1 316 1 324 1 326 1 340 1 361 1 373 1 383 1 424 1 465 1 469 1 489 1 496 1 530 1 548 2 588 1 592 1 627 1 628 2 641 1 656 1 662 1 677 1 698 2 719 1 745 1 755 1 759 1 795 1 798 1 808 2 816 1 830 1 833 1 835 1 839 1 886 1 906 1 907 1 932 1 975 1 377 1 396 1 422 1 430 1 461 1 505 1 510 1 545 1 564 1 570 1 595 1 611 1 645 1 647 1 716 1 718 1 732 1 744 1 761 1 766 1 783 1 893 1 945 1 948 1 964 1 979 1 989 1 993 1 1019 1 
1 207 19 1 22 1 27 1 31 1 78 1 85 1 110 1 139 1 188 1 191 1 207 1 214 1 270 1 273 1 289 1 302 1 304 1 338 1 4 1 7 1 32 1 114 1 116 1 134 1 140 1 148 1 175 1 193 1 199 1 230 1 257 1 276 1 307 1 318 1 320 1 325 1 336 1 373 1 411 1 417 1 473 1 480 1 486 1 509 1 510 1 517 1 539 1 549 1 561 1 591 1 620 1 636 1 646 1 660 1 673 1 682 1 710 1 714 1 715 1 748 1 776 1 778 1 811 1 824 1 842 1 853 1 861 1 869 1 883 1 906 1 932 1 937 1 939 1 943 1 965 1 978 1 350 1 378 1 412 1 416 1 434 1 462 1 463 1 497 1 522 1 533 1 542 1 553 1 575 1 582 1 616 1 645 1 683 1 686 1 696 1 709 1 736 1 741 1 749 1 763 1 764 1 781 1 782 1 788 1 791 1 817 1 818 1 821 1 830 1 834 1 867 1 874 1 895 1 897 1 903 1 909 1 910 1 923 1 927 1 959 1 1001 1 1016 1 1021 1 
1 211 70 1 78 1 81 1 84 2 85 1 87 1 110 1 130 2 140 1 176 1 178 1 194 1 256 1 276 1 306 1 318 1 342 1 3 1 4 1 30 1 35 1 66 1 92 1 138 1 139 1 156 1 157 1 171 1 184 1 191 1 197 1 203 1 212 1 227 1 236 1 285 1 287 1 308 1 319 1 357 1 359 1 395 1 402 1 425 1 444 1 465 1 466 1 467 1 484 1 499 1 531 1 554 1 559 1 573 1 659 1 661 1 663 1 677 1 696 1 724 1 739 1 759 1 798 1 839 1 847 1 856 1 903 1 907 1 911 1 912 1 922 1 943 1 981 1 988 1 349 1 356 1 406 1 411 1 426 1 459 1 477 1 507 1 521 1 564 1 586 1 601 1 615 1 630 1 670 1 676 1 682 1 717 1 729 1 732 1 735 1 752 1 777 1 794 1 812 1 815 1 818 1 821 1 866 1 931 1 939 1 965 1 972 1 979 1 991 1 1000 1 1006 1 1019 1 
1 208 6 1 10 1 40 1 56 1 58 1 67 1 80 1 177 1 185 2 190 1 198 2 224 1 243 1 286 1 331 1 342 1 16 1 26 1 52 1 62 1 69 1 73 1 77 1 147 1 153 1 154 1 155 1 156 1 158 1 167 1 183 1 207 1 234 1 235 1 238 1 278 1 291 1 324 1 325 1 326 1 332 1 359 1 361 1 365 1 375 1 399 1 451 1 479 1 484 1 486 1 510 1 535 1 543 1 562 1 589 1 599 1 611 1 627 1 700 1 748 1 757 1 767 1 773 1 787 1 798 1 809 1 818 1 821 1 832 1 840 1 858 1 871 1 902 2 913 1 918 1 939 1 943 1 949 1 958 1 998 1 352 1 373 1 390 1 401 1 406 1 423 1 435 1 449 1 454 1 464 1 468 1 469 1 518 1 551 1 567 1 574 1 586 1 590 1 595 1 597 1 607 1 630 1 651 1 673 1 706 1 716 1 729 1 736 1 796 1 803 1 936 1 937 1 944 1 953 1 978 1 987 1 992 1 1003 1 
1 218 66 1 89 1 108 1 167 1 173 1 180 1 181 1 184 1 189 1 197 1 207 1 221 2 225 1 241 1 245 1 262 1 268 1 300 1 321 1 2 1 16 1 32 1 53 1 55 1 65 1 92 1 116 1 121 1 143 1 187 1 193 1 211 1 237 1 247 1 250 1 273 1 292 1 293 1 301 1 304 1 366 1 368 1 370 1 381 1 390 1 415 1 458 2 477 2 484 1 491 1 502 1 504 1 516 1 537 1 553 1 563 1 592 1 638 1 650 1 654 1 692 1 712 2 756 1 764 1 776 1 793 1 819 1 833 1 838 1 843 1 858 1 866 1 867 1 868 1 890 1 913 1 927 1 990 1 350 1 363 1 387 1 408 1 441 1 445 1 461 1 471 1 521 1 539 1 576 1 579 1 583 1 614 1 629 1 645 1 702 1 736 1 760 1 782 1 785 1 798 1 801 1 857 1 870 1 905 1 918 1 919 1 930 1 951 1 1001 1 1010 1 1014 1 1017 1 1027 1 
1 211 14 2 29 1 54 1 84 1 92 1 94 1 104 1 109 2 119 1 158 1 160 1 168 1 232 1 246 1 247 1 254 1 258 1 264 1 284 1 300 1 302 1 314 1 328 1 335 1 5 1 42 1 118 1 122 1 123 1 153 1 165 1 177 1 179 1 181 1 186 1 190 1 199 1 201 1 212 1 279 1 285 1 287 1 305 1 341 1 353 2 383 2 394 1 395 1 419 1 431 1 437 1 466 1 486 1 516 1 521 2 533 1 542 1 546 1 551 1 559 1 571 1 578 1 593 1 615 1 616 1 630 2 649 1 651 1 652 1 665 2 677 2 691 1 693 1 697 1 700 1 710 1 745 1 749 1 764 1 790 1 810 1 817 1 822 1 850 1 876 1 882 1 888 1 891 1 894 2 931 1 938 1 959 1 980 1 352 1 398 1 404 1 416 1 426 1 439 1 469 1 482 1 519 1 524 1 527 1 541 1 562 1 582 1 590 1 601 1 603 1 671 1 717 1 735 1 753 1 819 1 856 1 885 1 899 1 941 1 947 1 955 1 984 1 992 1 995 1 1007 1 1012 1 1016 1 1021 1 
1 209 9 2 20 1 44 2 93 1 99 1 153 1 159 1 168 1 192 1 197 1 204 1 205 1 225 1 315 1 331 1 3 1 15 1 35 1 46 1 49 1 89 1 121 1 128 1 137 1 141 1 162 1 189 1 190 1 256 1 272 1 345 1 354 2 359 1 374 1 381 1 383 1 384 1 422 1 431 1 441 1 448 1 456 1 487 1 499 1 508 1 513 1 530 1 543 1 566 1 592 1 600 1 604 1 614 1 641 1 702 1 725 1 739 1 787 1 798 1 852 1 862 1 863 1 878 1 887 1 894 1 960 1 355 1 361 1 362 1 371 1 376 1 410 1 414 1 418 1 443 1 446 1 492 1 504 1 523 1 531 1 535 1 549 1 556 1 563 1 584 1 594 1 595 1 619 1 634 1 639 1 670 1 671 1 677 1 679 1 713 1 723 1 755 1 760 1 778 1 794 1 795 1 809 1 811 1 876 1 899 1 908 1 913 1 922 1 969 1 973 1 976 1 996 1 1015 1 1020 1 
1 208 29 1 34 1 58 1 83 1 94 1 96 1 104 1 136 1 143 2 152 2 163 1 166 1 220 1 228 1 231 1 261 1 271 1 300 1 303 1 313 1 315 1 317 1 339 1 10 1 62 1 87 1 90 1 98 1 110 1 127 1 139 1 175 1 177 1 181 1 218 1 280 1 309 1 312 1 321 1 344 1 347 1 359 1 361 1 398 1 410 1 462 1 473 2 494 1 507 1 560 1 598 1 615 1 617 1 691 1 697 1 714 1 718 1 739 1 765 1 801 1 806 1 842 1 844 1 848 1 890 1 892 1 893 1 897 1 920 1 938 1 949 1 973 1 981 1 982 1 378 1 426 1 439 1 454 1 457 1 476 1 514 1 515 1 533 1 566 1 581 1 585 1 647 1 648 1 659 1 674 1 699 1 701 1 709 1 727 1 749 1 758 1 795 1 812 1 822 1 829 1 841 1 849 1 858 1 863 1 878 1 894 1 901 1 903 1 921 1 942 1 946 1 967 1 1025 1 
1 205 6 1 63 1 86 1 103 1 104 1 108 1 146 1 178 2 197 1 202 1 214 2 234 1 235 1 252 1 259 1 296 1 342 1 9 1 15 1 55 1 60 1 74 1 97 1 117 1 135 1 161 1 165 1 177 1 179 1 213 1 230 1 272 1 282 1 305 1 310 1 340 1 363 1 371 2 416 1 440 1 454 1 457 1 528 1 529 1 535 1 540 1 560 1 564 1 577 1 584 1 603 1 627 1 642 1 664 1 672 1 728 1 738 1 754 1 757 1 783 1 809 1 810 1 818 1 837 1 839 1 864 1 866 1 878 1 912 2 913 1 914 1 931 1 933 1 943 1 963 1 969 1 975 1 374 1 381 1 409 1 417 1 426 1 481 1 490 1 494 1 503 1 517 1 549 1 578 1 606 1 652 1 663 1 667 1 677 1 680 1 698 1 700 1 724 1 735 1 741 1 747 1 766 1 776 1 790 1 793 1 845 1 851 1 879 1 881 1 917 1 926 1 948 1 1021 1 
1 215 11 1 23 1 35 1 67 1 83 1 98 1 101 2 120 1 171 1 207 1 224 1 231 2 280 1 282 1 283 1 303 1 308 1 319 1 320 1 326 1 328 1 334 1 341 1 1 1 9 1 19 1 28 1 42 1 55 1 71 1 102 1 113 1 136 1 142 1 187 1 193 1 244 1 306 1 346 1 348 1 373 1 375 1 379 1 383 2 387 1 423 1 429 1 455 1 479 1 487 1 516 1 518 1 543 1 548 1 553 2 560 1 567 1 575 1 577 1 599 1 626 1 669 1 724 1 731 1 748 1 766 1 768 1 780 1 810 1 818 1 850 1 899 1 931 1 959 2 972 1 981 1 991 2 996 1 367 1 405 1 415 1 421 1 426 1 431 1 446 1 456 1 480 1 494 1 525 1 540 1 598 1 600 1 644 1 661 1 664 1 667 1 702 1 710 1 723 1 783 1 788 1 789 1 805 1 815 1 840 1 903 1 944 1 950 1 961 1 968 1 1006 1 1012 1 1015 1 1016 1 1024 1 
1 208 39 1 41 1 95 1 104 1 150 1 170 1 175 1 182 1 208 2 218 1 230 1 246 1 272 1 319 1 327 1 331 1 348 2 18 1 28 1 37 1 40 1 51 1 60 1 69 1 90 1 166 1 172 1 178 1 184 1 210 1 214 1 225 1 276 1 294 1 302 1 311 1 370 1 379 1 395 1 426 1 435 1 471 1 483 1 492 1 495 1 499 1 504 2 514 1 524 1 541 1 550 1 561 1 563 1 583 1 633 1 644 1 691 1 715 1 716 1 739 1 752 1 754 1 820 1 833 1 848 1 884 1 900 1 905 1 913 1 969 1 369 1 384 1 411 1 453 1 463 1 469 1 491 1 518 1 519 1 521 1 535 1 552 1 554 1 564 1 575 1 580 1 589 1 604 1 615 1 627 1 634 1 636 1 654 1 663 1 676 1 685 1 687 1 711 1 729 1 753 1 763 1 770 1 788 1 790 1 805 1 808 1 854 1 871 1 903 1 916 1 925 1 949 1 982 1 1000 1 1004 1 1017 1 
1 212 73 1 81 1 89 1 149 1 155 1 158 2 181 1 188 1 216 1 229 1 240 2 245 1 265 1 273 1 284 1 289 1 307 1 323 1 334 1 349 2 6 1 9 1 26 1 90 1 103 1 104 1 107 1 128 1 133 1 170 1 189 1 231 1 272 1 276 1 314 1 377 1 380 1 394 1 404 1 412 1 430 1 536 1 592 1 617 1 659 1 678 1 683 1 686 1 689 1 704 2 745 1 754 1 759 1 767 1 797 1 806 1 817 1 904 1 907 1 916 1 945 1 947 1 962 1 971 2 998 1 416 1 437 1 461 1 469 1 476 1 485 1 496 1 498 1 501 1 520 1 530 1 532 1 533 1 541 1 554 1 585 1 589 1 631 1 651 1 652 1 656 1 673 1 684 1 690 1 716 1 737 1 747 1 799 1 814 1 829 1 838 1 848 1 855 1 861 1 867 1 889 1 925 1 942 1 979 1 995 1 1010 1 1011 1 1015 1 1022 1 1024 1 1027 1 
1 210 43 1 67 1 76 1 78 1 117 1 118 1 121 1 192 1 220 1 244 1 256 1 267 1 301 1 303 1 330 1 333 1 15 1 24 1 36 1 41 1 50 1 55 1 59 1 135 1 147 1 155 1 180 1 204 1 218 1 228 1 240 1 261 1 270 1 279 1 315 1 331 1 340 1 342 1 349 1 366 1 384 1 395 1 409 1 448 1 450 1 451 1 469 1 479 1 510 1 539 1 545 1 551 1 558 1 565 1 584 1 591 1 606 1 628 1 637 1 658 1 662 1 671 1 703 1 705 2 718 1 739 1 742 1 747 1 748 1 777 1 825 1 850 1 863 1 864 1 867 2 871 1 884 1 886 1 909 1 928 1 933 1 934 1 938 1 950 1 954 1 958 1 965 1 994 1 410 1 424 1 444 1 458 1 498 1 512 1 548 1 562 1 572 1 582 1 601 1 632 1 646 1 661 1 666 1 675 1 754 1 761 1 763 1 769 1 772 1 789 1 925 1 953 1 957 1 976 1 1018 1 1023 1 
1 206 22 1 63 1 75 2 97 1 99 1 113 1 118 1 129 1 131 1 135 1 138 1 151 1 166 1 168 1 169 1 180 1 195 1 216 2 227 1 230 1 242 1 260 1 274 1 283 1 289 1 295 1 306 1 341 1 18 1 19 1 29 1 48 1 71 1 80 1 90 1 119 1 137 1 148 1 152 1 153 1 161 1 167 1 171 1 176 1 190 1 208 1 211 1 220 1 223 1 224 1 233 1 248 1 255 1 290 1 291 1 324 1 345 1 380 1 387 1 414 1 483 1 503 1 504 1 522 1 540 1 547 1 561 1 566 1 587 1 605 1 641 1 643 1 654 1 665 1 710 1 733 1 734 1 757 1 760 1 763 2 773 1 785 1 805 1 818 1 825 1 832 1 840 1 841 1 886 1 899 1 915 2 918 1 936 1 938 1 942 1 967 1 980 1 375 1 385 1 390 1 401 1 402 1 413 1 452 1 470 1 510 1 546 1 558 1 602 1 631 1 640 1 662 1 664 1 669 1 672 1 684 1 695 1 729 1 744 1 749 1 772 1 802 1 839 1 851 1 857 1 866 1 884 1 894 1 896 1 912 1 923 1 930 1 944 1 984 1 986 1 994 1 999 1 1006 1 1015 1 
1 212 6 1 39 1 50 1 85 1 89 1 95 1 96 1 102 1 103 1 123 1 136 1 137 1 192 1 233 1 246 1 262 1 271 1 278 1 313 1 336 1 345 1 2 1 20 1 49 1 73 1 76 1 77 1 88 1 90 1 99 1 101 1 115 1 142 1 149 1 159 1 161 1 189 1 207 1 236 1 243 1 259 1 266 1 270 1 288 1 310 1 319 1 324 1 326 1 328 1 331 1 359 1 399 1 423 1 425 1 449 1 465 1 485 1 503 1 514 2 539 1 545 1 557 1 563 1 585 1 593 1 619 1 622 1 625 1 634 1 637 1 663 1 676 1 681 1 735 2 737 1 744 1 748 1 766 1 776 1 782 1 805 1 806 1 812 1 817 1 835 1 868 1 884 1 885 1 888 1 894 1 983 1 988 1 363 1 406 1 408 1 410 1 420 1 434 1 446 1 468 1 478 1 506 1 507 1 533 1 538 1 560 1 562 1 588 1 610 1 620 1 639 1 648 1 651 1 661 1 687 1 711 1 741 1 753 1 770 1 777 1 802 1 838 1 881 1 905 1 916 1 924 1 931 1 940 1 941 1 985 1 992 1 993 1 996 1 1003 1 1012 1 1018 1 1021 1 1024 1 1025 1 
1 205 11 1 14 1 20 1 32 1 51 1 106 1 126 1 160 2 175 1 207 1 219 1 220 1 224 1 267 1 269 1 287 1 329 1 333 1 335 1 339 1 6 1 8 1 25 1 62 1 72 1 87 1 121 1 139 1 158 1 230 1 245 1 261 1 279 1 283 1 286 1 288 1 294 1 300 1 307 1 312 1 314 1 338 1 340 1 363 1 377 1 385 1 387 1 405 1 438 1 484 1 495 1 532 1 540 1 541 1 547 1 559 1 580 1 609 1 610 1 613 1 636 1 641 1 647 1 654 1 668 1 671 1 695 1 697 1 704 1 717 1 744 1 754 1 778 1 781 1 794 1 798 1 819 1 868 1 878 1 910 1 936 1 941 1 982 1 383 1 419 1 425 1 430 1 431 1 446 1 472 1 527 1 531 1 533 1 571 1 592 1 602 1 612 1 623 1 631 1 672 1 708 1 711 1 741 1 768 1 792 1 795 1 818 1 823 1 827 1 831 1 835 1 939 1 985 1 1015 1 1019 1 
1 212 55 1 60 1 64 1 72 1 99 1 138 1 146 1 158 1 172 1 178 1 183 1 214 1 218 1 237 1 247 1 270 1 275 1 276 1 289 1 306 1 345 1 346 1 349 1 350 1 357 1 29 1 35 1 74 1 89 1 115 1 157 1 159 1 163 1 170 1 202 1 205 1 278 1 292 1 297 1 301 1 325 1 330 1 361 1 389 1 405 2 409 1 418 1 434 1 442 1 460 1 471 1 482 1 492 1 520 1 551 2 567 1 569 1 595 1 606 1 628 1 647 1 659 1 662 1 667 1 680 1 686 1 691 1 698 2 706 1 725 1 731 1 779 1 805 1 818 1 824 1 829 1 862 1 871 1 878 1 898 1 913 1 923 1 936 1 951 1 960 1 967 1 369 1 379 1 384 1 386 1 387 1 395 1 401 1 422 1 432 1 443 1 447 1 464 1 475 1 510 1 518 1 543 1 585 1 607 1 616 1 638 1 642 1 644 1 692 1 709 1 730 1 756 1 790 1 795 1 798 1 814 1 819 1 851 1 852 1 860 1 887 1 909 1 947 1 978 1 1001 1 1004 1 1013 1 1018 1 1023 1 1025 1 
1 210 3 1 49 1 143 1 154 1 158 1 199 1 233 1 251 1 270 1 295 1 306 1 318 1 321 1 332 1 10 1 32 1 35 1 40 1 51 1 91 1 105 1 132 1 135 1 141 1 151 1 155 1 186 1 196 1 201 1 203 1 239 1 259 1 260 1 267 1 271 1 298 1 309 1 320 1 333 1 365 1 413 1 438 1 445 1 446 1 467 1 468 1 494 2 515 1 519 1 520 1 528 1 529 2 547 1 550 1 560 1 569 1 615 1 616 1 634 1 652 1 663 1 686 1 695 1 709 1 719 1 734 1 778 1 801 1 819 1 820 1 867 1 875 1 877 1 901 1 916 1 930 1 933 1 937 1 381 1 387 1 421 1 429 1 430 1 434 1 435 1 436 1 444 1 447 1 501 1 512 1 521 1 553 1 579 1 600 1 602 1 604 1 610 1 611 1 618 1 631 1 645 1 650 1 660 1 662 1 691 1 702 1 714 1 730 1 750 1 754 1 786 1 812 1 816 1 849 1 854 1 878 1 894 1 931 1 971 1 983 1 984 1 998 1 1000 1 1008 1 1020 1 
1 213 10 1 14 1 36 1 66 1 73 1 80 1 87 1 108 1 119 1 131 1 150 1 170 1 174 2 178 2 180 1 189 1 199 1 227 1 241 1 244 1 256 1 277 1 292 1 304 1 340 1 343 1 346 1 350 1 359 1 5 1 8 1 29 1 46 1 65 1 96 1 107 1 113 1 121 1 126 1 144 1 197 1 233 1 249 1 302 1 332 1 349 1 365 1 396 1 416 1 432 1 435 1 455 1 484 1 497 1 506 1 537 1 546 1 560 1 609 1 612 1 641 1 659 1 673 1 690 1 704 1 711 1 725 1 767 1 768 1 783 1 806 1 817 1 829 1 877 1 878 1 880 1 910 1 911 1 919 1 956 1 999 1 375 1 393 1 412 1 418 1 424 1 442 1 451 1 478 1 489 1 514 1 515 1 523 1 548 1 576 1 582 1 638 1 657 1 699 1 734 1 746 1 751 1 757 1 764 1 782 1 823 1 839 1 884 1 894 1 896 1 898 1 944 1 953 1 964 1 972 1 974 1 975 1 980 1 1016 1 1020 1 
1 204 30 2 58 1 65 1 71 1 104 1 141 1 147 1 169 1 178 1 225 1 236 1 267 1 286 1 290 1 301 1 336 1 339 1 2 1 10 1 55 1 59 1 60 1 68 1 85 1 94 1 152 1 168 1 177 1 183 1 187 1 208 1 238 1 247 1 251 1 259 1 261 1 283 1 284 1 287 1 291 1 313 1 337 1 349 1 367 1 373 1 389 1 390 1 396 1 399 1 419 1 431 1 472 1 473 1 476 1 486 1 501 1 507 1 524 1 529 2 547 1 574 1 581 1 586 1 592 1 620 1 661 1 724 1 728 1 730 1 759 1 780 1 797 1 801 1 803 1 827 1 837 1 843 1 852 1 859 1 880 1 952 1 973 1 986 1 987 1 397 1 400 1 403 1 404 1 410 1 439 1 465 1 482 1 496 1 520 1 541 1 563 1 580 1 590 1 614 1 615 1 628 1 667 1 688 1 700 1 731 1 758 1 779 1 782 1 800 1 815 1 865 1 922 1 935 1 985 1 
1 210 10 2 15 1 18 1 38 1 39 1 64 1 67 1 96 2 98 1 99 1 101 1 130 1 136 1 149 1 155 1 195 1 210 1 218 1 237 1 250 1 262 1 278 1 308 1 351 1 358 1 23 1 24 1 35 1 84 1 119 1 146 1 166 1 180 1 199 1 228 1 234 1 245 1 249 1 251 1 301 1 312 1 323 1 347 1 357 1 366 1 392 1 400 1 407 1 421 1 486 1 488 1 497 1 511 1 516 1 529 1 536 1 545 1 548 1 553 1 591 1 592 1 596 1 652 1 680 1 722 1 785 1 794 1 802 2 820 2 892 1 910 1 931 1 934 1 936 1 947 1 978 1 387 1 440 1 445 1 461 1 474 1 485 1 489 1 523 1 535 1 561 1 572 1 574 1 614 1 619 1 631 1 634 1 653 1 665 1 668 1 675 1 721 1 724 1 729 1 740 1 743 1 755 1 762 1 812 1 817 1 822 1 879 1 885 1 915 1 920 1 968 1 992 1 1005 1 1017 1 
1 209 77 1 91 1 148 1 156 1 183 1 214 1 245 1 249 1 262 1 281 1 306 1 310 1 328 1 329 1 334 1 340 1 4 1 41 1 45 1 71 1 89 1 90 1 92 1 102 1 107 1 117 1 138 1 190 1 198 1 224 1 228 1 229 1 243 1 246 1 273 1 274 1 324 1 325 1 336 1 341 1 370 1 372 1 377 1 406 1 416 1 419 1 524 1 533 1 539 1 546 1 579 1 595 1 597 2 606 1 608 1 620 1 637 2 651 1 692 1 697 1 700 1 713 1 731 1 748 1 787 1 789 1 812 1 827 1 828 1 830 1 841 1 872 1 881 1 886 1 891 1 901 1 925 1 941 1 953 1 997 1 389 1 399 1 422 1 424 1 447 1 448 1 475 1 482 1 491 1 515 1 516 1 526 1 557 1 567 1 594 1 618 1 653 1 664 1 678 1 679 1 716 1 727 1 753 1 769 1 798 1 804 1 808 1 845 1 874 1 913 1 937 1 939 1 942 1 945 1 958 1 972 1 979 1 1013 1 1020 1 1026 1 
1 208 34 1 40 1 127 2 128 1 159 1 164 2 180 1 237 1 251 1 253 1 256 2 279 2 315 1 346 1 360 1 361 1 18 1 104 1 112 1 115 1 117 1 161 1 209 1 210 1 220 1 235 1 243 1 245 1 277 1 284 1 294 1 308 1 311 1 322 1 378 1 418 1 449 1 462 1 467 1 477 1 494 1 501 1 509 1 527 1 545 1 547 2 551 1 608 1 615 1 623 1 652 1 660 1 691 1 693 1 762 1 776 2 780 1 785 1 792 1 861 1 927 1 937 1 949 1 977 1 992 1 995 1 376 1 389 1 396 1 421 1 430 1 440 1 442 1 472 1 483 1 485 1 511 1 512 1 524 1 525 1 553 1 568 1 602 1 612 1 645 1 653 1 674 1 696 1 712 1 797 1 804 1 834 1 912 1 913 1 914 1 928 1 954 1 959 1 1002 1 1007 1 1020 1 1023 1 
1 208 8 1 49 1 119 1 132 1 142 1 172 1 178 1 185 1 217 1 225 1 251 1 256 1 268 1 297 1 301 1 314 1 347 1 355 1 363 1 9 1 15 1 34 1 44 1 93 1 140 1 181 1 187 1 202 1 203 1 244 1 292 1 379 1 415 1 440 2 444 1 487 1 504 1 535 1 550 1 568 1 580 2 600 1 604 1 615 1 648 1 651 1 656 1 658 1 675 2 692 1 695 1 707 1 715 1 761 1 795 1 806 1 821 1 830 1 839 1 878 1 879 1 885 1 908 1 911 1 912 2 921 1 927 1 932 1 962 1 967 1 970 1 996 1 442 1 451 1 452 1 461 1 466 1 510 1 518 1 532 1 537 1 553 1 554 1 555 1 561 1 620 1 625 1 627 1 640 1 670 1 697 1 712 1 722 1 726 1 755 1 807 1 811 1 812 1 833 1 844 1 859 1 860 1 929 1 934 1 949 1 969 1 972 1 988 1 989 1 1004 1 
1 212 25 1 31 1 34 1 64 2 68 1 78 1 104 1 111 1 121 1 129 1 140 1 148 1 164 1 172 1 177 1 191 1 207 1 268 1 281 1 319 1 341 1 362 1 3 1 8 1 18 1 40 1 52 1 53 1 66 1 85 1 106 1 109 1 135 1 136 1 146 1 157 1 190 1 208 1 231 1 241 1 244 1 256 1 267 1 285 1 352 1 390 1 410 1 426 1 441 1 446 1 451 2 465 2 484 1 488 2 526 1 550 1 561 1 562 1 566 1 626 1 663 1 669 1 715 1 716 1 719 1 721 1 745 1 787 1 790 1 793 1 834 1 862 1 863 1 880 1 892 1 919 1 948 2 969 1 973 1 993 1 995 1 379 1 384 1 444 1 449 1 453 1 454 1 456 1 523 1 525 1 540 1 548 1 557 1 595 1 604 1 630 1 641 1 643 1 654 1 658 1 758 1 761 1 770 1 778 1 797 1 807 1 820 1 825 1 843 1 852 1 887 1 894 1 901 1 905 1 933 1 935 1 936 1 950 1 974 1 999 1 1002 1 1003 1 1011 1 1015 1 1018 1 1026 1 
1 213 14 1 24 1 40 1 90 1 111 2 117 1 135 1 151 1 154 1 165 1 174 1 176 1 196 1 255 1 263 1 273 1 283 1 289 1 305 1 316 2 320 1 347 1 7 1 9 1 27 1 58 1 85 1 97 1 105 1 158 1 173 1 175 1 178 1 242 1 260 1 282 1 312 1 336 1 371 2 379 1 388 2 407 1 437 1 449 1 456 1 457 1 465 1 534 1 555 1 591 1 594 1 606 1 618 2 632 1 641 1 649 1 703 1 706 1 708 1 718 1 727 1 733 2 759 2 761 2 776 1 792 1 793 1 810 1 815 1 831 2 835 1 847 1 886 1 888 1 907 1 910 1 911 1 968 1 990 1 993 1 408 1 411 1 427 1 485 1 496 1 499 1 501 1 505 1 509 1 517 1 530 1 544 1 559 1 635 1 657 1 677 1 680 1 691 1 695 1 762 1 801 1 816 1 836 1 872 1 894 1 933 1 987 1 1004 1 1007 1 1009 1 1016 1 1021 1 
1 207 5 1 54 1 59 1 67 1 69 1 127 1 134 1 177 1 197 1 213 1 216 1 224 1 235 1 252 1 256 1 257 1 261 1 285 1 289 1 304 1 314 1 320 1 325 1 13 1 47 1 61 1 65 1 88 1 90 1 145 1 168 1 178 1 207 1 223 1 245 1 264 1 266 1 294 1 308 1 324 1 353 1 359 1 402 1 408 1 433 1 436 1 447 1 456 1 488 1 501 1 561 1 580 1 598 1 601 1 605 1 625 1 627 1 645 1 696 1 724 1 732 1 736 1 750 1 774 1 800 1 838 1 866 1 884 1 892 1 924 1 926 1 968 1 985 1 991 1 993 1 382 1 388 1 392 1 458 1 469 1 471 1 474 1 503 1 517 1 552 1 560 1 603 1 624 1 635 1 653 1 672 1 693 1 709 1 723 1 753 1 755 1 772 1 776 1 786 1 798 1 805 1 817 1 828 1 836 1 888 1 927 1 964 1 971 1 994 1 1016 1 1026 1 
1 206 1 1 5 1 18 1 25 1 27 1 28 1 64 1 67 1 75 1 78 1 89 1 97 1 113 1 168 1 200 2 226 1 267 1 318 1 337 1 347 1 353 1 364 1 11 1 22 1 56 1 74 1 95 1 128 1 142 1 143 1 147 1 152 1 174 1 176 1 186 1 195 1 230 1 236 1 287 1 305 1 377 1 393 1 426 1 434 1 441 1 457 1 468 1 498 1 503 1 526 1 545 1 555 1 574 1 605 1 609 1 622 1 634 1 651 1 670 1 676 1 690 1 753 1 770 1 771 2 780 1 786 1 788 1 816 1 821 1 829 1 838 1 860 1 886 1 895 1 908 1 948 1 971 1 972 2 979 1 982 1 988 1 989 1 373 1 375 1 404 1 433 1 445 1 451 1 486 1 494 1 514 1 544 1 558 1 661 1 709 1 710 1 732 1 739 1 755 1 793 1 814 1 825 1 854 1 858 1 872 1 883 1 932 1 954 1 976 1 984 1 990 1 1005 1 1026 1 
1 207 1 1 3 2 17 1 53 1 62 1 65 1 129 1 132 1 174 1 175 1 188 1 190 1 206 1 227 1 241 1 260 1 264 1 272 1 321 1 351 2 368 2 11 1 16 1 30 1 41 1 50 1 54 1 56 1 96 1 103 1 114 1 120 1 156 1 162 1 185 1 191 1 245 1 309 1 316 1 349 1 374 1 419 1 453 1 455 1 473 1 512 1 522 1 523 1 525 2 538 1 544 1 547 1 574 1 599 1 611 1 631 1 637 1 641 1 682 1 705 1 732 1 738 1 769 1 786 1 793 1 812 1 831 1 835 1 874 1 893 1 900 1 901 1 912 1 956 2 959 1 986 2 997 1 381 1 399 1 413 1 437 1 445 1 533 1 540 1 541 1 557 1 563 1 572 1 578 1 580 1 587 1 610 1 630 1 679 1 680 1 685 1 700 1 717 1 726 1 792 1 801 1 810 1 851 1 928 1 930 1 955 1 1012 1 1016 1 1027 1 
1 210 15 1 18 1 23 1 26 1 50 2 73 1 85 1 88 1 122 1 197 1 204 1 207 1 263 1 295 1 334 1 364 1 2 1 22 1 31 1 34 1 51 1 52 1 56 1 78 1 92 1 109 1 113 1 117 1 127 1 150 1 154 1 158 1 176 1 216 1 217 1 243 1 253 1 280 1 288 1 311 1 322 1 331 1 409 1 438 1 440 1 442 1 477 1 487 1 495 1 496 1 505 1 524 1 542 1 545 1 585 1 605 1 609 2 624 1 698 1 719 1 722 1 727 1 740 1 756 1 772 1 836 1 847 1 891 1 895 1 927 1 930 1 962 1 966 1 973 1 975 1 994 1 378 1 384 1 407 1 461 1 463 1 494 1 534 1 576 1 580 1 583 1 626 1 644 1 657 1 663 1 731 1 742 1 750 1 779 1 782 1 789 1 863 1 897 1 904 1 909 1 917 1 949 1 954 1 956 1 959 1 967 1 981 1 1000 1 1002 1 1006 1 1009 1 
1 210 9 1 40 1 84 1 87 1 106 1 112 1 114 1 137 1 157 1 158 1 173 1 187 1 193 1 231 1 235 1 250 1 267 1 274 1 340 1 343 1 344 1 352 1 362 1 5 1 16 1 27 1 42 1 48 1 55 1 64 1 83 1 107 1 116 1 161 1 177 1 178 1 198 1 220 1 232 1 237 1 259 1 281 1 322 1 346 1 370 1 375 1 383 1 385 1 414 1 439 1 463 1 470 1 472 1 504 1 509 1 512 1 515 1 523 2 537 1 578 2 582 1 597 1 599 1 617 1 682 1 694 1 707 1 715 1 728 1 744 1 767 1 795 1 802 1 811 1 853 1 855 1 882 1 883 1 886 1 891 1 892 1 895 1 916 1 921 1 928 1 937 1 972 1 974 1 382 1 396 1 412 1 426 1 429 1 436 1 467 1 469 1 491 1 499 1 536 1 547 1 556 1 581 1 598 1 604 1 621 1 650 1 651 1 680 1 689 1 711 1 735 1 750 1 756 1 765 1 769 1 794 1 817 1 830 1 863 1 887 1 910 1 947 1 948 1 956 1 1000 1 1002 1 1003 1 1010 1 1013 1 1015 1 
1 210 11 1 50 1 82 1 103 1 123 1 161 1 186 1 225 1 229 1 250 1 333 1 349 1 371 1 26 1 43 1 59 1 75 1 124 1 149 1 170 1 202 1 205 1 216 1 218 1 219 1 221 1 246 1 290 1 296 1 302 1 312 1 324 1 337 1 351 1 376 1 378 1 384 1 388 1 405 1 406 1 413 2 435 1 492 1 506 1 513 1 534 1 537 1 542 1 586 1 608 1 610 1 621 2 632 1 677 1 682 1 712 1 717 1 719 2 763 1 783 1 804 1 814 1 883 1 885 1 896 1 912 1 934 1 938 1 943 1 954 1 966 1 968 1 972 1 976 1 977 1 994 1 379 1 401 1 410 1 418 1 430 1 432 1 447 1 459 1 511 1 519 1 543 1 564 1 565 1 571 1 649 1 673 1 747 1 752 1 754 1 757 1 782 1 787 1 793 1 816 1 817 1 818 1 826 1 859 1 862 1 866 1 891 1 893 1 900 1 903 1 914 1 930 1 940 1 942 1 969 1 989 1 993 1 1000 1 1016 1 1017 1 
1 209 6 1 32 1 85 1 94 1 128 1 140 1 141 1 208 1 209 1 221 1 225 1 234 1 245 2 256 1 321 1 332 1 346 1 352 1 373 1 24 1 39 1 55 1 68 1 70 1 91 1 130 1 132 1 134 1 151 1 163 1 206 1 220 1 241 1 279 1 285 1 340 1 356 1 361 1 370 1 379 1 384 1 409 1 419 2 442 1 456 1 457 1 481 1 506 1 555 1 572 2 599 2 604 1 614 1 615 1 650 1 652 1 658 1 664 1 680 1 686 1 694 1 707 1 735 1 742 1 747 1 770 1 771 1 772 1 805 1 862 1 864 1 904 1 932 1 936 1 951 1 985 1 988 1 996 1 401 1 404 1 405 1 414 1 420 1 425 1 449 1 461 1 473 1 482 1 499 1 510 1 514 1 523 1 524 1 527 1 545 1 620 1 657 1 737 1 746 1 754 1 759 1 777 1 806 1 855 1 865 1 869 1 876 1 887 1 905 1 913 1 946 1 947 1 974 1 1002 1 1003 1 1025 1 
1 219 22 1 45 2 50 1 93 1 94 1 110 1 122 1 131 1 140 1 166 1 171 1 191 1 194 1 203 1 206 1 247 1 270 1 271 1 306 1 313 1 331 1 374 1 19 1 64 1 77 1 78 1 81 1 114 1 121 1 138 1 146 1 179 1 205 1 211 1 224 1 231 1 238 1 250 1 289 1 329 1 337 1 349 1 365 1 388 1 398 1 404 1 407 1 424 1 463 1 469 1 482 1 509 1 519 1 522 1 579 1 586 1 608 1 612 1 626 1 643 1 678 1 686 1 712 1 726 1 735 1 737 1 740 1 744 2 748 1 764 1 810 1 811 1 824 1 868 1 884 1 886 1 891 1 899 1 911 1 945 1 982 1 382 1 406 1 417 1 423 1 477 1 489 1 502 1 504 1 508 1 518 1 521 1 534 1 535 1 580 1 621 1 636 1 647 1 701 1 716 1 741 1 747 1 753 1 761 1 787 1 796 1 812 1 840 1 848 1 872 1 873 1 910 1 920 1 935 1 961 1 1004 1 1005 1 1013 1 1017 1 1024 1 
1 214 23 1 24 1 33 1 51 1 79 1 98 1 99 1 132 2 152 1 171 1 179 1 218 1 264 1 265 1 322 1 333 1 354 1 358 1 364 1 370 1 4 1 8 1 11 1 13 1 40 1 60 1 80 1 88 1 91 1 172 1 190 1 196 1 219 1 238 1 253 1 292 1 294 1 306 1 321 1 329 1 343 1 378 1 446 1 493 1 549 1 650 1 665 1 678 1 685 1 701 1 719 1 727 1 745 1 760 1 762 2 782 1 820 1 869 1 883 1 940 1 948 1 966 1 421 1 428 1 437 1 438 1 445 1 456 1 458 1 467 1 477 1 504 1 548 1 555 1 560 1 576 1 609 1 628 1 639 1 658 1 675 1 705 1 707 1 721 1 755 1 775 1 778 1 781 1 810 1 822 1 823 1 831 1 837 1 887 1 903 1 916 1 936 1 939 1 944 1 977 1 979 1 982 1 984 1 1002 1 1005 1 1006 1 1011 1 1025 1 
1 211 27 1 61 1 87 1 98 2 119 1 125 1 138 1 143 2 167 1 173 1 229 1 233 1 275 1 277 1 279 1 327 1 328 1 329 1 339 1 365 1 374 1 377 1 10 1 30 1 52 1 93 1 94 1 106 1 108 1 123 1 172 1 184 1 189 1 215 1 222 1 225 1 227 1 231 1 248 1 256 1 294 1 305 1 317 1 319 1 330 1 337 1 340 1 344 1 350 1 372 1 381 1 391 1 412 1 442 1 459 1 469 1 483 1 484 1 513 1 522 1 536 1 541 1 555 1 568 2 599 1 601 1 615 1 633 1 659 1 682 1 701 1 702 1 707 1 709 2 739 1 750 1 755 1 799 1 839 1 845 1 859 1 927 1 952 1 961 1 990 1 993 1 999 1 387 1 399 1 420 1 444 1 445 1 446 1 453 1 470 1 476 1 481 1 482 1 501 1 537 1 581 1 596 1 642 1 670 1 675 1 677 1 685 1 760 1 786 1 788 1 831 1 848 1 851 1 852 1 856 1 869 1 891 1 900 1 910 1 945 1 947 1 950 1 1026 1 
1 210 11 1 33 1 41 1 124 1 163 1 192 1 217 1 222 1 258 1 272 1 326 1 332 1 352 1 353 1 366 1 368 1 375 1 31 1 47 1 53 1 100 1 151 1 189 1 230 1 241 1 257 1 264 1 296 1 310 1 321 1 324 1 333 1 334 1 359 1 367 1 374 1 382 2 384 2 389 1 404 1 407 1 418 1 426 1 445 1 513 1 520 1 528 1 529 1 558 2 577 1 600 1 617 1 621 1 630 1 639 1 643 1 668 2 710 1 738 1 741 1 800 1 807 1 825 1 835 1 878 1 881 1 887 1 901 1 902 2 923 1 950 1 954 1 970 1 977 1 406 1 419 1 425 1 431 1 448 1 455 1 456 1 464 1 473 1 502 1 506 1 507 1 543 1 548 1 564 1 568 1 569 1 578 1 597 1 602 1 604 1 612 1 631 1 644 1 650 1 699 1 719 1 722 1 732 1 749 1 803 1 831 1 873 1 891 1 898 1 899 1 905 1 911 1 921 1 926 1 929 1 941 1 989 1 997 1 1014 1 1022 1 1023 1 
1 206 15 1 20 1 39 1 45 1 80 1 82 2 130 1 134 1 145 1 158 1 202 1 218 1 224 1 245 1 257 1 294 1 299 1 307 1 331 1 354 1 356 1 10 1 34 1 46 1 57 1 64 1 87 1 96 1 123 1 157 1 194 1 204 1 206 1 240 1 250 1 264 1 265 1 267 1 270 1 273 1 275 1 282 1 289 1 295 1 339 1 385 2 389 1 395 1 396 1 404 1 437 1 473 1 474 1 483 1 502 1 532 1 559 2 575 1 601 1 607 1 623 1 634 1 635 1 663 1 664 1 665 1 680 1 706 1 720 1 732 1 771 2 777 1 789 1 798 1 805 1 863 1 878 1 907 1 913 1 938 1 948 1 950 1 988 1 391 1 402 1 408 1 461 1 480 1 506 1 531 1 537 1 549 1 574 1 597 1 612 1 626 1 636 1 638 1 647 1 648 1 650 1 656 1 677 1 686 1 691 1 705 1 724 1 738 1 741 1 745 1 802 1 804 1 839 1 860 1 874 1 881 1 903 1 911 1 917 1 957 1 966 1 968 1 1013 1 1015 1 
1 210 1 1 9 1 13 1 51 1 66 1 69 1 101 2 117 1 126 1 155 1 181 1 197 2 199 1 212 1 222 1 296 1 297 1 305 1 306 1 316 1 337 1 347 1 349 1 378 1 3 1 4 1 20 1 28 1 64 1 112 1 152 1 184 1 191 1 204 1 205 1 275 1 317 1 319 1 330 1 351 1 360 1 371 1 384 1 434 2 451 1 456 1 458 1 520 1 525 1 542 1 561 2 583 1 610 1 644 1 647 1 658 1 694 1 715 1 728 1 735 1 750 1 787 1 815 1 867 1 878 1 889 1 894 1 907 1 926 1 934 1 951 1 954 1 957 1 963 1 968 1 994 1 996 2 394 1 410 1 550 1 586 1 587 1 590 1 594 1 627 1 632 1 652 1 655 1 672 1 674 1 678 1 699 1 724 1 739 1 749 1 784 1 791 1 793 1 802 1 817 1 822 1 862 1 892 1 911 1 948 1 955 1 981 1 986 1 993 1 1008 1 1018 1 
1 209 11 1 63 1 66 1 73 1 84 1 95 1 150 1 158 1 180 1 213 1 237 1 257 1 263 1 280 1 281 1 287 1 291 1 323 1 337 1 340 1 342 1 379 2 47 1 70 1 72 1 76 1 93 1 154 1 157 1 186 1 188 1 193 1 195 1 204 1 210 1 244 1 253 1 265 1 297 1 369 1 373 1 376 1 434 1 438 1 480 1 504 1 511 1 548 1 556 1 561 1 589 1 595 1 617 1 619 1 625 2 635 1 640 1 693 1 717 1 720 1 747 1 748 1 758 1 782 1 797 1 798 1 822 1 836 1 847 1 848 1 849 1 896 1 939 1 948 1 952 1 969 1 994 1 401 1 411 1 417 1 451 1 462 1 473 1 474 1 487 1 488 1 530 1 552 1 553 1 572 1 612 1 622 1 627 1 630 1 637 1 658 1 678 1 703 1 727 1 788 1 793 1 804 1 817 1 874 1 879 1 884 1 909 1 921 1 968 1 1002 1 1012 1 1019 1 1027 1 
1 217 20 1 41 2 55 1 60 1 76 1 87 1 124 1 135 1 144 1 168 1 184 1 217 1 228 1 262 1 277 1 343 1 348 2 349 1 352 2 373 1 21 1 23 1 102 1 114 1 115 1 150 1 152 1 175 1 182 1 203 1 221 1 231 1 269 1 283 1 310 1 316 1 335 1 340 1 358 1 385 1 403 1 417 1 444 1 463 1 464 1 484 1 508 1 511 1 534 1 589 1 591 2 608 1 617 1 619 1 641 1 654 2 667 1 674 2 677 1 693 1 709 1 717 1 768 1 780 1 783 1 790 2 837 1 838 1 839 1 850 1 863 2 876 1 883 1 888 1 889 1 914 1 921 1 985 1 394 1 397 1 399 1 452 1 453 1 473 1 497 1 537 1 571 1 574 1 594 1 611 1 647 1 653 1 665 1 689 1 704 1 725 1 736 1 744 1 766 1 811 1 942 1 970 1 979 1 994 1 998 1 1005 1 1006 1 1024 1 1025 1 1027 1 
1 208 15 1 48 1 51 1 58 1 59 1 62 1 66 1 96 1 115 1 160 1 175 1 255 1 269 1 272 1 288 1 291 1 293 1 296 1 349 1 355 1 374 1 375 1 379 2 381 1 6 1 76 1 83 1 120 1 142 1 145 1 152 1 157 1 176 1 178 1 198 1 202 1 203 1 204 1 217 1 219 1 226 1 230 1 264 1 320 1 328 1 340 1 353 1 359 1 367 1 372 1 394 1 418 1 449 1 452 1 454 1 464 1 467 1 483 1 506 1 576 2 579 1 582 1 588 1 605 1 624 1 632 1 643 1 645 1 647 1 679 1 741 1 748 1 785 1 794 2 849 1 870 1 889 2 906 1 914 1 926 1 942 1 969 2 996 1 404 1 413 1 417 1 425 1 427 1 435 1 478 1 490 1 503 1 659 1 671 1 675 1 701 1 702 1 746 1 780 1 783 1 799 1 806 1 826 1 830 1 834 1 850 1 857 1 872 1 875 1 890 1 923 1 931 1 944 1 950 1 954 1 957 1 972 1 984 1 1003 1 1004 1 1008 1 1013 1 
1 209 16 1 19 1 31 1 53 1 66 1 77 1 99 1 140 1 142 1 211 1 216 1 221 1 226 1 228 1 239 1 247 1 278 1 281 1 328 1 331 1 358 1 373 1 380 2 383 1 12 1 15 1 46 1 80 1 94 1 100 1 107 1 117 1 124 1 134 1 136 1 138 1 143 1 172 1 180 1 196 1 199 1 206 1 234 1 237 1 242 1 249 1 253 1 291 1 308 1 310 1 325 1 327 1 342 1 356 1 391 1 400 1 407 1 426 1 459 1 482 1 497 1 530 1 570 2 587 1 615 1 656 1 676 1 687 1 691 1 701 1 723 1 747 1 761 1 766 1 807 1 819 1 844 1 864 1 869 1 889 1 902 1 903 1 910 1 926 1 946 1 948 1 972 1 978 1 994 1 389 1 442 1 451 1 487 1 515 1 522 1 532 1 548 1 563 1 567 1 610 1 633 1 668 1 671 1 684 1 686 1 709 1 712 1 732 1 739 1 740 1 783 1 785 1 805 1 806 1 866 1 870 1 916 1 930 1 942 1 953 1 955 1 958 1 999 1 1005 1 1020 1 1027 1 
1 211 1 1 14 1 25 1 29 1 46 1 49 1 67 1 70 2 86 1 88 1 90 1 132 1 134 1 147 1 175 1 180 1 201 1 204 1 205 1 206 1 211 1 226 1 268 1 273 1 279 1 313 2 314 1 321 1 322 1 329 1 341 1 18 1 63 1 84 1 127 1 216 1 244 1 291 1 294 1 332 1 359 1 390 1 425 1 437 1 454 1 471 1 472 1 503 2 511 2 576 1 635 1 658 1 693 1 735 1 737 1 749 1 771 1 792 1 832 1 856 1 877 1 892 1 893 1 896 1 927 2 932 1 951 1 972 1 985 1 991 1 388 1 408 1 434 1 441 1 458 1 514 1 519 1 550 1 559 1 584 1 586 1 623 1 627 1 646 1 648 1 678 1 707 1 709 1 712 1 734 1 738 1 769 1 803 1 806 1 842 1 854 1 860 1 874 1 875 1 909 1 914 1 969 1 1017 1 1019 1 1021 1 1025 1 
1 209 43 2 61 1 67 1 109 1 113 1 153 1 174 1 194 1 219 1 234 1 239 1 255 1 264 1 266 1 267 1 278 1 290 1 295 1 319 1 352 1 356 1 358 1 1 1 15 1 48 1 71 1 75 1 84 1 99 1 122 1 128 1 172 1 199 1 221 1 224 1 269 1 279 1 316 1 347 1 359 1 360 1 363 1 378 1 396 1 409 1 421 1 470 1 481 1 554 1 565 1 576 1 604 1 614 1 656 1 672 1 682 1 722 1 741 2 742 1 752 1 759 1 784 1 802 1 809 1 830 1 853 1 870 1 892 1 897 1 920 1 932 1 939 1 941 1 962 1 969 1 974 1 977 1 397 1 413 1 414 1 422 1 436 1 437 1 449 1 462 1 478 1 516 1 520 1 535 1 568 1 638 1 640 1 647 1 671 1 703 1 704 1 713 1 721 1 733 1 735 1 748 1 760 1 786 1 833 1 885 1 886 1 898 1 913 1 934 1 940 1 951 1 953 1 954 1 956 1 958 1 986 1 1002 1 1004 1 1009 1 1011 1 1016 1 
1 208 8 1 25 1 45 1 86 1 103 1 124 1 129 1 130 1 171 2 173 1 174 1 188 1 210 1 217 1 219 1 231 1 235 1 240 1 247 1 256 1 281 1 286 1 288 1 295 1 305 1 336 1 338 1 368 2 374 1 376 1 60 1 80 1 145 1 151 1 152 1 154 1 197 1 205 1 212 1 220 1 310 1 327 1 369 1 386 1 393 2 398 1 400 1 407 1 409 1 442 1 464 1 467 1 490 1 511 1 514 1 537 1 542 2 545 1 554 1 594 1 634 1 643 2 646 1 655 1 669 1 680 1 699 1 743 1 752 1 760 1 780 1 803 1 822 1 843 1 883 1 893 1 918 1 978 1 979 1 390 1 438 1 448 1 478 1 489 1 544 1 547 1 576 1 579 1 637 1 665 1 704 1 719 1 754 1 762 1 779 1 812 1 835 1 859 1 880 1 907 1 923 1 927 1 931 1 951 1 977 1 982 1 1004 1 
1 207 70 1 78 1 89 1 108 1 123 1 208 1 267 1 322 1 326 1 327 1 329 1 337 1 359 1 362 1 379 1 380 1 8 1 24 1 52 1 54 1 83 1 104 1 110 1 131 1 138 1 155 1 181 1 253 1 273 1 277 1 311 1 313 1 325 1 328 1 364 1 365 1 385 1 422 1 424 1 425 1 434 1 435 1 438 1 453 1 463 1 464 1 466 1 471 1 472 1 479 1 510 1 527 2 544 1 579 1 634 1 643 1 669 1 742 1 765 1 778 1 790 1 801 1 839 1 881 1 904 1 917 1 975 1 444 1 447 1 475 1 481 1 517 1 523 1 524 1 536 1 556 1 558 1 566 1 581 1 593 1 621 1 642 1 657 1 676 1 677 1 719 1 720 1 736 1 745 1 763 1 780 1 784 1 794 1 799 1 803 1 820 1 855 1 860 1 864 1 873 1 877 1 884 1 933 1 942 1 944 1 956 1 977 1 987 1 989 1 1011 1 1020 1 
1 209 7 1 14 1 18 1 29 1 58 1 59 1 74 1 90 1 103 1 132 1 140 1 207 1 232 1 239 1 243 1 244 1 255 1 263 1 273 1 309 1 321 1 347 1 362 1 367 1 386 1 42 1 57 1 92 1 111 1 116 1 127 1 147 1 148 1 153 1 168 1 191 1 215 1 240 1 288 1 306 1 307 1 311 1 315 1 326 1 338 1 346 1 356 1 388 1 402 1 409 1 433 1 443 1 457 1 527 1 531 1 538 1 541 1 557 2 563 1 564 1 569 1 571 1 638 1 640 1 661 1 672 1 687 1 705 1 711 1 718 2 756 1 762 1 822 1 830 2 837 1 850 2 853 1 858 1 878 1 904 1 909 1 917 1 953 1 970 1 973 1 974 1 980 1 994 1 450 1 461 1 471 1 480 1 486 1 516 1 523 1 547 1 553 1 602 1 642 1 647 1 655 1 694 1 695 1 715 1 722 1 725 1 727 1 743 1 747 1 766 1 778 1 783 1 810 1 816 1 829 1 885 1 891 1 900 1 911 1 946 1 960 1 963 1 981 1 993 1 1006 1 1018 1 
1 209 10 1 50 1 69 1 82 1 101 1 140 1 163 1 165 1 198 1 200 1 202 1 210 1 227 1 231 1 254 1 262 1 266 1 284 1 331 1 340 1 378 1 385 1 2 1 33 1 49 1 120 1 124 1 237 1 247 1 270 1 276 1 380 1 391 1 391 1 411 1 415 1 430 1 440 1 445 1 459 1 467 2 484 1 487 1 514 1 555 1 565 1 572 1 582 1 597 1 599 1 605 1 642 1 652 2 653 1 658 1 697 1 701 1 710 1 734 1 745 1 784 1 792 1 795 1 807 2 820 1 832 1 838 1 880 1 915 1 921 1 928 1 945 1 952 1 970 1 984 1 991 1 394 1 479 1 541 1 561 1 611 1 624 1 626 1 640 1 657 1 664 1 666 1 676 1 679 1 703 1 780 1 796 1 825 1 826 1 837 1 856 1 895 1 896 1 920 1 949 1 959 1 978 1 980 1 1004 1 1008 1 1023 1 1025 1 1026 1 
1 208 8 1 62 1 88 1 90 1 92 1 110 1 130 1 180 1 187 1 195 1 207 1 229 1 237 1 243 2 248 1 256 1 268 1 270 1 279 1 294 1 323 1 325 1 363 1 18 1 50 1 65 1 68 1 71 1 87 1 99 1 129 1 131 1 148 1 150 1 162 1 173 1 215 1 246 1 251 1 254 1 263 1 284 1 297 1 300 1 309 1 369 1 398 1 404 1 425 1 430 1 434 1 449 1 456 1 472 1 475 1 487 1 521 2 541 1 552 1 599 1 629 1 650 1 664 1 677 1 715 1 723 1 747 1 782 1 787 1 814 1 847 1 852 1 875 1 877 1 929 1 951 2 432 1 443 1 460 1 501 1 507 1 510 1 516 1 532 1 577 1 579 1 619 1 622 1 651 1 663 1 696 1 701 1 726 1 742 1 759 1 766 1 794 1 795 1 826 1 841 1 903 1 916 1 920 1 932 1 935 1 939 1 948 1 964 1 973 1 980 1 1009 1 1018 1 1024 1 1026 1 
1 211 19 1 37 1 54 1 117 1 143 1 145 1 187 1 200 1 219 1 226 1 238 1 251 1 267 1 296 1 299 1 307 1 321 1 370 1 388 2 21 1 25 1 43 1 57 1 66 1 82 1 108 1 124 1 144 1 148 1 167 1 193 1 231 1 245 1 254 1 263 1 265 1 289 1 306 1 315 1 361 1 420 1 425 1 432 1 436 1 465 1 471 1 519 1 549 1 551 1 561 1 566 1 576 1 581 1 590 1 646 1 651 1 657 1 672 2 673 1 721 1 728 1 755 1 756 1 764 1 778 1 797 1 806 1 823 1 836 1 839 1 852 1 865 1 866 1 883 1 899 1 919 1 935 1 938 1 950 1 987 1 996 1 405 1 428 1 445 1 493 1 502 1 507 1 508 1 515 1 541 1 553 1 582 1 598 1 619 1 630 1 638 1 670 1 702 1 705 1 723 1 725 1 735 1 739 1 749 1 753 1 758 1 763 1 799 1 800 1 801 1 812 1 822 1 868 1 877 1 904 1 909 1 914 1 963 1 965 1 997 1 1008 1 1013 1 1015 1 1020 1 1022 1 1026 1 
1 214 42 1 43 1 72 1 82 1 101 1 127 1 128 1 142 1 151 1 178 2 215 1 240 2 245 1 249 1 293 1 311 1 333 1 348 1 354 1 384 1 8 1 12 1 30 1 66 1 78 1 92 1 94 1 99 1 111 1 126 1 135 1 156 1 159 1 170 1 186 1 188 1 192 1 212 1 258 1 267 1 285 1 381 1 383 1 391 1 405 1 425 2 438 1 452 1 466 1 482 1 485 1 487 1 498 1 499 1 516 1 521 1 523 1 561 1 563 1 605 2 630 1 663 1 666 1 671 1 686 1 700 1 703 1 724 1 754 1 767 1 770 1 792 1 797 1 832 1 833 1 843 1 879 1 880 1 948 1 979 1 993 1 396 1 409 1 424 1 426 1 446 1 450 1 464 1 467 1 490 1 503 1 504 1 515 1 551 1 555 1 579 1 586 1 621 1 637 1 643 1 645 1 654 1 665 1 679 1 689 1 693 1 699 1 714 1 748 1 756 1 781 1 814 1 820 1 842 1 855 1 867 1 891 1 933 1 995 1 997 1 1012 1 1016 1 1020 1 1025 1 
1 213 29 1 56 1 82 1 86 1 88 1 89 1 105 2 127 1 128 1 142 1 159 1 176 1 181 1 208 1 226 1 239 1 243 1 274 1 341 1 345 1 348 1 353 1 355 1 380 1 32 1 64 1 143 1 171 1 190 1 210 1 241 1 245 1 259 1 270 1 290 1 291 1 315 1 359 1 401 1 412 1 442 1 452 1 459 1 467 1 476 1 477 1 486 1 492 1 500 1 512 1 517 1 549 1 558 1 569 1 574 1 587 1 595 1 628 1 629 2 631 1 637 1 641 1 683 1 695 1 704 1 710 1 725 1 746 1 756 1 786 1 827 1 854 1 881 1 885 1 889 1 916 1 925 1 934 1 936 1 957 1 958 1 959 1 962 1 969 1 977 1 980 1 981 1 407 1 417 1 437 1 473 1 488 1 510 1 514 1 516 1 526 1 533 1 603 1 627 1 635 1 708 1 751 1 809 1 811 1 819 1 856 1 922 1 927 1 940 1 1000 1 1010 1 1014 1 1021 1 1024 1 
1 213 22 1 40 1 46 1 71 2 85 1 107 1 138 1 144 1 192 1 249 1 250 1 252 1 255 1 261 1 267 1 269 1 277 1 309 1 331 1 336 1 361 1 362 1 380 1 387 1 15 1 31 1 34 1 69 1 136 1 173 1 198 1 218 1 221 1 274 1 297 1 305 1 315 1 342 1 343 1 365 1 373 1 394 1 404 1 412 1 415 1 421 1 439 1 441 1 448 1 456 1 457 2 471 1 556 2 567 1 569 1 631 1 638 1 686 1 696 1 728 2 744 1 745 1 767 1 834 1 842 1 843 1 858 1 869 1 875 1 879 1 887 1 889 2 896 1 899 1 905 1 930 1 936 2 939 1 410 1 474 1 476 1 486 1 502 1 525 1 586 1 619 1 634 1 646 1 650 1 678 1 705 1 749 1 750 1 753 1 793 1 814 1 837 1 840 1 844 1 853 1 870 1 872 1 874 1 882 1 885 1 916 1 941 1 954 1 961 1 968 1 1025 1 
1 206 3 1 4 1 19 1 24 1 27 1 57 1 63 1 70 1 87 1 104 1 155 1 171 2 174 1 196 1 201 1 223 1 230 1 237 1 240 2 251 1 268 1 334 1 15 1 17 1 21 1 30 1 38 1 43 1 50 1 59 1 69 1 71 1 77 1 99 1 103 1 117 1 137 1 274 1 286 1 339 1 362 1 383 1 387 1 432 1 447 1 468 1 470 1 497 1 527 1 532 1 551 1 552 1 590 1 605 1 627 1 649 1 654 1 688 1 698 1 707 1 708 1 710 1 764 1 811 1 830 1 834 2 838 1 848 1 855 1 874 1 878 1 958 1 969 1 401 1 403 1 414 1 437 1 448 1 462 1 471 1 474 1 502 1 512 1 521 1 525 1 528 1 557 1 571 1 596 1 612 1 635 1 637 1 643 1 648 1 687 1 690 1 703 1 706 1 756 1 796 1 807 1 816 1 821 1 845 1 854 1 862 1 893 1 895 1 901 1 902 1 918 1 959 1 972 1 978 1 985 1 
1 208 55 1 81 1 86 1 113 1 115 1 128 1 135 1 139 1 146 1 173 1 201 1 227 1 275 1 277 1 302 1 305 1 314 1 326 1 350 1 376 1 388 1 392 1 32 1 64 1 74 1 97 1 99 1 123 1 145 1 168 1 182 1 205 1 229 1 269 1 284 1 295 1 313 1 315 1 324 1 337 1 339 1 348 1 442 1 479 1 480 1 484 1 493 2 495 1 510 1 522 1 555 1 573 1 579 1 591 1 598 1 608 1 616 1 646 1 650 1 655 2 691 1 739 1 781 1 786 1 791 1 799 1 804 1 812 1 825 1 851 1 860 1 872 1 895 1 929 1 947 1 964 2 983 1 443 1 450 1 468 1 472 1 475 1 489 1 516 1 526 1 614 1 632 1 677 1 678 1 710 1 722 1 756 1 777 1 800 1 834 1 838 1 854 1 873 1 875 1 896 1 921 1 927 1 938 1 967 1 968 1 998 1 1004 1 1007 1 1008 1 1012 1 1015 1 
1 213 29 1 39 1 45 1 47 2 49 1 63 1 77 1 96 1 101 1 124 1 149 1 153 1 188 1 197 1 203 1 213 1 234 1 255 1 256 2 265 1 270 1 305 1 307 1 323 2 332 1 346 1 357 1 362 1 31 1 65 1 72 1 74 1 76 1 108 1 113 1 115 1 231 1 272 1 281 1 308 1 364 1 371 1 378 1 383 1 416 1 440 1 445 1 458 1 462 1 483 1 518 2 521 1 548 1 616 1 619 1 637 1 643 1 695 1 710 1 722 1 728 1 755 1 763 1 769 1 770 2 781 1 803 2 823 1 824 1 827 1 837 1 840 1 842 1 845 1 855 1 865 1 892 1 893 1 915 1 919 1 928 1 961 1 962 1 429 1 448 1 450 1 457 1 477 1 494 1 496 1 504 1 512 1 519 1 528 1 532 1 590 1 601 1 650 1 672 1 689 1 723 1 748 1 756 1 788 1 800 1 817 1 871 1 918 1 922 1 930 1 958 1 987 1 1004 1 1021 1 
1 206 29 1 44 1 70 1 94 1 97 1 119 1 123 1 133 2 140 2 145 1 146 1 153 1 202 1 214 1 245 1 246 1 257 1 264 1 282 1 286 2 291 1 304 1 328 1 331 1 363 1 385 1 388 1 5 1 16 1 30 1 49 1 61 1 68 1 147 1 160 1 173 1 176 1 178 1 189 1 192 1 205 1 224 1 230 1 247 1 258 1 265 1 281 1 284 1 332 1 362 1 418 1 472 1 477 1 500 2 512 1 534 1 560 1 561 1 582 2 602 2 620 1 628 1 659 1 675 1 697 1 705 1 720 1 744 1 748 1 772 1 833 1 860 1 865 1 884 1 895 1 912 1 914 1 921 1 931 1 937 1 956 1 961 2 450 1 462 1 523 1 530 1 546 1 576 1 590 1 616 1 626 1 643 1 644 1 668 1 689 1 726 1 732 1 758 1 783 1 792 1 806 1 810 1 816 1 878 1 907 1 909 1 928 1 971 1 974 1 977 1 
1 207 14 1 17 1 31 1 41 2 42 1 73 1 74 1 86 1 103 1 109 1 111 1 180 1 216 2 223 1 245 1 253 1 262 1 267 1 283 1 284 1 289 1 292 1 297 1 301 1 323 1 327 1 395 1 12 1 32 1 34 1 45 1 49 1 51 1 54 1 61 1 63 1 65 1 79 1 104 1 124 1 126 1 134 1 136 1 139 1 146 1 168 1 172 1 191 1 203 1 222 1 230 1 247 1 249 1 260 1 285 1 305 1 330 1 346 1 356 1 359 1 374 1 375 1 382 1 397 1 415 1 420 2 436 1 454 1 455 1 462 1 518 1 586 1 633 1 640 1 692 1 702 1 707 1 714 1 715 1 721 1 736 1 787 1 826 1 906 1 912 1 916 1 931 1 934 1 972 1 974 1 411 1 421 1 429 1 483 1 487 1 505 1 516 1 550 1 553 1 562 1 570 1 610 1 626 1 628 1 642 1 649 1 667 1 716 1 744 1 817 1 818 1 829 1 831 1 835 1 880 1 881 1 892 1 902 1 922 1 927 1 929 1 957 1 1003 1 1013 1 1026 1 
1 210 9 1 17 1 38 1 40 1 59 2 88 1 94 1 121 1 135 1 140 1 152 1 185 1 199 1 212 1 218 1 227 1 230 1 235 1 256 1 261 1 268 1 294 1 328 1 340 1 345 1 369 1 390 1 24 1 69 1 71 1 102 1 144 1 154 1 159 1 161 1 220 1 226 1 236 1 274 1 336 1 356 1 380 1 416 1 419 1 429 1 437 2 451 1 466 1 484 1 512 1 534 1 535 1 538 1 561 1 574 1 583 1 597 1 601 1 624 1 639 1 666 1 670 1 673 2 678 1 703 1 708 1 758 1 772 1 775 1 799 1 816 1 826 1 867 1 891 1 946 1 948 1 987 1 993 1 413 1 449 1 454 1 528 1 547 1 580 1 590 1 594 1 603 1 619 1 674 1 687 1 724 1 735 1 738 1 740 1 756 1 760 1 848 1 878 1 888 1 889 1 894 1 923 1 935 1 944 1 962 1 977 1 1000 1 1001 1 1005 1 1012 1 
1 209 1 1 8 1 12 1 17 1 36 1 49 1 77 2 83 1 85 1 139 1 185 1 229 1 233 1 263 1 271 1 277 1 336 1 341 1 383 1 18 1 48 1 66 1 113 1 138 1 161 1 175 1 184 1 219 1 362 1 397 1 411 1 447 2 451 1 454 1 467 1 507 1 510 1 518 1 533 1 553 1 583 1 596 1 603 2 613 1 631 1 632 1 648 1 690 1 693 1 695 1 714 1 737 1 752 1 790 1 796 1 805 1 824 1 900 1 927 2 946 1 963 1 988 1 994 1 453 1 472 1 477 1 480 1 496 1 515 1 517 1 524 1 530 1 545 1 549 1 563 1 606 1 611 1 630 1 639 1 651 1 694 1 705 1 712 1 761 1 797 1 813 1 819 1 823 1 862 1 865 1 867 1 869 1 905 1 929 1 930 1 938 1 1000 1 1004 1 1006 1 1026 1 
1 214 9 1 11 1 13 1 29 1 39 1 41 1 51 1 76 1 98 1 121 1 159 1 179 1 180 1 185 1 189 2 209 1 215 1 239 1 257 1 259 2 331 2 335 1 339 1 354 1 376 1 379 1 380 1 392 1 396 1 2 1 14 1 67 1 69 1 87 1 96 1 136 1 150 1 154 1 155 1 173 1 186 1 190 1 191 1 247 1 265 1 294 1 310 1 321 1 324 1 348 1 362 1 370 1 375 1 384 1 448 1 494 1 498 1 521 1 553 1 563 1 572 1 573 2 582 1 636 1 644 1 655 1 660 1 662 1 694 1 701 1 746 1 765 1 770 2 773 1 775 1 781 1 788 1 809 1 824 1 874 2 879 1 935 2 956 1 970 1 975 1 473 1 509 1 537 1 575 1 587 1 590 1 649 1 691 1 751 1 754 1 772 1 820 1 826 1 832 1 859 1 877 1 884 1 902 1 915 1 926 1 934 1 967 1 984 1 986 1 1004 1 1019 1 1023 1 
1 209 17 1 32 1 34 1 58 1 76 1 97 1 164 1 200 1 204 1 238 1 241 1 265 1 273 1 282 1 317 1 336 1 358 1 359 2 374 1 394 1 11 1 16 1 33 1 50 1 61 1 64 1 112 1 116 1 130 1 210 1 260 1 274 1 286 1 332 1 334 1 338 1 352 1 375 1 393 1 421 1 422 1 429 1 445 1 461 1 464 1 493 1 530 1 556 1 581 1 583 1 586 1 590 1 656 1 673 1 694 1 700 1 709 1 773 1 809 1 818 1 836 1 840 1 855 1 889 1 892 1 894 1 917 2 923 1 955 1 965 1 988 1 451 1 462 1 472 1 485 1 510 1 511 1 524 1 532 1 540 1 543 1 577 1 582 1 588 1 597 1 599 1 618 1 626 1 639 1 648 1 677 1 702 1 719 1 735 1 745 1 747 1 781 1 790 1 813 1 828 1 858 1 864 1 865 1 870 1 879 1 884 1 891 1 895 1 897 1 910 1 919 1 951 1 967 1 980 1 1002 1 1005 1 1011 1 1026 1 
1 208 15 1 21 1 54 1 60 1 99 1 109 1 115 1 129 1 138 1 151 1 152 1 153 1 158 1 161 1 169 2 178 1 205 1 219 1 224 1 225 1 243 1 245 1 297 1 316 1 323 1 364 1 374 1 26 1 45 1 57 1 58 1 64 1 70 1 89 1 119 1 126 1 135 1 143 1 159 1 160 1 163 1 175 1 186 1 191 1 214 1 262 1 265 1 275 1 335 1 338 1 345 1 346 1 357 1 376 1 379 1 413 1 452 2 457 1 474 1 483 1 501 1 507 1 521 1 523 1 547 1 557 1 584 1 608 1 622 1 637 1 650 1 657 1 665 1 674 1 680 1 694 1 699 1 727 1 742 1 765 1 798 1 806 1 816 1 846 1 865 1 866 1 888 1 907 1 924 1 939 1 966 1 976 1 997 1 418 1 444 1 456 1 531 1 540 1 553 1 565 1 567 1 591 1 615 1 628 1 630 1 639 1 681 1 688 1 719 1 729 1 748 1 755 1 760 1 763 1 779 1 782 1 795 1 811 1 814 1 854 1 904 1 938 1 950 1 964 1 965 1 989 1 993 1 1002 1 1014 1 1025 1 
1 210 15 1 17 2 34 1 40 1 45 1 52 1 77 1 95 1 171 1 181 1 219 1 220 1 231 1 239 1 240 1 252 1 286 1 294 1 306 1 313 1 324 2 331 1 336 1 363 1 368 1 376 1 379 1 385 1 388 1 1 1 22 1 43 1 54 1 62 1 113 1 120 1 150 1 158 1 170 1 192 1 198 1 372 1 395 1 410 1 460 1 483 1 511 1 553 1 569 1 603 1 636 1 638 1 659 1 660 1 681 1 682 1 684 2 689 2 707 1 724 1 758 1 769 1 774 2 785 1 802 1 822 1 878 1 879 1 888 1 910 1 920 1 923 1 938 1 991 1 424 1 432 1 446 1 450 1 451 1 452 1 454 1 458 1 466 1 507 1 562 1 571 1 576 1 587 1 593 1 599 1 617 1 644 1 652 1 658 1 704 1 728 1 759 1 781 1 793 1 800 1 811 1 843 1 844 1 870 1 930 1 937 1 955 1 960 1 971 1 978 1 981 1 982 1 1000 1 1005 1 1012 1 1019 1 
1 206 13 1 29 1 52 1 54 1 59 1 90 1 95 1 97 1 124 1 128 1 131 1 139 1 146 1 160 1 161 1 187 1 213 1 225 1 235 1 252 1 265 2 281 2 291 1 369 1 127 1 133 1 140 1 190 1 207 1 234 1 240 1 256 1 280 1 307 1 347 1 357 1 368 1 380 1 386 1 429 1 439 1 455 1 491 1 496 1 499 1 506 1 519 1 530 1 542 1 639 1 669 1 680 1 682 1 685 1 686 1 725 1 739 1 768 1 773 1 779 1 783 1 798 1 808 1 810 2 820 1 826 1 837 1 845 1 847 1 868 1 869 1 875 1 879 1 899 1 902 1 907 1 920 2 938 1 943 1 951 1 952 2 975 1 988 1 997 1 998 1 422 1 432 1 445 1 451 1 477 1 480 1 486 1 492 1 494 1 497 1 516 1 533 1 536 1 538 1 555 1 574 1 582 1 583 1 593 1 595 1 596 1 606 1 617 1 623 1 626 1 630 1 638 1 640 1 690 1 703 1 712 1 719 1 720 1 722 1 742 1 746 1 848 1 852 1 887 1 891 1 906 1 927 1 1016 1 1025 1 1026 1 
1 206 27 1 42 1 60 1 85 1 103 1 165 1 185 1 188 1 192 1 227 1 275 1 287 1 292 1 355 1 359 1 372 1 375 1 387 1 388 1 390 1 4 1 26 1 28 1 30 1 46 1 47 1 68 1 79 1 81 1 95 1 109 1 137 1 140 1 148 1 184 1 193 1 246 1 248 1 253 1 256 1 303 1 304 1 325 1 336 1 338 1 351 1 394 1 412 1 438 1 440 1 458 1 481 1 498 1 516 1 520 1 537 1 547 2 550 1 569 1 570 1 607 1 625 1 633 1 644 1 677 1 684 1 699 1 703 1 714 1 745 1 753 1 805 1 823 1 828 1 829 1 841 1 879 1 893 1 906 1 917 1 937 1 944 1 981 1 992 1 437 1 442 1 468 1 491 1 494 1 497 1 502 1 557 1 578 1 579 1 593 1 626 1 650 1 669 1 672 1 748 1 771 1 773 1 790 1 817 1 831 1 848 1 859 1 874 1 899 1 931 1 988 1 990 1 993 1 1010 1 1013 1 1014 1 1022 1 
1 207 40 1 42 1 45 1 69 1 113 1 116 2 117 1 130 2 140 2 156 1 166 1 167 2 168 1 178 1 182 1 189 1 199 1 234 1 239 1 257 1 264 1 294 1 313 2 320 2 329 1 350 1 367 1 407 1 11 1 44 1 51 1 91 1 95 1 99 1 111 1 137 1 146 1 196 1 213 1 222 1 225 1 249 1 271 1 276 1 302 1 333 1 349 1 355 1 357 1 362 1 374 1 381 1 396 1 498 1 502 1 526 1 531 1 545 1 577 1 586 1 590 1 597 1 610 1 617 1 640 1 661 1 683 1 688 1 692 1 699 1 717 1 718 1 720 1 721 1 739 1 742 1 743 1 804 1 809 1 834 2 856 1 880 1 885 2 904 1 949 1 981 1 997 1 412 1 414 1 417 1 427 1 428 1 477 1 492 1 501 1 562 1 607 1 616 1 646 1 647 1 659 1 704 1 736 1 738 1 744 1 752 1 798 1 829 1 853 1 881 1 883 1 892 1 914 1 944 1 948 1 1010 1 1022 1 1023 1 
1 211 4 1 16 1 17 1 35 1 53 1 66 1 90 1 139 1 144 1 153 1 156 1 160 1 181 2 208 2 213 1 237 1 248 1 258 1 278 1 301 1 305 1 307 1 309 1 323 1 332 1 344 1 391 1 403 1 12 1 13 1 14 1 15 1 24 1 25 1 40 1 58 1 62 1 80 1 149 1 158 1 167 1 179 1 183 1 185 1 186 1 191 1 197 1 198 1 215 1 240 1 242 1 284 1 288 1 295 1 302 1 312 1 321 1 326 1 336 1 345 1 353 1 368 1 382 1 401 1 417 1 436 1 494 1 497 1 498 1 538 1 600 1 613 1 625 1 636 1 644 1 652 2 686 2 697 1 782 1 795 1 833 1 847 1 849 2 851 1 856 1 859 1 887 1 905 1 949 1 972 1 418 1 424 1 451 1 477 1 510 1 514 1 517 1 528 1 534 1 549 1 585 1 598 1 607 1 641 1 645 1 665 1 687 1 689 1 691 1 707 1 715 1 735 1 740 1 796 1 819 1 838 1 865 1 873 1 892 1 894 1 967 1 980 1 993 1 997 1 1007 1 1022 1 
1 204 15 1 26 1 38 1 53 1 80 1 92 1 113 1 117 1 133 1 157 1 171 1 173 1 181 1 256 1 277 1 283 1 285 1 288 1 291 1 332 1 335 1 354 1 378 1 395 1 396 1 409 1 65 1 105 1 139 1 141 1 151 1 164 1 211 1 237 1 251 1 253 1 275 1 297 1 316 1 341 1 344 1 361 1 373 1 410 1 434 1 437 1 441 1 462 1 477 1 533 1 534 1 545 1 556 1 557 1 560 1 571 1 585 1 620 1 658 1 665 1 731 1 743 1 752 1 757 1 759 1 795 1 798 1 830 1 836 1 839 1 858 1 886 1 890 1 894 1 920 1 923 1 942 1 943 1 980 1 992 1 998 1 999 1 445 1 485 1 493 1 496 1 499 1 502 1 549 1 594 1 607 1 662 1 718 1 745 1 758 1 764 1 782 1 797 1 799 1 802 1 807 1 825 1 859 1 869 1 871 1 882 1 929 1 941 1 970 1 988 1 1014 1 
1 210 20 1 22 1 35 1 45 1 91 1 93 1 113 1 115 1 149 1 150 1 185 1 187 1 206 1 222 1 223 1 237 1 243 1 247 1 264 1 299 1 323 1 360 1 374 2 406 1 7 1 21 1 33 1 48 1 51 1 96 1 123 1 127 1 144 1 202 1 207 1 212 1 232 1 234 1 239 1 275 1 307 1 318 1 356 1 371 1 384 1 387 1 402 1 510 1 545 1 546 1 550 1 571 1 577 1 614 2 633 1 663 1 666 1 669 1 676 1 687 2 690 1 691 1 713 1 722 1 725 1 733 1 734 1 740 1 754 1 763 1 766 1 768 1 772 1 781 1 788 1 792 1 802 2 815 1 830 1 859 1 875 1 877 1 909 1 910 1 912 1 933 1 942 1 946 1 954 1 965 1 972 1 988 1 991 1 994 2 429 1 451 1 452 1 454 1 469 1 484 1 487 1 533 1 568 1 603 1 644 1 723 1 739 1 755 1 762 1 774 1 789 1 833 1 837 1 846 1 863 1 968 1 974 1 997 1 
1 210 1 1 17 1 24 1 36 1 37 1 42 1 58 1 67 1 79 1 85 1 92 1 102 1 106 1 139 1 158 1 194 1 200 1 209 1 221 1 251 1 252 1 258 1 301 1 305 1 327 1 328 1 329 1 356 1 373 1 30 1 47 1 74 1 78 1 99 1 141 1 146 1 155 1 184 1 207 1 217 1 218 1 224 1 226 1 237 1 260 1 273 1 287 1 308 1 339 1 341 1 349 1 375 1 387 1 397 1 410 1 423 1 465 1 470 1 500 1 507 1 637 1 638 1 651 1 732 1 733 1 740 1 747 1 759 1 771 1 796 1 814 1 815 1 817 1 820 1 846 1 858 1 879 1 891 1 898 2 937 1 946 1 958 1 969 1 974 1 980 1 426 1 427 1 434 1 473 1 537 1 541 1 597 1 629 1 647 1 650 1 654 1 669 1 670 1 686 1 690 1 704 1 714 1 741 1 775 1 780 1 786 1 809 1 825 1 831 1 861 1 863 1 866 1 868 1 896 1 929 1 930 1 983 1 989 1 993 1 1006 1 
1 209 51 1 57 1 60 1 62 1 65 1 74 1 83 1 111 1 121 1 152 1 173 1 226 1 232 1 269 1 274 1 317 1 329 1 347 1 366 1 391 1 396 1 401 1 16 1 58 1 119 1 120 1 123 1 160 1 184 1 185 1 186 1 209 1 214 1 230 1 233 1 244 1 247 1 316 1 320 1 322 1 325 1 327 1 339 1 352 1 426 1 433 1 461 1 463 1 506 1 518 1 523 1 586 1 590 1 599 1 627 1 636 1 637 1 649 1 654 1 660 1 683 1 726 1 741 1 749 1 752 1 754 1 796 1 798 1 819 1 854 1 883 1 896 1 932 1 942 1 957 2 972 1 998 1 418 1 438 1 439 1 451 1 470 1 489 1 502 1 503 1 529 1 532 1 533 1 536 1 569 1 572 1 577 1 602 1 650 1 684 1 721 1 801 1 812 1 834 1 840 1 934 1 937 1 956 1 958 1 987 1 997 1 1016 1 1018 1 1019 1 1025 1 
1 213 20 1 24 1 31 1 54 1 67 1 74 1 94 1 96 1 103 1 166 2 196 1 200 1 222 1 231 1 241 1 279 1 284 1 298 1 302 1 314 2 318 1 319 1 324 1 331 1 351 1 361 1 364 1 399 1 402 1 6 1 40 1 59 1 93 1 97 1 98 1 118 1 131 1 142 1 144 1 157 1 205 1 216 1 226 1 262 1 267 1 270 1 272 1 288 1 336 1 344 1 348 1 354 1 435 1 520 1 555 1 557 1 575 1 593 1 603 1 616 1 636 1 664 1 676 2 694 1 709 1 719 1 721 2 734 1 750 1 767 1 780 1 783 1 784 1 840 1 854 1 856 1 858 1 871 1 881 2 918 2 924 1 934 1 943 1 946 1 963 1 975 1 986 1 996 1 497 1 509 1 526 1 527 1 532 1 565 1 568 1 590 1 615 1 626 1 635 1 653 1 658 1 665 1 693 1 731 1 758 1 785 1 793 1 798 1 824 1 830 1 874 1 894 1 1001 1 1005 1 1006 1 1011 1 1014 1 1019 1 
1 211 17 1 26 1 30 1 42 1 55 1 63 1 78 1 88 1 117 1 122 1 130 1 168 1 180 1 181 1 199 1 200 1 247 1 251 1 270 1 285 1 311 1 317 1 334 1 344 1 383 1 411 1 33 1 49 1 76 1 77 1 90 1 95 1 131 1 140 1 143 1 149 1 186 1 192 1 219 1 222 1 259 1 298 1 304 1 310 1 324 1 335 1 351 1 376 1 382 1 384 1 395 1 410 1 425 1 433 2 441 1 449 1 479 1 518 1 522 1 523 1 542 1 559 1 574 1 578 1 606 1 608 1 621 1 629 1 638 1 650 1 667 1 718 1 730 1 740 1 748 1 754 1 762 1 802 1 816 1 896 1 909 1 948 1 434 1 437 1 440 1 442 1 477 1 483 1 489 1 561 1 577 1 582 1 602 1 603 1 613 1 618 1 632 1 656 1 659 1 723 1 737 1 773 1 778 1 779 1 791 1 805 1 814 1 833 1 879 1 897 1 902 1 917 1 946 1 949 1 982 1 1012 1 1016 1 1018 1 
1 207 7 1 11 1 34 1 39 1 58 1 90 1 95 1 108 1 122 1 135 1 168 1 169 1 183 2 191 1 193 1 217 1 242 1 266 1 272 1 284 1 296 1 341 1 359 1 365 1 379 1 384 1 400 1 22 1 43 1 64 1 80 1 93 1 104 1 125 1 138 1 142 1 152 1 202 1 207 1 209 1 260 1 283 1 302 1 342 1 349 1 361 1 374 1 406 1 411 1 415 1 443 1 454 1 476 1 482 1 493 1 495 1 520 1 540 1 548 1 557 1 572 1 604 1 607 1 615 1 648 1 659 1 660 1 684 1 717 1 727 2 746 1 790 1 805 1 817 1 828 1 830 1 874 1 882 1 885 2 888 1 893 1 897 1 901 1 905 1 935 1 945 1 961 1 985 1 424 1 428 1 448 1 451 1 470 1 536 1 576 1 582 1 583 1 591 1 625 1 637 1 653 1 669 1 677 1 678 1 685 1 719 1 735 1 749 1 758 1 761 1 765 1 767 1 806 1 808 1 848 1 851 1 857 1 864 1 867 1 899 1 932 1 939 1 955 1 957 1 1004 1 1013 1 1018 1 1026 1 
1 212 12 2 36 1 42 1 58 1 70 1 107 1 110 1 113 1 135 1 143 1 168 1 237 1 247 1 277 1 285 1 313 1 348 1 362 1 364 1 371 1 375 2 402 1 6 1 7 1 28 1 38 1 39 1 49 1 88 1 93 1 100 1 121 1 132 1 141 1 171 1 173 1 196 1 226 1 231 1 235 1 236 1 245 1 253 1 265 1 270 1 334 1 337 1 341 1 358 1 379 1 434 1 440 1 467 1 484 1 491 1 505 1 529 1 531 1 533 1 537 1 541 1 547 1 549 1 566 1 573 1 582 1 584 1 598 1 606 1 635 1 640 1 648 1 651 1 662 1 663 1 665 1 671 1 691 1 696 2 699 1 737 1 751 1 787 2 819 1 835 1 863 1 885 1 910 2 919 1 940 1 962 1 966 1 969 1 982 1 995 1 421 1 422 1 425 1 426 1 428 1 435 1 445 1 446 1 450 1 458 1 480 1 496 1 512 1 518 1 540 1 555 1 564 1 576 1 578 1 612 1 636 1 669 1 693 1 730 1 750 1 775 1 776 1 795 1 806 1 809 1 815 1 821 1 830 1 861 1 883 1 888 1 890 1 939 1 947 1 960 1 985 1 1007 1 1011 1 1022 1 
1 209 67 1 83 1 101 1 104 1 128 1 129 1 138 1 185 1 213 1 236 1 241 1 251 1 258 1 261 1 284 1 302 1 304 1 311 1 315 1 337 1 339 1 393 1 401 2 16 1 29 1 73 1 81 1 111 1 120 1 122 1 139 1 172 1 179 1 197 1 218 1 246 1 274 1 357 1 375 1 378 1 457 1 465 1 498 1 503 1 523 1 534 2 544 1 551 1 560 2 562 1 578 1 585 1 595 1 618 1 625 1 649 1 656 1 665 1 693 1 703 1 723 1 757 1 763 1 778 1 802 1 804 1 834 1 862 1 896 1 899 1 900 1 915 1 920 1 927 1 937 1 947 2 952 1 969 1 986 1 451 1 486 1 488 1 501 1 531 1 549 1 564 1 582 1 594 1 646 1 700 1 731 1 744 1 746 1 756 1 794 1 797 1 830 1 886 1 888 1 922 1 987 1 993 1 1005 1 1012 1 1020 1 
1 209 33 1 41 1 49 1 65 1 68 1 96 1 108 1 119 1 122 1 151 1 171 1 173 1 176 1 205 1 214 1 235 1 243 1 270 1 287 2 288 1 318 1 325 1 332 1 334 1 363 1 387 1 396 1 405 1 7 1 29 1 44 1 60 1 73 1 94 1 109 1 130 1 137 1 145 1 149 1 169 1 172 1 189 1 210 1 211 1 233 1 239 1 247 1 252 1 253 1 272 1 307 1 316 1 337 1 352 1 360 1 365 1 377 1 401 1 419 1 422 1 475 1 503 1 534 1 551 1 564 1 582 1 601 1 640 1 643 1 644 1 687 1 723 1 742 2 773 2 794 1 800 1 802 1 814 1 841 1 855 1 860 1 874 1 894 1 906 1 914 1 930 1 934 1 983 1 438 1 448 1 452 1 462 1 464 1 478 1 522 1 565 1 572 1 580 1 593 1 637 1 652 1 709 1 762 1 838 1 862 1 868 1 884 1 885 1 907 1 919 1 936 1 970 1 977 1 1006 1 1008 1 1020 1 1026 1 
1 211 26 1 32 1 66 1 69 1 92 1 94 1 109 1 114 1 132 1 160 1 262 1 276 1 278 1 305 1 307 1 309 1 310 1 327 1 349 1 389 1 405 1 421 1 6 1 10 1 16 1 37 1 55 1 67 1 93 1 105 1 107 1 115 1 122 1 144 1 184 1 192 1 193 1 195 1 199 1 206 1 215 1 219 1 284 1 300 1 320 1 339 1 343 1 359 1 364 1 387 1 408 1 419 1 452 1 469 1 543 1 545 1 562 1 579 1 591 2 596 1 612 1 627 1 664 1 690 1 705 1 728 1 731 1 733 1 737 1 774 1 775 1 808 1 853 1 878 1 897 1 942 1 959 2 978 1 984 1 992 1 423 1 442 1 472 1 500 1 506 1 515 1 525 1 527 1 542 1 546 1 552 1 553 1 585 1 601 1 603 1 607 1 642 1 643 1 653 1 674 1 687 1 730 1 732 1 743 1 745 1 750 1 760 1 791 1 799 1 869 1 879 1 901 1 962 1 968 1 1003 1 1021 1 
1 209 40 1 48 1 50 1 51 1 57 1 60 1 65 1 70 1 100 1 102 1 112 1 114 1 151 1 155 1 178 1 201 1 232 1 245 1 285 2 289 1 330 1 352 1 357 1 414 1 12 1 31 1 98 1 99 1 119 1 125 1 136 1 149 1 152 1 156 1 174 1 197 1 206 1 218 1 223 1 226 1 236 1 259 1 322 1 329 1 338 1 346 1 376 1 422 1 431 1 433 1 441 2 462 1 469 1 545 1 594 1 610 1 630 1 640 1 654 1 665 2 670 1 678 1 681 1 694 1 713 2 730 1 751 1 761 1 776 1 788 2 826 1 844 1 891 1 906 1 941 1 955 1 962 1 965 1 967 1 976 1 979 1 452 1 459 1 485 1 495 1 506 1 596 1 600 1 613 1 621 1 628 1 631 1 632 1 647 1 648 1 657 1 689 1 691 1 698 1 722 1 733 1 747 1 758 1 774 1 798 1 824 1 831 1 873 1 882 1 890 1 908 1 919 1 947 1 970 1 992 1 1004 1 1014 1 
1 208 12 1 24 1 37 1 40 1 43 1 50 1 52 1 84 1 95 1 129 1 135 1 145 1 153 1 198 1 225 1 238 1 268 2 274 1 301 1 307 1 333 1 343 1 376 1 389 1 21 1 30 1 33 1 90 1 136 1 151 1 160 1 164 1 191 1 193 1 204 1 223 1 227 1 254 1 255 1 281 1 355 1 361 1 364 1 394 1 407 1 411 1 418 1 424 1 424 1 429 1 432 1 436 1 451 1 460 2 474 2 482 1 535 1 538 1 557 1 563 1 579 2 585 1 587 1 596 1 621 1 630 1 632 1 647 2 715 1 732 1 738 1 773 1 786 1 787 1 788 1 797 1 808 1 813 1 885 1 894 1 942 1 959 1 966 1 456 1 479 1 487 1 490 1 525 1 527 1 542 1 545 1 550 1 556 1 604 1 636 1 669 1 677 1 744 1 751 1 761 1 770 1 796 1 804 1 818 1 840 1 841 1 844 1 845 1 849 1 864 1 914 1 989 1 1007 1 1010 1 
1 207 10 1 47 1 74 2 82 1 95 1 98 1 142 1 147 1 158 1 195 1 218 1 225 1 235 1 238 1 240 1 251 1 261 1 275 1 283 1 320 2 326 1 334 1 338 1 345 1 357 1 386 1 389 1 392 1 393 1 394 2 417 1 73 1 79 1 81 1 103 1 106 1 193 1 194 1 217 1 286 1 288 1 297 1 298 1 299 1 319 1 358 1 375 1 379 1 384 1 419 1 429 1 455 1 461 1 463 1 475 1 513 1 531 1 541 1 557 1 559 1 561 1 581 1 591 1 597 1 628 1 631 1 663 1 678 1 710 1 722 1 725 1 735 1 742 1 758 1 797 1 803 1 806 1 818 1 849 1 867 1 885 1 959 1 969 1 970 1 978 1 992 1 996 1 447 1 460 1 467 1 468 1 492 1 515 1 517 1 529 1 555 1 570 1 574 1 587 1 626 1 692 1 695 1 721 1 733 1 739 1 743 1 761 1 780 1 789 1 832 1 855 1 864 1 868 1 877 1 884 1 890 1 895 1 899 1 921 1 928 1 949 1 957 1 963 1 988 1 1005 1 1010 1 1026 1 
1 212 70 2 88 1 98 1 127 1 153 1 165 1 272 2 277 1 287 1 292 1 314 2 318 1 353 1 367 1 370 1 379 1 385 1 415 1 16 1 33 1 79 1 86 1 156 1 176 1 202 1 220 1 255 1 276 1 291 1 319 1 345 1 348 1 350 1 351 1 352 1 373 1 394 1 414 1 419 1 429 1 435 1 459 1 481 1 498 1 533 1 553 1 565 1 595 1 631 1 632 1 646 1 647 1 650 1 675 2 724 1 726 1 748 1 775 1 790 1 799 1 803 1 852 1 867 1 880 1 894 1 933 1 940 1 944 1 984 1 992 2 999 1 461 1 468 1 471 1 476 1 487 1 540 1 611 1 626 1 627 1 635 1 642 1 670 1 679 1 689 1 699 1 734 1 740 1 743 1 746 1 767 1 810 1 839 1 891 1 905 1 909 1 914 1 917 1 955 1 981 1 983 1 997 1 1009 1 1016 1 1017 1 1019 1 
1 215 1 1 22 1 24 1 67 1 69 1 72 1 82 1 124 1 132 1 160 1 166 1 201 1 203 1 275 1 292 1 294 1 328 1 31 1 33 1 62 1 68 1 75 1 80 1 93 1 168 1 173 1 181 1 183 1 205 1 213 1 252 1 253 1 284 1 285 1 332 1 368 1 384 1 410 1 414 1 439 1 464 1 472 1 473 1 483 1 492 1 498 1 499 1 564 1 576 1 588 1 593 1 598 1 611 1 631 1 642 1 656 2 660 1 671 1 698 1 701 1 720 1 737 1 747 1 748 1 752 1 764 1 771 2 782 1 786 1 818 1 832 1 840 1 850 1 860 1 861 1 873 1 882 1 900 1 943 1 951 2 965 1 967 1 986 1 455 1 461 1 467 1 502 1 516 1 554 1 583 1 589 1 596 1 688 1 699 1 707 1 710 1 726 1 756 1 765 1 767 1 827 1 838 1 847 1 885 1 899 1 907 1 920 1 960 1 977 1 1000 1 1010 1 1013 1 1016 1 1019 1 1021 1 1026 1 
1 210 30 1 33 1 97 1 107 1 123 1 131 1 155 2 157 1 159 1 165 1 178 1 194 1 214 1 230 1 279 1 293 1 298 1 338 1 341 1 342 1 9 1 12 1 26 1 39 1 89 1 91 1 119 1 139 1 151 1 152 1 158 1 213 1 221 1 222 1 245 1 315 1 332 1 377 1 393 1 410 1 418 1 419 1 441 1 454 1 471 1 472 1 473 1 476 1 504 1 541 1 547 1 560 1 574 2 594 1 601 1 608 1 626 1 664 1 678 1 733 1 741 1 763 1 776 1 779 1 797 2 805 1 838 1 839 1 846 1 851 1 899 1 902 1 919 1 922 1 946 1 438 1 467 1 540 1 542 1 577 1 595 1 604 1 627 1 645 1 654 1 699 1 750 1 751 1 767 1 773 1 775 1 786 1 787 1 834 1 849 1 855 1 873 1 886 1 909 1 916 1 937 1 947 1 974 1 980 1 989 1 1000 1 1003 1 1009 1 1018 1 1019 1 1023 1 
1 212 5 1 14 1 33 2 35 1 40 1 45 1 77 1 83 1 105 1 124 2 181 1 195 1 205 1 207 1 218 1 222 1 269 1 275 1 295 1 308 1 309 2 326 1 339 1 352 1 402 1 405 1 408 1 424 1 425 1 426 1 15 1 39 1 55 1 64 1 69 1 71 1 110 1 112 1 113 1 123 1 126 1 128 1 148 1 158 1 160 1 182 1 194 1 200 1 201 1 208 1 224 1 229 1 234 1 274 1 315 1 319 1 340 1 360 1 373 1 399 1 401 1 413 1 441 1 446 1 461 1 516 1 537 1 540 1 549 1 561 1 602 1 603 1 614 1 635 1 659 1 695 1 714 1 717 1 732 1 736 1 750 1 767 1 771 1 784 1 806 1 815 1 828 1 844 1 858 1 893 1 912 1 924 1 955 1 957 1 968 1 979 1 988 1 996 1 434 1 456 1 492 1 578 1 609 1 680 1 716 1 722 1 740 1 747 1 789 1 823 1 824 1 827 1 831 1 841 1 873 1 880 1 895 1 896 1 906 1 956 1 967 1 1006 1 1012 1 1018 1 1024 1 
1 210 23 1 25 1 37 1 50 1 70 1 80 1 88 1 96 1 98 1 114 1 167 1 213 1 266 1 268 1 310 2 318 1 331 1 335 1 354 1 391 1 392 1 5 1 44 1 46 1 53 1 56 1 65 1 86 1 87 1 94 1 97 1 101 1 109 1 117 1 119 1 135 1 151 1 155 1 172 1 233 1 238 1 248 1 314 1 343 1 358 1 360 1 365 1 374 1 456 1 461 1 463 1 534 1 543 1 548 1 555 1 607 1 609 1 653 1 666 1 674 1 687 1 691 1 717 1 729 1 739 1 807 1 814 1 892 1 956 1 958 2 966 1 985 1 987 1 990 1 431 1 434 1 458 1 465 1 477 1 481 1 500 1 502 1 509 1 541 1 550 1 571 1 597 1 599 1 612 1 634 1 642 1 661 1 664 1 684 1 707 1 740 1 742 1 761 1 770 1 815 1 818 1 821 1 828 1 849 1 850 1 862 1 868 1 881 1 893 1 905 1 919 1 939 1 989 1 1003 1 1004 1 1005 1 1006 1 1009 1 1026 1 
1 210 12 1 22 1 32 1 54 1 94 1 97 2 121 1 144 1 166 1 167 1 194 1 197 1 212 1 219 1 245 1 276 1 315 1 336 1 340 1 341 1 348 1 349 1 362 1 423 1 7 1 8 1 35 1 50 1 78 1 88 1 104 1 116 1 140 1 148 1 163 1 181 1 213 1 240 1 244 1 265 1 339 1 352 1 358 1 379 1 430 1 445 1 455 1 465 1 500 1 533 1 557 1 587 1 626 1 630 1 652 1 692 1 699 2 704 1 740 1 775 1 782 1 794 1 825 2 835 1 856 1 874 1 882 2 904 1 930 1 935 1 941 1 945 1 947 1 949 1 986 1 991 1 458 1 490 1 502 1 563 1 564 1 568 1 574 1 597 1 681 1 726 1 727 1 737 1 738 1 788 1 791 1 804 1 858 1 863 1 875 1 890 1 910 1 918 1 931 1 932 1 937 1 975 1 1016 1 1022 1 1024 1 1026 1 
1 213 8 1 11 1 19 1 33 1 67 1 109 2 133 1 150 1 151 1 163 1 176 1 199 1 209 1 243 1 259 1 272 1 274 1 285 1 295 1 313 1 317 2 339 1 361 1 393 1 397 1 424 1 20 1 24 1 71 1 77 1 82 1 84 1 110 1 111 1 116 1 135 1 143 1 182 1 193 1 196 1 202 1 210 1 224 1 256 1 263 1 311 1 320 1 333 1 359 1 374 1 392 1 407 1 408 1 443 1 451 1 452 1 464 1 486 1 495 1 530 1 533 1 534 1 537 1 563 2 578 1 584 1 618 1 626 1 628 1 645 1 648 1 659 1 672 1 685 1 692 1 714 1 733 1 738 1 788 1 800 1 880 1 901 1 905 1 908 1 921 1 930 1 947 1 974 1 442 1 444 1 446 1 484 1 493 1 498 1 504 1 510 1 511 1 544 1 589 1 604 1 620 1 658 1 665 1 683 1 713 1 731 1 765 1 786 1 806 1 817 1 826 1 853 1 884 1 900 1 907 1 928 1 941 1 953 1 958 1 967 1 972 1 985 1 986 1 1001 1 1010 1 1025 1 
1 203 2 1 8 1 12 1 45 1 64 1 96 2 100 1 114 1 120 2 136 1 137 1 149 1 178 1 188 1 250 1 254 1 265 1 274 2 285 1 289 1 324 1 369 1 390 1 415 1 417 2 423 1 36 1 49 1 57 1 62 1 74 1 76 1 86 1 88 1 101 1 116 1 125 1 150 1 152 1 177 1 204 1 230 1 235 1 241 1 287 1 296 1 308 1 316 1 370 1 472 1 480 1 513 1 518 1 553 1 562 1 563 1 572 2 576 1 608 2 653 1 664 1 702 1 704 1 750 1 757 1 759 1 786 1 793 1 813 1 830 1 834 2 836 1 837 1 854 1 886 1 908 1 937 1 943 1 945 1 951 1 958 1 982 1 990 1 999 1 437 1 462 1 467 1 481 1 538 1 557 1 620 1 627 1 643 1 670 1 693 1 694 1 714 1 733 1 739 1 744 1 763 1 771 1 777 1 828 1 847 1 858 1 865 1 881 1 904 1 921 1 973 1 1004 1 1023 1 
1 208 25 1 37 1 72 1 87 1 106 1 131 1 146 2 150 1 151 1 156 1 161 1 188 1 195 1 202 1 215 1 231 2 250 1 299 1 335 1 359 1 370 1 381 2 382 1 389 1 392 1 412 1 419 1 8 1 11 1 93 1 95 1 115 1 123 1 129 1 176 1 178 1 208 1 229 1 264 1 267 1 268 1 293 1 302 1 308 1 321 1 333 1 334 1 342 1 344 1 357 1 360 1 386 1 414 1 417 1 429 1 430 1 485 1 500 1 511 1 553 1 598 1 611 1 628 1 641 1 658 1 665 1 743 1 757 1 764 1 770 1 816 1 819 1 823 1 826 1 832 1 838 1 846 1 874 1 875 1 899 1 910 1 911 1 916 1 918 1 935 1 957 1 962 2 973 1 989 1 459 1 472 1 504 1 538 1 540 1 546 1 620 1 625 1 652 1 663 1 666 1 677 1 678 1 709 1 714 1 722 1 732 1 739 1 745 1 780 1 786 1 829 1 844 1 857 1 858 1 862 1 863 1 882 1 890 1 974 1 1005 1 
1 207 23 2 66 1 68 1 91 1 94 1 102 1 133 2 135 1 165 1 166 2 188 1 201 1 211 1 246 2 263 1 297 1 324 1 333 1 353 1 361 1 374 1 389 1 416 1 426 1 1 1 15 1 19 1 55 1 81 1 88 1 97 1 138 1 176 1 193 1 255 1 262 1 266 1 267 1 276 1 278 1 280 1 287 1 316 1 334 1 335 1 346 1 360 1 384 1 419 1 451 1 453 1 481 1 506 1 523 1 537 1 540 1 574 1 579 1 587 1 604 1 629 1 651 1 659 1 689 1 712 1 736 1 765 1 776 1 800 1 805 1 818 1 834 1 838 1 860 1 876 1 887 1 899 1 926 1 931 1 932 1 945 1 983 1 450 1 476 1 552 1 566 1 619 1 635 1 642 1 646 1 653 1 670 1 683 1 687 1 716 1 743 1 747 1 755 1 771 1 786 1 797 1 830 1 855 1 949 1 959 1 963 1 974 1 1013 1 1014 1 1016 1 
1 211 4 2 8 1 30 2 46 1 49 1 68 1 77 1 83 1 86 1 137 1 153 1 174 1 187 1 190 1 202 2 223 1 241 1 261 1 285 1 294 1 301 1 369 1 393 1 401 1 411 1 424 1 7 1 11 1 34 1 64 1 67 1 115 1 146 1 167 1 205 1 211 1 231 1 234 1 237 1 300 1 307 1 317 1 341 1 360 1 373 1 387 1 438 1 446 1 457 1 468 1 478 1 517 1 544 1 561 1 595 1 600 1 604 1 636 1 673 1 690 1 700 1 701 1 721 1 742 1 751 1 771 1 803 1 831 1 857 1 888 2 929 2 940 1 941 1 986 1 991 1 467 1 504 1 512 1 545 1 588 1 592 1 605 1 609 1 644 1 675 1 681 1 686 1 714 1 759 1 766 1 770 1 796 1 809 1 821 1 837 1 885 1 915 1 934 1 935 1 936 1 963 1 1002 1 1005 1 1006 1 1009 1 1010 1 1011 1 1013 1 
1 210 20 1 24 1 32 1 36 1 60 1 96 2 113 1 141 1 142 1 176 1 187 1 188 1 200 1 215 1 241 1 270 1 275 1 277 1 284 1 290 1 348 1 368 1 380 1 386 1 402 2 412 1 15 1 29 1 38 1 51 1 62 1 82 1 112 1 127 1 179 1 208 1 209 1 295 1 296 1 354 1 371 1 377 1 387 1 395 1 397 1 409 1 417 1 433 1 455 2 481 1 506 1 513 1 534 1 536 1 570 1 578 1 602 1 614 1 628 1 647 1 673 1 714 1 761 1 767 1 768 1 823 1 825 1 837 1 841 1 852 1 876 1 884 1 888 1 912 1 924 1 946 1 950 2 445 1 472 1 489 1 505 1 587 1 592 1 604 1 606 1 616 1 627 1 659 1 674 1 707 1 741 1 754 1 790 1 807 1 818 1 821 1 834 1 853 1 869 1 899 1 907 1 910 1 918 1 932 1 989 1 1001 1 1008 1 1010 1 1021 1 1022 1 1026 1 
1 215 2 1 3 1 15 2 16 1 31 1 52 1 68 1 71 1 95 1 96 1 101 1 141 1 153 1 186 1 202 1 217 1 218 1 219 1 226 2 233 1 243 1 249 2 250 1 276 1 297 1 332 1 358 1 360 1 372 1 382 1 389 1 394 1 409 1 436 1 13 1 49 1 54 1 57 1 82 1 94 1 134 1 140 1 171 1 196 1 206 1 214 1 221 1 222 1 231 1 237 1 246 1 273 1 289 1 291 1 325 1 377 1 388 1 415 1 421 1 428 1 456 1 483 1 497 1 505 1 532 1 543 1 587 1 593 1 597 1 623 1 639 1 643 1 663 1 666 1 669 2 682 1 695 1 698 1 712 1 718 1 723 1 737 1 767 1 813 1 814 1 819 1 852 1 871 1 881 1 882 1 950 1 459 1 481 1 482 1 485 1 510 1 530 1 539 1 545 1 551 1 554 1 595 1 665 1 670 1 687 1 694 1 735 1 783 1 818 1 835 1 837 1 843 1 872 1 912 1 914 1 951 1 959 1 968 1 1013 1 1014 1 1024 1 
1 210 47 1 49 1 66 1 71 1 84 2 86 2 99 1 128 1 153 1 208 1 234 1 272 1 273 1 281 1 282 1 283 1 293 1 294 1 322 1 331 1 373 1 396 1 408 1 427 1 1 1 14 1 15 1 17 1 19 1 26 1 42 1 63 1 142 1 143 1 147 1 212 1 233 1 239 1 251 1 253 1 292 1 316 1 337 1 348 1 350 1 362 1 415 1 449 1 497 1 542 1 545 1 568 1 577 1 582 1 597 1 611 1 619 1 634 1 646 1 662 1 664 1 711 2 736 1 740 1 742 1 746 1 757 2 762 1 764 1 814 1 825 1 832 1 862 1 870 1 888 1 899 1 902 1 941 1 942 1 958 1 959 1 455 1 464 1 486 1 495 1 503 1 521 1 547 1 549 1 556 1 561 1 573 1 583 1 650 1 660 1 672 1 675 1 692 1 694 1 697 1 707 1 716 1 753 1 754 1 761 1 774 1 783 1 815 1 857 1 864 1 876 1 901 1 914 1 925 1 948 1 974 1 978 1 1021 1 1027 1 
1 211 9 1 32 1 58 1 72 1 104 1 105 1 113 1 125 1 132 1 139 1 142 1 148 1 178 1 184 1 194 1 214 1 236 1 351 1 366 2 372 1 391 1 399 1 409 1 419 1 41 1 42 1 43 1 44 1 47 1 83 1 122 1 138 1 146 1 159 1 171 1 187 1 229 1 264 1 278 1 283 1 305 1 310 1 363 1 365 1 417 1 443 1 451 1 456 1 467 1 475 1 483 1 507 1 525 1 536 2 545 1 551 1 585 1 633 1 679 1 683 1 714 1 718 1 724 1 731 1 770 1 777 1 779 1 785 2 795 1 797 1 805 1 812 1 823 1 834 1 835 1 841 1 851 1 907 1 911 1 933 1 939 1 955 1 474 1 519 1 521 1 524 1 559 1 564 1 572 1 579 1 584 1 598 1 632 1 655 1 680 1 688 1 735 1 750 1 753 1 799 1 816 1 817 1 854 1 858 1 905 1 912 1 948 1 954 1 977 1 1001 1 1003 1 1013 1 1022 1 
1 208 1 1 10 1 11 1 23 1 33 1 36 1 44 1 129 1 131 1 144 1 179 1 184 1 259 1 295 2 304 1 338 1 349 1 367 1 370 1 396 1 412 1 417 1 423 2 428 1 429 1 2 1 6 1 9 1 21 1 26 1 29 1 30 1 87 1 112 1 137 1 159 1 186 1 208 1 211 1 213 1 223 1 234 1 257 1 262 1 266 1 323 1 347 1 386 1 447 1 464 1 474 1 497 1 499 1 506 1 508 1 574 1 578 1 594 1 610 1 611 1 630 1 632 2 684 1 685 1 721 1 751 1 759 2 778 1 786 1 804 1 807 1 820 1 826 1 868 1 870 1 877 1 878 1 883 1 909 1 915 1 918 1 952 1 953 2 974 1 459 1 491 1 512 1 537 1 541 1 557 1 566 1 605 1 618 1 628 1 640 1 656 1 674 1 686 1 698 1 706 1 717 1 726 1 734 1 753 1 765 1 809 1 811 1 814 1 821 1 841 1 845 1 858 1 958 1 981 1 997 1 1009 1 1010 1 1020 1 
1 209 2 1 29 1 49 1 58 1 94 1 102 1 105 1 138 1 147 1 192 1 201 1 213 1 226 1 228 1 244 1 260 1 299 1 318 1 359 1 372 1 375 1 378 1 388 1 395 1 398 1 7 1 14 1 27 1 46 1 56 1 71 1 106 1 118 1 127 1 129 1 133 1 136 1 180 1 202 1 204 1 243 1 254 1 262 1 286 1 305 1 327 1 334 1 361 1 365 1 366 1 385 1 409 1 417 1 422 1 432 1 531 1 539 1 558 1 566 1 569 1 595 1 638 1 647 1 655 1 670 1 677 1 690 1 693 1 708 1 762 1 769 1 788 1 795 1 884 1 886 1 890 1 895 1 896 1 913 1 953 1 996 1 447 1 466 1 487 1 492 1 500 1 504 1 553 1 564 1 565 1 581 1 587 1 594 1 602 1 621 1 632 1 633 1 643 1 663 1 689 1 698 1 713 1 725 1 736 1 745 1 755 1 758 1 783 1 791 1 818 1 911 1 924 1 967 1 975 1 990 1 1001 1 1002 1 1003 1 1027 1 
1 215 4 1 44 1 59 1 71 1 74 1 85 1 89 1 94 1 121 1 157 1 177 1 189 2 190 1 196 1 215 1 264 1 266 1 292 1 322 1 339 1 390 1 418 1 432 1 440 1 9 1 46 1 68 1 73 1 76 1 120 1 141 1 148 1 161 1 184 1 188 1 206 1 214 1 228 1 231 1 239 1 270 1 273 1 286 1 295 1 315 1 341 1 349 1 359 1 392 1 398 1 449 1 490 1 502 1 538 1 577 1 594 1 597 1 602 1 605 1 608 1 611 1 623 1 634 1 673 1 676 1 687 1 702 1 706 1 737 1 778 1 802 1 866 1 868 1 874 1 905 1 917 1 920 1 921 1 944 1 954 1 961 1 979 1 986 1 990 1 465 1 496 1 497 1 520 1 540 1 547 1 548 1 550 1 566 1 574 1 579 1 624 1 635 1 638 1 643 1 646 1 658 1 693 1 703 1 704 1 710 1 724 1 741 1 753 1 761 1 762 1 769 1 771 1 789 1 824 1 850 1 853 1 859 1 863 1 872 1 877 1 902 1 981 1 999 1 1004 1 1005 1 1007 1 1011 1 1019 1 1024 1 
1 216 7 1 19 2 55 1 66 1 68 1 93 1 117 1 133 1 139 1 145 1 146 2 158 1 162 2 199 1 219 1 225 1 249 1 283 1 291 1 292 1 295 1 307 1 318 1 345 1 366 1 383 1 35 1 76 1 77 1 78 1 87 1 114 1 149 1 154 1 187 1 195 1 205 1 222 1 264 1 273 1 293 1 355 1 360 1 367 1 378 1 389 1 406 1 432 1 457 1 460 1 461 1 510 1 511 1 512 1 530 1 533 1 544 1 547 1 566 1 570 1 572 1 590 1 656 1 661 2 676 1 682 1 724 1 743 1 763 1 772 1 779 1 788 1 801 1 804 1 820 1 830 1 832 1 854 1 892 1 947 1 950 1 953 1 967 1 969 1 972 1 982 1 992 1 468 1 475 1 488 1 516 1 534 1 536 1 560 1 565 1 578 1 580 1 621 1 633 1 637 1 664 1 666 1 686 1 768 1 806 1 826 1 840 1 843 1 855 1 866 1 872 1 895 1 913 1 920 1 927 1 938 1 958 1 976 1 990 1 1005 1 1012 1 1013 1 1019 1 1022 1 
1 211 3 1 33 1 37 1 62 1 69 1 80 1 85 1 92 1 143 1 155 1 163 1 165 1 166 1 177 1 215 1 226 2 228 1 250 1 306 1 327 1 330 1 360 1 379 1 391 1 399 1 405 1 431 1 10 1 11 1 16 1 64 1 71 1 76 1 77 1 83 1 106 1 150 1 156 1 178 1 237 1 253 1 256 1 262 1 285 1 302 1 337 1 347 1 363 1 370 1 371 1 377 1 378 1 393 1 408 1 412 1 419 1 437 1 457 1 478 1 493 1 518 1 535 1 554 1 575 1 586 1 610 1 631 1 655 1 659 1 693 1 712 1 747 1 805 1 822 1 835 1 859 1 862 1 869 1 875 1 897 1 924 1 931 1 956 1 961 1 967 1 993 1 511 1 617 1 621 1 626 1 651 1 695 1 707 1 709 1 718 1 735 1 749 1 750 1 768 1 775 1 795 1 806 1 815 1 821 1 861 1 873 1 906 1 909 1 916 1 920 1 987 1 1004 1 1007 1 1013 1 1014 1 1015 1 
1 211 3 1 28 1 54 1 77 1 101 1 131 1 147 1 160 1 196 1 199 2 250 1 254 1 290 1 304 1 309 1 314 1 315 1 322 1 327 1 360 1 367 1 377 1 429 1 436 1 34 1 149 1 197 1 230 1 233 1 258 1 279 1 287 1 311 1 318 1 326 1 340 1 342 1 349 1 352 1 357 1 358 1 378 1 394 1 407 1 419 1 432 1 451 1 455 1 459 1 490 1 497 1 500 1 512 1 619 1 654 1 689 1 692 1 703 1 706 1 712 1 760 1 784 1 801 1 816 1 833 2 850 1 857 1 876 1 879 1 892 1 912 1 915 1 930 1 938 1 944 1 958 1 984 2 990 1 485 1 499 1 520 1 531 1 547 1 548 1 550 1 583 1 590 1 593 1 600 1 628 1 639 1 646 1 650 1 651 1 652 1 655 1 660 1 661 1 665 1 704 1 757 1 795 1 797 1 808 1 810 1 836 1 883 1 919 1 920 1 924 1 927 1 943 1 965 1 1011 1 1025 1 1026 1 1027 1 
1 213 30 1 78 1 109 1 145 1 202 1 213 1 219 1 238 1 239 1 248 1 257 1 297 1 326 1 331 1 336 1 369 1 397 1 403 2 441 1 56 1 67 1 122 1 127 1 140 1 159 1 174 1 181 1 187 1 218 1 234 1 242 1 256 1 265 1 274 1 277 1 281 1 320 1 359 1 360 1 364 1 374 1 389 1 425 1 442 1 459 1 466 1 557 1 574 1 598 1 605 1 624 1 651 1 652 1 696 1 713 1 725 1 740 1 752 1 770 1 773 1 782 1 788 1 832 1 857 1 938 1 940 2 943 1 946 1 961 1 966 1 975 1 449 1 460 1 462 1 474 1 478 1 495 1 498 1 578 1 594 1 596 1 607 1 609 1 638 1 647 1 654 1 661 1 706 1 727 1 733 1 741 1 755 1 764 1 791 1 803 1 834 1 845 1 852 1 884 1 907 1 914 1 930 1 931 1 949 1 998 1 1000 1 1003 1 1009 1 1020 1 1022 1 
1 207 10 1 31 1 41 1 65 1 67 1 72 1 76 1 82 1 84 1 95 1 156 1 201 1 213 1 244 1 260 1 261 1 267 1 272 1 290 1 312 1 316 1 335 1 349 1 355 1 396 1 404 1 42 1 49 1 80 1 102 1 117 1 153 1 157 1 211 1 240 1 246 1 254 1 277 1 288 1 293 1 311 1 314 1 332 1 364 1 379 1 388 1 397 1 399 1 418 1 421 1 449 1 461 1 466 1 486 2 489 1 501 1 539 1 544 1 556 1 577 1 589 1 674 1 692 1 722 2 728 1 753 1 760 2 764 1 768 1 769 1 790 1 797 1 805 1 865 1 866 1 871 1 883 1 889 1 925 1 933 1 948 1 958 1 968 1 969 1 455 1 459 1 463 1 537 1 540 1 542 1 546 1 554 1 562 1 564 1 604 1 615 1 646 1 649 1 667 1 679 1 695 1 713 1 719 1 721 1 724 1 754 1 800 1 823 1 825 1 833 1 852 1 864 1 907 1 915 1 923 1 926 1 932 1 938 1 942 1 962 1 967 1 975 1 985 1 995 1 1003 1 1008 1 
1 212 4 1 13 1 21 1 34 1 39 1 56 1 77 1 90 1 112 1 115 1 168 1 185 1 188 1 207 1 216 1 231 1 240 1 253 1 256 1 269 1 277 1 328 1 357 1 365 1 368 1 384 1 392 1 417 1 439 1 443 1 448 1 16 1 18 1 37 1 45 1 50 1 67 1 85 1 93 1 109 1 142 1 146 1 158 1 177 1 198 1 215 1 237 1 273 1 275 1 289 1 311 1 315 1 317 1 338 1 341 1 346 1 367 1 375 1 387 1 402 1 447 1 470 1 484 1 490 1 518 1 529 1 569 1 580 1 586 1 587 1 609 1 666 1 676 1 717 2 722 1 735 1 743 1 749 1 770 1 785 1 801 2 804 1 806 1 809 1 822 1 832 1 862 1 877 1 916 1 920 1 945 1 946 1 959 1 967 1 971 1 987 1 995 1 456 1 465 1 489 1 523 1 549 1 561 1 563 1 570 1 584 1 654 1 664 1 669 1 700 1 707 1 712 1 729 1 791 1 824 1 879 1 890 1 930 1 968 1 975 1 985 1 988 1 1005 1 1017 1 
1 209 5 2 6 1 12 1 67 1 94 1 107 1 119 1 123 1 125 1 127 1 159 1 161 1 162 1 168 2 173 1 175 1 212 1 289 2 299 1 307 1 323 1 341 1 355 1 14 1 15 1 41 1 49 1 71 1 72 1 81 1 82 1 132 1 139 1 174 1 181 1 198 1 218 1 245 1 264 1 275 1 277 1 285 1 330 1 390 1 394 1 398 1 399 1 400 1 407 1 419 1 435 1 454 2 491 1 493 1 520 2 525 1 528 1 531 1 633 1 634 1 644 2 646 1 671 1 678 1 728 1 729 2 737 1 757 1 778 1 787 1 789 1 791 1 804 1 821 1 839 1 854 1 876 1 920 1 928 1 940 1 942 1 953 1 974 1 468 1 475 1 508 1 547 1 553 1 577 1 603 1 605 1 659 1 686 1 694 1 740 1 788 1 795 1 823 1 832 1 856 1 875 1 894 1 911 1 917 1 930 1 955 1 959 1 960 1 1006 1 1011 1 1017 1 1023 1 1024 1 
1 212 28 1 52 1 102 1 123 1 127 1 161 1 196 1 209 1 221 1 223 1 224 2 226 1 249 1 264 1 269 1 326 1 328 1 346 1 355 1 367 2 381 1 402 1 403 1 424 1 432 1 435 1 440 1 446 1 12 1 48 1 64 1 65 1 108 1 115 1 117 1 120 1 175 1 195 1 220 1 298 1 299 1 311 1 361 1 366 1 370 1 382 1 385 1 405 1 407 1 408 1 411 1 413 1 415 1 418 1 420 1 464 1 471 1 489 1 520 1 524 1 543 1 583 1 599 1 604 1 618 1 657 2 686 1 687 1 689 1 690 1 712 1 741 1 757 1 779 1 787 1 797 1 806 1 833 1 846 1 872 1 911 1 925 1 944 1 947 1 976 1 506 1 540 1 554 1 567 1 594 1 600 1 628 1 634 1 643 1 680 1 709 1 780 1 807 1 832 1 845 1 858 1 859 1 863 1 867 1 883 1 887 1 895 1 916 1 948 1 960 1 1001 1 1005 1 1019 1 
1 213 31 2 37 1 53 1 60 1 86 1 90 1 93 1 117 1 131 1 139 1 202 1 203 1 204 1 217 1 219 1 221 2 228 1 245 1 249 1 313 1 337 1 384 1 394 1 395 1 406 2 422 1 432 1 5 1 7 1 42 1 54 1 61 1 79 1 107 1 125 1 194 1 218 1 238 1 252 1 268 1 295 1 305 1 327 1 356 1 366 1 383 1 407 1 413 1 421 1 423 1 455 1 475 2 478 1 497 1 527 1 539 1 540 1 551 1 575 1 593 1 599 1 605 1 617 1 629 1 631 1 636 1 652 1 682 1 683 1 684 2 686 1 692 1 736 1 749 1 758 1 776 1 798 1 915 2 925 1 932 1 976 1 978 1 992 1 458 1 464 1 472 1 491 1 523 1 535 1 566 1 582 1 585 1 604 1 634 1 641 1 667 1 674 1 680 1 704 1 708 1 722 1 727 1 730 1 739 1 771 1 773 1 800 1 828 1 835 1 845 1 846 1 850 1 881 1 898 1 916 1 951 1 1003 1 1005 1 
1 212 9 1 63 1 87 1 94 2 101 1 128 1 167 1 176 1 213 1 235 1 236 1 241 1 243 1 247 1 253 1 272 2 281 1 293 1 301 1 308 1 327 1 328 1 335 1 338 1 371 1 389 1 435 1 40 1 82 1 93 1 116 1 119 1 130 1 182 1 218 1 225 1 238 1 249 1 258 1 276 1 296 1 313 1 342 1 353 1 367 1 378 1 383 1 403 1 508 1 556 1 580 1 594 1 600 2 648 1 653 1 663 1 682 1 696 1 703 1 724 1 730 1 749 1 757 1 774 1 796 1 798 1 805 1 809 1 810 1 820 1 837 1 846 1 849 1 874 1 883 1 906 1 916 1 927 1 963 1 965 1 972 1 995 1 460 1 472 1 482 1 484 1 523 1 550 1 555 1 560 1 586 1 605 1 614 1 641 1 644 1 649 1 665 1 692 1 698 1 699 1 702 1 704 1 714 1 764 1 777 1 789 1 814 1 828 1 832 1 889 1 926 1 934 1 961 1 973 1 1007 1 1013 1 1014 1 1021 1 1022 1 1026 1 
1 210 5 1 15 1 103 1 135 1 153 1 169 1 182 1 208 1 211 1 229 1 230 1 236 1 279 1 281 1 351 1 384 1 386 1 401 1 403 1 418 1 428 1 450 2 9 1 19 1 31 1 40 1 48 1 68 1 92 1 141 1 161 1 164 1 170 1 173 1 178 1 187 1 191 1 203 1 239 1 250 1 267 1 270 1 280 1 292 1 293 1 297 1 330 1 334 1 346 1 350 1 367 1 402 1 407 1 413 1 464 2 467 1 474 1 483 1 486 1 494 1 543 1 556 1 571 1 573 1 605 1 609 1 616 1 627 1 633 1 678 1 693 1 696 1 699 1 719 1 727 1 733 1 741 1 761 1 767 1 785 1 786 1 788 1 801 1 821 1 824 1 844 1 860 1 912 1 929 1 947 1 970 1 979 1 993 1 468 1 492 1 493 1 503 1 510 1 522 1 532 1 533 1 537 1 549 1 568 1 581 1 584 1 611 1 668 1 670 1 676 1 684 1 689 1 705 1 722 1 725 1 734 1 735 1 777 1 792 1 843 1 879 1 884 1 893 1 898 1 910 1 966 1 998 1 1003 1 1009 1 1024 1 
1 208 42 1 77 1 85 1 89 1 115 1 129 1 167 1 174 1 217 1 253 2 297 1 317 1 342 1 352 1 361 1 371 1 401 1 408 1 425 1 431 1 437 2 446 1 452 1 24 1 50 1 70 1 114 1 135 1 155 1 189 1 196 1 225 1 229 1 237 1 257 1 262 1 263 1 268 1 272 1 277 1 295 1 304 1 332 1 379 1 427 1 439 1 448 1 478 1 504 1 510 1 515 1 542 1 640 1 664 1 665 1 673 1 675 1 703 1 713 1 719 1 743 1 765 1 781 1 785 1 815 1 818 1 821 1 829 1 846 1 853 1 857 1 958 1 972 1 977 1 989 1 992 1 996 1 483 1 495 1 509 1 512 1 522 1 528 1 543 1 553 1 554 1 578 1 594 1 604 1 632 1 666 1 688 1 756 1 762 1 763 1 834 1 843 1 918 1 951 1 962 1 964 1 995 1 1006 1 1014 1 1017 1 
1 209 10 1 15 1 17 1 77 2 86 1 162 2 163 1 174 1 222 1 251 1 276 1 279 1 284 1 290 1 297 1 306 1 320 1 331 1 349 1 368 1 369 1 375 1 381 1 392 1 396 1 430 1 438 1 440 1 24 1 59 1 82 1 108 1 127 1 139 1 144 1 159 1 177 1 180 1 185 1 232 1 234 1 236 1 256 1 278 1 324 1 352 1 367 1 377 1 379 1 406 1 424 1 429 1 449 1 503 1 529 1 558 1 572 1 598 1 601 1 633 1 681 1 682 1 728 1 764 1 788 1 810 1 819 1 827 1 858 1 892 1 898 1 914 1 918 1 982 1 987 1 993 1 997 1 473 1 484 1 535 1 561 1 576 1 648 1 672 1 674 1 689 1 737 1 750 1 773 1 774 1 791 1 795 1 799 1 820 1 821 1 848 1 894 1 901 1 927 1 932 1 935 1 956 1 1008 1 1011 1 1017 1 
1 206 55 1 84 1 91 1 99 1 106 2 115 1 129 1 135 1 136 2 157 1 166 1 181 1 184 1 206 1 207 1 216 1 250 1 258 1 269 1 289 1 299 1 330 1 342 1 351 1 368 1 370 1 375 1 390 1 396 2 406 1 420 1 436 1 444 1 445 1 5 1 8 1 48 1 60 1 62 1 96 1 120 1 151 1 160 1 174 1 215 1 228 1 229 1 245 1 252 1 277 1 339 1 350 1 399 1 465 1 502 1 513 1 528 1 555 1 593 1 598 1 608 1 614 1 621 1 632 1 635 1 642 1 677 1 679 1 697 1 712 1 727 1 739 1 758 1 781 1 785 1 807 1 817 1 826 1 848 2 865 1 869 1 883 1 889 1 905 1 907 1 918 1 922 1 940 1 964 1 976 1 480 1 490 1 497 1 500 1 562 1 568 1 569 1 599 1 617 1 622 1 640 1 670 1 672 1 706 1 773 1 806 1 823 1 825 1 852 1 858 1 866 1 867 1 902 1 913 1 935 1 966 1 971 1 980 1 1017 1 
1 211 41 1 44 1 58 1 68 1 98 2 131 1 136 1 150 1 151 1 153 1 155 1 162 1 179 1 183 1 197 1 207 1 218 1 236 1 255 1 291 1 308 1 338 1 347 2 381 1 399 1 409 1 17 1 18 1 32 1 56 1 63 1 65 1 77 1 86 1 130 1 148 1 189 1 204 1 243 1 252 1 266 1 271 1 298 1 301 1 329 1 355 1 369 1 377 1 386 1 407 1 419 1 430 1 431 1 452 1 468 1 471 1 505 1 524 1 552 2 553 1 592 1 612 1 627 1 632 1 668 2 675 1 708 1 714 1 716 1 740 2 760 1 801 1 841 1 844 1 848 1 849 1 875 1 884 2 890 1 893 1 911 1 918 1 928 1 939 1 980 1 996 1 999 1 466 1 473 1 489 1 491 1 507 1 515 1 518 1 527 1 528 1 576 1 599 1 607 1 626 1 639 1 680 1 707 1 715 1 724 1 725 1 728 1 730 1 738 1 749 1 777 1 834 1 929 1 953 1 962 1 975 1 991 1 995 1 1000 1 1010 1 1018 1 1024 1 
1 207 9 1 73 1 117 1 118 1 151 1 174 1 189 1 200 1 205 1 229 1 235 1 241 1 246 1 248 1 252 1 256 1 272 1 275 1 281 1 291 1 299 1 319 1 378 1 385 1 391 1 395 1 426 1 446 1 447 1 8 1 10 1 22 1 27 1 32 1 45 1 48 1 50 1 55 1 57 1 75 1 91 1 137 1 201 1 223 1 239 1 280 1 285 1 290 1 296 1 297 1 314 1 330 1 345 1 374 1 423 1 434 1 438 1 441 1 448 1 509 1 519 1 543 1 568 1 623 1 633 1 642 1 655 1 671 1 691 1 695 1 758 2 767 1 789 2 792 1 819 1 821 1 837 1 844 1 879 1 887 1 891 1 911 1 926 1 964 1 969 1 977 1 987 1 990 1 461 1 465 1 472 1 477 1 487 1 557 1 588 1 595 1 628 1 629 1 646 1 681 1 701 1 720 1 786 1 807 1 809 1 810 1 818 1 833 1 849 1 901 1 906 1 913 1 921 1 922 1 934 1 937 1 938 1 941 1 947 1 1020 1 1021 1 
1 212 14 1 30 1 55 1 70 1 77 1 80 1 86 1 107 1 117 2 121 1 122 1 132 1 139 1 141 1 147 1 201 1 205 1 222 1 225 1 253 1 272 1 279 1 282 1 297 1 298 1 319 1 325 1 359 1 407 1 424 2 444 1 8 1 16 1 17 1 45 1 96 1 138 1 172 1 213 1 237 1 247 1 267 1 293 1 392 1 425 1 447 1 453 1 565 1 621 1 634 1 652 1 663 1 676 2 695 1 705 1 708 1 710 1 741 2 793 1 819 1 858 1 878 1 910 1 936 1 472 1 473 1 474 1 477 1 494 1 498 1 499 1 501 1 542 1 547 1 561 1 572 1 591 1 597 1 617 1 649 1 690 1 719 1 730 1 744 1 772 1 795 1 796 1 797 1 801 1 811 1 822 1 860 1 870 1 934 1 948 1 963 1 965 1 980 1 994 1 1001 1 1003 1 1004 1 1009 1 1018 1 
1 211 7 1 17 1 20 1 73 1 84 1 99 1 100 1 109 1 128 1 136 1 142 2 152 1 154 1 228 1 318 1 328 1 334 1 405 1 415 1 425 1 429 1 430 1 444 1 448 1 4 1 19 1 114 1 139 1 146 1 158 1 168 1 178 1 186 1 220 1 223 1 242 1 299 1 309 1 338 1 343 1 347 1 354 1 363 1 366 1 372 1 375 1 380 1 390 1 426 1 427 1 459 1 505 1 508 1 544 1 552 1 556 1 663 1 670 1 679 1 691 1 708 1 719 1 737 1 756 1 790 1 830 1 833 1 844 1 846 1 861 1 873 1 908 1 911 1 928 1 955 1 975 1 988 1 497 1 513 1 524 1 553 1 600 1 608 1 625 1 643 1 652 1 664 1 695 1 736 1 761 1 767 1 771 1 779 1 837 1 849 1 880 1 885 1 946 1 956 1 962 1 963 1 993 1 1014 1 1015 1 1016 1 1019 1 1022 1 
1 209 32 1 69 1 118 1 132 1 148 1 150 1 192 1 193 1 214 1 215 1 244 1 258 1 281 1 295 1 296 1 350 1 365 1 399 1 401 1 412 1 423 1 15 1 43 1 75 1 77 1 130 1 141 1 153 1 163 1 172 1 176 1 188 1 204 1 238 1 276 1 286 1 314 1 321 1 322 1 331 1 332 1 344 1 382 1 387 1 397 1 400 1 405 1 421 1 433 1 447 1 462 1 462 1 469 1 484 1 516 1 527 1 556 1 559 1 568 1 587 1 588 1 591 1 607 1 617 1 635 1 645 2 652 1 658 1 662 1 666 1 674 1 720 1 722 1 741 1 750 1 761 1 778 1 800 1 825 1 828 1 843 1 857 1 861 1 864 1 879 1 888 1 914 1 920 1 921 1 923 1 926 1 935 1 958 1 963 1 973 1 978 1 467 1 470 1 486 1 501 1 525 1 529 1 534 1 572 1 585 1 590 1 644 1 679 1 696 1 698 1 742 1 760 1 763 1 771 1 787 1 799 1 875 1 904 1 953 1 955 1 964 1 988 1 1002 1 1013 1 1017 1 1027 1 
1 211 1 2 22 1 26 1 27 1 72 1 106 1 154 1 164 1 173 1 174 1 181 1 220 1 244 1 248 1 257 1 278 1 285 1 300 1 331 1 335 1 373 1 376 1 383 1 389 1 415 1 425 1 430 1 33 1 42 1 57 1 62 1 99 1 110 1 142 1 161 1 177 1 180 1 186 1 245 1 253 1 256 1 265 1 268 1 344 1 353 1 372 1 448 1 502 1 519 2 521 1 531 1 560 1 580 1 590 1 606 1 633 1 644 1 648 1 663 1 666 1 691 1 696 1 729 1 745 1 747 1 750 1 758 1 779 1 788 1 797 1 807 1 818 1 828 1 839 1 864 1 866 2 890 1 935 1 938 1 475 1 498 1 517 1 520 1 534 1 541 1 555 1 601 1 612 1 618 1 649 1 653 1 699 1 721 1 731 1 753 1 757 1 770 1 775 1 794 1 796 1 827 1 872 1 875 1 906 1 930 1 966 1 967 1 1002 1 1009 1 1016 1 
1 209 2 1 7 1 9 1 13 1 24 1 29 1 61 1 85 1 86 1 93 1 94 1 96 1 114 1 128 1 170 1 177 1 193 1 256 1 261 1 273 1 283 1 305 1 383 1 384 1 388 1 389 1 405 1 427 1 432 1 441 1 451 1 454 2 51 1 57 1 66 1 80 1 100 1 118 1 127 1 142 1 143 1 152 1 186 1 225 1 235 1 285 1 291 1 293 1 303 1 314 1 332 1 333 1 346 1 359 1 379 1 394 1 421 1 439 1 452 1 492 1 519 1 548 1 612 1 624 1 666 1 675 1 677 1 697 1 729 2 772 1 775 1 793 1 808 1 847 1 875 1 922 1 973 1 975 2 987 1 994 1 493 1 511 1 521 1 523 1 539 1 559 1 580 1 606 1 631 1 638 1 648 1 684 1 745 1 764 1 765 1 865 1 868 1 885 1 896 1 897 1 917 1 930 1 931 1 956 1 986 1 1002 1 1003 1 1015 1 1025 1 
1 212 19 1 24 1 42 1 50 1 52 1 58 1 104 1 105 1 118 1 124 1 131 1 142 1 146 1 186 1 215 1 230 1 264 1 287 1 292 1 306 1 316 1 329 1 333 1 343 1 345 1 357 1 367 2 368 1 393 1 414 1 420 1 431 1 457 1 12 1 70 1 86 1 116 1 152 1 172 1 189 1 192 1 194 1 240 1 244 1 289 1 296 1 362 1 430 1 443 1 449 1 459 1 486 1 493 1 522 1 564 1 578 1 603 1 622 1 636 1 656 1 661 1 677 1 679 1 688 1 701 1 702 1 719 1 745 1 761 2 766 1 781 1 809 1 813 1 824 1 841 2 857 1 875 1 880 1 903 1 907 2 912 1 979 1 981 1 466 1 470 1 503 1 523 1 531 1 551 1 565 1 569 1 599 1 620 1 624 1 654 1 657 1 667 1 710 1 724 1 730 1 797 1 827 1 878 1 888 1 893 1 895 1 921 1 925 1 928 1 938 1 956 1 965 1 993 1 994 1 998 1 999 1 1008 1 1014 1 1027 1 
1 210 10 1 22 1 44 1 57 1 65 2 92 1 121 1 158 2 212 1 215 1 238 1 294 1 306 1 345 1 348 1 389 1 394 1 402 1 447 1 448 1 15 1 50 1 64 1 89 1 108 1 137 1 152 1 167 1 173 1 198 1 199 1 200 1 201 1 219 1 268 1 304 1 315 1 323 1 330 1 366 1 407 1 442 1 458 1 465 1 487 1 497 1 533 1 560 1 575 1 590 1 607 1 649 1 662 1 692 1 716 1 721 1 735 1 748 1 789 2 832 1 849 1 851 1 870 2 880 1 889 1 919 1 945 1 949 1 951 1 958 1 962 1 963 1 967 1 968 1 969 1 980 1 498 1 521 1 527 1 537 1 557 1 622 1 637 1 648 1 670 1 683 1 696 1 713 1 714 1 719 1 732 1 733 1 761 1 767 1 771 1 809 1 812 1 816 1 817 1 833 1 838 1 842 1 883 1 942 1 981 1 1005 1 1021 1 
1 210 78 1 114 1 125 1 148 1 177 1 184 2 185 1 197 1 219 1 227 1 240 1 253 1 257 1 302 1 306 1 326 1 345 1 360 1 365 1 384 1 388 1 391 2 395 1 403 1 419 1 440 1 454 1 6 1 10 1 11 1 30 1 37 1 82 1 99 1 103 1 123 1 127 1 130 1 134 1 150 1 192 1 224 1 230 1 233 1 235 1 236 1 238 1 256 1 258 1 270 1 272 1 280 1 283 1 287 1 300 1 316 1 373 1 377 1 394 1 425 1 427 1 428 1 433 1 436 1 462 1 467 1 467 1 477 1 488 1 529 1 562 1 572 1 588 1 589 1 601 1 603 1 611 1 640 1 644 1 645 1 652 1 714 2 735 1 736 2 754 1 769 1 771 1 783 1 789 1 819 1 823 1 839 1 882 1 900 2 905 1 907 1 922 1 942 1 945 1 991 1 484 1 508 1 537 1 540 1 563 1 575 1 599 1 642 1 660 1 666 1 668 1 743 1 761 1 787 1 793 1 807 1 809 1 810 1 829 1 848 1 853 1 861 1 866 1 909 1 910 1 912 1 934 1 935 1 950 1 957 1 999 1 1006 1 1025 1 1027 1 
1 209 30 1 38 1 45 1 49 1 70 1 94 1 109 1 118 2 157 1 168 1 189 2 191 1 227 1 236 1 280 1 299 1 317 1 326 1 332 1 335 1 360 1 370 1 397 1 436 1 458 1 19 1 26 1 31 1 48 1 77 1 87 1 100 1 103 1 108 1 145 1 151 1 156 1 167 1 172 1 202 1 267 1 283 1 303 1 323 1 329 1 346 1 357 1 398 1 409 1 425 1 426 1 444 1 450 1 454 1 485 1 486 1 493 1 499 1 519 1 573 2 582 1 590 1 620 1 634 1 639 1 646 1 662 2 677 1 686 1 710 1 717 1 721 1 752 2 754 1 755 1 770 1 799 1 817 1 831 1 847 1 848 1 887 1 891 1 913 1 932 1 950 1 952 1 962 1 980 1 998 1 489 1 511 1 571 1 574 1 575 1 613 1 614 1 654 1 656 1 661 1 680 1 685 1 687 1 706 1 735 1 739 1 778 1 791 1 806 1 816 1 865 1 885 1 900 1 911 1 926 1 978 1 985 1 990 1 1007 1 1023 1 
1 205 19 1 50 1 104 1 136 1 145 1 149 1 153 1 166 1 191 1 205 1 215 1 231 1 237 2 243 1 253 1 254 1 275 1 300 1 310 1 311 1 330 1 337 1 342 1 343 1 355 1 376 1 378 1 422 1 423 1 462 1 4 1 37 1 41 1 44 1 61 1 64 1 91 1 93 1 164 1 174 1 183 1 212 1 222 1 224 1 226 1 255 1 261 1 284 1 291 1 315 1 346 1 348 1 353 1 354 1 369 1 373 1 413 1 477 1 489 1 515 1 518 2 526 1 537 1 555 1 559 1 598 1 601 1 611 1 652 1 676 1 692 1 693 1 699 1 716 1 722 1 731 1 741 1 752 1 761 1 765 1 788 1 792 1 802 1 815 1 846 1 850 1 862 2 909 1 938 1 963 1 471 1 493 1 521 1 528 1 538 1 568 1 571 1 578 1 579 1 588 1 608 1 612 1 614 1 619 1 657 1 671 1 675 1 684 1 737 1 738 1 747 1 764 1 771 1 782 1 797 1 842 1 904 1 926 1 933 1 939 1 941 1 958 1 997 1 1005 1 1016 1 
1 206 18 1 28 1 30 1 43 1 62 2 77 1 129 1 141 1 143 1 171 1 229 1 274 1 291 1 296 2 298 1 299 1 335 1 373 1 387 1 397 1 414 1 449 1 6 1 11 1 54 1 70 1 72 1 113 1 121 1 144 1 147 1 166 1 169 1 201 1 212 1 265 1 266 1 319 1 326 1 356 1 378 1 415 1 418 1 462 1 465 1 479 1 482 1 521 1 550 1 560 1 562 1 563 1 567 1 588 1 603 1 607 1 610 1 627 1 635 1 666 1 699 1 720 1 736 2 747 1 753 1 757 1 768 1 795 2 796 1 805 1 808 1 825 1 842 1 853 1 862 1 877 1 887 1 904 1 946 1 961 1 966 1 975 1 991 1 474 1 475 1 490 1 492 1 497 1 517 1 522 1 537 1 544 1 611 1 621 1 639 1 645 1 674 1 683 1 706 1 737 1 741 1 790 1 792 1 801 1 820 1 822 1 828 1 838 1 995 1 1006 1 1009 1 1013 1 
1 213 24 1 27 1 83 1 103 1 143 1 159 1 165 1 167 2 185 1 187 1 220 1 231 1 242 1 250 1 305 1 334 1 353 1 359 1 386 1 389 1 393 1 396 1 428 1 451 1 458 1 38 1 43 1 92 1 112 1 133 1 150 1 160 1 264 1 266 1 281 1 297 1 299 1 300 1 323 1 333 1 347 1 369 1 390 1 397 1 426 1 469 1 475 1 511 1 556 1 559 1 599 1 601 1 604 1 605 1 618 1 624 1 632 1 640 1 654 1 665 1 673 1 675 1 686 1 696 1 701 1 707 1 739 1 740 1 814 1 837 1 869 1 882 1 884 1 888 1 894 1 900 1 909 2 933 1 473 1 489 1 491 1 497 1 503 1 510 1 551 1 562 1 579 1 600 1 610 1 612 1 687 1 719 1 720 1 734 1 749 1 782 1 836 1 853 1 859 1 863 1 924 1 935 1 948 1 953 1 955 1 982 1 987 1 1006 1 1019 1 1021 1 1024 1 
1 212 10 1 42 1 57 1 61 1 70 1 101 1 133 1 141 1 146 1 160 1 179 1 188 1 196 1 208 1 224 1 258 1 263 1 287 1 304 1 313 1 321 1 342 1 362 1 373 1 386 1 389 1 392 1 400 1 427 1 428 1 433 1 14 1 51 1 100 1 181 1 191 1 228 1 252 1 276 1 285 1 294 1 302 1 324 1 325 1 329 1 341 1 358 1 365 1 398 1 403 1 405 1 422 1 434 1 437 1 452 1 453 1 459 1 460 1 474 1 498 1 502 1 523 2 527 1 586 1 588 1 593 1 595 1 610 2 611 1 616 1 632 2 638 1 662 1 665 1 667 1 670 1 674 1 708 1 718 1 734 1 764 1 766 1 796 1 797 1 837 1 880 1 914 1 938 1 969 1 989 1 500 1 508 1 512 1 514 1 534 1 569 1 618 1 626 1 633 1 647 1 682 1 736 1 737 1 752 1 832 1 886 1 887 1 915 1 922 1 939 1 944 1 948 1 976 1 982 1 999 1 1001 1 1013 1 1015 1 1017 1 1020 1 
1 214 19 1 31 1 32 1 35 1 38 1 57 2 73 2 83 1 125 1 126 1 131 1 149 1 177 2 187 1 250 1 253 1 276 2 282 1 293 1 294 1 298 1 303 1 307 1 313 1 344 1 350 2 362 1 371 1 380 1 427 1 428 1 5 1 8 1 37 1 55 1 62 1 63 1 78 1 111 1 120 1 136 1 137 1 185 1 191 1 197 1 218 1 244 1 247 1 269 1 284 1 287 1 289 1 312 1 335 1 375 1 379 1 382 1 383 1 395 1 404 1 414 1 456 1 458 1 460 1 471 1 543 1 554 1 558 1 574 1 608 1 623 1 638 1 669 1 673 1 681 1 700 1 710 2 741 1 762 1 770 1 773 1 779 1 797 1 810 1 837 1 842 1 901 1 905 1 915 1 925 1 977 1 978 1 979 1 486 1 488 1 503 1 516 1 520 1 548 1 628 1 646 1 676 1 684 1 702 1 720 1 742 1 788 1 811 1 864 1 898 1 909 1 930 1 932 1 933 1 952 1 1004 1 1013 1 1014 1 1017 1 1023 1 
1 213 37 1 38 1 41 1 48 1 49 1 52 1 98 1 103 1 117 1 131 1 150 1 170 1 175 1 177 1 201 1 234 2 249 1 302 1 307 1 331 1 338 1 380 1 406 1 424 2 441 1 454 1 472 1 16 1 18 1 36 1 40 1 43 1 55 1 62 1 83 1 124 1 183 1 192 1 222 1 230 1 231 1 237 1 252 1 278 1 292 1 311 1 326 1 335 1 340 1 363 1 369 1 382 1 396 1 397 1 440 1 447 1 460 1 470 1 474 1 474 1 475 1 476 1 493 1 500 1 534 1 551 1 561 1 569 1 580 1 586 1 612 1 620 1 629 1 632 1 651 1 654 1 677 1 704 1 722 1 742 1 749 1 754 1 797 1 798 1 816 1 848 1 851 1 859 1 868 1 888 1 904 1 915 1 969 1 974 1 998 1 479 1 498 1 559 1 581 1 588 1 598 1 604 1 671 1 679 1 693 1 721 1 725 1 732 1 746 1 747 1 757 1 759 1 861 1 886 1 906 1 911 1 913 1 935 1 940 1 961 1 986 1 1006 1 
1 208 1 1 4 1 17 1 22 1 46 1 52 1 54 1 68 1 73 1 93 2 126 1 169 1 179 1 180 1 207 1 291 1 313 1 317 1 321 1 337 1 392 1 421 1 425 1 440 1 452 2 471 1 474 1 12 1 43 1 56 1 67 1 80 1 84 1 112 1 153 1 178 1 190 1 193 1 199 1 203 1 223 1 234 1 236 1 239 1 240 1 299 1 305 1 309 1 335 1 359 1 364 1 389 1 398 1 444 1 450 1 463 1 470 1 499 1 527 1 595 1 611 1 613 1 631 1 633 1 634 1 644 1 653 1 661 1 670 1 685 1 693 1 696 1 703 1 762 2 782 1 790 1 796 1 826 1 844 1 853 1 855 1 856 1 869 1 870 1 877 1 908 1 937 1 955 1 962 2 991 1 994 1 485 1 498 1 501 1 559 1 564 1 580 1 584 1 589 1 625 1 659 1 660 1 725 1 754 1 769 1 773 1 783 1 813 1 857 1 861 1 888 1 907 1 975 1 1021 1 1022 1 1025 1 
1 210 16 1 45 1 56 1 89 1 103 1 108 2 110 1 119 1 156 1 158 1 166 1 183 1 199 1 204 1 206 1 224 2 226 1 232 1 245 1 254 1 256 1 281 1 291 1 296 1 319 1 325 1 362 1 395 1 418 1 428 1 474 1 1 1 40 1 55 1 67 1 72 1 118 1 125 1 146 1 149 1 157 1 186 1 202 1 220 1 234 1 243 1 288 1 301 1 350 1 354 1 378 1 396 1 426 1 435 1 497 1 508 1 539 1 569 1 571 1 574 1 593 1 600 2 623 1 626 1 630 1 635 1 636 1 686 1 745 1 749 1 772 1 790 1 810 1 841 1 847 1 856 1 859 1 873 1 884 1 899 1 913 1 926 1 940 1 959 1 968 1 969 1 481 1 489 1 523 1 561 1 564 1 575 1 577 1 609 1 611 1 643 1 713 1 733 1 746 1 760 1 798 1 814 1 821 1 831 1 836 1 879 1 883 1 907 1 914 1 918 1 933 1 934 1 955 1 967 1 1006 1 1013 1 1014 1 
1 208 44 1 73 2 91 1 104 1 110 1 132 1 155 1 156 1 174 2 175 1 206 1 219 1 235 1 238 1 252 1 300 1 319 1 320 1 347 2 365 1 372 1 395 1 400 1 412 1 467 1 469 1 4 1 19 1 21 1 31 1 32 1 42 1 53 1 58 1 89 1 92 1 114 1 138 1 139 1 171 1 173 1 207 1 221 1 230 1 289 1 302 1 324 1 345 1 376 1 377 1 399 1 403 1 408 1 410 1 411 1 417 1 430 1 459 1 460 1 480 1 490 1 512 1 528 1 535 1 538 1 544 1 548 1 549 1 558 1 590 1 604 1 693 1 697 2 739 1 745 1 761 1 781 1 791 1 832 1 840 1 844 1 899 1 914 1 918 1 991 1 999 1 489 1 502 1 518 1 563 1 595 1 612 1 613 1 617 1 627 1 645 1 651 1 662 1 690 1 700 1 701 1 704 1 709 1 712 1 720 1 722 1 770 1 795 1 803 1 810 1 825 1 829 1 838 1 891 1 917 1 929 1 1006 1 1013 1 1016 1 1021 1 
1 211 23 1 37 1 57 1 76 1 78 1 79 1 112 1 164 2 179 2 210 2 228 1 229 1 232 2 250 1 258 1 280 1 287 1 327 1 436 1 445 1 452 1 455 1 8 1 46 1 50 1 62 1 66 1 72 1 95 1 115 1 119 1 121 1 125 1 139 1 147 1 150 1 174 1 213 1 215 1 254 1 266 1 272 1 284 1 286 1 302 1 314 1 357 1 361 1 384 1 387 1 388 1 421 1 447 1 486 2 503 1 511 1 527 1 563 1 569 1 582 1 664 1 804 1 813 1 822 1 883 1 945 1 968 1 986 1 480 1 482 1 497 1 556 1 558 1 585 1 608 1 625 1 637 1 641 1 653 1 660 1 706 1 712 1 735 1 744 1 753 1 760 1 802 1 842 1 855 1 864 1 866 1 869 1 871 1 899 1 924 1 939 1 952 1 974 1 992 1 998 1 1002 1 1004 1 1019 1 1023 1 
1 215 12 1 15 1 37 1 67 1 77 1 92 1 101 1 108 2 138 1 160 1 161 1 174 1 179 1 200 1 210 1 211 1 218 1 237 1 245 1 314 1 342 1 346 1 352 1 355 1 389 1 398 1 417 1 470 1 24 1 27 1 35 1 66 1 76 1 90 1 112 1 129 1 135 1 151 1 153 1 166 1 170 1 187 1 193 1 214 1 275 1 300 1 302 1 307 1 308 1 328 1 337 1 391 1 424 1 474 1 492 1 500 1 512 1 514 1 526 1 529 1 554 1 591 1 628 1 640 1 643 1 666 1 672 1 677 1 701 1 717 1 723 1 742 1 746 1 853 1 854 1 862 1 880 1 891 1 895 1 897 1 912 1 971 1 979 1 486 1 518 1 540 1 546 1 559 1 568 1 597 1 619 1 625 1 635 1 646 1 649 1 658 1 687 1 707 1 736 1 747 1 768 1 776 1 783 1 806 1 808 1 833 1 863 1 868 1 900 1 913 1 959 1 960 1 985 1 991 1 993 1 995 1 1003 1 1005 1 1007 1 1008 1 1010 1 1025 1 
1 210 21 1 32 1 34 1 48 1 121 1 158 1 191 1 207 1 222 1 244 1 247 1 253 1 258 2 290 1 306 1 333 1 344 1 382 1 398 1 433 1 477 1 7 1 17 1 22 1 35 1 88 1 99 1 116 1 125 1 137 1 153 1 154 1 176 1 193 1 194 1 209 1 210 1 221 1 236 1 238 1 243 1 254 1 273 1 276 1 278 1 304 1 318 1 352 1 380 1 390 1 403 1 408 1 419 1 457 1 478 1 520 2 521 1 535 1 550 2 586 1 587 1 590 1 594 1 595 1 614 1 616 1 641 1 647 1 661 1 667 1 670 1 677 1 694 1 699 1 714 1 724 1 727 1 734 1 759 1 762 1 780 1 812 1 823 2 853 1 854 1 864 1 889 1 890 1 896 1 928 1 953 1 990 1 496 1 498 1 566 1 580 1 593 1 622 1 649 1 708 1 722 1 747 1 767 1 773 1 783 1 794 1 799 1 844 1 850 1 851 1 858 1 865 1 866 1 964 1 997 1 998 1 1002 1 1014 1 
1 214 9 1 64 1 73 1 90 1 93 1 136 1 139 1 143 1 155 1 157 1 160 1 168 1 170 1 182 1 183 1 203 1 207 2 220 1 235 1 239 1 245 1 256 1 281 1 285 1 318 1 330 1 340 1 375 1 387 1 409 1 426 1 435 1 437 1 35 1 84 1 100 1 113 1 124 1 137 1 151 1 159 1 161 1 190 1 205 1 206 1 219 1 227 1 275 1 278 1 323 1 351 1 378 1 389 1 430 1 433 1 438 1 476 1 486 1 500 1 504 1 516 1 545 1 554 1 556 2 567 1 568 1 599 1 604 1 606 1 684 1 686 1 702 1 708 1 727 1 746 1 752 1 874 1 897 1 904 1 916 1 927 2 961 1 967 1 975 1 979 2 497 1 514 1 523 1 525 1 535 1 542 1 562 1 570 1 580 1 587 1 591 1 600 1 612 1 655 1 662 1 724 1 757 1 764 1 789 1 827 1 844 1 868 1 883 1 913 1 914 1 917 1 937 1 965 1 970 1 972 1 1006 1 1008 1 1019 1 1025 1 
1 214 19 1 26 1 30 1 161 1 200 2 239 1 250 1 258 1 273 1 297 1 359 1 376 1 385 1 394 1 418 1 424 1 470 1 64 1 71 1 92 1 113 1 148 1 198 1 226 1 271 1 272 1 283 1 296 1 307 1 309 1 310 1 348 1 362 1 364 1 375 1 378 1 438 1 453 1 478 1 495 1 500 1 505 1 508 1 531 1 532 1 544 1 567 1 571 1 617 1 620 1 710 1 720 1 723 1 724 1 730 1 749 1 780 1 782 1 786 1 800 1 801 1 888 1 907 1 912 1 913 1 917 1 994 1 998 1 536 1 548 1 549 1 593 1 595 1 597 1 606 1 627 1 635 1 657 1 658 1 667 1 703 1 727 1 740 1 752 1 802 1 806 1 828 1 835 1 836 1 850 1 861 1 863 1 882 1 889 1 915 1 926 1 953 1 974 1 996 1 1013 1 1014 1 1015 1 1017 1 1022 1 1023 1 1027 1 
1 211 3 1 32 1 50 1 52 1 65 1 81 1 82 2 86 1 94 1 105 1 124 1 130 1 155 1 195 1 207 1 229 1 281 2 283 1 306 1 314 1 315 1 328 1 353 1 356 1 378 1 380 1 384 1 399 1 406 1 407 1 427 1 438 1 440 1 454 1 41 1 56 1 61 1 69 1 87 1 114 1 118 1 128 1 150 1 183 1 196 1 198 1 216 1 238 1 279 1 320 1 322 1 365 1 401 1 417 1 455 1 491 1 513 1 526 1 558 1 584 1 587 1 611 1 613 1 615 1 627 1 649 1 666 1 675 1 687 1 716 1 731 1 734 1 745 1 760 1 776 1 777 1 798 1 806 1 810 1 817 1 849 1 872 1 886 1 909 1 921 1 933 1 993 1 998 1 521 1 524 1 541 1 546 1 556 1 557 1 560 1 570 1 571 1 573 1 591 1 604 1 632 1 647 1 651 1 677 1 683 1 706 1 726 1 772 1 786 1 787 1 885 1 911 1 924 1 938 1 958 1 968 1 981 1 987 1 995 1 999 1 1013 1 1015 1 1016 1 
1 209 2 1 5 1 8 1 12 1 82 1 91 1 97 1 150 1 162 1 178 1 195 1 205 2 208 1 220 1 231 1 259 1 325 1 345 1 346 1 347 1 358 1 361 1 367 1 378 1 383 1 391 1 398 1 402 1 419 1 449 1 462 1 31 1 37 1 44 1 63 1 81 1 142 1 155 1 239 1 251 1 255 1 257 1 290 1 319 1 323 1 329 1 335 1 413 1 432 1 453 1 456 1 467 1 496 1 514 1 516 1 527 2 528 1 530 1 538 1 560 2 582 1 589 1 622 1 654 1 665 1 669 1 705 1 753 1 756 1 759 1 761 1 779 1 797 1 829 1 836 1 839 1 858 1 863 1 873 1 881 1 882 1 911 1 932 1 969 1 989 1 500 1 511 1 520 1 525 1 532 1 590 1 625 1 642 1 658 1 660 1 685 1 738 1 773 1 789 1 794 1 814 1 825 1 831 1 853 1 864 1 886 1 909 1 923 1 926 1 962 1 967 1 971 1 1000 1 1007 1 1012 1 1014 1 
1 211 38 1 78 1 80 1 103 1 109 1 112 1 144 1 205 1 239 1 295 1 300 1 301 1 311 2 320 1 329 1 357 1 394 1 434 1 468 1 21 1 25 1 53 1 81 1 106 1 132 1 140 1 184 1 195 1 197 1 229 1 240 1 241 1 289 1 317 1 328 1 354 1 363 1 365 1 368 1 405 1 412 1 423 1 438 1 446 1 475 1 485 1 485 1 492 1 520 1 525 1 527 1 529 1 566 1 584 1 607 1 614 1 624 2 633 1 635 2 654 1 666 1 692 1 703 1 711 1 716 1 746 1 756 1 775 1 793 2 845 1 871 1 884 1 890 1 901 2 934 1 953 1 960 1 999 1 511 1 526 1 561 1 570 1 586 1 587 1 593 1 602 1 611 1 615 1 650 1 653 1 683 1 714 1 718 1 734 1 761 1 766 1 802 1 810 1 815 1 834 1 867 1 892 1 916 1 938 1 988 1 1002 1 1018 1 1027 1 
1 208 65 1 76 1 84 1 92 1 128 1 195 1 207 1 251 1 273 1 278 1 290 1 291 1 300 1 303 1 307 1 319 1 331 1 344 1 346 1 348 1 362 1 363 1 395 1 432 1 448 2 454 1 465 1 468 1 478 2 481 1 5 1 7 1 27 1 66 1 86 1 104 1 115 1 171 1 180 1 198 1 229 1 260 1 269 1 370 1 390 1 396 1 408 1 420 1 439 1 462 1 473 1 479 1 488 1 518 1 558 1 571 1 574 1 591 1 602 1 608 1 654 1 660 1 688 1 733 1 737 1 748 1 749 1 794 1 809 1 812 1 820 1 897 1 903 1 929 1 932 1 936 1 937 1 960 1 983 1 515 1 533 1 590 1 655 1 686 1 695 1 720 1 740 1 760 1 852 1 874 1 880 1 882 1 928 1 954 1 974 1 989 1 1003 1 1007 1 1015 1 1019 1 
1 214 3 1 12 1 35 2 40 1 91 1 93 1 114 2 146 1 166 2 175 1 187 1 206 1 211 1 266 1 272 1 274 1 298 1 323 1 349 1 352 1 366 1 372 1 391 1 392 1 394 1 466 1 19 1 25 1 29 1 95 1 116 1 128 1 155 1 159 1 164 1 169 1 227 1 231 1 240 1 257 1 261 1 270 1 309 1 325 1 338 1 382 1 385 1 401 1 413 1 424 1 426 1 442 1 459 1 496 1 542 2 552 1 570 1 576 1 580 1 582 1 601 1 646 1 670 1 673 1 676 1 678 1 686 1 694 1 717 1 732 1 739 1 744 1 745 1 754 1 765 1 772 1 775 1 785 1 797 1 820 1 826 1 833 1 867 1 873 1 875 2 879 1 893 1 505 1 507 1 553 1 560 1 573 1 588 1 609 1 639 1 650 1 669 1 691 1 692 1 696 1 713 1 737 1 753 1 782 1 799 1 807 1 816 1 817 1 856 1 872 1 874 1 880 1 898 1 941 1 981 1 999 1 1004 1 1015 1 1020 1 1026 1 
1 210 15 1 23 1 30 1 49 1 74 1 89 1 104 1 108 1 129 1 149 1 208 1 222 1 233 1 237 1 294 1 300 1 326 1 327 1 333 1 363 1 367 2 369 1 467 1 486 1 21 1 22 1 71 1 101 1 120 1 133 1 143 1 150 1 163 1 197 1 199 1 223 1 225 1 238 1 247 1 314 1 382 1 395 1 420 1 444 1 473 1 494 1 513 1 534 1 537 1 596 1 617 1 660 1 672 1 677 1 681 1 688 1 695 1 764 1 772 1 803 1 817 1 844 1 860 1 883 1 912 1 913 1 914 1 924 1 932 1 936 1 952 1 968 1 974 1 981 1 495 1 510 1 520 1 536 1 577 1 600 1 624 1 646 1 668 1 669 1 687 1 690 1 718 1 723 1 732 1 737 1 759 1 762 1 768 1 769 1 777 1 778 1 794 1 809 1 848 1 900 1 921 1 928 1 959 1 969 1 996 1 1001 1 1004 1 1011 1 1014 1 
1 215 34 1 39 1 51 2 57 1 64 2 97 1 123 1 139 1 146 1 170 1 206 1 263 2 269 1 275 1 297 1 304 1 306 1 310 1 343 1 448 1 451 1 469 1 1 1 31 1 43 1 52 1 59 1 68 1 89 1 102 1 120 1 133 1 138 1 141 1 145 1 155 1 158 1 160 1 188 1 219 1 225 1 239 1 254 1 274 1 311 1 314 1 361 1 363 1 376 1 388 1 398 1 415 1 417 1 437 1 449 1 458 1 468 1 471 1 476 1 477 1 491 1 495 2 506 1 515 1 521 1 567 1 580 1 602 1 657 1 680 1 703 1 753 1 762 1 798 1 822 1 841 1 842 2 858 1 880 1 893 1 918 1 934 1 952 1 960 1 505 1 509 1 600 1 606 1 612 1 620 1 662 1 674 1 691 1 713 1 731 1 732 1 760 1 769 1 820 1 833 1 835 1 846 1 847 1 860 1 915 1 920 1 951 1 966 1 1002 1 1004 1 1005 1 1010 1 1013 1 1015 1 1016 1 1022 1 1023 1 1025 1 
1 209 15 1 22 1 24 1 29 1 44 1 98 1 106 1 107 1 109 1 129 1 131 1 200 1 204 1 207 1 248 2 280 1 299 1 304 1 306 1 323 1 337 1 388 1 443 1 446 1 449 1 477 1 1 1 2 1 20 1 25 1 48 1 57 1 73 1 132 1 152 1 164 1 175 1 198 1 224 1 229 1 242 1 285 1 301 1 333 1 351 1 384 1 394 1 424 1 431 1 457 1 470 1 493 1 526 2 567 1 579 1 624 1 633 1 652 1 657 1 701 1 710 1 734 1 749 1 766 1 769 1 788 1 804 1 859 1 866 1 872 1 914 1 954 1 957 1 976 1 534 1 538 1 565 1 584 1 586 1 589 1 635 1 636 1 658 1 663 1 664 1 666 1 744 1 778 1 794 1 801 1 832 1 843 1 876 1 893 1 908 1 920 1 921 1 927 1 940 1 962 1 987 1 994 1 999 1 1010 1 1022 1 
1 209 40 1 47 1 63 1 72 1 95 1 104 1 105 1 141 1 160 2 169 1 180 1 200 1 224 1 253 1 255 2 334 1 347 1 408 1 419 1 450 1 483 1 489 1 51 1 53 1 111 1 132 1 138 1 165 1 167 1 186 1 199 1 205 1 210 1 225 1 233 1 241 1 256 1 297 1 298 1 315 1 332 1 340 1 353 1 364 1 373 1 409 1 441 1 452 1 458 1 471 1 503 1 509 1 523 1 535 2 564 1 597 1 620 1 626 1 628 1 648 1 674 1 694 1 696 1 698 1 734 1 744 1 745 1 790 1 828 1 842 1 846 1 877 1 888 1 905 1 963 1 993 1 506 1 511 1 549 1 558 1 562 1 583 1 589 1 594 1 650 1 654 1 682 1 688 1 690 1 699 1 700 1 708 1 713 1 737 1 759 1 776 1 784 1 799 1 802 1 832 1 840 1 847 1 862 1 864 1 869 1 912 1 919 1 921 1 929 1 950 1 960 1 987 1 1016 1 1017 1 1020 1 1027 1 
1 213 8 1 24 1 31 1 37 1 43 1 49 1 50 1 60 1 66 1 75 1 105 1 116 1 117 1 173 1 197 1 250 1 275 1 277 1 290 1 320 1 328 1 342 1 353 1 359 1 374 1 395 1 427 1 464 1 479 1 485 1 15 1 20 1 35 1 73 1 91 1 94 1 106 1 140 1 154 1 158 1 171 1 189 1 222 1 227 1 252 1 258 1 296 1 349 1 408 1 410 1 425 1 429 1 442 1 454 1 470 1 525 1 539 1 540 1 541 2 581 2 616 1 618 1 691 1 776 1 807 2 821 1 830 1 844 1 859 1 863 1 874 1 878 1 879 1 930 1 933 2 969 1 501 1 514 1 518 1 519 1 530 1 569 1 578 1 607 1 609 1 614 1 615 1 617 1 624 1 648 1 649 1 652 1 657 1 706 1 742 1 768 1 770 1 789 1 799 1 832 1 858 1 886 1 891 1 900 1 901 1 909 1 914 1 915 1 1004 1 1006 1 1011 1 1012 1 1019 1 
1 208 19 1 23 1 29 1 36 1 52 2 82 1 86 1 113 1 150 1 160 1 168 1 176 2 204 1 209 1 240 1 256 1 259 1 260 1 267 1 272 1 274 1 304 1 336 1 342 1 377 1 398 2 405 1 418 1 445 1 450 1 465 1 468 1 474 1 490 1 60 1 63 1 71 1 135 1 149 1 151 1 197 1 212 1 221 1 230 1 288 1 289 1 315 1 321 1 393 1 412 1 432 1 454 1 464 1 469 1 510 1 532 1 564 1 566 2 571 1 577 1 600 1 631 1 635 1 636 1 650 1 661 1 677 1 678 1 684 1 698 2 700 1 716 2 728 1 741 1 747 1 753 1 757 1 758 2 779 1 814 1 825 1 846 1 871 2 890 1 902 1 926 1 941 1 976 2 984 1 509 1 512 1 518 1 551 1 556 1 561 1 575 1 580 1 588 1 659 1 660 1 667 1 675 1 676 1 714 1 717 1 718 1 729 1 736 1 769 1 789 1 790 1 800 1 810 1 836 1 859 1 894 1 900 1 920 1 996 1 1003 1 1018 1 
1 212 3 1 15 1 23 1 27 1 39 1 49 1 52 1 120 1 148 1 151 1 152 1 168 2 170 1 231 1 255 1 267 1 286 1 289 1 295 1 314 1 320 1 350 1 360 2 365 1 404 1 411 1 454 1 488 1 20 1 36 1 51 1 97 1 175 1 185 1 214 1 224 1 225 1 244 1 256 1 282 1 306 1 328 1 333 1 351 1 352 1 370 1 372 1 399 1 408 1 409 1 460 1 497 1 503 1 504 1 513 1 518 1 548 2 626 1 630 1 684 1 711 1 721 1 733 1 799 1 815 1 816 1 850 1 924 1 944 1 949 1 952 1 967 1 972 1 979 1 991 1 514 1 526 1 551 1 571 1 589 1 594 1 597 1 599 1 605 1 612 1 618 1 627 1 636 1 674 1 678 1 686 1 708 1 760 1 765 1 798 1 802 1 812 1 824 1 829 1 847 1 860 1 877 1 878 1 891 1 919 1 933 1 951 1 957 1 964 1 1002 1 1003 1 1011 1 1025 1 
1 214 16 1 18 1 21 1 29 1 44 1 86 1 99 1 114 1 168 1 172 1 177 1 178 1 189 1 227 1 236 1 250 1 272 1 274 1 308 1 311 2 315 2 353 1 358 1 372 1 398 1 418 1 432 1 482 1 489 2 4 1 10 1 22 1 39 1 42 1 43 1 61 1 66 1 110 1 125 1 132 1 136 1 142 1 152 1 153 1 157 1 159 1 169 1 199 1 222 1 231 1 288 1 312 1 322 1 329 1 423 1 439 1 447 1 455 1 488 1 502 1 508 1 522 1 523 1 531 1 563 1 577 1 587 1 588 1 600 1 622 1 633 1 634 2 641 1 644 1 655 1 774 1 788 1 800 1 803 1 806 1 811 1 839 1 902 1 926 1 932 2 949 1 513 1 535 1 539 1 540 1 544 1 550 1 569 1 585 1 586 1 645 1 646 1 648 1 704 1 719 1 728 1 737 1 759 1 760 1 761 1 763 1 796 1 833 1 834 1 835 1 849 1 861 1 897 1 924 1 943 1 966 1 1004 1 1006 1 1007 1 1010 1 1011 1 1017 1 1023 1 1025 1 
1 209 1 1 12 1 40 1 52 1 69 1 73 1 76 1 77 1 90 1 117 1 129 1 132 1 143 1 144 1 159 1 192 1 222 1 282 1 325 1 334 1 343 1 372 1 408 1 484 1 487 1 10 1 13 1 16 1 17 1 19 1 24 1 88 1 98 1 102 1 141 1 173 1 181 1 201 1 202 1 211 1 226 1 227 1 228 1 231 1 241 1 261 1 263 1 297 1 308 1 310 1 317 1 354 1 362 1 368 1 399 1 403 1 412 1 419 1 443 1 480 1 504 1 505 1 532 1 537 1 540 2 557 1 561 1 562 1 598 1 607 1 610 1 624 1 626 1 629 1 630 1 641 1 644 1 659 1 685 1 688 1 705 1 710 1 723 1 763 1 771 1 772 1 776 1 793 1 798 2 809 1 826 1 842 1 856 1 861 1 885 1 891 1 919 1 985 1 997 1 530 1 533 1 542 1 565 1 567 1 617 1 642 1 687 1 714 1 719 1 743 1 747 1 778 1 781 1 792 1 817 1 819 1 837 1 852 1 873 1 908 1 916 1 921 1 930 1 940 1 981 1 989 1 995 1 1008 1 1022 1 1024 1 
1 210 9 1 41 1 59 1 66 1 79 1 83 1 87 1 90 1 133 1 153 1 167 1 183 1 209 1 243 1 247 1 254 1 283 1 289 1 337 1 361 1 363 1 385 1 397 1 411 1 438 1 439 1 441 1 446 1 452 1 466 1 476 1 494 1 15 1 19 1 30 1 51 1 58 1 113 1 122 1 128 1 136 1 179 1 190 1 220 1 221 1 223 1 233 1 244 1 287 1 306 1 341 1 344 1 383 1 408 1 409 1 416 1 443 1 457 1 461 1 470 1 471 1 478 1 481 1 511 1 516 1 534 1 603 2 604 2 613 2 614 1 620 1 622 1 654 1 678 1 710 1 721 1 722 1 728 1 750 1 751 1 754 1 781 1 791 1 805 1 820 1 850 1 862 1 878 1 903 1 904 1 940 1 945 1 957 1 976 1 501 1 503 1 537 1 541 1 548 1 552 1 571 1 585 1 602 1 667 1 672 1 686 1 689 1 694 1 702 1 707 1 744 1 747 1 752 1 765 1 824 1 844 1 852 1 882 1 909 1 910 1 917 1 933 1 944 1 950 1 977 1 992 1 1012 1 
1 212 5 1 11 2 14 1 22 1 32 1 53 1 59 2 78 2 102 1 115 2 143 1 164 1 213 1 220 1 226 1 234 1 240 1 284 1 290 1 294 1 308 1 310 1 334 1 370 1 394 1 404 1 409 1 410 1 411 1 420 1 426 1 427 1 472 1 4 1 6 1 18 1 34 1 50 1 52 1 86 1 111 1 150 1 170 1 172 1 175 1 200 1 288 1 292 1 354 1 355 1 432 1 447 1 460 1 463 1 466 1 474 1 475 1 480 1 504 1 518 1 530 1 535 1 542 1 553 1 580 1 583 1 585 1 598 1 614 1 623 1 625 1 636 1 665 1 671 1 681 1 737 2 741 1 774 1 780 1 804 1 808 1 811 1 838 1 841 1 851 1 884 1 897 1 900 1 907 1 922 1 939 1 944 1 962 1 963 1 989 1 514 1 533 1 540 1 546 1 551 1 568 1 575 1 595 1 596 1 631 1 656 1 679 1 694 1 698 1 703 1 720 1 756 1 776 1 797 1 800 1 824 1 834 1 860 1 915 1 951 1 968 1 969 1 981 1 988 1 1001 1 1002 1 1012 1 1013 1 1017 1 1020 1 1021 1 
1 218 22 1 29 1 40 1 78 1 87 1 95 1 114 1 122 1 127 1 131 1 147 1 149 1 154 1 157 1 159 1 179 1 227 1 233 1 241 1 266 1 271 1 282 1 286 1 345 1 349 1 353 1 394 1 408 1 427 1 441 1 468 1 475 1 44 1 48 1 61 1 66 1 70 1 74 1 89 1 125 1 170 1 175 1 215 1 235 1 244 1 256 1 258 1 278 1 284 1 288 1 314 1 319 1 336 1 368 1 373 1 375 1 412 1 446 1 460 1 502 1 510 1 512 1 517 1 519 1 551 2 563 1 572 1 578 1 584 1 588 1 591 1 602 1 665 1 674 1 724 1 743 1 777 1 781 1 791 1 841 1 926 1 931 1 938 2 995 1 522 1 534 1 553 1 559 1 570 1 585 1 595 1 619 1 628 1 637 1 645 1 653 1 675 1 676 1 682 1 688 1 692 1 740 1 752 1 811 1 813 1 814 1 824 1 831 1 896 1 914 1 928 1 956 1 971 1 1003 1 1004 1 1011 1 1012 1 1021 1 1025 1 
1 213 5 1 22 1 32 1 57 2 66 1 76 1 84 1 98 1 112 1 119 1 198 1 217 1 232 1 254 1 273 1 281 1 293 1 314 1 316 1 323 1 395 1 400 2 414 1 431 1 434 1 446 1 474 1 479 1 481 1 482 1 26 1 56 1 82 1 143 1 144 1 160 1 216 1 218 1 219 1 226 1 229 1 274 1 300 1 315 1 324 1 422 1 430 1 442 1 457 1 472 1 484 1 515 1 520 1 532 1 566 1 579 2 581 1 587 1 652 1 663 1 679 1 693 1 699 1 725 1 738 1 757 1 764 1 766 2 781 2 784 1 816 1 822 1 839 1 867 1 881 1 961 1 963 1 978 1 505 1 534 1 544 1 567 1 585 1 590 1 623 1 657 1 672 1 682 1 729 1 749 1 750 1 773 1 779 1 791 1 807 1 808 1 832 1 848 1 849 1 912 1 924 1 972 1 976 1 982 1 992 1 1001 1 1007 1 1011 1 1017 1 1019 1 1022 1 1023 1 
1 209 27 1 30 1 40 1 55 1 56 1 94 1 99 2 106 1 118 1 142 1 171 1 184 1 212 1 228 1 277 1 285 1 289 1 299 2 362 1 365 1 369 1 406 1 448 1 16 1 33 1 71 1 72 1 75 1 102 1 104 1 110 1 131 1 193 1 215 1 232 1 254 1 275 1 306 1 322 1 330 1 331 1 354 1 360 1 368 1 378 1 392 1 410 1 420 1 460 1 462 1 475 1 492 1 497 1 516 1 521 1 529 1 555 1 573 1 577 1 597 1 605 1 612 1 641 1 698 1 704 1 709 1 714 1 752 1 757 1 758 1 773 1 789 1 793 1 796 1 812 1 841 1 854 1 859 1 861 1 865 1 889 1 906 1 908 1 911 1 914 1 935 1 944 1 945 1 947 1 502 1 533 1 571 1 587 1 591 1 595 1 643 1 649 1 651 1 652 1 657 1 678 1 695 1 730 1 731 1 760 1 764 1 767 1 771 1 776 1 783 1 802 1 828 1 857 1 863 1 907 1 919 1 922 1 950 1 952 1 960 1 994 1 997 1 1001 1 
1 209 27 1 34 1 66 1 118 1 159 1 189 1 194 1 246 1 247 1 257 1 271 1 287 1 310 1 332 1 340 1 347 1 380 1 410 1 443 1 457 1 463 1 472 1 495 1 499 1 4 1 33 1 75 1 82 1 99 1 106 1 112 1 130 1 133 1 162 1 176 1 177 1 180 1 182 1 183 1 188 1 281 1 328 1 330 1 376 1 379 1 393 1 396 1 397 1 409 1 412 1 415 1 427 1 430 1 431 1 477 1 501 1 508 1 521 1 530 1 568 1 575 1 591 1 612 1 614 1 624 1 674 1 684 1 692 1 731 1 744 1 756 1 790 1 806 1 827 1 855 1 878 1 886 1 895 1 912 1 949 1 969 1 980 1 993 1 997 1 510 1 517 1 528 1 542 1 554 1 557 1 564 1 618 1 634 1 640 1 667 1 681 1 686 1 708 1 715 1 734 1 742 1 746 1 753 1 768 1 771 1 839 1 846 1 858 1 866 1 871 1 875 1 880 1 916 1 922 1 945 1 967 1 982 1 1007 1 1011 1 1013 1 1019 1 
1 210 11 1 43 1 48 1 61 1 69 1 75 1 103 1 121 1 123 1 145 1 152 1 168 1 176 1 211 1 275 1 288 1 294 1 303 1 305 1 329 1 338 1 339 1 356 1 357 1 370 1 386 2 420 1 421 1 456 1 478 1 491 1 494 1 9 1 29 1 36 1 38 1 62 1 66 1 81 1 85 1 97 1 108 1 111 1 114 1 115 1 129 1 161 1 183 1 196 1 198 1 233 1 245 1 247 1 253 1 261 1 270 1 274 1 278 1 297 1 306 1 324 1 330 1 332 1 351 1 369 1 384 1 394 1 415 1 439 1 454 1 465 1 471 1 473 1 497 1 543 1 571 1 573 1 614 1 617 1 627 1 638 1 655 1 673 1 698 1 701 1 730 1 738 1 745 2 781 1 799 1 817 1 821 1 824 1 846 1 848 1 857 1 903 1 944 1 967 1 992 1 504 1 509 1 526 1 533 1 538 1 539 1 581 1 603 1 625 1 642 1 667 1 669 1 716 1 722 1 772 1 814 1 820 1 835 1 894 1 923 1 968 1 977 1 988 1 993 1 1020 1 1027 1 
1 209 8 1 23 1 61 2 88 2 105 1 121 1 168 1 189 1 195 1 219 1 281 1 340 1 347 1 353 2 356 1 366 1 373 1 382 1 428 1 455 1 481 1 494 1 496 1 498 1 26 1 30 1 33 1 47 1 52 1 64 1 66 1 68 1 82 1 101 1 112 1 114 1 140 1 196 1 214 1 318 1 349 1 376 1 377 1 394 1 399 1 432 1 434 1 436 1 442 1 503 1 580 1 595 2 600 1 609 1 623 1 625 1 627 1 642 1 653 1 654 1 655 2 663 1 680 2 697 1 718 1 722 1 756 1 758 1 765 1 768 1 776 1 807 1 811 1 853 1 858 1 866 1 884 1 888 1 961 1 976 1 979 1 505 1 521 1 532 1 543 1 648 1 664 1 677 1 678 1 704 1 714 1 740 1 744 1 754 1 764 1 828 1 847 1 859 1 872 1 875 1 908 1 918 1 975 1 980 1 983 1 1015 1 1018 1 
1 204 18 1 63 1 85 1 92 1 103 1 116 1 121 1 123 1 124 1 126 1 130 1 134 1 136 1 148 1 154 1 165 1 203 1 252 1 291 1 328 1 333 1 335 1 372 1 419 1 438 1 458 1 461 1 482 1 496 1 6 1 8 1 42 1 76 1 98 1 125 1 163 1 172 1 183 1 201 1 214 1 223 1 232 1 237 1 270 1 295 1 303 1 306 1 313 1 317 1 318 1 320 1 326 1 334 1 341 1 343 1 368 1 401 1 437 1 487 1 489 1 500 1 504 1 508 1 513 1 520 1 525 1 567 1 571 1 587 1 612 1 640 1 650 1 664 1 679 1 681 1 696 1 704 1 713 1 733 1 736 1 758 1 762 1 770 1 828 1 830 1 834 2 863 1 884 1 899 1 942 1 961 1 986 1 999 1 506 1 509 1 515 1 516 1 539 1 546 1 562 1 564 1 585 1 604 1 624 1 628 1 639 1 647 1 651 1 674 1 692 1 709 1 757 1 776 1 786 1 805 1 809 1 823 1 872 1 877 1 883 1 951 1 953 1 955 1 959 1 973 1 976 1 996 1 1004 1 
1 208 39 1 44 1 48 1 53 1 60 1 66 1 85 1 100 1 130 1 199 1 242 1 285 1 287 1 323 1 361 1 374 1 375 1 384 1 408 1 415 1 435 1 437 1 441 1 489 1 148 1 158 1 170 1 189 1 198 1 212 1 258 1 261 1 283 1 312 1 314 1 319 1 357 1 379 1 380 1 422 1 423 1 451 1 491 1 505 1 514 1 518 2 523 1 533 1 536 1 537 1 549 1 558 1 570 1 580 1 583 1 609 1 612 2 628 1 641 1 644 1 695 1 697 2 708 1 723 1 737 1 754 1 821 1 844 1 862 1 876 1 900 1 910 1 956 2 522 1 529 1 535 1 543 1 553 1 563 1 676 1 690 1 718 1 724 1 738 1 740 1 755 1 776 1 791 1 803 1 815 1 817 1 827 1 845 1 858 1 860 1 886 1 911 1 974 1 983 1 987 1 995 1 
1 212 1 1 37 1 51 1 53 1 54 1 55 1 56 1 75 1 87 1 153 1 174 1 215 1 216 1 219 1 220 1 241 1 243 1 294 1 303 2 306 1 318 1 339 1 350 1 362 1 403 1 406 1 414 1 440 1 2 1 23 1 43 1 65 1 86 1 92 1 96 1 102 1 139 1 146 1 155 1 161 1 176 1 182 1 183 1 225 1 231 1 236 1 253 1 261 1 288 1 298 1 307 1 311 1 325 1 326 1 345 1 357 1 379 1 392 1 393 1 407 1 458 1 487 1 512 1 574 1 599 1 624 1 630 1 641 1 647 1 648 1 662 1 676 1 686 1 692 1 710 1 713 1 722 1 723 1 741 1 756 1 777 1 788 1 807 1 810 2 813 1 818 1 828 1 848 1 879 1 906 1 925 1 933 1 955 1 966 1 975 1 978 1 982 1 526 1 530 1 565 1 572 1 594 1 603 1 618 1 628 1 636 1 657 1 695 1 699 1 702 1 739 1 760 1 775 1 781 1 801 1 805 1 823 1 837 1 855 1 857 1 901 1 902 1 907 1 915 1 939 1 940 1 943 1 963 1 995 1 1007 1 1014 1 1021 1 
1 211 11 1 22 1 44 2 67 1 77 2 88 1 121 1 125 1 130 1 133 1 139 1 145 1 154 2 168 2 181 1 199 1 213 1 218 2 252 1 297 1 301 1 328 1 330 1 349 1 383 1 441 1 453 1 461 1 476 1 482 1 495 1 502 1 505 1 3 1 48 1 71 1 101 1 179 1 180 1 194 1 224 1 240 1 285 1 311 1 376 1 393 1 450 1 467 1 472 1 509 1 539 1 627 1 630 1 677 1 699 2 729 2 762 1 784 2 802 1 815 1 835 1 837 1 840 1 863 1 876 1 897 1 906 1 927 2 936 1 937 1 938 2 989 1 520 1 560 1 572 1 575 1 619 1 620 1 637 1 650 1 662 1 688 1 689 1 691 1 694 1 704 1 705 1 727 1 735 1 765 1 774 1 792 1 850 1 858 1 920 1 961 1 964 1 972 1 1003 1 
1 205 39 1 47 1 65 1 66 1 95 1 111 1 121 1 122 1 131 1 157 1 163 2 168 1 173 1 183 2 200 1 201 1 204 1 217 1 222 1 228 1 229 1 233 2 241 1 266 2 307 1 327 1 344 1 365 1 373 1 376 1 459 1 491 1 508 1 8 1 16 1 29 1 68 1 85 1 98 1 116 1 118 1 149 1 155 1 182 1 199 1 224 1 257 1 270 1 293 1 319 1 324 1 336 1 368 1 404 1 416 1 430 1 455 1 489 1 493 1 503 1 505 1 526 1 532 1 544 1 570 1 586 1 599 1 602 1 614 2 626 1 684 1 699 1 726 1 750 1 753 1 767 1 769 1 791 1 794 1 818 1 827 1 864 1 900 1 914 1 932 1 958 1 528 1 534 1 575 1 629 1 636 1 663 1 691 1 694 1 721 1 760 1 761 1 772 1 781 1 785 1 829 1 834 1 838 1 845 1 858 1 867 1 884 1 893 1 905 1 925 1 928 1 946 1 979 1 980 1 992 1 1013 1 
1 214 49 1 87 1 97 1 126 1 137 1 199 1 203 1 216 1 220 1 244 1 245 1 295 1 299 1 308 1 344 1 346 1 355 1 389 1 398 1 403 1 413 1 444 1 455 1 493 1 499 1 8 1 13 1 58 1 65 1 71 1 77 1 80 1 82 1 103 1 132 1 234 1 270 1 298 1 305 1 316 1 343 1 356 1 359 1 366 1 375 1 392 1 395 1 405 1 411 1 432 1 438 1 454 1 471 1 488 1 502 1 525 1 576 1 580 1 583 1 585 1 596 1 602 1 605 1 608 1 610 2 617 1 628 1 632 1 683 1 710 1 716 1 735 1 737 1 739 1 777 1 781 1 793 1 796 2 803 1 817 1 824 1 887 1 899 1 903 1 907 1 936 1 950 1 968 1 975 1 981 1 983 1 985 1 524 1 549 1 561 1 569 1 572 1 654 1 706 1 720 1 721 1 726 1 727 1 738 1 764 1 766 1 767 1 779 1 780 1 790 1 837 1 869 1 874 1 917 1 931 1 957 1 959 1 988 1 992 1 1005 1 1008 1 1017 1 1019 1 1022 1 1023 1 
1 205 49 1 127 1 160 1 206 1 209 1 211 1 260 1 271 1 280 1 363 1 382 1 383 1 386 2 388 1 407 1 434 1 444 1 471 1 478 1 497 1 14 1 17 1 43 1 58 1 100 1 101 1 112 1 117 1 140 1 173 1 192 1 240 1 262 1 316 1 337 1 365 1 374 1 405 1 432 1 445 1 464 1 468 1 484 1 485 1 491 1 514 1 528 1 534 1 548 1 554 1 596 1 619 1 639 1 644 1 661 1 662 1 665 1 670 1 672 2 694 1 707 1 711 1 717 1 725 1 750 1 808 1 811 1 816 1 823 1 842 1 872 1 908 1 913 1 942 1 958 1 967 1 560 1 574 1 587 1 588 1 625 1 637 1 664 1 668 1 680 1 687 1 698 1 758 1 761 1 783 1 791 1 802 1 804 1 809 1 814 1 815 1 817 1 905 1 935 1 950 1 970 1 985 1 993 1 1003 1 1009 1 1014 1 1020 1 
1 212 24 1 49 1 52 1 61 1 132 1 137 1 139 1 152 1 209 1 223 1 226 1 232 1 257 1 259 1 297 1 305 1 371 1 373 1 395 1 400 1 402 1 444 1 446 1 477 1 479 1 499 1 507 1 7 1 21 1 26 1 30 1 45 1 46 1 70 1 80 1 90 1 100 1 173 1 175 1 184 1 210 1 212 1 252 1 269 1 271 1 275 1 323 1 330 1 339 1 355 1 360 1 365 1 397 1 399 1 419 1 436 1 441 1 455 1 472 1 493 1 514 1 529 1 534 1 547 1 592 1 627 1 633 2 656 1 664 1 669 1 724 1 770 1 774 1 775 1 786 1 809 1 820 1 859 1 873 1 876 1 890 1 903 1 945 1 955 1 996 1 532 1 545 1 587 1 605 1 614 1 635 1 645 1 653 1 694 1 702 1 730 1 733 1 743 1 759 1 805 1 836 1 837 1 839 1 844 1 857 1 939 1 942 1 951 1 958 1 981 1 1001 1 1014 1 
1 211 3 1 10 1 17 1 33 1 53 1 122 2 129 1 130 1 152 1 159 1 170 1 212 1 217 1 220 1 238 2 269 1 284 1 285 1 298 1 302 1 306 1 324 1 349 1 374 1 378 1 379 1 425 1 433 1 437 1 457 1 483 1 488 1 494 1 505 1 4 1 13 1 24 1 25 1 55 1 66 1 89 1 115 1 119 1 142 1 148 1 151 1 157 1 175 1 198 1 213 1 240 1 275 1 277 1 279 1 286 1 293 1 326 1 331 1 337 1 461 1 495 1 520 1 539 1 574 1 576 1 580 1 598 1 610 1 621 1 627 1 648 1 700 1 712 2 721 2 728 1 742 1 754 1 795 1 803 1 811 1 848 1 858 1 870 1 907 1 915 1 933 1 951 1 956 1 957 1 980 1 995 1 514 1 560 1 577 1 632 1 650 1 699 1 750 1 764 1 782 1 817 1 828 1 832 1 842 1 843 1 844 1 869 1 891 1 901 1 902 1 960 1 964 1 971 1 1000 1 1006 1 1011 1 1016 1 1023 1 
1 209 7 1 9 1 92 1 93 1 102 1 115 2 119 1 128 1 139 1 150 1 179 1 195 1 199 1 218 1 240 1 261 1 353 1 357 2 388 1 391 1 479 1 484 1 506 1 511 1 512 1 2 1 3 1 22 1 35 1 46 1 54 1 59 1 91 1 100 1 145 1 183 1 196 1 213 1 216 1 257 1 290 1 308 1 311 1 316 1 318 1 334 1 335 1 350 1 361 1 370 1 375 1 386 1 395 1 411 1 472 1 481 1 492 1 494 1 498 1 513 1 515 1 535 1 596 1 597 1 609 1 623 1 638 1 665 1 719 1 722 1 724 1 753 1 769 1 775 1 795 1 814 1 815 1 822 1 834 1 856 1 870 1 939 1 959 1 517 1 525 1 526 1 548 1 562 1 565 1 578 1 579 1 585 1 592 1 608 1 620 1 647 1 671 1 674 1 675 1 697 1 698 1 737 1 760 1 765 1 800 1 805 1 816 1 840 1 845 1 859 1 879 1 894 1 908 1 929 1 937 1 974 1 983 1 984 1 997 1 1002 1 1008 1 1017 1 
1 213 9 1 44 1 46 1 93 1 112 1 120 1 159 1 166 1 182 1 183 1 222 1 228 1 229 1 246 1 282 1 317 1 321 1 360 1 373 1 455 1 469 1 489 1 500 1 514 1 10 1 30 1 50 1 57 1 69 1 89 1 106 1 130 1 140 1 153 1 172 1 189 1 198 1 206 1 207 1 232 1 233 1 238 1 243 1 255 1 256 1 257 1 280 1 281 1 304 1 350 1 361 1 364 1 385 1 393 1 394 1 403 1 422 1 425 1 458 1 486 1 505 1 519 1 520 1 528 2 535 1 568 1 573 1 583 1 589 1 628 1 649 1 662 1 716 2 758 1 763 1 768 1 777 1 779 2 791 2 809 1 819 1 832 1 857 1 872 1 901 1 941 1 942 1 953 1 961 1 963 1 989 1 994 1 518 1 593 1 634 1 652 1 659 1 683 1 704 1 717 1 727 1 738 1 740 1 755 1 769 1 808 1 826 1 841 1 856 1 859 1 881 1 887 1 894 1 899 1 908 1 946 1 955 1 956 1 1001 1 1010 1 1012 1 1014 1 1018 1 1021 1 
1 206 2 2 76 1 80 1 130 1 132 1 140 1 146 1 155 1 182 1 186 1 215 1 228 1 233 1 277 1 298 1 315 1 336 1 347 1 348 1 352 1 363 1 394 1 409 1 429 1 462 1 481 1 484 1 497 1 501 1 11 1 25 1 49 1 98 1 119 1 125 1 147 1 167 1 196 1 202 1 207 1 220 1 229 1 230 1 253 1 278 1 293 1 301 1 313 1 314 1 331 1 340 1 364 1 387 1 390 1 392 1 395 1 398 1 401 1 408 1 427 1 444 1 473 1 505 1 517 1 527 2 535 1 563 1 601 1 609 1 616 1 629 1 631 1 651 1 663 1 676 1 680 1 683 2 699 1 720 1 727 1 749 1 751 1 801 1 826 1 856 1 862 1 893 1 895 1 910 1 945 1 971 1 982 1 983 1 989 1 991 1 537 1 562 1 565 1 588 1 589 1 598 1 647 1 731 1 776 1 810 1 812 1 909 1 912 1 1012 1 
1 214 3 1 57 1 70 1 82 1 94 1 112 1 126 1 128 1 150 1 171 1 199 1 201 1 224 1 240 1 244 1 251 1 269 1 289 1 307 1 342 1 344 1 395 1 436 1 499 1 516 1 26 1 40 1 42 1 44 1 53 1 62 1 69 1 83 1 159 1 182 1 215 1 233 1 300 1 351 1 368 1 369 1 389 1 403 1 411 1 425 1 463 1 470 1 502 1 514 1 557 1 560 1 563 1 572 1 575 2 586 1 633 1 643 1 682 1 691 1 712 1 752 1 755 1 775 1 788 1 807 1 812 1 827 1 859 1 861 1 886 1 893 1 933 1 934 1 968 1 970 1 975 1 997 1 535 1 550 1 607 1 608 1 619 1 662 1 680 1 706 1 723 1 733 1 734 1 767 1 796 1 837 1 863 1 878 1 892 1 901 1 906 1 956 1 960 1 981 1 999 1 1004 1 1010 1 1015 1 1016 1 1018 1 1023 1 
1 205 5 1 10 1 26 1 45 2 66 1 75 1 88 1 96 1 122 1 166 1 185 2 191 1 197 1 213 1 275 1 313 1 352 1 399 2 401 1 403 1 415 1 417 1 433 1 445 1 449 1 469 2 486 1 494 1 498 1 506 2 1 1 21 1 41 1 44 1 48 1 101 1 107 1 154 1 165 1 174 1 177 1 208 1 218 1 281 1 339 1 346 1 353 1 359 1 366 1 376 1 419 1 458 1 477 1 479 1 492 1 493 1 515 1 529 1 541 1 562 1 566 1 588 1 596 1 608 1 629 1 651 2 672 1 701 1 712 1 736 1 770 1 796 1 806 1 821 1 833 1 873 1 889 1 904 1 933 1 948 1 956 1 960 1 556 1 604 1 624 1 636 1 639 1 646 1 661 1 664 1 690 1 709 1 721 1 784 1 816 1 836 1 902 1 914 1 918 1 934 1 943 1 944 1 985 1 999 1 1007 1 
1 208 6 1 38 1 81 1 98 2 105 1 116 1 143 1 146 1 150 1 174 1 179 1 185 1 187 1 194 1 216 1 237 1 251 1 257 1 307 1 327 1 339 1 360 1 376 1 393 1 408 1 459 1 463 2 464 1 468 1 499 1 515 1 2 1 9 1 31 1 35 1 45 1 86 1 92 1 100 1 107 1 122 1 129 1 130 1 156 1 160 1 219 1 221 1 230 1 234 1 253 1 255 1 271 1 292 1 298 1 319 1 333 1 348 1 353 1 374 1 386 1 399 1 440 1 492 1 532 1 538 1 576 1 589 1 629 1 641 2 650 1 659 1 678 2 683 1 705 1 717 1 750 1 761 1 764 1 790 1 806 1 848 1 853 1 883 1 898 1 912 1 982 1 986 1 989 1 997 1 524 1 540 1 578 1 595 1 603 1 630 1 638 1 646 1 655 1 656 1 670 1 677 1 685 1 711 1 743 1 749 1 754 1 830 1 835 1 856 1 873 1 947 1 956 1 957 1 970 1 977 1 1021 1 
1 212 8 1 17 1 22 1 54 1 65 1 85 1 101 1 105 1 109 2 155 1 162 1 170 1 199 1 201 1 209 1 216 1 250 1 270 1 272 1 318 1 337 1 359 1 360 1 379 1 381 1 409 1 416 1 418 1 450 2 451 1 480 2 485 1 500 1 505 1 513 1 515 1 27 1 34 1 83 1 90 1 135 1 150 1 172 1 195 1 213 1 239 1 259 1 268 1 285 1 303 1 322 1 333 1 354 1 362 1 387 1 443 1 446 1 463 1 473 1 484 1 488 1 508 1 523 1 571 1 590 1 657 1 678 1 692 1 705 1 709 2 719 1 749 1 751 1 773 1 793 1 813 1 815 1 835 2 837 1 843 1 862 2 927 2 948 1 964 1 975 1 524 1 562 1 572 1 577 1 579 1 584 1 608 1 638 1 671 1 759 1 854 1 890 1 896 1 932 1 969 1 970 1 971 1 992 1 998 1 1001 1 1005 1 1009 1 1017 1 1018 1 1021 1 
1 209 23 2 44 1 59 1 60 1 64 1 72 1 92 1 112 1 123 1 165 1 167 1 172 1 174 1 176 1 187 1 207 1 208 1 210 2 229 1 231 1 278 1 304 1 348 2 392 2 394 1 399 1 404 1 406 1 463 1 470 1 480 1 489 1 501 1 502 1 2 1 19 1 24 1 79 1 94 1 117 1 118 1 121 1 127 1 135 1 143 1 146 1 170 1 181 1 184 1 203 1 204 1 225 1 249 1 277 1 292 1 305 1 314 1 337 1 341 1 345 1 347 1 353 1 360 1 376 1 397 1 439 1 440 1 464 1 466 1 469 1 483 1 504 1 536 1 555 1 597 1 606 1 621 1 624 1 633 1 637 1 722 1 772 1 783 1 785 1 836 1 863 1 919 1 938 1 939 1 972 2 981 1 997 1 529 1 540 1 553 1 562 1 564 1 569 1 575 1 590 1 600 1 622 1 673 1 687 1 688 1 701 1 705 1 726 1 731 1 748 1 790 1 826 1 868 1 892 1 901 1 903 1 916 1 924 1 950 1 978 1 989 1 1004 1 1027 1 
1 210 5 1 37 1 51 1 53 1 62 1 81 1 92 1 107 1 131 1 161 1 189 1 209 1 228 1 255 1 259 1 261 1 265 1 314 1 317 1 318 1 322 1 356 1 371 1 376 1 378 1 398 1 417 1 465 1 495 1 19 1 27 1 40 1 76 1 78 1 85 1 88 1 138 1 139 1 140 1 158 1 191 1 219 1 240 1 256 1 260 1 312 1 320 1 330 1 331 1 344 1 385 1 421 1 454 1 455 1 470 1 499 1 506 1 544 1 550 1 561 1 594 2 618 1 635 1 668 2 672 1 686 1 689 1 690 1 722 1 756 1 803 1 816 1 829 1 862 1 870 1 884 1 899 1 910 1 912 1 923 1 962 1 980 1 981 1 998 1 999 1 558 1 583 1 633 1 647 1 654 1 660 1 670 1 705 1 712 1 727 1 729 1 733 1 734 1 738 1 739 1 741 1 753 1 754 1 776 1 780 1 785 1 789 1 796 1 808 1 815 1 825 1 845 1 855 1 861 1 867 1 879 1 882 1 913 1 920 1 926 1 971 1 1013 1 1020 1 
1 210 30 1 44 1 62 1 77 1 128 1 143 1 158 1 162 1 193 1 210 1 211 1 212 1 223 1 228 1 268 1 287 1 323 1 371 1 373 2 394 1 406 1 415 1 417 1 420 1 435 1 472 2 491 1 495 1 506 1 520 1 1 1 8 1 25 1 59 1 70 1 85 1 93 1 149 1 188 1 259 1 260 1 269 1 291 1 294 1 295 1 319 1 321 1 349 1 361 1 363 1 367 1 375 1 389 1 390 1 400 1 449 1 452 1 453 1 464 1 465 1 476 1 481 1 534 1 540 1 555 1 560 1 579 1 608 2 624 1 655 1 673 1 680 1 684 1 713 1 718 1 739 1 746 1 757 2 760 1 789 1 807 1 837 1 859 1 891 1 925 1 931 1 933 1 980 1 981 1 986 2 532 1 535 1 556 1 561 1 575 1 591 1 607 1 628 1 633 1 658 1 672 1 692 1 697 1 730 1 736 1 754 1 782 1 796 1 800 1 813 1 847 1 856 1 861 1 869 1 870 1 885 1 886 1 938 1 1000 1 1004 1 1010 1 
1 212 1 1 16 1 17 1 22 2 30 1 100 1 106 1 114 1 130 1 202 1 225 1 252 1 258 1 305 1 308 2 313 1 317 1 333 1 341 1 353 1 362 1 364 1 372 1 451 1 458 1 4 1 24 1 31 1 47 1 75 1 89 1 103 1 115 1 136 1 170 1 185 1 203 1 220 1 233 1 241 1 259 1 269 1 281 1 295 1 304 1 309 1 311 1 329 1 331 1 332 1 337 1 348 1 365 1 375 1 389 1 403 1 405 1 440 1 461 1 483 1 510 1 519 1 520 1 537 1 541 1 552 1 558 1 559 1 592 1 597 1 637 1 655 1 694 1 711 1 746 2 751 1 768 1 810 1 829 1 830 1 831 1 834 1 857 1 916 1 920 1 926 2 933 1 935 1 956 1 960 1 964 2 526 1 529 1 561 1 573 1 601 1 633 1 635 1 640 1 643 1 649 1 667 1 668 1 696 1 750 1 757 1 758 1 776 1 787 1 849 1 863 1 864 1 888 1 896 1 955 1 972 1 975 1 981 1 985 1 1006 1 1014 1 1017 1 1024 1 
1 214 23 1 33 1 36 1 37 1 50 1 61 1 76 1 121 1 171 1 184 1 199 1 219 1 234 2 277 1 293 1 294 1 305 1 308 1 321 1 371 2 381 1 440 1 450 1 485 1 492 1 505 1 510 1 25 1 28 1 29 1 64 1 106 1 118 1 122 1 139 1 152 1 164 1 173 1 190 1 244 1 282 1 295 1 328 1 330 1 352 1 365 1 367 1 396 1 397 1 422 1 424 1 462 1 481 1 484 1 514 1 529 1 550 1 566 1 586 1 598 1 615 1 667 1 695 1 703 1 738 1 741 1 742 1 756 1 766 1 776 1 832 1 856 1 890 1 903 1 912 1 940 1 954 2 963 1 966 1 986 1 989 2 526 1 562 1 571 1 593 1 599 1 602 1 619 1 649 1 670 1 677 1 681 1 782 1 785 1 790 1 806 1 819 1 826 1 842 1 867 1 872 1 876 1 880 1 919 1 930 1 936 1 955 1 958 1 987 1 1008 1 1013 1 
1 208 49 1 72 1 78 1 98 1 111 1 115 1 136 1 146 1 158 1 175 1 190 1 200 1 204 1 218 1 221 1 247 1 258 1 267 1 268 1 273 1 275 1 283 1 284 1 285 1 305 1 311 1 330 1 367 1 370 1 410 1 469 1 479 1 483 1 490 2 509 1 11 1 58 1 66 1 85 1 86 1 99 1 123 1 138 1 162 1 180 1 209 1 223 1 234 1 242 1 245 1 323 1 325 1 326 1 364 1 395 1 398 1 416 1 485 1 494 1 503 1 507 1 514 1 524 1 525 1 537 1 570 1 573 2 607 1 614 1 642 1 688 1 749 1 766 1 779 1 791 2 826 1 844 1 862 1 873 1 886 1 921 1 930 1 941 1 968 2 993 1 528 1 535 1 560 1 569 1 623 1 634 1 659 1 686 1 719 1 759 1 769 1 775 1 782 1 783 1 785 1 797 1 807 1 822 1 875 1 895 1 904 1 908 1 922 1 976 1 987 1 1000 1 1002 1 1014 1 1023 1 
1 212 6 1 31 1 69 1 75 1 76 1 81 1 86 1 111 1 141 2 144 1 171 1 220 1 322 1 365 1 389 2 390 1 397 1 452 1 462 1 472 1 475 1 478 1 484 2 485 1 516 2 15 1 25 1 45 1 51 1 54 1 66 1 94 1 96 1 118 1 125 1 127 1 137 1 139 1 164 1 195 1 196 1 246 1 254 1 281 1 294 1 348 1 358 1 375 1 416 1 422 1 424 1 458 1 466 1 530 1 536 1 568 1 599 1 671 1 681 1 697 1 732 1 743 2 757 1 777 1 779 1 799 1 819 1 838 1 845 1 850 1 870 1 878 1 886 1 888 1 906 1 916 1 919 1 920 1 923 1 938 1 948 1 957 1 962 1 972 1 976 1 977 1 990 2 996 1 551 1 567 1 569 1 627 1 655 1 686 1 703 1 715 1 735 1 760 1 766 1 767 1 769 1 781 1 783 1 784 1 794 1 796 1 801 1 811 1 830 1 831 1 842 1 854 1 909 1 959 1 961 1 989 1 1003 1 1016 1 1018 1 1020 1 1024 1 1025 1 
1 208 34 1 51 1 58 1 64 1 67 1 92 1 93 1 102 1 110 1 127 1 130 1 149 1 171 2 179 1 184 2 197 1 207 1 214 1 232 1 235 1 287 1 318 1 351 1 360 1 379 1 450 1 457 1 477 1 484 1 511 1 515 2 20 1 55 1 70 1 78 1 97 1 125 1 136 1 147 1 156 1 166 1 170 1 172 1 199 1 216 1 238 1 265 1 272 1 275 1 307 1 336 1 397 1 399 1 402 1 411 1 455 1 458 1 469 1 502 1 509 1 526 1 537 1 593 1 595 1 602 1 604 1 625 1 652 1 669 1 686 1 729 1 733 1 779 1 780 1 806 1 827 1 857 1 860 1 869 1 870 1 892 1 923 1 933 1 967 1 970 1 971 1 991 2 992 1 546 1 557 1 563 1 613 1 618 1 666 1 692 1 709 1 772 1 775 1 788 1 810 1 822 1 823 1 824 1 834 1 863 1 864 1 872 1 884 1 885 1 903 1 906 1 924 1 950 1 1008 1 
1 203 23 1 24 1 47 1 54 1 56 1 69 1 75 1 112 1 199 1 229 1 237 1 258 1 265 1 269 1 281 1 298 1 305 1 317 1 329 1 351 1 360 2 362 2 363 1 379 1 419 1 449 1 456 1 467 1 479 1 485 1 501 1 512 1 518 1 525 1 17 1 31 1 63 1 92 1 186 1 189 1 209 1 230 1 234 1 250 1 253 1 261 1 262 1 291 1 303 1 326 1 415 1 425 1 462 1 506 1 521 1 524 1 534 1 549 1 558 1 605 1 611 1 660 1 680 1 682 2 708 1 727 1 760 1 761 1 775 2 791 1 838 1 868 1 946 2 952 1 961 1 967 1 970 1 982 1 994 1 568 1 571 1 614 1 625 1 632 1 648 1 685 1 691 1 699 1 732 1 817 1 877 1 878 1 894 1 898 1 904 1 907 1 911 1 936 1 975 1 992 1 1026 1 
1 211 3 1 20 2 23 1 44 1 50 1 52 1 59 1 86 1 101 1 135 1 167 1 189 1 234 1 250 1 261 1 274 1 276 1 292 1 294 1 307 1 310 1 329 1 343 1 349 1 385 1 405 1 408 1 432 1 444 1 484 1 498 1 502 1 527 1 15 1 16 1 17 1 43 1 83 1 119 1 194 1 227 1 235 1 236 1 247 1 283 1 285 1 290 1 312 1 318 1 354 1 368 1 382 1 400 1 403 1 438 1 492 1 496 1 507 1 574 2 575 1 577 1 608 1 627 1 634 1 643 1 646 1 660 1 696 1 721 1 734 1 736 1 765 1 774 1 782 1 787 1 832 2 855 1 886 1 928 1 951 1 960 1 987 1 534 1 571 1 572 1 621 1 628 1 657 1 661 1 711 1 712 1 716 1 732 1 746 1 803 1 817 1 840 1 841 1 846 1 872 1 874 1 955 1 962 1 963 1 966 1 1002 1 1005 1 1006 1 1015 1 1017 1 1021 1 1025 1 
1 213 27 1 50 1 63 1 98 1 128 2 130 1 133 1 161 1 180 1 183 1 191 1 222 1 250 1 268 1 276 1 277 1 309 1 327 1 345 1 390 1 410 1 419 1 425 1 442 1 450 1 463 1 482 1 495 1 6 1 30 1 32 1 40 1 62 1 79 1 80 1 102 1 119 1 134 1 162 1 172 1 193 1 199 1 208 1 211 1 242 1 249 1 256 1 262 1 263 1 349 1 358 1 380 1 406 1 420 1 446 1 465 1 540 1 548 1 550 1 559 1 562 1 583 1 599 1 605 1 626 1 657 1 672 1 677 1 684 1 719 1 748 1 792 1 804 1 864 1 870 1 900 1 902 1 906 1 972 1 974 2 980 1 986 1 987 1 996 1 534 1 538 1 666 1 690 1 720 1 731 1 757 1 760 1 795 1 805 1 807 1 814 1 822 1 830 1 842 1 853 1 865 1 877 1 889 1 930 1 935 1 946 1 979 1 1000 1 1001 1 1020 1 1022 1 
1 213 33 1 52 1 54 1 71 1 103 1 128 1 144 1 149 1 151 1 154 1 161 1 176 1 218 1 262 1 278 1 286 1 300 1 311 1 313 1 336 1 358 1 380 1 397 1 438 1 482 1 493 1 496 1 500 1 509 1 519 1 9 1 23 1 31 1 63 1 83 1 84 1 85 1 104 1 183 1 194 1 197 1 207 1 235 1 240 1 246 1 276 1 293 1 323 1 354 1 366 1 385 1 392 1 399 1 405 1 415 1 416 1 454 1 484 1 504 1 512 1 523 1 572 1 576 1 641 1 658 1 687 1 691 1 694 1 712 1 718 1 747 1 775 1 788 1 792 1 881 1 883 2 884 2 935 1 963 1 991 1 542 1 559 1 571 1 577 1 605 1 617 1 645 1 673 1 684 1 711 1 725 1 776 1 860 1 882 1 901 1 922 1 943 1 947 1 978 1 982 1 992 1 1000 1 1010 1 1012 1 1020 1 1021 1 1022 1 
1 214 27 1 60 1 67 1 126 1 133 1 135 1 155 1 159 1 227 1 237 1 243 1 248 1 263 1 264 1 269 1 273 1 282 1 283 2 321 1 348 1 364 1 403 1 412 1 419 1 426 1 431 1 432 1 444 1 466 1 506 1 36 1 43 1 46 1 59 1 99 1 116 1 180 1 188 1 198 1 221 1 226 1 228 1 265 1 275 1 289 1 344 1 350 1 354 1 357 1 358 1 371 1 395 1 408 1 413 1 415 1 454 1 486 1 496 1 498 1 501 1 503 1 552 1 569 1 587 1 601 1 620 1 626 1 678 1 691 1 704 1 707 1 718 1 729 1 730 2 751 1 772 1 794 1 802 1 807 1 809 1 810 1 815 1 818 1 886 1 913 1 934 1 955 1 956 1 962 1 976 1 981 1 989 1 993 1 572 1 596 1 607 1 660 1 682 1 699 1 721 1 726 1 734 1 746 1 773 1 778 1 804 1 824 1 837 1 858 1 881 1 900 1 947 1 959 1 978 1 980 1 1008 1 1010 1 
1 213 6 1 18 1 19 1 32 1 35 2 100 1 110 1 131 1 159 1 213 1 214 1 268 1 270 1 278 1 286 2 297 1 331 2 368 1 374 1 383 1 400 1 402 1 412 1 420 2 421 1 430 1 432 1 437 1 474 1 488 1 497 1 511 1 512 1 523 1 529 1 1 1 13 1 21 1 25 1 30 1 41 1 53 1 65 1 76 1 88 1 119 1 132 1 138 1 141 1 168 1 181 1 191 1 192 1 201 1 217 1 242 1 255 1 267 1 273 1 277 1 281 1 290 1 326 1 332 1 335 1 372 1 376 1 411 1 444 1 462 1 463 1 472 1 490 1 499 1 500 1 509 1 530 1 531 1 540 1 607 1 701 1 782 1 812 1 819 1 847 1 850 1 904 1 936 1 958 1 981 1 539 1 551 1 562 1 582 1 590 1 629 1 638 1 644 1 711 1 713 1 752 1 769 1 773 1 779 1 801 1 811 1 832 1 833 1 836 1 852 1 856 1 860 1 870 1 900 1 915 1 933 1 961 1 976 1 987 1 995 1 1015 1 1019 1 1024 1 
1 214 20 1 33 1 37 1 68 1 92 1 94 1 113 1 138 1 140 1 184 1 219 1 251 1 257 1 263 1 297 2 300 1 328 1 337 1 340 1 346 1 351 1 366 1 402 1 424 1 445 1 477 1 480 1 491 2 498 1 514 1 515 1 516 1 41 1 99 1 106 1 119 1 133 1 146 1 183 1 235 1 248 1 264 1 269 1 286 1 325 1 349 1 353 1 363 1 376 1 387 1 452 1 456 1 481 1 495 1 506 1 517 1 523 1 526 1 539 1 540 1 554 1 576 1 588 1 592 1 596 1 597 1 608 1 623 1 627 1 654 1 663 1 674 1 676 1 699 1 700 1 704 1 717 1 723 1 734 2 745 1 755 1 782 1 807 1 843 1 846 1 856 1 857 1 867 1 877 1 881 1 904 1 943 1 559 1 577 1 584 1 604 1 641 1 642 1 650 1 651 1 652 1 656 1 658 1 667 1 670 1 683 1 686 1 693 1 695 1 732 1 739 1 749 1 752 1 797 1 809 1 812 1 855 1 859 1 873 1 885 1 901 1 954 1 957 1 971 1 988 1 1001 1 1004 1 1015 1 1021 1 1025 1 1027 1 
1 208 25 1 27 1 44 1 52 1 92 1 106 1 125 1 136 1 138 1 144 1 280 1 313 1 320 1 341 1 354 1 363 1 378 1 437 1 440 2 506 1 521 1 527 1 2 1 4 1 7 1 32 1 38 1 42 1 45 1 69 1 103 1 129 1 179 1 199 1 204 1 205 1 264 1 268 1 322 1 337 1 373 1 389 1 408 1 415 1 418 1 444 1 482 1 488 1 565 1 577 1 579 1 587 1 596 1 609 1 631 1 633 1 634 1 639 1 660 1 661 1 701 2 724 2 748 1 776 1 786 1 800 1 862 1 869 1 882 1 907 1 918 1 928 1 938 2 970 1 989 1 992 1 538 1 547 1 559 1 563 1 580 1 593 1 607 1 629 1 630 1 655 1 670 1 715 1 750 1 762 1 794 1 804 1 873 1 878 1 881 1 885 1 899 1 902 1 903 1 921 1 971 1 983 1 1002 1 1018 1 
1 211 9 2 33 1 71 1 114 1 117 1 132 1 140 1 145 1 178 1 197 1 219 1 222 1 231 1 287 1 302 1 304 1 305 1 309 1 327 1 328 1 339 1 347 1 361 1 373 1 374 1 388 1 409 1 419 1 429 1 432 1 435 1 469 1 488 1 496 1 506 1 524 1 526 1 528 1 7 1 8 1 20 1 27 1 43 1 45 1 74 1 110 1 126 1 134 1 168 1 169 1 191 1 239 1 244 1 273 1 293 1 298 1 366 1 378 1 380 1 383 1 404 1 414 1 441 1 448 1 454 1 466 1 467 1 470 1 497 1 516 1 597 1 636 1 660 1 708 1 725 1 745 1 748 1 768 1 784 1 824 1 826 1 844 1 860 1 883 1 921 1 933 1 934 2 937 1 972 1 996 1 564 1 586 1 589 1 593 1 600 1 602 1 607 1 616 1 629 1 634 1 673 1 736 1 749 1 752 1 758 1 759 1 773 1 781 1 814 1 818 1 852 1 866 1 876 1 897 1 908 1 960 1 1014 1 
1 216 22 1 27 1 42 1 58 1 62 1 74 2 91 1 101 1 121 1 127 1 171 1 182 1 190 1 208 1 220 1 229 1 264 1 281 1 296 1 306 1 327 1 371 1 390 1 402 1 411 1 424 1 443 1 477 1 484 1 519 1 20 1 33 1 35 1 41 1 45 1 46 1 47 1 97 1 185 1 212 1 225 1 238 1 247 1 273 1 286 1 302 1 357 1 408 1 433 1 434 1 469 1 490 1 503 1 531 1 536 1 567 1 580 1 594 1 612 1 663 1 668 1 700 1 721 1 727 1 804 1 821 1 839 1 850 1 867 2 868 1 898 2 903 1 911 1 925 1 960 1 976 1 993 1 543 1 551 1 552 1 557 1 562 1 604 1 614 1 628 1 636 1 648 1 670 1 693 1 730 1 743 1 757 1 759 1 827 1 831 1 863 1 865 1 890 1 922 1 939 1 942 1 988 1 1004 1 1005 1 1007 1 1008 1 1019 1 
1 203 28 1 41 1 75 1 117 1 127 1 130 1 168 1 183 1 200 1 208 1 223 1 236 1 243 1 259 1 261 1 282 1 320 1 325 1 344 1 355 1 357 1 364 1 442 1 448 1 452 1 476 1 492 1 508 1 513 1 535 1 18 1 55 1 60 1 67 1 70 1 74 1 89 1 103 1 125 1 140 1 145 1 179 1 181 1 194 1 205 1 216 1 222 1 230 1 253 1 254 1 270 1 286 1 291 1 292 1 304 1 318 1 329 1 347 1 438 1 464 1 495 1 503 1 505 1 534 1 560 1 568 2 595 1 602 1 628 1 651 1 681 1 765 1 800 1 835 1 838 1 842 1 848 2 871 1 876 1 881 1 901 1 909 1 911 1 913 1 914 1 938 1 943 1 944 1 945 1 953 1 972 1 993 1 578 1 588 1 639 1 657 1 677 1 710 1 716 1 737 1 746 1 748 1 757 1 764 1 804 1 806 1 813 1 815 1 852 1 858 1 880 1 893 1 907 1 912 1 955 1 977 1 979 1 990 1 
1 212 16 1 17 1 31 1 51 1 66 1 137 1 151 1 177 1 199 1 225 1 238 1 239 1 250 1 251 1 263 1 288 1 299 1 321 1 326 1 337 1 339 1 351 1 356 1 358 1 418 1 429 1 435 1 452 1 492 1 496 2 523 1 531 1 534 1 535 1 30 1 32 1 67 1 74 1 96 1 108 1 125 1 131 1 154 1 173 1 183 1 187 1 197 1 202 1 212 1 242 1 243 1 246 1 256 1 264 1 271 1 284 1 285 1 287 1 304 1 324 1 329 1 332 1 333 1 352 1 367 1 371 1 405 1 406 1 419 1 426 1 428 1 434 1 443 1 448 1 451 1 467 1 479 1 495 1 498 1 519 1 521 1 562 1 579 1 585 1 601 1 615 1 619 1 630 1 642 2 644 1 677 1 685 1 707 1 751 1 788 1 811 1 845 1 850 1 853 1 865 1 872 1 883 1 906 1 934 1 940 1 946 2 995 1 541 1 606 1 653 1 675 1 730 1 752 1 756 1 767 1 776 1 787 1 801 1 819 1 820 1 823 1 835 1 870 1 885 1 905 1 933 1 951 1 959 1 970 1 971 1 1005 1 1015 1 1020 1 1022 1 
1 209 1 1 18 1 32 1 41 1 54 1 58 1 63 1 69 1 88 1 89 1 102 1 164 1 204 1 208 1 243 1 264 1 273 1 277 1 290 1 310 1 318 1 332 1 353 1 358 1 378 1 390 1 392 1 419 1 425 1 428 1 492 2 518 1 524 1 5 1 23 1 24 1 47 1 64 1 116 1 121 1 228 1 242 1 250 1 258 1 281 1 337 1 348 1 354 1 362 1 371 1 391 1 393 1 414 1 430 1 441 1 463 1 483 1 497 1 540 1 544 1 552 1 555 1 573 1 577 1 605 1 611 1 619 1 630 1 681 1 708 1 709 1 710 1 714 1 758 1 772 1 785 1 788 1 814 1 845 2 850 1 864 1 882 1 903 1 917 1 929 1 940 1 998 1 558 1 624 1 639 1 658 1 674 1 683 1 687 1 689 1 690 1 703 1 739 1 815 1 821 1 844 1 859 1 878 1 886 1 904 1 911 1 922 1 936 1 944 1 951 1 966 1 982 1 1010 1 1014 1 
1 210 11 1 33 1 49 1 53 1 83 1 88 1 103 1 110 1 117 1 123 1 179 1 197 1 204 1 249 1 253 1 296 1 320 1 328 1 337 1 348 1 372 1 374 1 381 1 388 2 408 1 417 1 439 1 455 1 487 2 498 1 18 1 19 1 36 1 46 1 65 1 97 1 109 1 157 1 211 1 212 1 230 1 241 1 254 1 268 1 279 1 281 1 285 1 313 1 330 1 342 1 344 1 422 1 424 1 428 1 448 1 460 1 481 1 496 1 502 1 532 1 546 1 573 1 593 1 599 1 603 2 612 1 614 1 654 1 658 1 668 2 675 1 693 1 696 1 701 1 704 1 731 1 742 1 768 2 783 1 792 1 800 1 815 1 842 1 856 1 863 2 875 1 879 1 882 1 886 1 922 1 926 1 948 1 999 1 543 1 544 1 574 1 591 1 601 1 652 1 691 1 711 1 722 1 724 1 741 1 764 1 779 1 835 1 857 1 860 1 867 1 880 1 903 1 906 1 931 1 949 1 990 1 1003 1 1014 1 1018 1 
1 211 2 1 3 1 58 1 63 1 70 1 71 1 88 1 113 1 120 2 128 1 147 2 173 1 186 1 215 1 222 1 260 1 280 1 282 1 304 1 323 1 340 1 346 1 349 1 352 1 422 1 430 1 438 1 451 1 454 1 459 1 473 1 503 1 17 1 68 1 93 1 162 1 184 1 216 1 244 1 276 1 288 1 303 1 321 1 359 1 374 1 379 1 405 1 455 1 504 1 506 1 538 1 542 1 543 1 543 1 550 1 571 1 585 1 608 1 622 1 625 1 644 2 661 1 690 1 700 1 711 1 718 1 729 1 733 1 737 2 738 1 745 1 780 1 791 1 829 1 849 1 869 1 877 1 892 1 903 1 906 1 907 1 957 1 978 1 991 1 549 1 574 1 575 1 613 1 614 1 623 1 627 1 663 1 664 1 668 1 684 1 721 1 725 1 754 1 790 1 831 1 832 1 838 1 839 1 874 1 893 1 913 1 933 1 948 1 966 1 998 1 1014 1 1018 1 1022 1 
1 208 15 2 34 1 35 1 81 1 128 1 138 1 141 1 161 1 163 1 179 2 195 1 212 2 263 2 265 1 271 1 303 1 306 2 312 1 327 1 341 1 342 1 371 1 389 1 420 1 436 1 444 1 448 1 461 1 477 1 482 1 509 1 522 1 541 1 23 1 47 1 51 1 82 1 85 1 103 1 129 1 136 1 142 1 144 1 146 1 149 1 166 1 170 1 180 1 190 1 210 1 211 1 213 1 245 1 284 1 288 1 333 1 334 1 368 1 370 1 388 1 432 1 470 1 495 1 500 1 542 1 562 1 586 1 588 1 591 1 612 1 626 2 635 1 661 1 671 1 683 1 696 1 761 2 764 1 771 2 785 1 791 1 812 1 831 1 851 1 856 1 857 1 862 1 881 1 886 1 934 1 939 1 959 1 981 1 558 1 570 1 579 1 615 1 623 1 625 1 653 1 697 1 732 1 736 1 738 1 749 1 760 1 805 1 806 1 828 1 848 1 854 1 864 1 867 1 890 1 892 1 931 1 943 1 952 1 993 1 1023 1 
1 211 1 1 21 1 28 1 67 1 69 1 105 1 106 2 109 1 110 1 130 1 181 1 201 1 204 1 245 1 254 1 290 1 291 1 308 1 316 1 355 1 357 1 363 1 365 1 370 1 372 1 388 1 410 1 412 1 413 1 422 1 423 1 439 1 440 1 481 1 3 1 4 1 45 1 53 1 57 1 115 1 153 1 156 1 161 1 163 1 166 1 179 1 212 1 228 1 229 1 257 1 263 1 307 1 319 1 343 1 375 1 403 1 424 1 436 1 438 1 512 1 561 1 586 1 605 1 623 1 646 1 682 1 744 1 750 1 751 1 757 1 772 1 774 1 777 1 796 1 814 1 820 1 823 1 872 1 901 1 922 1 936 1 948 1 965 1 977 1 982 1 999 1 585 1 651 1 671 1 688 1 699 1 719 1 730 1 737 1 749 1 754 1 764 1 788 1 819 1 833 1 853 1 854 1 873 1 885 1 912 1 937 1 972 1 978 1 986 1 996 1 1006 1 1008 1 
1 208 8 1 20 1 29 1 35 1 53 1 57 1 67 1 115 1 120 1 128 1 140 1 148 1 153 2 159 1 161 1 172 1 221 1 222 1 235 1 239 1 273 1 285 1 290 2 309 1 333 1 348 1 361 1 364 1 413 1 542 1 14 1 30 1 54 1 55 1 81 1 83 1 85 1 89 1 118 1 130 1 147 1 168 1 248 1 250 1 254 1 284 1 297 1 326 1 338 1 356 1 400 1 422 1 434 1 448 1 479 1 483 1 498 1 505 1 528 1 573 1 635 1 645 1 646 1 650 1 653 1 656 1 670 1 691 1 699 1 736 1 751 1 778 1 780 1 794 1 806 1 812 2 814 1 818 1 835 1 841 1 849 1 860 1 961 1 552 1 558 1 560 1 566 1 616 1 631 1 637 1 649 1 657 1 682 1 747 1 757 1 762 1 788 1 826 1 858 1 866 1 892 1 897 1 901 1 907 1 913 1 922 1 926 1 930 1 950 1 966 1 975 1 981 1 1000 1 
1 214 3 1 21 1 35 1 37 1 79 1 82 1 84 1 100 1 105 1 127 1 150 1 177 1 195 1 207 1 209 1 261 1 310 1 313 1 325 1 327 1 331 1 339 1 356 1 358 1 360 1 362 1 365 2 371 1 406 1 409 2 419 1 428 1 444 1 512 1 1 1 4 1 5 1 7 1 42 1 54 1 69 1 72 1 80 1 108 1 109 1 131 1 170 1 172 1 193 1 201 1 204 1 211 1 280 1 312 1 326 1 330 1 335 1 373 1 388 1 390 1 402 1 439 1 443 1 446 1 450 1 460 1 536 1 594 1 623 1 624 1 628 1 658 1 662 1 681 1 683 1 685 1 691 1 695 1 710 1 717 1 745 2 770 1 775 1 788 1 798 2 807 1 815 1 827 1 828 1 843 1 909 1 914 1 916 1 947 1 955 1 963 1 968 1 972 1 973 1 568 1 590 1 598 1 606 1 629 1 675 1 694 1 732 1 754 1 782 1 802 1 822 1 836 1 841 1 904 1 935 1 940 1 946 1 982 1 988 1 998 1 1005 1 1011 1 1016 1 1023 1 1024 1 1027 1 
1 210 47 1 48 1 65 1 81 1 88 1 119 1 160 1 190 1 197 1 198 1 205 1 235 2 236 2 238 1 265 1 290 1 308 1 338 1 343 2 352 1 363 1 382 1 399 1 418 1 430 1 464 1 477 1 494 2 511 1 531 1 16 1 72 1 89 1 109 1 127 1 150 1 168 1 170 1 187 1 194 1 217 1 229 1 270 1 282 1 283 1 284 1 292 1 299 1 303 1 309 1 310 1 329 1 334 1 336 1 355 1 361 1 367 1 377 1 379 1 385 1 443 1 446 1 473 1 482 1 497 1 514 1 567 1 652 1 665 1 667 1 704 1 712 1 715 1 717 2 729 1 732 1 770 1 782 1 803 1 804 1 819 1 822 1 841 1 864 1 874 1 875 1 879 2 881 1 888 2 891 2 899 1 908 1 950 1 973 1 989 1 560 1 575 1 593 1 600 1 618 1 636 1 639 1 650 1 669 1 696 1 716 1 730 1 744 1 763 1 784 1 809 1 828 1 897 1 927 1 931 1 963 1 984 1 990 1 997 1 999 1 1012 1 1022 1 
1 212 25 1 31 1 47 1 64 1 69 1 85 1 87 1 112 1 142 1 157 1 190 1 209 1 235 1 280 1 289 2 298 1 306 1 311 1 336 1 340 1 344 1 377 1 393 1 395 1 419 1 429 1 477 1 506 1 529 1 10 1 11 1 34 1 41 1 42 1 48 1 53 1 76 1 115 1 129 1 156 1 195 1 196 1 231 1 234 1 239 1 292 1 302 1 332 1 338 1 349 1 351 1 380 1 403 1 411 1 412 1 420 1 439 1 449 1 454 1 482 1 491 1 510 1 543 1 560 1 580 1 626 1 646 1 668 1 675 1 688 1 725 1 737 2 759 1 779 1 780 1 809 1 837 1 883 1 891 1 937 1 941 1 980 1 984 1 588 1 600 1 616 1 633 1 634 1 642 1 660 1 669 1 732 1 734 1 802 1 810 1 821 1 870 1 879 1 899 1 902 1 911 1 924 1 954 1 981 1 982 1 990 1 1003 1 1007 1 1016 1 
1 213 27 1 51 1 55 1 81 1 123 1 124 2 133 1 153 1 164 1 179 1 212 1 239 1 253 1 330 1 353 1 360 1 366 1 367 1 409 1 413 1 470 1 480 2 522 1 525 1 531 1 543 1 15 1 45 1 58 1 62 1 114 1 120 1 122 1 138 1 184 1 192 1 296 1 303 1 320 1 339 1 341 1 381 1 386 1 401 1 424 1 430 1 443 1 446 1 453 1 495 1 517 1 561 1 581 1 583 2 589 1 605 1 609 1 616 1 635 1 653 1 667 1 675 1 678 1 722 1 753 1 788 1 790 1 793 2 825 1 863 1 868 1 964 2 991 1 594 1 597 1 599 1 600 1 622 1 649 1 656 1 665 1 698 1 755 1 763 1 766 1 772 1 799 1 817 1 840 1 854 1 866 1 898 1 907 1 909 1 953 1 963 1 971 1 993 1 996 1 1000 1 1004 1 1016 1 1018 1 1023 1 1027 1 
1 209 30 1 44 1 67 1 69 1 92 1 120 1 122 1 135 1 141 1 164 1 174 1 175 1 187 1 190 2 211 1 212 1 219 1 222 1 229 1 234 1 263 1 269 1 277 1 290 1 313 1 323 1 348 1 355 1 359 2 365 1 393 1 397 1 420 1 421 1 440 1 452 1 474 1 499 2 23 1 52 1 59 1 121 1 124 1 130 1 139 1 182 1 195 1 217 1 245 1 264 1 309 1 312 1 327 1 341 1 346 1 394 1 438 1 465 1 471 1 493 1 494 1 498 1 527 1 534 1 538 1 551 1 551 1 559 1 560 1 581 1 601 1 616 1 651 1 656 1 670 1 672 1 697 1 756 1 762 1 783 1 786 1 807 1 822 2 833 1 836 1 846 1 900 1 902 1 921 1 970 1 566 1 603 1 615 1 658 1 666 1 690 1 692 1 715 1 774 1 779 1 820 1 830 1 847 1 855 1 860 1 867 1 879 1 888 1 910 1 919 1 952 1 989 1 1014 1 1022 1 1024 1 
1 209 28 1 43 1 55 1 125 1 155 1 176 1 215 1 264 1 287 1 289 1 293 1 294 1 307 1 309 1 330 1 331 1 333 1 336 2 338 1 342 1 392 1 397 1 458 2 461 1 487 1 524 1 533 1 541 1 19 1 64 1 82 1 97 1 119 1 127 1 139 1 152 1 157 1 202 1 210 1 211 1 235 1 278 1 302 1 308 1 353 1 369 1 382 1 422 1 435 1 497 1 538 1 546 1 561 1 571 1 629 1 631 1 652 1 676 1 677 1 678 1 685 1 689 1 696 1 738 1 796 1 806 1 840 1 849 1 850 1 892 1 907 1 910 1 911 1 915 1 932 1 943 2 945 1 997 1 999 1 566 1 583 1 605 1 607 1 617 1 618 1 640 1 660 1 664 1 688 1 736 1 749 1 761 1 768 1 770 1 789 1 790 1 802 1 828 1 831 1 838 1 843 1 854 1 879 1 894 1 935 1 941 1 949 1 968 1 983 1 1002 1 1012 1 1013 1 1019 1 
1 211 10 1 33 1 48 1 57 1 143 1 153 1 170 1 175 1 193 1 200 1 213 1 259 1 289 1 303 1 304 1 312 1 334 1 347 1 352 2 363 1 403 1 404 1 407 1 426 1 433 1 434 1 458 1 498 1 12 1 35 1 84 1 92 1 94 1 103 1 112 1 134 1 168 1 174 1 253 1 262 1 264 1 275 1 279 1 294 1 341 1 344 1 360 1 365 1 366 1 382 1 390 1 393 1 401 1 406 1 422 1 442 1 450 1 455 1 461 1 487 1 499 1 506 1 521 1 555 1 566 2 578 1 579 1 591 1 616 1 630 1 646 1 655 2 663 2 679 1 687 1 719 1 742 2 782 1 815 1 828 1 854 1 871 1 878 1 882 1 891 2 894 1 903 1 909 1 910 1 915 1 917 1 924 1 957 1 978 1 998 1 556 1 565 1 567 1 601 1 620 1 632 1 657 1 662 1 667 1 683 1 701 1 706 1 707 1 708 1 741 1 776 1 826 1 927 1 958 1 984 1 991 1 995 1 1011 1 1013 1 
1 213 8 1 21 1 22 1 34 1 54 1 65 1 81 1 108 1 125 2 152 1 187 1 192 1 193 2 205 1 208 1 213 1 214 2 295 1 298 1 319 1 322 1 338 1 345 1 387 1 388 1 445 1 473 1 479 1 481 1 511 1 535 1 36 1 53 1 58 1 63 1 73 1 90 1 97 1 113 1 169 1 173 1 177 1 212 1 215 1 251 1 259 1 263 1 281 1 299 1 301 1 310 1 320 1 353 1 354 1 366 1 427 1 438 1 448 1 451 1 455 1 502 1 588 1 592 1 593 1 605 1 616 2 627 1 662 2 664 1 672 1 688 1 703 1 704 1 726 1 742 1 752 1 764 1 782 1 826 1 827 2 842 1 855 1 872 1 873 1 877 1 904 1 925 1 934 1 971 1 990 1 567 1 573 1 625 1 628 1 635 1 644 1 673 1 693 1 696 1 721 1 751 1 765 1 786 1 848 1 926 1 937 1 943 1 965 1 973 1 995 1 1002 1 1009 1 1011 1 1014 1 1019 1 1023 1 
1 213 6 2 16 1 58 1 79 1 87 1 89 1 201 1 227 1 288 1 330 1 368 1 370 1 375 1 378 1 391 1 398 1 416 1 430 1 457 1 469 1 501 1 521 1 523 1 541 1 553 1 36 1 37 1 43 1 45 1 51 1 61 1 67 1 138 1 148 1 164 1 169 1 214 1 222 1 232 1 248 1 287 1 296 1 307 1 312 1 321 1 325 1 366 1 377 1 394 1 408 1 419 1 425 1 453 1 463 1 602 1 607 1 639 1 645 1 664 1 672 2 724 1 745 1 748 2 751 1 765 2 771 1 790 1 818 1 866 1 870 1 876 1 926 1 939 1 951 1 963 2 977 1 988 1 566 1 571 1 572 1 581 1 594 1 604 1 618 1 685 1 688 1 726 1 757 1 772 1 785 1 834 1 839 1 846 1 847 1 850 1 869 1 919 1 938 1 947 1 956 1 1004 1 1014 1 1025 1 
1 208 3 1 62 1 67 1 84 1 86 1 99 1 116 1 128 1 142 1 161 1 179 1 201 1 218 1 255 1 265 1 276 1 289 1 315 1 317 1 382 1 396 2 405 1 412 1 448 1 453 1 454 1 461 1 462 1 471 1 481 2 5 1 23 1 60 1 72 1 94 1 105 1 131 1 137 1 139 1 146 1 149 1 151 1 152 1 189 1 206 1 237 1 238 1 256 1 268 1 299 1 310 1 336 1 349 1 373 1 389 1 424 1 439 1 478 1 483 1 493 1 518 1 523 1 553 1 576 1 578 1 583 1 585 1 590 1 624 1 670 1 676 1 679 1 716 1 723 1 728 1 749 1 782 1 795 1 805 1 806 1 814 2 821 1 829 2 844 1 856 1 861 1 874 1 893 1 894 2 896 1 916 1 917 1 940 1 948 1 951 1 964 1 990 1 559 1 562 1 565 1 572 1 611 1 634 1 641 1 701 1 704 1 706 1 785 1 793 1 864 1 868 1 907 1 909 1 922 1 925 1 963 1 974 1 995 1 1020 1 
1 206 4 1 30 1 45 1 83 1 104 1 105 1 117 1 130 1 162 1 164 1 177 1 211 1 225 2 239 1 254 1 261 1 300 1 357 1 390 2 406 1 412 1 416 1 418 1 424 1 425 1 431 1 447 1 496 1 517 1 12 1 71 1 80 1 112 1 136 1 143 1 153 1 158 1 182 1 184 1 187 1 195 1 200 1 213 1 214 1 250 1 257 1 296 1 311 1 364 1 367 1 371 1 397 1 409 1 433 1 441 1 459 1 466 1 483 1 502 1 528 1 538 1 580 1 590 1 596 1 609 1 622 1 623 1 634 1 652 1 657 1 666 1 676 1 677 1 680 2 694 1 728 1 732 1 758 1 785 1 796 1 832 1 845 1 851 1 855 1 875 1 957 1 995 1 999 1 573 1 577 1 632 1 650 1 671 1 674 1 691 1 720 1 727 1 746 1 792 1 808 1 816 1 843 1 877 1 887 1 892 1 918 1 978 1 979 1 991 1 1007 1 1014 1 
1 210 51 1 84 1 101 1 102 1 123 1 126 1 136 1 157 1 169 1 173 1 201 1 205 1 222 1 228 1 244 1 254 1 271 1 274 1 297 1 304 2 325 1 355 1 379 2 395 1 442 1 456 1 473 1 477 1 483 1 486 1 506 1 524 1 529 1 38 1 45 1 66 1 92 1 106 1 129 1 132 1 141 1 148 1 153 1 155 1 197 1 238 1 252 1 260 1 273 1 278 1 294 1 302 1 312 1 329 1 332 1 335 1 356 1 370 1 389 1 478 1 491 1 522 1 541 1 544 1 546 1 564 2 582 2 583 1 598 2 601 1 622 1 632 1 635 1 666 1 670 2 675 1 679 1 715 1 755 1 757 1 780 1 798 1 807 1 824 2 843 1 867 1 884 1 889 1 902 1 910 1 955 1 964 1 985 1 997 1 591 1 608 1 615 1 645 1 651 1 669 1 709 1 711 1 723 1 735 1 740 1 747 1 749 1 752 1 779 1 800 1 803 1 825 1 856 1 908 1 914 1 941 1 946 1 982 1 1001 1 1019 1 
1 211 30 1 49 1 76 1 88 1 136 1 141 1 151 2 161 1 187 2 190 2 204 1 251 1 252 1 263 1 269 1 274 2 278 2 287 1 288 1 293 1 309 1 334 2 345 1 348 1 358 1 380 2 417 1 425 1 462 1 469 1 471 1 524 1 531 1 551 1 9 1 12 1 34 1 35 1 44 1 56 1 63 1 86 1 91 1 117 1 144 1 158 1 159 1 160 1 164 1 186 1 192 1 198 1 239 1 256 1 286 1 297 1 301 1 321 1 335 1 368 1 386 1 440 1 464 1 474 1 475 1 479 1 499 1 532 1 535 1 536 1 556 1 581 1 588 1 592 1 630 1 633 1 658 1 681 1 694 1 709 1 712 1 722 1 731 1 736 1 737 1 742 1 746 1 749 1 750 1 773 1 777 1 788 1 841 1 910 1 912 1 913 1 931 1 940 1 941 1 956 1 964 1 975 1 978 1 625 1 632 1 706 1 716 1 720 1 764 1 781 1 784 1 815 1 869 1 879 1 880 1 882 1 888 1 889 1 924 1 959 1 989 1 992 1 1006 1 1007 1 1009 1 
1 210 8 1 23 1 35 1 38 1 52 1 68 1 70 1 87 1 95 1 101 1 103 1 106 1 122 1 140 1 160 1 167 1 174 1 195 1 203 1 214 1 230 1 256 1 273 1 288 1 294 1 300 1 302 1 327 1 336 1 338 1 350 1 351 1 352 1 360 1 361 1 400 1 412 1 420 2 428 1 463 1 466 1 470 1 484 2 517 1 523 1 539 1 549 1 551 1 22 1 71 1 76 1 108 1 111 1 114 1 131 1 147 1 161 1 180 1 181 1 190 1 239 1 276 1 280 1 290 1 296 1 305 1 309 1 323 1 324 1 326 1 357 1 369 1 377 1 444 1 453 1 483 1 487 1 508 1 511 1 513 1 526 1 546 1 548 1 584 1 597 1 603 1 630 1 657 1 675 1 681 1 686 1 704 1 724 1 726 1 731 1 732 1 733 2 747 1 755 1 756 1 775 1 845 1 850 1 876 1 897 1 915 1 920 1 994 1 563 1 585 1 586 1 602 1 638 1 642 1 661 1 676 1 696 1 787 1 800 1 809 1 833 1 862 1 884 1 928 1 934 1 938 1 963 1 1001 1 1020 1 1022 1 
1 206 17 1 26 1 33 1 44 1 48 1 61 1 66 1 111 1 120 1 132 1 150 1 158 1 180 1 204 1 211 1 219 1 240 1 242 1 328 1 344 1 353 1 356 1 367 1 369 1 381 2 382 1 393 1 394 1 400 1 402 1 425 1 429 1 436 1 474 1 496 1 522 1 545 1 550 1 552 1 18 1 25 1 39 1 68 1 93 1 102 1 117 1 124 1 129 1 139 1 157 1 169 1 182 1 206 1 224 1 296 1 333 1 334 1 363 1 366 1 391 1 417 1 439 1 449 1 456 1 460 1 476 1 485 1 493 1 510 1 523 1 524 1 593 1 621 1 624 1 629 1 632 1 688 1 742 1 759 1 778 1 798 1 800 1 802 1 810 1 826 1 843 1 851 1 872 1 876 1 880 1 884 1 914 1 924 1 961 1 967 1 564 1 571 1 584 1 595 1 615 1 616 1 634 1 644 1 663 1 681 1 693 1 697 1 709 1 722 1 770 1 803 1 823 1 834 1 848 1 889 1 892 1 908 1 948 1 957 1 983 1 1016 1 1021 1 
1 211 1 1 41 1 78 1 98 1 111 1 126 1 147 1 154 1 161 1 184 1 207 1 217 1 251 1 256 1 264 1 292 1 300 1 341 1 346 1 367 1 420 1 422 1 433 1 467 1 470 1 496 1 518 1 531 1 540 1 544 1 5 1 21 1 81 1 95 1 103 1 183 1 188 1 219 1 233 1 234 1 311 1 329 1 335 1 348 1 355 1 357 1 401 1 407 1 410 1 448 1 457 1 471 1 481 1 491 1 505 1 514 1 516 1 520 1 521 1 525 1 534 1 538 1 556 1 568 1 587 1 592 1 598 1 651 1 677 1 725 1 757 1 776 1 782 2 787 1 798 1 838 1 862 1 902 1 907 1 930 1 932 1 943 1 979 1 583 1 599 1 606 1 658 1 670 1 675 1 702 1 705 1 718 1 736 1 740 1 758 1 759 1 799 1 803 1 840 1 844 1 848 1 855 1 859 1 881 1 887 1 888 1 894 1 900 1 965 1 971 1 982 1 988 1 1002 1 1011 1 
1 212 14 1 24 1 50 1 64 1 67 1 83 1 118 1 174 1 178 1 209 1 218 1 237 1 257 1 299 1 311 1 324 1 347 1 353 1 357 1 390 1 394 1 404 1 424 1 432 2 433 1 470 1 478 1 495 1 499 1 516 1 517 1 1 1 21 1 40 1 41 1 47 1 72 1 110 1 112 1 113 1 149 1 167 1 233 1 328 1 349 1 362 1 371 1 385 1 403 1 431 1 449 1 467 1 477 1 506 1 528 1 536 1 560 1 566 1 573 1 595 1 597 1 601 1 621 1 622 1 639 1 647 2 682 1 686 1 703 1 715 2 730 1 750 1 757 1 782 1 789 1 796 1 820 1 823 1 946 1 947 1 973 1 978 1 980 2 981 1 998 1 999 2 629 1 661 1 670 1 679 1 697 1 711 1 727 1 734 1 741 1 744 1 787 1 822 1 839 1 847 1 861 1 885 1 887 1 895 1 925 1 938 1 945 1 971 1 974 1 989 1 1016 1 1020 1 1022 1 
1 206 12 1 34 1 43 1 46 1 68 1 70 1 73 1 127 1 140 1 167 1 169 1 211 1 213 1 230 1 250 1 268 1 334 1 341 1 351 1 390 1 421 1 427 1 465 1 491 1 493 1 558 2 4 1 38 1 52 1 58 1 86 1 96 1 98 1 99 1 103 1 151 1 173 1 185 1 199 1 219 1 231 1 235 1 254 1 255 1 257 1 258 1 280 1 283 1 286 1 306 1 307 1 328 1 343 1 345 1 353 1 374 1 379 1 419 1 420 1 431 1 440 1 442 1 448 1 475 1 476 1 502 1 505 1 521 1 537 1 561 1 607 1 686 1 706 1 723 1 731 1 765 1 812 1 852 1 866 1 910 1 919 1 938 1 944 1 958 1 959 1 970 1 981 1 983 1 988 1 595 1 627 1 651 1 673 1 677 1 682 1 683 1 724 1 726 1 732 1 772 1 777 1 786 1 793 1 799 1 836 1 843 1 859 1 864 1 889 1 893 1 936 1 947 1 957 1 
1 210 57 1 60 2 83 1 104 1 140 1 164 1 194 2 206 1 216 1 218 1 240 1 263 1 287 1 289 1 294 1 331 1 333 1 341 1 355 1 387 1 391 1 426 1 460 1 536 1 1 1 38 1 53 1 70 1 105 1 117 1 124 1 174 1 225 1 231 1 244 1 250 1 303 1 304 1 322 1 374 1 406 1 416 1 421 1 442 1 444 1 465 1 490 1 496 1 507 1 514 1 516 1 553 1 556 1 581 1 582 1 594 1 598 1 613 1 648 1 687 1 748 1 753 1 757 1 768 1 847 1 863 1 876 1 894 1 944 1 965 1 966 1 579 1 605 1 641 1 643 1 657 1 661 1 733 1 742 1 760 1 769 1 771 1 790 1 795 1 802 1 813 1 822 1 823 1 835 1 866 1 873 1 880 1 907 1 929 1 942 1 949 1 956 1 964 1 978 1 980 1 1007 1 1011 1 1015 1 1021 1 1024 1 
1 210 8 1 32 1 42 1 74 1 83 1 92 1 112 1 118 1 171 1 178 1 197 1 198 1 286 1 288 1 301 1 326 1 334 1 349 1 356 1 367 1 393 1 419 1 442 1 444 1 485 1 493 2 500 1 518 1 525 1 553 2 563 1 18 1 46 1 48 1 70 1 76 1 86 1 99 1 111 1 113 1 133 1 137 1 142 1 165 1 166 1 242 1 243 1 248 1 297 1 332 1 333 1 350 1 389 1 435 1 441 1 443 1 452 1 480 1 546 1 551 1 552 1 555 1 567 1 573 1 588 1 590 1 592 1 606 1 624 1 628 1 635 1 654 1 666 1 695 1 710 1 729 1 782 1 784 1 785 1 801 1 811 1 826 1 835 1 847 1 851 2 888 1 896 1 920 1 929 1 933 1 938 1 955 1 984 1 593 1 601 1 610 1 625 1 674 1 717 1 723 1 735 1 795 1 836 1 837 1 842 1 853 1 873 1 883 1 894 1 902 1 924 1 927 1 932 1 941 1 967 1 980 1 981 1 1011 1 1013 1 
1 214 41 1 49 1 58 1 87 1 110 1 112 1 124 1 139 1 184 2 187 1 221 1 239 1 273 1 316 1 321 1 335 1 352 1 359 1 396 1 470 1 481 1 482 1 489 1 490 1 505 1 538 1 548 1 566 1 62 1 68 1 100 1 108 1 119 1 129 1 145 1 160 1 170 1 224 1 231 1 245 1 294 1 297 1 304 1 315 1 318 1 341 1 346 1 364 1 385 1 406 1 451 1 496 1 500 1 527 1 553 1 554 1 585 1 605 2 608 1 626 1 631 1 648 1 655 1 661 1 664 1 667 1 669 1 676 1 689 1 699 1 706 1 711 1 732 1 742 1 745 1 775 1 782 1 784 1 832 1 836 1 850 1 885 1 982 1 987 1 996 1 573 1 575 1 579 1 604 1 638 1 670 1 691 1 710 1 714 1 729 1 751 1 767 1 773 1 800 1 812 1 847 1 851 1 912 1 920 1 924 1 954 1 963 1 1001 1 1008 1 1013 1 1015 1 1017 1 1020 1 1022 1 1024 1 
1 215 2 1 4 1 6 1 16 1 45 1 48 1 87 1 106 1 132 1 141 1 150 1 160 1 174 1 178 1 186 1 190 1 219 1 224 1 240 1 242 2 258 1 265 1 268 1 336 1 366 1 378 2 439 1 459 1 462 1 481 1 502 1 515 1 527 1 539 2 562 1 19 1 31 1 36 1 41 1 47 1 55 1 81 1 101 1 124 1 142 1 165 1 167 1 207 1 211 1 213 1 214 1 228 1 235 1 247 1 255 1 281 1 307 1 338 1 365 1 379 1 387 1 413 1 416 1 431 1 454 1 457 1 469 1 479 1 498 1 529 1 547 1 581 1 600 1 604 1 660 2 692 1 704 1 711 1 728 1 744 1 746 1 756 1 773 1 775 1 788 1 790 1 822 1 830 1 894 1 896 1 905 1 907 1 922 1 931 1 970 1 971 1 998 1 579 1 582 1 583 1 584 1 652 1 690 1 700 1 719 1 741 1 772 1 793 1 819 1 829 1 840 1 893 1 899 1 900 1 909 1 910 1 923 1 926 1 947 1 962 1 1006 1 1008 1 1014 1 1016 1 1020 1 1022 1 1024 1 1027 1 
1 210 26 1 50 1 61 1 73 1 94 1 188 1 195 1 197 2 223 1 252 1 254 1 265 1 275 1 359 1 360 1 390 1 395 1 396 1 407 1 409 1 442 1 449 1 474 1 476 1 478 1 533 1 15 1 55 1 64 1 83 1 108 1 114 1 122 1 143 1 164 1 168 1 189 1 248 1 270 1 315 1 317 1 338 1 342 1 379 1 415 1 457 1 465 1 472 1 492 1 495 1 510 1 521 1 526 1 527 1 576 2 577 1 589 1 604 1 629 1 634 1 722 1 786 1 794 1 796 1 821 1 832 1 834 1 840 1 886 1 908 1 917 1 920 1 925 1 946 1 959 1 967 1 590 1 593 1 609 1 610 1 618 1 623 1 624 1 661 1 674 1 689 1 694 1 703 1 708 1 738 1 748 1 780 1 792 1 799 1 816 1 828 1 838 1 855 1 901 1 903 1 906 1 907 1 919 1 943 1 984 1 990 1 994 1 1008 1 1014 1 1025 1 1026 1 
1 205 34 1 47 1 51 1 105 1 110 1 114 1 147 1 150 1 156 1 164 2 169 1 176 1 199 1 204 1 218 1 246 1 250 1 255 1 267 1 282 1 286 1 292 1 308 1 331 1 385 2 409 1 437 1 444 1 487 1 506 1 509 1 526 1 6 1 23 1 24 1 33 1 79 1 96 1 125 1 136 1 138 1 148 1 183 1 201 1 212 1 228 1 243 1 251 1 264 1 266 1 280 1 289 1 298 1 309 1 333 1 343 1 401 1 425 1 449 1 481 1 483 1 485 1 499 1 544 1 628 1 641 1 653 1 658 1 659 1 751 1 769 1 772 1 778 1 782 1 783 1 828 1 831 1 842 1 853 1 932 1 968 1 970 1 985 1 986 1 572 1 588 1 636 1 637 1 642 1 656 1 675 1 676 1 677 1 697 1 702 1 709 1 714 1 716 1 741 1 788 1 795 1 799 1 807 1 822 1 848 1 859 1 860 1 879 1 896 1 930 1 933 1 942 1 950 1 1008 1 1018 1 
1 210 23 1 34 1 63 1 76 1 93 1 99 1 114 1 128 1 174 1 216 1 221 1 233 1 239 1 244 1 254 1 262 1 265 2 272 1 281 1 284 1 289 1 308 1 312 1 321 1 348 1 390 1 412 1 413 1 454 1 476 1 482 1 486 1 493 1 503 1 505 1 520 1 543 1 552 1 12 1 25 1 44 1 53 1 55 1 73 1 94 1 103 1 115 1 130 1 131 1 168 1 173 1 203 1 204 1 208 1 212 1 236 1 279 1 319 1 324 1 358 1 374 1 383 1 397 1 407 1 430 1 468 1 469 1 483 1 494 1 497 1 501 1 525 1 529 1 530 1 532 1 555 1 561 1 575 1 590 1 600 1 635 1 636 1 710 1 714 1 744 1 765 1 766 1 769 1 775 1 783 1 799 1 807 1 822 1 856 1 864 1 867 1 884 1 908 2 932 1 953 1 954 1 955 1 976 1 990 2 998 1 608 1 612 1 619 1 649 1 665 1 674 1 680 1 682 1 698 1 705 1 712 1 719 1 761 1 773 1 780 1 781 1 798 1 809 1 848 1 860 1 893 1 905 1 907 1 923 1 928 1 934 1 980 1 
1 212 9 1 48 1 69 1 97 1 108 1 122 1 126 1 129 1 150 1 178 1 182 1 183 1 205 1 211 1 222 1 228 1 246 1 258 1 264 2 276 1 280 1 290 1 291 1 307 1 308 1 311 1 318 1 320 1 375 2 391 1 404 1 418 1 433 2 444 1 456 1 467 1 499 1 517 1 532 1 15 1 20 1 49 1 51 1 54 1 78 1 87 1 94 1 98 1 128 1 137 1 152 1 198 1 199 1 259 1 296 1 321 1 355 1 363 1 371 1 382 1 415 1 421 1 440 1 460 1 462 1 507 1 508 1 510 1 520 1 530 1 533 1 555 1 556 1 570 1 640 1 646 2 649 1 705 1 735 1 759 1 774 1 792 1 801 1 821 1 831 1 842 1 852 1 860 1 864 1 865 1 867 1 900 1 909 1 920 2 932 1 944 1 956 1 958 2 573 1 577 1 587 1 588 1 592 1 601 1 615 1 656 1 686 1 706 1 722 1 726 1 734 1 762 1 782 1 795 1 819 1 832 1 838 1 885 1 918 1 924 1 937 1 970 1 986 1 987 1 1015 1 1026 1 
1 215 35 1 91 1 94 1 96 1 125 1 173 2 178 1 200 1 216 1 232 1 241 1 258 1 288 1 307 1 345 1 398 1 404 2 419 1 454 1 468 2 501 1 503 1 515 1 526 2 541 1 542 1 546 1 563 1 566 1 18 1 33 1 46 1 57 1 65 1 71 1 76 1 101 1 105 1 121 1 123 1 167 1 192 1 222 1 246 1 253 1 255 1 263 1 281 1 293 1 294 1 312 1 316 1 341 1 439 1 483 1 487 1 524 1 554 1 557 1 567 1 572 1 577 1 578 1 591 1 598 1 605 1 614 1 617 1 631 1 635 1 654 1 667 2 677 1 681 2 704 1 727 1 819 1 824 1 825 1 830 1 835 1 846 1 890 1 891 1 895 1 899 1 905 1 912 1 923 1 936 1 956 1 961 1 963 1 977 1 709 1 718 1 721 1 746 1 759 1 777 1 800 1 803 1 822 1 831 1 832 1 845 1 849 1 854 1 857 1 859 1 864 1 879 1 881 1 897 1 951 1 954 1 978 1 984 1 999 1 1013 1 1014 1 1017 1 1018 1 1020 1 1027 1 
1 207 92 2 96 1 103 1 134 1 137 1 144 1 176 1 177 1 204 1 209 1 225 1 240 1 244 1 268 1 321 1 327 1 362 1 370 1 371 1 395 1 402 1 417 1 428 2 435 1 441 1 447 1 473 1 476 1 486 1 507 1 513 1 530 2 72 1 112 1 124 1 125 1 146 1 163 1 175 1 199 1 202 1 206 1 222 1 255 1 276 1 324 1 346 1 363 1 380 1 383 1 408 1 425 1 431 1 443 1 468 1 511 1 542 1 543 1 582 1 584 1 587 1 590 1 599 1 620 1 628 1 644 1 645 1 655 1 674 1 679 2 680 1 681 1 714 1 735 1 773 1 811 1 812 1 843 1 847 1 863 1 871 1 874 1 876 1 880 1 894 1 927 1 937 1 940 1 991 2 995 1 635 1 688 1 690 1 704 1 734 1 751 1 804 1 807 1 815 1 818 1 826 1 851 1 879 1 889 1 930 1 931 1 943 1 945 1 950 1 1008 1 1021 1 
1 207 1 1 4 1 30 1 33 1 40 1 42 1 54 1 90 1 121 1 140 2 179 1 186 1 236 1 250 1 290 1 307 1 322 1 333 1 352 1 380 1 416 1 445 1 452 1 466 1 502 1 517 2 530 1 571 1 51 1 55 1 69 1 76 1 93 1 146 1 170 1 188 1 217 1 220 1 221 1 226 1 228 1 230 1 243 1 254 1 263 1 284 1 293 1 294 1 325 1 344 1 353 1 404 1 467 1 468 1 476 1 493 1 498 1 508 1 509 1 521 1 523 1 543 1 548 1 567 1 593 1 652 1 653 1 673 1 684 1 688 1 696 1 709 1 712 1 724 1 800 1 815 1 860 1 906 1 907 1 910 1 911 1 916 1 961 2 586 1 595 1 602 1 610 1 651 1 693 1 694 1 701 1 707 1 744 1 762 1 777 1 789 1 794 1 840 1 867 1 901 1 909 1 928 1 941 1 942 1 944 1 949 1 953 1 955 1 966 1 976 1 979 1 990 1 1000 1 1012 1 1020 1 1024 1 
1 212 45 1 86 1 100 1 103 1 119 1 160 1 186 1 195 1 235 1 252 1 275 1 287 1 292 1 310 1 327 1 329 1 333 1 384 2 386 1 387 1 393 1 427 1 433 1 487 1 510 1 513 1 519 1 532 1 535 1 556 1 569 2 6 1 7 1 10 1 17 1 26 1 83 1 92 1 95 1 120 1 164 1 176 1 204 1 210 1 212 1 257 1 264 1 273 1 277 1 311 1 318 1 324 1 328 1 334 1 335 1 347 1 361 1 372 1 377 1 388 1 400 1 407 1 418 1 419 1 456 1 458 1 578 1 580 1 626 1 635 1 659 1 717 1 736 1 752 1 770 1 790 1 797 1 804 2 805 1 818 1 837 1 868 1 921 1 954 2 972 1 987 1 579 1 582 1 583 1 595 1 601 1 618 1 633 1 640 1 644 1 661 1 671 1 726 1 732 1 740 1 756 1 763 1 768 1 769 1 799 1 858 1 860 1 865 1 870 1 874 1 907 1 919 1 927 1 990 1 1000 1 1010 1 1022 1 
1 209 14 1 26 1 34 1 48 1 51 1 99 1 123 1 127 1 162 1 165 1 187 1 196 1 207 1 213 1 216 1 244 1 253 2 267 1 274 1 328 1 351 1 352 1 379 1 410 1 413 1 439 1 443 1 448 1 493 1 495 1 501 1 530 1 536 1 541 1 569 1 573 1 15 1 17 1 43 1 54 1 58 1 66 1 105 1 109 1 120 1 134 1 141 1 204 1 205 1 223 1 238 1 264 1 273 1 285 1 305 1 335 1 392 1 405 1 415 1 417 1 428 1 450 1 476 1 488 1 513 1 520 1 532 1 535 1 557 1 572 1 597 1 646 1 667 1 693 1 697 1 732 1 751 1 756 1 769 1 777 1 782 1 802 1 805 1 815 1 817 1 831 1 834 1 870 1 873 1 938 1 952 1 954 1 962 1 595 1 603 1 620 1 628 1 640 1 656 1 659 1 664 1 708 1 721 1 734 1 736 1 738 1 739 1 768 1 806 1 871 1 876 1 893 1 910 1 912 1 923 1 933 1 942 1 959 1 968 1 1004 1 1018 1 1021 1 1023 1 
1 216 19 1 58 1 64 1 71 1 97 1 113 1 145 1 186 1 195 1 238 1 259 1 271 1 274 1 287 1 300 1 304 1 314 1 318 1 325 1 335 1 348 1 373 2 417 1 420 1 432 1 437 1 441 1 465 1 499 1 553 1 556 1 573 1 576 1 2 1 11 1 60 1 68 1 75 1 81 1 96 1 109 1 127 1 132 1 149 1 156 1 167 1 168 1 171 1 175 1 177 1 198 1 203 1 221 1 273 1 282 1 305 1 323 1 336 1 338 1 341 1 351 1 371 1 379 1 409 1 419 1 429 1 444 1 447 1 455 1 469 1 492 1 514 1 519 1 539 1 615 1 620 1 661 1 674 1 717 1 719 1 778 2 784 1 807 1 814 1 826 1 831 1 839 1 844 1 845 1 868 1 880 1 891 1 951 1 954 1 960 1 993 1 626 1 647 1 655 1 690 1 698 1 715 1 724 1 734 1 739 1 750 1 792 1 796 1 801 1 817 1 820 1 835 1 882 1 897 1 942 1 947 1 955 1 958 1 963 1 964 1 973 1 985 1 1000 1 1005 1 1008 1 1019 1 1021 1 
1 205 39 1 102 1 110 1 118 1 119 1 122 1 158 1 173 1 175 1 200 1 212 2 268 1 274 1 285 1 316 1 364 1 376 1 384 1 389 1 398 1 422 1 424 2 435 1 490 1 500 2 523 1 536 1 540 1 553 1 47 1 49 1 80 1 89 1 111 1 120 1 127 1 137 1 165 1 180 1 210 1 224 1 247 1 259 1 265 1 287 1 302 1 323 1 347 1 360 1 388 1 392 1 394 1 409 1 440 1 443 1 469 1 471 1 514 1 520 1 544 1 565 1 567 1 568 1 576 1 581 1 599 1 625 1 640 1 641 1 644 1 665 1 673 1 724 1 738 1 765 1 769 1 810 1 834 1 844 1 848 2 873 1 879 1 882 1 890 1 928 1 931 2 944 2 961 1 981 1 999 1 595 1 612 1 655 1 670 1 702 1 713 1 728 1 753 1 754 1 794 1 841 1 877 1 921 1 951 1 952 1 954 1 969 1 970 1 982 1 987 1 996 1 1010 1 1012 1 1014 1 
1 209 46 1 60 1 69 2 74 1 77 1 78 1 81 1 90 2 97 1 109 2 113 1 118 1 137 2 176 1 177 1 212 1 214 1 240 1 247 1 295 1 297 1 318 1 321 1 325 1 341 1 358 1 366 2 369 1 449 1 453 1 463 1 474 1 487 1 489 1 498 1 504 1 506 1 510 1 513 1 538 1 549 1 557 1 576 1 14 1 32 1 96 1 112 1 131 1 146 1 151 1 153 1 158 1 160 1 245 1 253 1 254 1 255 1 258 1 311 1 314 1 315 1 316 1 353 1 362 1 371 1 372 1 376 1 402 1 421 1 444 1 464 1 475 1 480 1 481 1 493 1 536 1 581 1 582 1 600 1 630 1 640 1 667 1 706 1 715 1 716 1 726 1 730 1 742 1 749 1 765 1 776 1 805 1 822 1 835 1 837 2 889 1 926 1 930 1 963 1 970 1 984 1 997 1 612 1 647 1 682 1 683 1 694 1 698 1 703 1 713 1 735 1 738 1 748 1 760 1 784 1 827 1 866 1 884 1 946 1 955 1 976 1 1026 1 
1 210 68 2 74 1 93 1 98 1 99 1 122 1 131 1 132 1 149 1 206 1 223 1 248 1 260 1 281 1 282 1 299 1 315 1 328 1 330 1 336 1 362 1 393 1 405 1 425 1 492 2 500 1 550 1 551 1 559 1 565 1 568 1 579 1 580 1 7 1 34 1 50 1 51 1 54 1 60 1 72 1 78 1 107 1 109 1 158 1 163 1 165 1 185 1 201 1 237 1 244 1 291 1 295 1 302 1 337 1 340 1 350 1 373 1 378 1 389 1 442 1 454 1 474 1 503 1 555 1 593 1 597 1 625 1 646 1 650 1 669 2 678 1 799 1 800 1 824 2 859 1 862 1 863 1 865 2 884 1 908 1 916 1 918 1 929 1 961 1 979 2 592 1 601 1 605 1 612 1 658 1 662 1 667 1 689 1 734 1 738 1 740 1 743 1 770 1 781 1 795 1 813 1 815 1 841 1 851 1 861 1 878 1 903 1 909 1 913 1 942 1 951 1 953 1 981 1 987 1 989 1 991 1 1007 1 1015 1 
1 210 3 1 5 1 10 1 68 1 113 1 151 1 167 1 178 1 181 1 194 1 198 1 213 1 231 1 247 1 253 1 256 1 266 2 269 1 270 1 273 1 290 1 292 1 303 1 340 1 373 1 384 1 391 1 400 2 404 1 419 1 421 1 439 1 468 1 478 1 484 1 487 1 558 2 565 1 574 1 580 1 8 1 17 1 30 1 42 1 66 1 95 1 98 1 166 1 207 1 215 1 235 1 248 1 284 1 322 1 342 1 344 1 348 1 355 1 361 1 393 1 405 1 408 1 417 1 418 1 420 1 452 1 534 1 568 1 576 1 584 1 597 1 601 1 628 1 637 1 646 1 669 1 702 1 711 1 746 1 801 1 846 1 847 1 850 1 873 1 889 1 898 1 917 1 920 1 941 1 945 1 977 1 984 1 621 1 625 1 632 1 654 1 675 1 692 1 708 1 709 1 714 1 722 1 736 1 743 1 761 1 772 1 781 1 790 1 800 1 808 1 826 1 858 1 865 1 874 1 918 1 930 1 960 1 993 1 1012 1 1015 1 1022 1 1024 1 
1 206 48 2 49 1 65 1 68 1 73 1 100 2 104 1 138 1 155 1 166 1 173 1 174 1 192 2 216 1 239 1 242 1 278 1 293 1 311 1 353 1 381 1 402 1 403 1 405 1 451 1 498 1 506 1 510 1 515 1 531 1 550 2 556 1 558 1 11 1 57 1 72 1 75 1 87 1 89 1 93 1 99 1 133 1 134 1 148 1 169 1 198 1 199 1 217 1 246 1 247 1 249 1 260 1 287 1 289 1 291 1 303 1 315 1 347 1 372 1 408 1 418 1 427 1 439 1 446 1 491 1 522 1 552 1 562 1 568 1 576 1 589 1 610 1 615 1 633 1 645 1 666 1 674 1 693 2 712 1 725 1 762 1 768 1 775 1 809 1 811 1 812 1 830 1 831 1 832 1 854 1 857 1 875 1 878 1 898 1 913 1 929 1 952 1 997 1 605 1 609 1 627 1 668 1 672 1 685 1 686 1 695 1 707 1 713 1 763 1 777 1 838 1 855 1 876 1 957 1 965 1 992 1 1012 1 1027 1 
1 210 22 1 55 2 97 1 109 1 135 1 139 1 144 1 152 1 176 1 197 1 212 1 223 1 245 1 313 1 335 1 342 1 351 1 355 1 406 1 419 1 432 1 483 1 485 1 499 1 560 1 574 1 582 1 46 1 65 1 79 1 91 1 104 1 108 1 118 1 137 1 224 1 266 1 294 1 316 1 330 1 332 1 349 1 386 1 440 1 449 1 454 1 475 1 490 1 520 1 535 1 561 1 568 1 585 1 586 1 630 1 633 1 634 1 642 1 655 1 701 1 713 1 726 1 733 1 743 1 759 1 819 1 824 1 830 1 835 1 836 1 841 1 881 1 900 1 950 1 951 1 985 1 994 1 593 1 601 1 602 1 603 1 615 1 619 1 629 1 639 1 648 1 658 1 695 1 716 1 718 1 757 1 768 1 774 1 785 1 812 1 847 1 857 1 871 1 874 1 896 1 929 1 954 1 1010 1 1022 1 
1 210 37 1 39 1 63 1 65 1 68 1 88 1 94 2 119 1 164 1 175 1 178 1 231 1 240 1 243 1 253 1 264 1 270 1 297 1 298 1 324 1 357 1 372 1 412 1 420 1 424 1 440 1 498 1 510 1 540 1 543 1 556 1 567 1 584 1 79 1 111 1 126 1 132 1 182 1 199 1 214 1 215 1 220 1 241 1 286 1 289 1 290 1 350 1 354 1 359 1 411 1 422 1 452 1 462 1 478 1 495 1 497 1 499 1 500 1 505 1 514 1 545 1 560 1 614 2 642 1 665 1 691 1 699 1 711 1 760 1 768 1 782 2 826 1 868 1 870 1 895 1 903 1 920 1 957 1 968 1 973 1 983 1 987 1 588 1 601 1 629 1 634 1 646 1 656 1 732 1 761 1 775 1 781 1 811 1 837 1 877 1 891 1 932 1 936 1 961 1 962 1 969 1 985 1 1005 1 1011 1 1020 1 1021 1 
1 211 26 1 30 1 33 1 75 1 86 1 106 1 117 1 120 1 170 1 201 1 202 1 209 1 229 1 259 1 270 1 338 1 362 1 374 1 376 1 401 1 405 1 410 1 415 1 445 1 449 1 472 1 474 1 480 1 509 1 517 1 525 1 544 1 545 1 584 1 12 1 20 1 44 1 89 1 94 1 98 1 107 1 186 1 199 1 210 1 258 1 271 1 321 1 345 1 346 1 381 1 386 1 394 1 396 1 453 1 485 1 490 1 495 1 537 1 560 1 575 1 587 1 632 1 635 2 639 1 643 1 660 1 667 1 668 1 672 1 708 1 727 1 741 1 781 1 797 1 806 1 810 1 821 1 827 1 840 1 861 1 880 1 884 1 885 1 886 1 889 1 897 1 950 1 958 1 972 1 984 1 985 1 987 2 991 1 657 1 662 1 666 1 673 1 674 1 690 1 692 1 693 1 694 1 734 1 743 1 747 1 761 1 775 1 780 1 784 1 795 1 804 1 826 1 830 1 842 1 871 1 892 1 913 1 940 1 943 1 996 1 1002 1 1003 1 1010 1 1011 1 1016 1 1025 1 
1 213 5 1 39 1 67 1 92 1 130 1 144 1 190 1 197 1 242 1 266 1 332 1 339 1 341 1 356 1 385 1 395 1 424 1 431 1 435 1 438 1 449 1 462 1 480 1 483 1 495 1 500 1 505 1 533 1 536 1 562 1 574 1 586 1 2 1 24 1 28 1 36 1 41 1 54 1 58 1 60 1 75 1 80 1 91 1 105 1 108 1 114 1 126 1 151 1 156 1 161 1 166 1 214 1 244 1 250 1 252 1 276 1 285 1 287 1 292 1 371 1 381 1 404 1 407 1 425 1 437 1 442 1 481 1 485 1 501 1 511 1 512 1 572 1 596 1 607 1 622 1 631 1 635 1 639 1 640 1 646 1 672 1 677 1 693 1 697 1 699 1 706 1 731 1 733 1 751 1 791 1 867 1 877 1 898 1 901 1 906 2 917 1 935 1 943 1 953 1 979 1 982 1 987 1 614 1 623 1 624 1 647 1 663 1 668 1 723 1 727 1 745 1 788 1 806 1 807 1 837 1 856 1 870 1 900 1 918 1 925 1 939 1 949 1 961 1 974 1 995 1 996 1 1001 1 1004 1 1015 1 1023 1 1027 1 
1 208 9 1 15 1 36 1 60 1 64 1 69 1 77 1 78 1 84 1 89 1 102 1 121 2 156 1 158 1 172 1 173 1 216 1 252 1 258 1 265 1 273 2 299 1 324 1 328 1 331 1 341 1 343 1 384 1 427 1 462 1 467 1 470 1 472 1 495 1 499 1 518 1 535 1 544 1 554 1 559 1 566 1 7 1 85 1 98 1 106 1 127 1 129 1 133 1 181 1 202 1 232 1 234 1 245 1 251 1 261 1 267 1 306 1 357 1 405 1 436 1 459 1 469 1 474 1 487 1 493 1 511 1 516 1 539 1 549 1 570 1 572 1 585 1 610 1 674 1 684 1 685 1 734 1 736 1 789 1 790 1 801 1 852 1 854 1 894 1 911 1 914 1 934 1 935 1 962 1 969 1 975 1 978 1 979 1 990 1 592 1 623 1 624 1 635 1 657 1 687 1 691 1 692 1 716 1 747 1 795 1 798 1 889 1 922 1 930 1 933 1 944 1 947 1 952 1 964 1 985 1 995 1 1018 1 1023 1 
1 209 31 1 42 1 44 2 146 1 170 1 226 1 244 1 265 1 285 1 300 1 306 1 342 1 346 1 382 1 383 1 448 1 467 1 484 1 515 1 519 1 550 1 569 1 583 1 10 1 66 1 75 1 80 1 81 1 128 1 145 1 163 1 187 1 190 1 259 1 274 1 280 1 330 1 353 1 354 1 427 1 432 1 475 1 490 1 491 1 494 1 516 1 537 1 589 1 589 1 592 1 597 1 605 1 629 2 631 1 638 1 651 1 677 1 738 1 750 1 763 1 800 1 827 1 847 1 903 1 942 1 985 1 995 1 596 1 609 1 612 1 619 1 658 1 660 1 674 1 675 1 685 1 721 1 725 1 745 1 746 1 760 1 773 1 776 1 787 1 795 1 808 1 817 1 821 1 838 1 844 1 846 1 849 1 869 1 901 1 904 1 907 1 951 1 965 1 986 1 1004 1 1007 1 1011 1 1018 1 1020 1 
1 209 10 1 26 1 31 1 33 1 43 1 53 1 92 1 99 1 110 1 111 1 114 1 135 1 139 1 147 1 150 1 162 1 181 1 194 1 213 1 216 1 223 1 287 1 310 1 318 1 393 1 397 1 405 1 410 1 415 1 444 1 463 1 466 1 468 1 477 1 480 1 520 1 556 1 557 1 566 1 571 1 574 1 1 1 4 1 5 1 28 1 87 1 88 1 98 1 137 1 156 1 186 1 203 1 227 1 232 1 241 1 262 1 266 1 276 1 280 1 281 1 285 1 295 1 305 1 321 1 342 1 346 1 348 1 362 1 381 1 399 1 400 1 402 1 404 1 416 1 446 1 462 1 484 1 486 1 500 1 521 1 534 1 547 1 569 1 616 1 624 1 632 1 636 1 649 1 702 1 712 1 729 1 730 1 737 1 746 1 755 1 766 2 773 1 776 1 791 1 796 1 820 1 858 1 865 1 875 1 877 1 916 1 922 1 923 1 931 2 958 1 966 1 996 1 592 1 604 1 635 1 705 1 717 1 769 1 783 1 804 1 815 1 822 1 823 1 840 1 869 1 878 1 880 1 926 1 936 1 961 1 984 1 1020 1 
1 202 2 1 17 1 39 1 86 1 107 1 123 1 134 1 154 1 160 1 161 1 166 1 172 1 187 2 206 1 249 1 270 1 304 1 344 1 355 1 363 1 368 1 383 2 398 1 422 2 425 1 462 1 479 1 486 1 499 1 502 1 544 1 553 1 573 1 37 1 56 1 60 1 85 1 89 1 102 1 104 1 111 1 113 1 128 1 129 1 131 1 177 1 189 1 191 1 218 1 225 1 244 1 266 1 278 1 292 1 307 1 406 1 418 1 460 1 481 1 483 1 501 1 523 1 542 1 558 1 609 1 616 1 623 1 646 1 649 1 669 1 680 1 682 1 685 1 689 1 706 1 739 1 748 1 753 1 768 1 779 1 782 1 785 1 821 1 829 1 839 1 848 1 851 2 852 1 858 1 862 1 864 1 880 1 910 1 918 2 953 1 957 1 960 1 974 1 979 2 597 1 666 1 677 1 683 1 719 1 742 1 788 1 838 1 842 1 845 1 876 1 896 1 906 1 959 1 971 1 993 1 
1 204 23 1 36 1 60 1 64 2 67 1 96 1 127 2 137 1 140 1 144 1 145 1 148 1 173 1 200 1 202 1 203 1 224 1 252 1 266 1 277 2 299 1 323 1 343 1 347 1 349 1 354 1 362 1 363 1 458 1 512 1 524 1 535 1 554 1 559 1 562 1 566 1 589 1 2 1 30 1 33 1 40 1 71 1 75 1 77 1 79 1 86 1 117 1 130 1 142 1 149 1 156 1 170 1 207 1 213 1 225 1 294 1 319 1 328 1 330 1 358 1 436 1 437 1 514 1 572 1 581 1 588 1 590 1 593 1 611 1 639 1 653 1 655 1 662 1 666 1 719 1 735 1 766 1 797 1 808 1 828 1 842 1 861 1 868 1 871 2 908 1 914 1 980 1 634 1 665 1 680 1 683 1 696 1 704 1 709 1 714 1 737 1 758 1 780 1 783 1 784 1 786 1 787 1 799 1 811 1 840 1 894 1 926 1 939 1 941 1 950 1 956 1 
1 211 29 1 72 1 99 1 112 1 133 1 162 1 187 1 191 1 252 1 261 1 263 1 268 1 273 1 278 2 303 1 328 1 334 1 348 1 357 1 416 1 427 1 438 1 452 1 457 1 472 1 476 1 528 1 542 1 554 1 561 1 575 1 581 1 592 1 20 1 25 1 30 1 31 1 45 1 73 1 79 1 85 1 106 1 118 1 126 1 141 1 149 1 154 1 174 1 195 1 239 1 255 1 258 1 264 1 277 1 294 1 321 1 389 1 407 1 408 1 409 1 421 1 446 1 480 1 482 1 485 1 515 1 525 1 536 1 537 1 548 1 566 1 569 1 584 1 602 1 614 1 623 1 659 1 661 1 678 1 708 1 723 1 785 1 787 1 821 1 833 1 836 1 921 1 928 1 934 1 977 1 987 1 996 1 618 1 639 1 650 1 675 1 693 1 702 1 712 1 758 1 764 1 767 1 775 1 798 1 853 1 920 1 923 1 933 1 936 1 941 1 953 1 957 1 1001 1 1002 1 1004 1 1016 1 1020 1 
1 211 28 1 98 1 112 1 194 1 198 1 203 1 220 1 267 1 282 1 288 1 302 1 325 1 329 1 340 1 368 1 388 1 423 1 428 1 441 1 443 1 453 1 480 1 522 2 538 1 547 1 565 1 14 1 42 1 83 1 102 1 110 1 116 1 218 1 256 1 257 1 275 1 279 1 286 1 312 1 315 1 324 1 333 1 335 1 339 1 342 1 349 1 364 1 381 1 383 1 402 1 412 1 420 1 442 1 447 1 451 1 455 1 491 1 494 1 507 1 550 1 555 1 614 1 620 1 622 1 640 1 643 1 652 1 664 1 668 1 695 1 707 1 727 1 735 1 786 1 794 1 828 1 849 1 851 1 854 1 866 1 873 1 902 2 910 1 914 1 927 1 936 1 939 1 957 1 980 1 987 1 616 1 621 1 671 1 676 1 678 1 679 1 690 1 702 1 703 1 726 1 734 1 742 1 745 1 771 1 777 1 800 1 831 1 858 1 901 1 905 1 915 1 950 1 951 1 955 1 956 1 961 1 969 1 976 1 1006 1 1013 1 1017 1 
1 214 1 1 36 1 39 1 46 1 50 1 51 1 86 1 98 1 122 1 136 1 141 1 167 1 175 1 190 1 195 1 197 1 201 1 218 1 240 1 250 1 260 1 268 1 277 1 299 1 318 1 331 1 340 1 359 1 364 1 382 1 395 1 420 1 426 1 436 1 442 1 472 1 475 1 480 1 504 2 528 1 539 1 563 1 15 1 17 1 43 1 73 1 115 1 131 1 134 1 150 1 155 1 160 1 202 1 204 1 212 1 232 1 282 1 292 1 317 1 343 1 346 1 349 1 367 1 408 1 428 1 438 1 459 1 477 1 482 1 498 1 499 1 501 1 519 1 561 1 564 1 575 1 576 1 577 1 579 1 609 1 614 1 625 1 629 1 658 1 672 1 686 1 687 1 691 1 698 1 717 1 738 1 743 1 752 2 767 1 768 1 771 2 777 1 778 1 785 1 801 1 804 1 811 1 823 1 847 1 852 1 854 1 859 1 879 1 882 2 906 2 913 2 934 1 938 1 961 1 989 1 991 1 596 1 652 1 668 1 669 1 703 1 713 1 728 1 734 1 742 1 763 1 800 1 802 1 819 1 888 1 897 1 909 1 947 1 957 1 977 1 1000 1 1006 1 1010 1 1012 1 1016 1 1018 1 1024 1 
1 216 8 1 20 1 34 1 42 1 51 1 61 1 71 1 96 1 104 1 112 1 115 2 128 1 132 1 183 1 206 1 208 1 223 1 232 1 253 1 268 1 297 1 298 1 300 1 301 1 316 1 341 1 363 1 403 1 422 1 424 1 488 1 510 1 511 1 514 1 518 1 535 1 536 1 557 1 587 1 4 1 10 1 22 1 25 1 158 1 187 1 212 1 216 1 235 1 260 1 273 1 277 1 290 1 302 1 304 1 323 1 334 1 338 1 342 1 378 1 397 1 408 1 423 1 427 1 447 1 498 1 533 1 589 1 595 1 613 1 670 1 676 1 693 1 702 1 736 1 802 1 807 1 824 1 837 1 863 1 880 1 899 2 907 1 922 1 927 1 934 1 947 1 966 1 998 1 614 1 620 1 664 1 715 1 720 1 724 1 728 1 739 1 806 1 848 1 872 1 877 1 887 1 890 1 900 1 963 1 967 1 976 1 1007 1 1008 1 1012 1 1013 1 1020 1 1021 1 1026 1 
1 212 10 1 15 1 30 1 66 1 67 1 77 1 99 1 110 1 111 1 193 1 195 1 218 1 298 1 308 1 311 1 342 1 364 2 373 1 391 1 402 1 410 1 425 1 438 1 439 1 443 1 491 1 501 1 514 1 521 1 524 1 535 1 537 1 560 1 563 1 577 1 581 1 582 1 589 1 47 1 54 1 75 1 124 1 137 1 142 1 177 1 183 1 198 1 202 1 204 1 240 1 241 1 243 1 254 1 289 1 291 1 320 1 338 1 346 1 379 1 380 1 405 1 414 1 430 1 431 1 460 1 479 1 482 1 494 1 550 1 591 1 599 2 605 1 609 1 656 1 666 1 667 1 683 1 704 2 719 1 724 1 843 1 860 1 924 1 941 1 958 1 601 1 621 1 622 1 624 1 626 1 650 1 664 1 697 1 702 1 731 1 775 1 778 1 876 1 886 1 894 1 898 1 943 1 946 1 964 1 966 1 979 1 1009 1 1014 1 1021 1 1024 1 
1 213 76 1 99 1 117 1 142 2 144 1 151 1 154 1 160 1 204 1 214 1 223 1 228 1 233 1 240 1 255 1 271 1 295 1 318 1 326 1 350 1 369 1 398 1 419 1 427 1 434 1 447 1 456 1 457 1 469 1 496 1 498 1 513 1 525 1 558 2 562 1 565 1 573 1 1 1 45 1 68 1 90 1 98 1 101 1 145 1 171 1 203 1 213 1 248 1 258 1 286 1 297 1 317 1 328 1 331 1 342 1 352 1 373 1 393 1 411 1 440 1 474 1 516 1 547 1 600 1 612 1 618 1 644 1 649 1 659 1 684 1 747 1 757 1 784 1 820 2 861 1 871 1 882 1 897 1 914 1 928 1 940 1 981 1 992 1 602 1 632 1 635 1 643 1 645 1 652 1 692 1 726 1 732 1 740 1 766 1 782 1 787 1 798 1 810 1 813 1 843 1 857 1 858 1 860 1 872 1 878 1 922 1 944 1 1000 1 1001 1 1005 1 1007 1 1015 1 
1 215 51 1 64 1 65 1 79 1 85 2 96 2 106 1 129 1 164 1 192 2 233 1 234 1 253 1 262 1 294 1 301 1 346 1 352 1 371 1 373 1 375 2 378 1 391 1 392 1 415 1 451 1 452 1 471 1 481 1 507 1 509 1 527 1 531 1 542 1 574 1 579 1 597 2 54 1 56 1 58 1 130 1 141 1 144 1 147 1 151 1 196 1 231 1 265 1 320 1 336 1 405 1 407 1 430 1 457 1 458 1 465 1 467 1 494 1 525 1 550 1 562 1 602 1 605 2 610 1 611 1 612 1 629 1 637 1 674 1 680 1 693 1 710 1 721 1 723 1 746 1 751 1 771 1 801 1 821 1 855 1 887 1 895 1 922 1 977 2 998 1 617 1 624 1 628 1 650 1 651 1 696 1 698 1 731 1 790 1 791 1 800 1 810 1 811 1 813 1 853 1 862 1 874 1 899 1 900 1 906 1 928 1 945 1 971 1 1000 1 1005 1 1007 1 1017 1 
1 213 22 1 24 1 31 1 36 1 56 1 58 1 62 1 99 1 126 1 134 1 140 1 144 1 167 1 185 1 195 1 205 1 222 1 230 1 266 1 297 1 335 2 349 1 366 1 379 1 411 1 436 1 453 2 476 2 493 1 495 1 504 1 568 1 571 1 580 1 598 1 11 1 17 1 113 1 131 1 175 1 176 1 208 1 211 1 225 1 290 1 299 1 301 1 308 1 314 1 342 1 352 1 360 1 423 1 446 1 451 1 461 1 471 1 481 1 488 1 489 1 521 1 537 1 548 1 549 1 550 1 603 1 613 1 624 1 642 1 662 1 717 1 723 1 726 1 729 1 730 1 732 1 741 1 770 1 821 1 827 1 829 1 830 1 880 1 889 1 893 1 907 1 948 1 950 1 964 1 974 1 984 1 994 1 620 1 636 1 651 1 660 1 695 1 715 1 716 1 724 1 765 1 767 1 802 1 809 1 811 1 814 1 834 1 840 1 842 1 863 1 866 1 877 1 903 1 912 1 931 1 937 1 965 1 968 1 972 1 991 1 1001 1 1013 1 1020 1 1022 1 1025 1 
1 210 19 1 20 1 41 2 98 1 127 1 143 1 146 1 162 2 165 1 166 1 173 2 182 2 212 1 215 1 266 1 279 1 286 1 289 1 369 1 378 1 380 1 402 1 421 1 428 1 456 1 467 1 469 1 471 1 487 1 516 1 533 1 540 1 551 1 558 1 563 1 582 1 3 1 15 1 29 1 34 1 51 1 53 1 58 1 65 1 82 1 96 1 101 1 109 1 177 1 184 1 186 1 218 1 226 1 231 1 267 1 330 1 334 1 345 1 348 1 355 1 399 1 422 1 463 1 524 1 542 1 553 1 566 1 572 1 576 1 581 1 584 1 585 1 597 1 607 1 631 1 637 1 651 1 660 1 685 1 695 1 708 1 711 1 719 1 775 1 794 1 799 1 814 1 816 1 829 1 837 1 855 1 860 1 862 1 864 1 868 1 876 1 883 1 887 1 890 1 906 1 912 1 917 1 931 1 940 1 955 1 997 1 620 1 684 1 692 1 709 1 730 1 732 1 820 1 907 1 946 1 949 1 963 1 968 1 984 1 990 1 1005 1 1007 1 1021 1 1027 1 
1 210 17 1 83 1 84 1 107 1 119 1 137 1 178 1 189 1 213 1 217 1 247 1 251 1 253 1 267 1 279 1 286 1 312 1 314 1 329 1 400 2 429 1 437 1 443 1 486 1 489 1 499 1 509 1 510 1 528 1 539 1 555 1 593 1 599 1 2 1 15 1 29 1 41 1 45 1 46 1 65 1 77 1 102 1 117 1 124 1 133 1 135 1 138 1 140 1 141 1 148 1 157 1 159 1 216 1 228 1 241 1 282 1 356 1 358 1 360 1 365 1 379 1 390 1 415 1 417 1 442 1 485 1 497 1 525 1 537 1 560 1 575 1 584 1 598 1 613 1 644 1 647 1 714 1 741 1 754 1 790 1 811 1 812 1 822 1 881 1 886 1 893 1 897 1 941 1 948 1 971 1 618 1 624 1 631 1 636 1 679 1 698 1 730 1 740 1 745 1 823 1 860 1 876 1 877 1 915 1 931 1 960 1 965 1 974 1 976 1 1005 1 1017 1 1024 1 
1 212 22 1 23 1 37 1 39 1 61 1 87 1 96 1 137 1 152 1 185 1 193 1 195 1 279 1 310 1 338 1 351 1 403 2 407 1 416 1 429 1 465 1 467 1 470 1 497 2 542 2 560 1 600 1 21 1 29 1 33 1 49 1 63 1 69 1 70 1 99 1 106 1 113 1 131 1 145 1 151 1 160 1 165 1 167 1 190 1 191 1 208 1 227 1 270 1 272 1 280 1 281 1 290 1 297 1 304 1 328 1 337 1 348 1 369 1 395 1 402 1 413 1 417 1 422 1 450 1 503 1 507 1 519 1 551 1 577 1 584 1 605 1 658 1 662 1 666 1 678 1 693 1 701 1 715 1 724 1 731 1 740 1 751 1 763 2 766 1 809 1 836 1 843 2 855 1 859 1 878 1 882 1 894 1 898 1 939 1 948 1 952 1 981 1 982 1 985 1 994 2 995 1 999 1 619 1 624 1 628 1 632 1 633 1 634 1 650 1 674 1 733 1 735 1 747 1 752 1 770 1 790 1 816 1 827 1 833 1 868 1 875 1 892 1 897 1 917 1 934 1 956 1 958 1 989 1 990 1 1001 1 1003 1 1007 1 1010 1 1011 1 
1 216 42 1 63 1 97 1 106 1 124 1 136 1 145 1 150 1 219 1 232 1 233 1 298 1 300 2 318 1 321 1 324 1 325 2 326 1 327 1 349 1 366 1 375 1 387 1 418 1 435 1 436 1 451 1 471 1 477 1 481 1 497 2 528 1 568 1 569 1 4 1 11 1 35 1 54 1 64 1 65 1 70 1 74 1 79 1 95 1 100 1 126 1 127 1 139 1 153 1 224 1 228 1 239 1 256 1 263 1 271 1 275 1 331 1 340 1 353 1 360 1 367 1 373 1 379 1 424 1 428 1 432 1 437 1 448 1 452 1 455 1 474 1 483 1 505 1 518 1 535 1 538 1 555 1 567 1 590 1 606 2 635 1 663 1 673 1 698 1 715 1 744 1 760 1 767 1 818 1 836 1 845 1 929 1 930 1 964 1 967 1 969 1 992 1 619 1 629 1 665 1 670 1 681 1 693 1 727 1 734 1 746 1 747 1 757 1 762 1 766 1 802 1 803 1 804 1 805 1 824 1 838 1 855 1 859 1 864 1 880 1 891 1 911 1 927 1 932 1 976 1 993 1 1003 1 1011 1 1027 1 
1 217 3 1 15 1 63 1 67 1 69 1 85 1 96 1 117 1 139 1 157 1 161 1 198 1 244 1 258 1 288 1 356 1 369 1 370 1 372 1 384 1 391 1 394 2 397 1 443 1 447 1 452 1 454 1 471 1 501 1 510 1 529 1 531 1 541 1 545 1 550 1 554 1 567 2 573 1 589 1 597 1 599 2 603 1 7 1 23 1 38 1 44 1 57 1 76 1 97 1 99 1 126 1 142 1 147 1 151 1 154 1 177 1 195 1 254 1 261 1 286 1 305 1 339 1 436 1 441 1 450 1 453 1 494 1 512 1 532 1 552 1 565 1 581 1 583 1 606 1 612 1 622 1 682 1 688 1 724 1 740 1 811 1 831 1 845 1 854 1 873 2 901 1 942 1 952 1 957 1 965 1 966 2 985 1 662 1 664 1 674 1 728 1 766 1 827 1 853 1 880 1 882 1 886 1 904 1 912 1 917 1 996 1 998 1 1003 1 1005 1 1009 1 1011 1 1012 1 1021 1 
1 213 14 1 71 1 84 1 108 1 122 1 139 1 145 1 166 1 200 1 201 1 234 1 238 1 267 1 297 1 326 1 355 1 359 1 364 1 368 1 417 1 419 1 463 1 481 1 521 1 566 1 604 2 605 1 3 1 7 1 16 1 20 1 21 1 23 1 37 1 45 1 48 1 50 1 58 1 88 1 93 1 153 1 163 1 174 1 195 1 203 1 204 1 205 1 228 1 284 1 289 1 309 1 312 1 318 1 335 1 351 1 403 1 408 1 437 1 464 1 482 1 489 1 540 1 547 1 562 1 611 1 615 1 616 1 638 1 646 1 652 1 722 1 723 1 726 1 745 1 791 1 809 1 853 2 857 1 900 1 919 1 955 1 983 1 628 1 629 1 630 1 659 1 660 1 661 1 691 1 705 1 709 1 718 1 728 1 735 1 737 1 773 1 777 1 833 1 850 1 880 1 899 1 902 1 911 1 928 1 956 1 1008 1 1009 1 1015 1 1023 1 1024 1 
1 209 13 1 34 1 58 1 64 1 69 1 84 1 126 1 145 1 186 1 197 1 215 1 219 1 232 1 249 1 304 1 326 1 380 1 409 1 418 1 430 1 462 1 466 1 470 1 485 1 496 1 526 1 534 1 555 1 564 1 587 1 601 1 6 1 36 1 54 1 57 1 67 1 68 1 81 1 97 1 168 1 181 1 187 1 193 1 195 1 206 1 238 1 277 1 319 1 346 1 359 1 410 1 411 1 412 1 422 1 447 1 458 1 492 1 517 1 523 1 533 1 536 1 537 1 552 1 613 1 626 2 649 1 669 1 677 1 700 1 707 1 711 1 727 1 732 1 774 1 799 1 817 1 824 1 848 1 864 1 881 1 883 1 920 1 945 1 954 1 966 1 978 1 981 1 985 1 992 1 995 1 644 1 666 1 696 1 702 1 708 1 712 1 721 1 750 1 772 1 778 1 803 1 804 1 818 1 840 1 842 1 843 1 878 1 938 1 955 1 956 1 960 1 999 1 1005 1 1017 1 
1 206 20 1 52 1 75 1 89 1 90 1 102 1 135 1 138 2 158 1 159 1 171 1 189 1 199 1 229 1 264 1 321 1 322 1 364 1 365 1 374 1 376 1 383 1 398 1 406 1 417 1 428 1 433 2 443 1 457 1 473 1 486 1 510 1 518 1 523 2 530 1 535 1 543 1 567 1 17 1 61 1 65 1 82 1 84 1 123 1 136 1 162 1 175 1 193 1 204 1 228 1 232 1 243 1 246 1 271 1 293 1 300 1 328 1 461 1 469 1 478 1 514 1 517 1 520 1 558 1 571 1 623 1 675 1 687 1 688 1 711 1 716 1 738 1 739 1 742 1 760 1 765 1 811 1 814 1 829 2 834 1 835 1 851 1 854 1 866 1 915 2 941 1 951 1 952 1 970 2 617 1 621 1 638 1 643 1 650 1 666 1 683 1 686 1 753 1 797 1 805 1 812 1 862 1 873 1 881 1 885 1 904 1 912 1 920 1 923 1 938 1 977 1 992 1 1006 1 1010 1 1025 1 
1 208 13 1 16 1 43 1 47 1 53 1 93 1 95 1 98 1 138 1 147 1 150 1 193 1 198 1 199 1 223 1 249 1 252 1 279 1 299 1 311 1 331 1 333 1 338 1 358 1 361 1 370 1 372 2 430 1 449 1 454 1 504 1 506 1 514 1 516 1 536 1 550 1 557 1 591 1 595 1 597 1 5 1 7 1 18 1 42 1 78 1 105 1 137 1 142 1 152 1 157 1 163 1 181 1 182 1 205 1 207 1 234 1 264 1 316 1 330 1 377 1 429 1 436 1 447 1 476 1 487 1 492 1 569 1 583 1 589 1 616 1 618 1 622 1 633 1 642 1 673 1 689 1 783 1 788 1 793 1 831 1 838 1 846 1 847 1 850 1 856 2 857 1 868 1 870 1 873 1 888 1 902 1 906 1 911 1 935 1 984 1 986 1 988 1 989 1 639 1 640 1 651 1 658 1 706 1 724 1 746 1 806 1 814 1 864 1 898 1 907 1 914 1 916 1 920 1 1000 1 1011 1 1024 1 
1 209 4 1 6 1 22 1 35 1 44 1 48 1 62 1 102 1 119 1 121 1 139 1 165 1 184 1 195 1 196 1 222 1 226 1 243 1 274 1 288 1 303 1 338 1 340 1 358 1 374 1 381 1 410 1 423 1 441 1 445 1 470 1 472 2 496 1 510 2 513 1 583 1 588 1 599 1 17 1 32 1 56 1 73 1 89 1 92 1 126 1 145 1 171 1 220 1 240 1 254 1 256 1 299 1 305 1 328 1 357 1 360 1 371 1 385 1 401 1 471 1 566 1 569 1 575 1 647 1 728 1 732 1 761 1 763 1 768 1 773 1 774 1 775 1 793 1 795 1 811 1 827 1 847 1 851 1 852 1 861 1 876 1 890 1 935 1 969 1 979 1 983 1 613 1 630 1 676 1 683 1 684 1 699 1 712 1 777 1 821 1 835 1 838 1 841 1 875 1 887 1 913 1 919 1 923 1 931 1 940 1 949 1 971 1 973 1 1006 1 1011 1 1013 1 1019 1 1027 1 
1 212 56 1 60 1 69 1 74 2 92 1 113 1 142 1 150 1 204 1 224 1 239 1 248 1 266 1 289 1 328 1 346 1 371 1 427 1 434 1 439 1 441 1 443 1 467 1 469 1 472 1 475 1 483 1 529 1 541 1 592 1 599 1 606 1 15 1 31 1 80 1 82 1 84 1 139 1 143 1 149 1 155 1 168 1 171 1 220 1 235 1 237 1 246 1 256 1 306 1 322 1 325 1 343 1 360 1 383 1 391 1 403 1 426 1 454 1 470 1 476 1 485 1 556 1 618 1 624 1 648 1 649 1 651 1 654 2 684 1 687 1 690 1 704 1 731 1 737 2 739 1 791 1 797 1 813 1 815 1 828 1 838 1 839 1 842 1 889 1 892 1 899 1 900 1 901 1 902 1 910 1 918 1 933 1 958 2 961 1 653 1 663 1 674 1 711 1 713 1 718 1 740 1 779 1 782 1 833 1 851 1 863 1 884 1 931 1 938 1 952 1 1006 1 1016 1 1020 1 1021 1 1027 1 
1 212 25 2 27 1 32 1 51 1 66 1 71 1 79 1 124 1 136 1 196 1 228 1 236 1 237 1 243 1 268 1 282 1 284 1 287 1 293 1 302 1 307 1 309 1 312 1 317 1 342 1 361 1 376 1 422 1 458 1 464 1 474 1 501 1 502 1 505 1 506 2 538 1 542 1 544 1 598 1 599 1 605 1 3 1 7 1 28 1 53 1 69 1 70 1 76 1 128 1 137 1 140 1 178 1 223 1 283 1 291 1 328 1 332 1 358 1 365 1 379 1 380 1 382 1 397 1 419 1 430 1 463 1 469 1 471 1 477 1 481 1 489 1 494 1 571 1 579 1 580 1 581 1 589 1 627 1 653 1 666 1 681 1 701 1 720 1 732 1 734 1 743 1 744 1 798 1 804 1 818 2 820 1 825 1 845 1 859 1 884 1 892 1 903 1 918 1 924 1 938 1 951 1 992 1 998 1 649 1 664 1 689 1 700 1 726 1 746 1 769 1 770 1 791 1 795 1 796 1 839 1 896 1 925 1 931 1 947 1 1001 1 1008 1 1015 1 1016 1 1024 1 
1 214 2 1 17 2 23 1 27 1 38 1 71 1 113 1 134 1 189 1 191 1 196 1 197 1 198 1 214 1 234 1 274 1 320 1 338 1 358 1 403 1 411 1 475 1 483 1 497 2 565 1 596 1 600 1 602 1 607 1 28 1 39 1 67 1 115 1 125 1 128 1 129 1 157 1 210 1 242 1 250 1 251 1 311 1 318 1 417 1 423 1 468 1 477 1 528 1 543 1 610 1 618 1 625 1 651 1 658 1 661 2 675 1 696 1 706 1 751 1 753 1 761 1 763 1 772 1 773 1 775 1 794 1 796 1 799 1 806 1 815 1 874 1 878 1 949 1 976 1 630 1 649 1 650 1 685 1 714 1 727 1 734 1 736 1 760 1 762 1 767 1 791 1 795 1 852 1 864 1 875 1 889 1 890 1 892 1 895 1 909 1 910 1 919 1 920 1 921 1 924 1 938 1 967 1 978 1 985 1 986 1 990 1 1002 1 1009 1 1016 1 
1 211 8 1 19 1 30 1 38 1 41 1 68 1 91 1 106 1 113 1 116 1 122 1 138 1 160 1 169 1 171 1 195 1 225 1 244 1 257 1 281 1 291 1 304 2 349 1 375 1 387 1 413 2 429 1 437 1 457 1 480 1 485 1 497 1 498 1 502 1 503 1 509 2 526 1 542 1 573 1 585 2 593 1 594 1 595 1 1 1 14 1 15 1 48 1 53 1 67 1 72 1 97 1 111 1 152 1 232 1 249 1 250 1 287 1 303 1 319 1 321 1 322 1 338 1 347 1 362 1 363 1 398 1 453 1 468 1 469 1 492 1 512 1 529 1 538 1 543 1 587 1 596 1 617 1 625 1 636 1 667 1 696 1 723 1 749 1 764 1 783 1 785 1 788 2 796 1 797 1 801 1 811 1 816 1 824 1 861 2 871 1 873 1 893 1 897 1 901 1 904 1 951 1 973 1 995 1 629 1 702 1 720 1 784 1 833 1 872 1 887 1 902 1 926 1 1007 1 1008 1 1014 1 1026 1 
1 209 1 1 8 1 10 2 18 1 37 1 61 1 76 1 96 1 118 1 152 2 164 1 167 1 185 1 198 1 225 1 301 1 317 1 322 1 325 1 326 1 348 1 350 1 360 1 365 1 366 1 375 1 378 1 385 1 418 1 483 1 525 1 540 1 578 1 583 1 606 1 5 1 13 1 16 1 19 1 43 1 57 1 70 1 77 1 80 1 89 1 100 1 136 1 137 1 184 1 187 1 210 1 249 1 250 1 256 1 262 1 274 1 306 1 345 1 353 1 362 1 406 1 416 1 448 1 485 1 492 1 544 1 551 1 558 1 561 1 572 1 584 1 643 1 671 1 705 1 721 1 726 1 755 1 817 1 832 1 870 1 882 1 932 1 937 1 964 1 975 1 991 1 616 1 635 1 693 1 703 1 729 1 737 1 749 1 779 1 820 1 839 1 858 1 878 1 894 1 904 1 921 1 950 1 951 1 1010 1 1013 1 1021 1 1023 1 
1 209 6 2 16 1 40 1 89 2 97 1 99 1 115 1 134 1 145 1 160 1 201 1 214 1 266 2 299 1 305 1 315 1 348 1 360 1 398 1 399 1 416 1 454 1 472 1 480 1 492 1 516 1 550 1 551 1 553 1 554 2 590 1 591 1 606 1 609 1 31 1 75 1 80 1 123 1 130 1 139 1 150 1 167 1 173 1 180 1 181 1 202 1 203 1 243 1 244 1 270 1 308 1 328 1 332 1 333 1 335 1 337 1 344 1 359 1 400 1 410 1 437 1 537 1 546 1 549 1 561 1 594 1 615 1 623 1 625 1 649 1 657 1 678 1 728 1 746 1 765 1 802 1 816 1 819 1 825 1 861 1 893 1 917 1 926 1 939 1 628 1 639 1 648 1 662 1 664 1 665 1 670 1 673 1 718 1 750 1 751 1 757 1 762 1 771 1 773 1 775 1 780 1 789 1 801 1 818 1 823 1 843 1 849 1 850 1 851 1 857 1 875 1 879 1 895 1 929 1 933 1 938 1 947 1 1007 1 1015 1 1022 1 
1 213 12 1 18 1 22 1 31 1 47 1 50 1 56 1 60 1 72 1 88 2 90 1 126 1 164 1 175 1 205 1 211 1 243 1 299 1 309 1 336 1 350 1 354 1 373 1 379 1 382 1 383 1 410 1 452 1 462 1 482 1 488 1 503 1 510 1 573 1 614 1 3 1 11 1 16 1 57 1 65 1 71 1 87 1 93 1 102 1 113 1 125 1 128 1 176 1 179 1 182 1 198 1 222 1 224 1 240 1 253 1 258 1 275 1 281 1 290 1 303 1 332 1 407 1 408 1 445 1 457 1 460 1 477 1 492 1 496 1 532 1 552 1 599 1 608 1 662 1 763 1 773 1 775 1 831 1 835 1 837 1 844 1 857 1 859 1 879 1 925 1 935 1 948 1 949 1 951 1 965 1 975 1 976 1 993 1 618 1 650 1 661 1 669 1 690 1 704 1 722 1 734 1 740 1 768 1 797 1 807 1 813 1 821 1 833 1 841 1 843 1 862 1 876 1 877 1 881 1 902 1 930 1 933 1 953 1 1005 1 1007 1 1011 1 1012 1 1016 1 1021 1 
1 209 32 1 43 1 55 1 59 1 66 2 75 1 90 1 101 1 116 1 117 1 119 1 121 1 134 1 192 1 197 1 198 1 215 1 226 2 227 1 237 1 238 1 256 1 272 1 292 1 313 1 319 1 368 2 420 1 432 1 451 1 471 1 492 1 522 1 598 1 609 1 611 1 613 1 10 1 57 1 63 1 69 1 92 1 107 1 130 1 147 1 151 1 153 1 171 1 179 1 196 1 239 1 240 1 244 1 259 1 283 1 286 1 317 1 323 1 329 1 360 1 364 1 405 1 417 1 441 1 463 1 472 1 494 1 502 1 507 1 528 1 548 1 552 1 555 1 569 1 576 1 593 1 602 1 617 1 624 1 630 1 657 1 678 1 691 1 698 1 699 1 706 2 721 1 730 1 733 1 761 1 781 1 808 1 812 1 838 1 840 1 847 1 881 1 883 1 921 1 925 1 936 1 963 1 981 1 621 1 649 1 655 1 687 1 750 1 767 1 770 1 788 1 802 1 805 1 830 1 831 1 854 1 861 1 897 1 901 1 933 1 951 1 961 1 976 1 1001 1 1006 1 1027 1 
1 209 6 1 10 1 14 1 23 1 28 1 58 1 63 1 65 1 88 1 96 1 116 1 128 1 131 1 135 1 147 1 185 2 228 1 236 1 242 1 249 1 277 1 278 1 297 1 314 1 317 1 325 1 357 1 382 1 383 1 399 1 439 1 446 1 511 1 540 1 541 1 1 1 37 1 97 1 118 1 129 1 139 1 160 1 172 1 177 1 198 1 208 1 227 1 292 1 300 1 349 1 363 1 392 1 393 1 396 1 402 1 435 1 469 1 479 1 499 1 508 1 517 1 525 1 571 1 584 1 589 1 603 1 604 1 642 1 650 2 674 1 719 1 742 1 783 1 795 1 805 1 817 1 832 1 851 1 853 1 856 1 857 1 861 1 876 1 893 1 897 1 899 1 927 1 957 1 632 1 654 1 664 1 700 1 714 1 722 1 728 1 738 1 753 1 755 1 760 1 796 1 819 1 830 1 870 1 877 1 884 1 886 1 888 1 896 1 898 1 942 1 964 1 975 1 1000 1 1001 1 1019 1 
1 207 34 1 67 1 81 1 106 1 115 1 130 1 143 1 172 2 181 1 186 1 218 1 228 1 235 1 252 1 270 1 300 1 309 1 313 1 344 1 362 1 364 1 400 1 412 1 468 1 474 1 482 1 491 1 497 1 533 1 574 1 578 1 594 1 9 1 13 1 31 1 32 1 91 1 93 1 102 1 112 1 150 1 180 1 182 1 203 1 209 1 264 1 272 1 279 1 283 1 303 1 306 1 315 1 322 1 327 1 357 1 366 1 375 1 432 1 433 1 434 1 465 1 489 1 508 1 514 1 553 1 577 1 596 1 600 1 601 1 632 1 693 1 694 1 711 1 718 2 782 1 851 1 856 1 859 1 905 1 917 1 921 1 938 1 965 1 981 1 984 1 988 1 999 1 625 1 628 1 633 1 653 1 681 1 700 1 715 1 721 1 725 1 748 1 750 1 780 1 802 1 819 1 829 1 853 1 857 1 880 1 902 1 909 1 912 1 945 1 961 1 983 1 986 1 1005 1 1019 1 1021 1 
1 207 50 1 57 1 70 1 75 1 79 1 80 1 111 1 121 1 129 1 139 2 141 1 154 2 189 1 198 1 219 1 223 1 243 1 249 1 254 1 271 1 286 2 287 1 292 1 314 1 317 1 374 2 379 1 417 1 424 1 457 1 460 1 513 1 521 1 561 1 563 1 13 1 41 1 62 1 77 1 106 1 125 1 134 1 144 1 151 1 166 1 177 1 182 1 195 1 215 1 233 1 241 1 257 1 276 1 316 1 326 1 373 1 376 1 389 1 394 1 423 1 442 1 444 1 445 1 470 1 530 1 582 1 594 1 597 1 608 1 618 1 621 1 621 1 654 1 677 1 678 1 687 1 724 1 733 1 738 1 745 1 746 1 792 1 795 1 797 1 838 1 878 1 903 1 912 1 926 1 931 1 944 1 979 1 980 1 981 1 984 1 637 1 638 1 659 1 718 1 731 1 732 1 756 1 773 1 775 1 843 1 854 1 859 1 897 1 929 1 938 1 945 1 974 1 983 1 1002 1 
1 209 16 1 27 1 54 1 57 1 65 1 76 1 108 1 110 1 147 1 151 1 153 1 157 1 160 1 165 1 170 1 249 1 276 1 289 1 320 1 357 1 370 1 406 1 465 1 484 1 495 1 497 1 543 1 557 1 558 1 563 1 587 1 594 1 605 1 609 1 14 1 29 1 116 1 124 1 127 1 133 1 145 1 198 1 211 1 233 1 251 1 252 1 268 1 283 1 287 1 302 1 306 1 329 1 336 1 341 1 382 1 392 1 457 1 466 1 480 1 521 1 550 1 597 1 648 2 667 1 673 1 681 1 682 1 704 1 712 1 762 1 789 1 790 1 794 1 795 1 816 1 830 1 848 1 872 1 903 1 927 1 929 1 930 1 932 1 975 1 986 2 987 1 991 1 626 1 627 1 631 1 633 1 669 1 698 1 699 1 707 1 714 1 724 1 726 1 743 1 763 1 773 1 784 1 785 1 808 1 813 1 826 1 857 1 893 1 915 1 939 1 960 1 973 1 992 1 1010 1 1014 1 1021 1 1027 1 
1 214 7 1 76 1 84 1 91 1 127 1 133 1 147 1 156 1 164 1 171 1 185 1 226 1 241 1 247 1 250 1 263 1 279 1 294 1 365 1 380 1 438 1 443 1 459 1 473 1 476 1 498 1 504 1 514 1 535 1 545 1 547 1 557 1 591 1 593 1 608 1 616 1 9 1 20 1 93 1 187 1 213 1 219 1 236 1 264 1 288 1 299 1 308 1 319 1 325 1 358 1 386 1 408 1 500 1 526 1 543 1 544 1 569 1 587 1 588 1 713 1 730 1 739 1 777 1 786 1 816 1 818 1 887 1 898 1 910 1 912 1 954 2 962 1 970 1 989 1 990 1 993 1 629 1 643 1 652 1 679 1 680 1 694 1 697 1 702 1 705 1 729 1 742 1 772 1 793 1 803 1 811 1 819 1 824 1 830 1 853 1 854 1 886 1 888 1 900 1 918 1 919 1 973 1 981 1 1005 1 1010 1 1013 1 1020 1 1021 1 1025 1 
1 209 20 2 26 1 38 2 41 1 51 1 76 1 84 1 105 1 113 1 147 1 149 1 154 1 198 1 201 2 223 1 285 1 292 1 311 1 313 1 316 2 317 1 372 1 384 1 402 1 447 1 464 1 471 1 485 2 490 1 496 1 502 1 507 1 521 1 523 1 547 1 556 1 561 1 566 1 590 1 600 1 611 1 618 1 18 1 34 1 63 1 66 1 100 1 110 1 115 1 118 1 130 1 135 1 141 1 160 1 169 1 237 1 246 1 255 1 259 1 273 1 318 1 335 1 369 1 391 1 443 1 465 1 488 1 492 1 505 1 518 1 541 1 569 1 587 1 588 1 597 1 599 1 602 1 603 1 631 1 651 1 705 1 710 1 720 1 755 1 766 1 789 1 796 1 798 1 849 1 867 1 872 1 884 1 894 1 902 1 915 1 950 1 954 2 970 1 978 1 989 1 990 1 625 1 644 1 674 1 691 1 718 1 774 1 775 1 808 1 822 1 850 1 885 1 891 1 917 1 925 1 930 1 936 1 973 1 993 1 997 1 1009 1 1011 1 1013 1 
1 213 8 2 20 1 38 1 39 1 69 1 81 1 86 1 94 1 118 1 133 1 169 1 200 1 257 1 260 1 261 1 271 1 298 1 313 1 323 1 357 1 369 1 382 2 409 1 411 1 420 1 498 1 504 1 528 1 543 1 579 1 581 1 595 1 613 1 614 1 616 1 58 1 79 1 83 1 85 1 144 1 171 1 172 1 211 1 248 1 284 1 324 1 330 1 366 1 418 1 434 1 461 1 475 1 478 1 479 1 484 1 503 1 511 1 529 1 544 1 554 1 559 1 566 1 582 1 620 1 624 1 654 1 666 1 669 1 691 1 696 1 709 1 771 1 772 2 797 1 808 1 811 1 856 1 876 1 878 1 892 1 901 1 913 1 954 1 976 1 994 1 997 1 644 1 674 1 684 1 702 1 741 1 765 1 778 1 782 1 793 1 822 1 838 1 867 1 873 1 888 1 932 1 937 1 990 1 996 1 999 1 1011 1 1021 1 1026 1 
1 207 14 1 43 1 58 1 66 1 70 2 80 1 138 1 150 1 151 1 184 1 210 1 220 1 223 1 230 1 243 1 248 1 252 1 262 1 264 1 266 1 285 1 295 1 329 1 332 1 352 1 367 1 376 1 428 1 431 1 432 1 476 1 491 1 494 1 496 1 509 1 531 1 533 1 544 2 549 1 567 1 576 1 607 2 2 1 31 1 53 1 63 1 84 1 109 1 110 1 132 1 136 1 145 1 171 1 229 1 265 1 275 1 287 1 341 1 372 1 380 1 391 1 400 1 401 1 405 1 408 1 409 1 416 1 425 1 426 1 445 1 458 1 472 1 578 1 597 1 622 1 631 1 699 1 715 1 761 1 768 1 779 1 790 1 799 1 815 1 829 1 847 1 851 1 862 1 884 1 887 1 888 1 900 2 931 1 955 1 680 1 691 1 693 1 708 1 744 1 762 1 771 1 775 1 778 1 780 1 836 1 860 1 870 1 874 1 886 1 920 1 952 1 978 1 979 1 987 1 1018 1 1020 1 
1 215 11 2 12 1 26 1 28 1 35 1 51 1 93 1 113 1 153 1 200 1 215 1 222 1 249 1 275 1 279 1 281 1 288 1 318 1 337 2 338 1 343 1 346 1 351 1 369 1 397 1 415 1 422 1 454 1 458 1 470 1 483 1 503 1 504 1 508 1 512 1 513 1 530 1 535 1 554 1 612 1 14 1 25 1 53 1 88 1 91 1 106 1 137 1 164 1 173 1 266 1 280 1 292 1 309 1 353 1 366 1 381 1 382 1 386 1 395 1 426 1 428 1 433 1 437 1 477 1 482 1 494 1 527 1 543 1 564 1 583 1 622 1 666 1 667 1 669 1 674 1 678 1 693 1 718 1 722 1 735 1 749 1 779 2 789 1 799 1 816 1 826 1 841 1 858 1 882 1 912 1 934 1 939 1 944 1 946 1 959 1 961 1 976 1 977 1 980 1 637 1 671 1 760 1 783 1 829 1 846 1 848 1 850 1 866 1 869 1 887 1 938 1 949 1 988 1 1003 1 
1 208 31 1 43 2 58 1 87 1 120 1 161 1 166 1 182 1 183 1 214 1 231 1 278 1 285 1 292 1 294 1 296 1 304 1 318 1 339 1 340 1 343 2 355 1 359 1 395 1 400 1 425 1 432 1 434 1 437 1 479 1 491 1 506 1 510 1 515 1 539 1 547 1 566 1 570 1 574 1 582 1 44 1 50 1 54 1 84 1 89 1 103 1 165 1 178 1 219 1 240 1 271 1 276 1 308 1 312 1 328 1 362 1 377 1 401 1 406 1 423 1 441 1 446 1 451 1 459 1 473 1 499 1 505 1 507 1 523 1 530 1 538 1 554 1 577 1 599 1 603 1 606 1 616 1 620 1 629 1 633 1 670 1 673 1 722 1 738 1 758 1 817 1 837 1 859 1 872 1 894 1 895 1 919 1 941 1 947 1 972 2 988 1 639 1 680 1 689 1 706 1 732 1 739 1 749 1 759 1 768 1 784 1 785 1 833 1 850 1 865 1 903 1 914 1 925 1 944 1 951 1 953 1 973 1 1009 1 1012 1 
1 207 1 1 3 1 31 1 65 2 76 1 82 1 86 1 96 1 100 1 128 1 161 1 236 1 238 1 259 1 272 1 290 1 292 1 337 1 392 1 395 2 417 1 435 1 452 1 474 1 496 1 516 1 518 1 519 1 552 1 561 1 569 1 589 2 595 1 599 1 628 1 46 1 67 1 114 1 122 1 136 1 141 1 143 1 145 1 170 1 178 1 191 1 201 1 217 1 218 1 245 1 256 1 277 1 295 1 299 1 313 1 347 1 414 1 459 1 509 1 534 1 536 1 537 1 547 1 563 1 584 1 585 1 604 1 606 1 614 1 623 1 640 1 670 1 678 1 690 1 695 1 698 1 715 2 728 1 740 1 742 1 749 2 751 1 785 1 834 1 848 1 851 1 872 1 884 1 920 1 927 1 938 1 950 1 632 1 673 1 700 1 736 1 738 1 786 1 789 1 794 1 805 1 815 1 816 1 840 1 871 1 901 1 917 1 924 1 942 1 969 1 1006 1 1007 1 1016 1 
1 208 11 1 31 1 38 1 52 1 68 1 81 1 87 1 110 1 112 1 133 1 134 2 135 1 163 1 165 1 168 1 176 1 200 1 223 1 243 1 300 1 311 1 338 1 348 2 379 1 394 1 423 1 424 1 431 1 441 1 476 1 494 1 496 1 507 1 508 1 540 1 541 1 553 1 559 1 560 1 580 1 584 1 618 1 3 1 6 1 29 1 39 1 69 1 129 1 137 1 145 1 210 1 214 1 220 1 226 1 229 1 232 1 277 1 281 1 289 1 292 1 325 1 345 1 346 1 367 1 371 1 382 1 393 1 403 1 406 1 408 1 519 1 536 1 606 1 610 1 613 1 731 1 732 1 743 1 761 1 766 1 769 1 780 1 785 1 789 1 793 1 810 1 828 1 839 1 847 1 850 1 859 1 867 1 875 1 904 1 983 1 984 1 988 1 638 1 662 1 667 1 676 1 677 1 683 1 688 1 752 1 758 1 763 1 800 1 807 1 877 1 880 1 920 1 928 1 934 1 952 1 966 1 972 1 975 1 1012 1 
1 207 29 1 40 1 54 1 96 1 104 1 130 1 151 1 177 1 184 1 196 1 205 1 233 1 269 1 274 1 288 1 296 1 312 1 316 1 321 1 371 1 395 1 396 1 403 1 425 1 426 1 427 1 445 1 452 1 475 1 493 1 516 1 536 1 552 1 567 1 573 1 587 1 589 1 601 1 624 1 626 1 13 1 14 1 34 1 46 1 51 1 74 1 90 1 108 1 112 1 129 1 159 1 172 1 179 1 181 1 200 1 221 1 298 1 354 1 356 1 358 1 360 1 363 1 379 1 423 1 464 1 498 1 546 1 602 1 622 1 668 1 672 1 730 1 735 1 736 1 747 1 756 1 785 1 834 1 849 1 856 1 888 1 900 1 936 1 940 1 974 1 982 1 984 1 996 1 637 1 679 1 708 1 715 1 731 1 763 1 825 1 827 1 846 1 848 1 871 1 901 1 906 1 907 1 925 1 937 1 950 1 954 1 963 1 968 1 976 1 989 1 1009 1 1013 1 
1 210 20 2 23 1 71 1 74 1 87 1 88 1 96 1 97 1 108 1 115 1 122 1 128 2 149 1 164 1 166 1 178 1 197 1 199 1 202 1 205 1 230 1 254 1 270 2 306 1 320 1 337 1 368 1 374 1 384 1 403 1 424 1 426 1 441 2 457 1 458 1 471 1 472 2 474 1 510 1 558 1 561 1 586 1 590 1 620 1 18 1 27 1 36 1 150 1 155 1 179 1 182 1 229 1 315 1 328 1 355 1 381 1 398 1 417 1 423 1 440 1 442 1 455 1 483 1 513 1 529 1 553 1 557 1 559 1 582 1 598 1 603 1 619 1 629 1 638 1 667 1 675 1 676 1 715 1 735 1 780 1 820 1 834 1 836 2 840 1 851 1 889 1 896 1 919 2 924 1 926 1 981 1 990 1 997 1 636 1 639 1 640 1 648 1 651 1 654 1 707 1 733 1 742 1 749 1 750 1 773 1 786 1 817 1 831 1 839 1 887 1 933 1 938 1 969 1 1006 1 1013 1 1027 1 
1 210 52 1 64 1 67 1 75 1 90 1 101 1 106 1 115 1 126 1 127 1 135 1 145 1 160 1 171 1 172 2 212 1 228 1 229 1 238 1 260 1 291 1 353 1 378 1 401 1 409 1 413 1 440 1 450 1 454 1 456 1 459 1 463 1 475 1 485 1 490 1 495 1 512 2 517 1 521 1 536 1 559 1 583 1 584 1 609 1 628 1 2 1 6 1 10 1 12 1 13 1 49 1 60 1 76 1 99 1 118 1 119 1 180 1 185 1 249 1 274 1 292 1 305 1 323 1 385 1 442 1 444 1 472 1 522 1 523 1 524 1 549 1 576 1 603 1 620 1 622 1 633 1 633 1 639 1 705 1 747 1 789 1 893 1 906 1 939 1 940 1 952 1 959 1 961 1 974 1 637 1 700 1 738 1 758 1 759 1 761 1 774 1 803 1 807 1 820 1 825 1 847 1 942 1 949 1 997 1 1002 1 1011 1 1014 1 1018 1 
1 210 2 1 11 1 15 1 19 1 45 1 62 1 92 1 120 1 125 1 137 1 145 1 188 1 191 1 251 1 254 1 259 1 261 1 274 1 277 2 291 1 317 1 318 1 336 1 357 1 360 1 370 1 380 1 388 1 389 1 439 1 443 1 450 1 460 1 468 1 475 1 495 2 530 1 536 1 557 1 569 1 584 1 13 1 42 1 83 1 84 1 86 1 95 1 122 1 140 1 152 1 166 1 203 1 206 1 209 1 238 1 263 1 271 1 272 1 280 1 314 1 335 1 349 1 353 1 363 1 396 1 430 1 451 1 452 1 502 1 515 1 526 1 537 1 549 1 556 1 561 1 585 1 592 1 603 1 659 2 724 1 736 1 746 1 766 1 837 1 862 1 891 1 895 1 957 1 975 2 980 1 988 1 989 1 995 1 645 1 654 1 663 1 666 1 670 1 676 1 680 1 693 1 718 1 725 1 753 1 787 1 795 1 829 1 879 1 892 1 897 1 926 1 944 1 950 1 951 1 993 1 1007 1 1013 1 1020 1 1027 1 
1 210 56 1 71 1 96 1 125 1 128 1 140 1 176 1 216 1 220 1 273 1 285 1 297 1 318 1 321 1 323 1 337 1 380 1 382 1 386 1 419 1 429 1 457 1 462 1 470 1 476 1 485 2 493 1 522 1 544 1 546 1 550 1 558 1 566 1 571 1 573 1 576 1 586 2 587 1 604 1 6 1 25 1 53 1 62 1 95 1 107 1 158 1 188 1 193 1 215 1 221 1 246 1 272 1 283 1 286 1 293 1 368 1 369 1 395 1 397 1 416 1 426 1 435 1 443 1 479 1 482 1 490 1 512 1 524 1 554 1 574 1 588 1 590 1 598 1 615 1 644 1 656 1 663 1 665 1 712 1 722 1 723 1 729 1 730 1 748 1 757 2 796 1 804 1 826 1 837 1 874 1 895 1 913 1 930 1 936 1 972 1 984 1 655 1 677 1 687 1 695 1 713 1 765 1 767 1 774 1 775 1 803 1 806 1 814 1 918 1 921 1 961 1 983 1 990 1 993 1 1013 1 1014 1 1015 1 1026 1 
1 208 13 1 26 1 61 1 73 1 98 2 112 1 127 1 129 1 233 1 280 1 305 1 344 1 358 1 404 1 407 1 411 1 415 1 416 1 436 1 452 1 465 1 476 1 493 1 498 1 537 1 571 1 590 1 614 1 53 1 131 1 133 1 169 1 187 1 209 1 261 1 284 1 314 1 320 1 322 1 334 1 353 1 376 1 380 1 419 1 424 1 490 1 494 1 507 1 509 1 518 1 538 1 548 1 570 1 600 1 602 1 632 1 636 1 636 1 645 1 698 1 744 1 747 1 751 1 752 1 753 1 776 1 781 1 782 2 805 1 809 1 817 1 820 1 832 1 850 1 886 2 890 1 895 1 899 1 900 1 906 1 909 1 912 1 914 1 637 1 641 1 650 1 661 1 665 1 675 1 719 1 726 1 780 1 789 1 795 1 881 1 885 1 889 1 893 1 941 1 956 1 965 1 990 1 992 1 996 1 
1 212 7 1 10 1 30 1 47 1 78 1 91 1 93 1 105 1 131 1 134 1 187 1 204 1 210 1 211 1 242 1 243 1 271 1 283 1 321 1 326 1 355 1 357 1 364 2 371 1 395 1 399 1 406 1 414 1 415 1 521 1 524 1 582 1 599 1 601 1 16 1 33 1 39 1 45 1 82 1 83 1 94 1 109 1 152 1 177 1 186 1 189 1 196 1 214 1 226 1 233 1 252 1 305 1 318 1 323 1 335 1 339 1 382 1 388 1 394 1 397 1 418 1 421 1 444 1 466 1 478 1 499 1 508 1 511 1 546 1 570 1 621 1 627 1 631 1 633 1 636 1 639 1 660 1 682 1 685 1 687 1 692 1 699 1 731 1 739 1 753 2 785 1 808 1 809 1 825 1 833 1 872 1 894 1 911 1 913 1 918 1 929 1 935 2 984 1 646 1 675 1 677 1 696 1 710 1 713 1 719 1 720 1 722 1 768 1 772 1 810 1 838 1 841 1 875 1 896 1 924 1 927 1 952 1 975 1 1005 1 1010 1 1015 1 1019 1 1020 1 1026 1 
1 211 33 1 46 1 59 1 61 1 81 1 98 1 112 1 121 1 156 1 164 1 165 1 178 2 182 1 234 1 273 1 297 2 298 1 334 1 347 1 390 1 396 1 407 1 414 1 417 1 442 1 472 1 473 1 503 1 514 1 589 1 606 1 632 1 1 1 48 1 76 1 123 1 127 1 128 1 189 1 205 1 229 1 236 1 262 1 271 1 287 1 301 1 303 1 319 1 325 1 337 1 359 1 361 1 380 1 387 1 393 1 408 1 443 1 447 1 464 1 519 1 520 1 534 1 560 1 567 1 608 1 621 1 630 1 656 1 662 1 665 1 668 1 683 2 703 1 713 1 719 1 728 1 739 1 760 1 765 2 775 1 778 2 799 2 815 2 824 1 841 1 945 1 953 1 960 1 964 1 967 1 973 1 974 1 983 1 649 1 680 1 682 1 711 1 717 1 726 1 727 1 740 1 743 1 763 1 766 1 769 1 771 1 782 1 788 1 826 1 878 1 880 1 896 1 924 1 941 1 955 1 1010 1 1012 1 1014 1 1019 1 1026 1 
1 210 10 1 68 1 69 1 93 1 102 1 105 1 120 1 128 1 129 1 142 1 150 1 172 1 192 2 216 1 217 1 236 1 237 1 268 1 269 1 285 1 286 1 305 1 312 1 341 1 379 1 402 1 408 1 438 1 468 1 511 1 536 1 555 1 563 1 586 1 587 1 592 1 633 1 637 1 59 1 72 1 77 1 87 1 117 1 124 1 132 1 156 1 158 1 160 1 168 1 176 1 196 1 197 1 202 1 218 1 262 1 266 1 277 1 299 1 320 1 349 1 357 1 377 1 403 1 405 1 406 1 446 1 458 1 470 1 487 1 505 1 518 1 539 1 541 1 548 1 584 1 593 1 609 1 616 1 628 1 632 1 647 1 672 1 687 1 708 1 710 1 774 1 861 1 893 1 900 1 913 2 926 1 944 1 945 1 954 1 986 1 674 1 712 1 736 1 748 1 755 1 763 1 860 1 875 1 883 1 939 1 951 1 953 1 972 1 978 1 1005 1 1007 1 1010 1 1016 1 1023 1 
1 214 27 1 56 1 57 1 61 1 83 1 86 1 98 1 126 1 141 1 182 1 202 1 211 1 213 1 230 1 231 1 246 1 247 1 277 1 288 1 290 1 318 1 333 1 382 1 390 1 401 1 410 1 419 1 421 1 423 1 455 1 467 1 471 1 479 1 505 1 572 1 579 1 580 1 587 1 594 1 629 1 21 1 28 1 84 1 116 1 133 1 149 1 158 1 179 1 197 1 223 1 273 1 282 1 316 1 332 1 356 1 366 1 387 1 391 1 408 1 441 1 457 1 502 1 524 1 552 1 576 1 577 1 609 1 632 1 674 1 694 1 705 1 714 1 716 1 728 1 735 1 757 1 762 1 796 1 797 1 836 1 854 1 872 1 874 1 877 1 929 1 940 1 965 1 967 1 997 1 645 1 668 1 688 1 702 1 736 1 748 1 782 1 783 1 824 1 825 1 860 1 866 1 885 1 887 1 891 1 895 1 903 1 923 1 936 1 951 1 981 1 983 1 986 1 991 1 995 1 998 1 1003 1 1016 1 1022 1 1027 1 
1 203 49 1 57 1 85 1 91 1 144 1 155 1 173 1 177 1 204 1 224 1 244 1 247 1 269 1 276 1 312 1 329 1 330 1 331 1 343 1 349 1 356 1 358 1 361 1 368 1 371 1 383 1 395 1 434 1 480 1 495 1 496 1 501 1 506 1 507 1 519 2 532 1 570 1 579 1 38 1 154 1 186 1 195 1 221 1 227 1 245 1 248 1 249 1 262 1 275 1 305 1 324 1 367 1 411 1 452 1 453 1 478 1 535 1 556 1 565 1 636 1 687 1 710 1 722 1 740 1 753 1 761 1 765 1 844 1 849 1 904 1 928 1 933 1 945 1 947 1 960 1 968 1 969 1 977 1 652 1 655 1 719 1 723 1 735 1 744 1 759 1 760 1 762 1 777 1 785 1 787 1 793 1 800 1 883 1 886 1 890 1 892 1 912 1 919 1 920 1 923 1 941 1 1001 1 
1 207 36 1 38 1 41 1 45 1 55 2 57 1 67 1 69 1 71 1 83 1 120 1 125 1 182 1 191 1 225 1 226 1 234 1 237 1 261 1 271 1 276 1 288 1 332 1 351 1 391 1 427 1 457 1 459 1 504 1 526 1 540 2 584 1 585 1 600 1 609 1 619 1 13 1 16 1 28 1 64 1 72 1 93 1 95 1 104 1 105 1 153 1 164 1 203 1 232 1 236 1 238 1 295 1 316 1 329 1 359 1 378 1 389 1 390 1 401 1 422 1 426 1 430 1 435 1 467 1 484 1 496 1 503 1 535 1 549 1 560 1 570 1 668 1 677 1 684 2 686 1 689 1 697 1 742 1 754 1 764 1 780 1 789 1 833 1 844 1 877 1 909 1 949 1 952 1 967 1 992 1 665 1 673 1 691 1 694 1 718 1 791 1 794 1 830 1 836 1 840 1 878 1 892 1 895 1 897 1 911 1 912 1 939 1 998 1 1001 1 1022 1 
1 209 8 1 13 1 17 1 67 1 81 1 84 1 86 1 94 1 103 1 117 1 120 1 143 1 152 1 214 1 262 1 278 1 282 1 302 1 304 1 337 1 356 1 376 1 379 1 384 1 388 2 389 1 399 1 421 1 438 1 479 1 517 1 530 1 586 1 594 1 615 1 78 1 95 1 100 1 101 1 114 1 148 1 172 1 187 1 200 1 286 1 310 1 315 1 317 1 327 1 330 1 340 1 367 1 394 1 397 1 400 1 422 1 433 1 442 1 443 1 451 1 461 1 476 1 501 1 524 1 565 1 598 1 608 1 623 1 655 1 684 1 698 1 699 1 700 1 717 1 725 1 754 1 791 1 827 1 841 1 856 1 862 2 869 1 879 1 886 1 891 1 899 1 910 1 939 1 940 1 958 1 985 1 995 1 675 1 678 1 682 1 701 1 739 1 746 1 762 1 799 1 804 1 818 1 826 1 828 1 835 1 845 1 878 1 897 1 904 1 938 1 963 1 1010 1 1015 1 1017 1 
1 210 35 1 63 1 127 1 152 1 170 1 173 1 181 1 192 1 224 1 238 1 284 1 288 1 301 1 313 1 317 1 353 1 381 1 404 1 409 1 411 1 421 1 450 2 463 1 467 1 475 1 495 1 496 1 506 1 511 1 540 1 543 2 574 1 579 1 598 1 602 1 635 1 7 1 37 1 57 1 61 1 66 1 74 1 77 1 84 1 85 1 94 1 110 1 135 1 199 1 229 1 248 1 266 1 342 1 352 1 359 1 372 1 379 1 400 1 407 1 413 1 436 1 453 1 462 1 534 1 554 1 561 1 576 1 607 1 624 1 625 1 654 1 661 1 680 2 696 1 708 1 724 1 725 1 726 1 732 1 736 1 754 1 772 1 813 1 835 1 843 1 854 1 900 1 905 1 913 1 937 1 988 1 650 1 663 1 684 1 703 1 735 1 759 1 782 1 783 1 786 1 848 1 869 1 880 1 894 1 914 1 947 1 964 1 970 1 971 1 996 1 1000 1 1004 1 1005 1 1006 1 
1 211 16 1 21 1 24 1 55 1 60 2 90 1 110 1 121 1 127 1 152 1 167 1 174 2 184 1 187 1 269 1 302 1 328 1 369 1 384 1 432 1 462 2 467 1 546 1 555 1 574 1 583 1 636 1 7 1 26 1 107 1 120 1 141 1 157 1 177 1 209 1 245 1 261 1 268 1 279 1 343 1 344 1 347 1 360 1 365 1 394 1 411 1 428 1 470 1 477 1 495 1 499 1 512 1 532 1 558 1 598 1 634 1 640 1 707 1 723 1 745 1 749 1 775 1 780 1 795 1 806 1 819 1 842 1 954 1 957 1 966 1 970 1 983 1 991 1 992 1 997 1 647 1 653 1 655 1 671 1 690 1 695 1 718 1 729 1 734 1 735 1 765 1 823 1 837 1 844 1 867 1 878 1 898 1 913 1 930 1 953 1 956 1 958 1 965 1 978 1 995 1 1013 1 1024 1 
1 208 4 1 12 1 24 1 62 1 70 1 81 1 113 1 131 2 160 1 213 1 249 1 254 1 258 1 268 1 305 1 313 1 330 2 344 1 388 1 393 1 398 1 426 1 439 1 450 1 468 1 487 1 530 1 545 1 546 1 549 1 553 1 572 2 577 1 581 1 582 1 587 1 591 1 606 1 27 1 35 1 47 1 56 1 95 1 102 1 107 1 129 1 140 1 163 1 183 1 185 1 204 1 282 1 297 1 326 1 333 1 355 1 386 1 396 1 410 1 420 1 435 1 443 1 446 1 448 1 459 1 473 1 479 1 488 1 495 1 518 1 519 1 585 1 637 1 663 1 670 1 688 1 708 1 733 1 755 1 794 1 801 1 808 1 815 1 843 1 860 1 891 1 898 1 913 1 923 1 969 1 657 1 666 1 697 1 702 1 735 1 748 1 768 1 787 1 796 1 800 1 803 1 835 1 876 1 903 1 942 1 962 1 963 1 972 1 977 1 1009 1 
1 209 1 1 8 1 18 1 44 1 48 1 50 1 59 1 68 1 78 1 92 1 104 1 122 1 137 1 143 1 149 1 175 2 208 1 255 1 264 1 281 1 302 1 307 1 325 1 328 1 330 1 340 1 342 1 358 1 359 1 381 1 384 1 424 2 426 1 437 1 442 1 480 1 507 1 563 2 602 1 610 1 639 1 17 1 20 1 42 1 61 1 76 1 86 1 112 1 156 1 157 1 173 1 174 1 183 1 193 1 206 1 222 1 232 1 236 1 260 1 284 1 297 1 299 1 343 1 350 1 376 1 380 1 383 1 387 1 390 1 410 1 414 1 423 1 447 1 472 1 483 1 505 1 514 1 516 1 522 1 578 1 580 1 587 1 645 1 667 1 683 1 689 1 693 1 709 1 723 1 731 1 789 1 804 1 810 1 833 1 837 1 846 1 896 1 918 1 968 1 969 1 975 1 982 1 988 1 989 1 991 1 998 1 707 1 717 1 743 1 784 1 795 1 797 1 798 1 815 1 857 1 879 1 935 1 958 1 971 1 987 1 1008 1 1012 1 
1 207 4 1 6 1 83 1 98 1 124 1 127 1 132 1 138 1 152 1 182 1 193 1 221 1 232 1 244 1 267 1 325 1 341 1 366 1 403 1 418 1 419 1 432 1 453 1 463 1 491 1 507 1 513 1 565 1 567 1 611 1 622 2 50 1 94 1 99 1 117 1 123 1 144 1 146 1 160 1 165 1 166 1 185 1 199 1 208 1 211 1 239 1 240 1 305 1 314 1 319 1 350 1 357 1 380 1 386 1 397 1 405 1 423 1 456 1 464 1 466 1 492 1 495 1 504 1 529 1 538 1 584 1 616 1 632 1 652 1 656 1 679 1 704 1 719 1 731 1 741 1 747 1 782 1 788 1 801 1 830 1 850 1 863 1 889 1 964 1 971 1 657 1 677 1 727 1 748 1 766 1 815 1 819 1 825 1 868 1 896 1 914 1 923 1 932 1 937 1 948 1 959 1 961 1 984 1 986 1 1001 1 1003 1 1006 1 1019 1 
1 209 18 1 24 1 76 1 106 1 113 2 115 1 119 1 136 1 142 1 149 1 169 2 216 1 217 1 219 1 240 1 270 1 280 1 285 1 293 1 333 1 335 1 348 1 368 1 397 1 415 1 420 1 466 1 483 1 515 1 572 1 590 1 591 1 598 1 607 1 611 1 616 1 23 1 45 1 78 1 84 1 93 1 100 1 147 1 228 1 237 1 247 1 258 1 263 1 272 1 301 1 312 1 339 1 374 1 401 1 404 1 448 1 453 1 460 1 463 1 479 1 480 1 492 1 501 1 524 1 525 1 546 1 550 1 571 1 612 1 613 1 618 1 638 1 669 1 704 1 735 1 794 1 810 1 815 1 823 1 841 1 842 1 862 1 893 1 904 1 922 1 937 2 939 1 954 1 983 1 716 1 741 1 743 1 744 1 782 1 785 1 790 1 805 1 820 1 821 1 825 1 829 1 860 1 872 1 883 1 884 1 895 1 913 1 921 1 925 1 994 1 1001 1 1010 1 
1 210 20 1 31 1 33 1 54 2 66 1 73 1 79 1 81 1 82 1 83 1 86 1 110 1 153 1 168 1 176 1 180 2 220 1 242 1 252 1 298 1 307 1 347 1 375 1 377 1 392 1 398 1 406 1 417 1 426 1 493 1 505 1 519 1 546 1 581 1 619 2 1 1 14 1 36 1 37 1 91 1 122 1 137 1 148 1 157 1 170 1 194 1 210 1 214 1 221 1 226 1 231 1 248 1 253 1 278 1 280 1 285 1 304 1 333 1 360 1 373 1 379 1 380 1 396 1 399 1 409 1 414 1 415 1 439 1 446 1 485 1 487 1 491 1 508 1 513 1 535 1 548 1 557 1 593 1 597 1 599 1 603 1 608 1 613 1 617 1 636 1 644 1 675 1 688 1 728 1 733 1 737 2 745 1 762 1 770 1 823 1 844 1 845 1 858 1 903 1 923 1 947 1 979 1 992 1 658 1 736 1 744 1 750 1 758 1 787 1 809 1 812 1 817 1 833 1 847 1 914 1 976 1 1000 1 1014 1 
1 213 47 1 57 1 75 1 105 1 135 1 140 1 142 1 165 1 187 1 202 1 222 1 244 1 248 1 271 1 312 1 323 1 348 1 364 1 366 1 370 1 393 1 414 1 419 1 435 1 447 1 474 1 516 1 518 2 539 1 551 1 562 1 589 1 601 1 611 1 613 1 624 1 1 1 11 1 14 1 17 1 31 1 98 1 136 1 169 1 179 1 205 1 220 1 221 1 249 1 251 1 286 1 295 1 301 1 327 1 331 1 340 1 341 1 346 1 354 1 357 1 373 1 392 1 403 1 445 1 446 1 477 1 483 1 501 1 505 1 535 1 545 1 558 1 564 1 575 1 599 1 600 1 609 1 632 1 662 1 665 1 676 1 702 1 710 1 715 1 730 1 757 1 784 1 799 1 816 1 835 1 855 1 860 1 864 1 868 1 890 1 921 1 953 1 969 1 971 1 993 1 670 1 675 1 704 1 775 1 792 1 871 1 874 1 926 1 928 1 951 1 977 1 996 1 997 1 1004 1 1005 1 1021 1 1026 1 
1 210 29 1 32 1 34 1 60 1 66 1 78 1 83 1 116 1 125 1 192 1 213 1 308 1 319 1 326 1 348 1 360 1 363 1 365 1 375 1 391 2 411 2 431 1 447 1 452 1 460 1 462 1 467 1 469 1 490 1 500 1 528 1 548 1 552 1 557 1 575 1 594 1 606 1 648 1 13 1 45 1 52 1 54 1 64 1 84 1 101 1 157 1 170 1 227 1 238 1 242 1 261 1 278 1 295 1 297 1 327 1 329 1 351 1 354 1 381 1 407 1 421 1 434 1 446 1 461 1 492 1 501 1 515 1 535 1 542 1 568 1 595 1 598 1 623 1 641 1 658 1 727 1 732 1 734 1 765 1 813 1 816 1 866 1 881 1 909 1 911 1 922 1 939 1 951 1 958 1 975 1 995 1 695 1 709 1 712 1 728 1 740 1 777 1 783 1 800 1 814 1 815 1 824 1 831 1 890 1 899 1 904 1 918 1 927 1 945 1 957 1 966 1 994 1 1004 1 1006 1 
1 209 7 1 26 1 44 1 48 1 70 1 133 1 161 1 171 1 173 1 183 1 185 1 216 1 222 2 254 1 257 1 283 1 296 1 315 1 334 1 338 1 391 1 430 1 433 1 453 1 475 1 504 1 546 1 550 1 570 1 575 1 592 1 612 1 1 1 2 1 8 1 10 1 57 1 64 1 110 1 111 1 129 1 148 1 163 1 184 1 195 1 198 1 229 1 245 1 265 1 280 1 287 1 302 1 318 1 320 1 363 1 364 1 365 1 369 1 383 1 416 1 418 1 422 1 435 1 463 1 478 1 485 1 499 1 512 1 540 1 544 1 611 1 620 1 645 1 683 1 694 1 712 1 714 1 716 1 729 1 730 1 743 2 748 1 754 1 763 1 768 1 775 1 813 1 816 1 842 1 848 1 874 1 890 1 892 1 893 1 905 1 909 1 913 1 937 1 975 1 979 1 693 1 702 1 707 1 708 1 722 1 771 1 798 1 814 1 835 1 849 1 866 1 870 1 917 1 970 1 985 1 1006 1 1024 1 
1 210 4 1 19 1 37 1 43 1 48 1 75 1 105 1 110 1 111 1 140 1 153 2 164 1 170 1 174 1 179 1 185 1 192 1 225 1 248 2 261 1 293 1 341 1 347 1 356 1 358 1 383 2 397 1 415 1 423 1 446 1 471 1 474 1 484 1 485 1 486 1 497 1 504 1 535 1 542 1 566 1 573 1 611 2 621 1 625 1 644 1 24 1 32 1 68 1 73 1 91 1 93 1 106 1 124 1 175 1 176 1 197 1 207 1 229 1 252 1 353 1 367 1 394 1 414 1 428 1 447 1 449 1 465 1 468 1 491 1 510 1 522 1 582 1 619 1 632 1 634 1 656 1 679 1 680 1 687 1 691 1 692 1 707 1 759 1 832 1 864 1 883 1 891 1 908 2 921 1 937 1 982 1 662 1 749 1 762 1 774 1 788 1 791 1 811 1 819 1 875 1 887 1 907 1 933 1 947 1 964 1 971 1 977 1 990 1 997 1 1001 1 1006 1 1011 1 
1 209 8 1 47 1 57 1 71 1 77 1 83 1 97 1 109 1 111 1 129 1 135 1 196 1 200 1 204 1 252 1 256 1 268 1 283 1 294 1 298 1 317 1 324 1 342 1 388 1 398 2 404 1 442 1 445 1 459 1 495 1 503 1 504 2 523 1 524 1 553 2 567 1 574 1 584 1 592 1 643 1 5 1 7 1 9 1 22 1 34 1 44 1 50 1 55 1 75 1 98 1 100 1 101 1 102 1 117 1 132 1 186 1 202 1 214 1 221 1 281 1 287 1 305 1 316 1 318 1 321 1 322 1 325 1 381 1 390 1 440 1 446 1 481 1 486 1 519 1 527 1 536 1 578 1 579 1 618 1 635 1 641 1 645 1 673 1 715 1 727 2 757 1 776 1 791 1 809 1 823 1 865 1 866 1 889 1 893 1 896 1 904 1 979 1 987 1 995 1 675 1 679 1 744 1 766 1 799 1 861 1 869 1 883 1 931 1 939 1 947 1 1004 1 1008 1 1009 1 1022 1 1024 1 1025 1 
1 217 5 1 31 1 39 1 54 1 68 1 91 1 99 1 134 1 141 1 186 1 194 1 217 1 254 2 277 1 299 1 300 1 343 1 366 1 385 1 387 1 405 1 420 1 427 2 444 1 465 1 512 1 546 1 551 1 597 1 635 1 638 1 648 1 654 1 15 1 75 1 81 1 105 1 112 1 123 1 137 1 142 1 148 1 169 1 179 1 200 1 267 1 288 1 289 1 312 1 336 1 354 1 380 1 417 1 441 1 468 1 498 1 519 1 535 1 550 1 570 1 572 1 577 1 585 1 657 1 666 1 699 1 728 1 763 1 860 1 883 1 896 1 897 2 898 1 901 1 907 1 925 2 931 1 979 1 661 1 665 1 689 1 692 1 697 1 707 1 708 1 716 1 719 1 733 1 745 1 758 1 773 1 788 1 794 1 802 1 810 1 838 1 887 1 908 1 986 1 1000 1 1001 1 1008 1 1014 1 1017 1 1020 1 
1 207 36 1 42 1 102 1 113 1 120 1 124 1 154 1 161 1 194 1 231 1 232 1 248 1 253 2 288 1 293 1 324 1 393 1 406 1 451 2 489 1 490 1 520 1 531 1 557 1 560 1 616 1 618 1 656 1 46 1 57 1 68 1 88 1 118 1 165 1 168 1 175 1 247 1 250 1 252 1 258 1 262 1 290 1 315 1 319 1 361 1 368 1 372 1 375 1 389 1 391 1 423 1 465 1 469 1 482 1 492 1 500 1 501 1 507 1 530 1 539 1 546 1 553 1 565 1 586 1 588 1 646 1 648 1 659 1 686 2 692 2 710 1 717 1 734 1 739 1 746 1 769 1 776 1 778 1 795 1 796 2 799 1 801 1 813 1 819 2 899 1 915 1 920 1 928 2 940 1 945 1 953 1 985 1 993 1 693 1 694 1 705 1 718 1 730 1 765 1 790 1 807 1 818 1 886 1 888 1 913 1 922 1 960 1 977 1 982 1 995 1 1004 1 1008 1 1010 1 1025 1 
1 206 25 2 27 1 50 2 70 1 124 1 125 2 143 1 145 1 146 1 202 1 220 1 230 1 251 1 266 1 267 1 278 1 296 2 318 1 331 1 355 1 366 1 375 1 381 1 386 1 391 1 412 1 434 1 462 1 532 1 542 1 547 1 559 1 570 1 595 1 603 1 613 1 652 1 4 1 6 1 9 1 32 1 34 1 61 1 86 1 93 1 99 1 101 1 115 1 167 1 169 1 184 1 194 1 234 1 281 1 310 1 313 1 336 1 341 1 367 1 377 1 382 1 407 1 416 1 432 1 443 1 479 1 482 1 484 1 490 1 523 1 535 1 541 1 551 1 562 1 581 1 584 1 589 1 609 1 650 1 658 1 658 1 664 1 671 1 690 1 694 1 741 2 751 1 762 1 766 1 776 1 794 1 804 1 818 1 867 1 874 1 886 1 889 1 921 1 963 1 969 1 982 1 994 1 672 1 688 1 708 1 763 1 790 1 802 1 814 1 833 1 838 1 855 1 868 1 877 1 888 1 904 1 928 1 958 1 970 1 979 1 998 1 1005 1 1009 1 1019 1 
1 206 36 1 42 1 47 2 50 1 80 1 86 2 136 1 161 1 171 1 230 1 237 1 242 1 247 1 248 1 268 1 281 1 285 1 299 1 300 1 311 1 341 1 345 1 354 1 359 1 361 1 378 1 400 1 407 1 418 1 429 1 432 1 435 1 445 1 496 1 519 1 570 1 576 1 593 1 598 1 634 2 657 1 101 1 132 1 169 1 179 1 197 1 216 1 219 1 267 1 293 1 301 1 321 1 336 1 350 1 384 1 410 1 417 1 437 1 450 1 475 1 493 1 515 1 526 1 577 1 606 1 621 1 661 1 681 1 689 1 696 1 719 1 733 1 738 1 752 1 766 1 774 2 784 1 808 1 814 1 816 1 831 1 834 1 835 1 896 1 912 1 924 1 697 1 700 1 710 1 712 1 729 1 736 1 742 1 811 1 839 1 844 1 847 1 848 1 853 1 872 1 884 1 905 1 934 1 954 1 958 1 973 1 1005 1 1020 1 
1 207 30 1 39 1 40 1 43 1 50 1 54 1 89 1 95 1 122 1 129 1 130 1 143 1 155 1 206 1 222 1 244 1 292 1 305 1 320 1 335 1 344 1 365 1 404 1 407 1 415 1 418 1 427 1 486 1 488 1 529 1 530 1 536 1 537 1 568 2 586 1 601 1 637 1 51 1 73 1 77 1 109 1 121 1 142 1 188 1 207 1 235 1 249 1 277 1 287 1 288 1 327 1 360 1 439 1 446 1 467 1 475 1 478 1 484 1 493 1 522 1 533 1 549 1 552 1 589 1 600 1 606 1 671 1 679 1 682 1 689 1 701 1 738 1 763 1 770 1 781 1 787 1 832 1 836 1 839 1 866 1 913 1 915 1 927 1 951 1 958 1 970 1 981 1 986 1 664 1 675 1 686 1 688 1 708 1 715 1 727 1 737 1 739 1 743 1 751 1 795 1 810 1 849 1 879 1 892 1 934 1 937 1 942 1 968 1 1010 1 1023 1 1025 1 
1 213 6 1 18 1 56 1 74 2 89 1 107 1 113 1 117 1 146 2 148 1 157 1 169 1 171 1 186 1 197 1 203 1 205 1 235 1 281 1 282 1 299 1 308 1 345 1 362 1 390 1 410 1 444 2 465 1 475 1 480 1 493 1 511 1 536 1 543 1 544 1 567 1 578 1 593 1 613 2 644 1 659 1 10 1 19 1 34 1 50 1 90 1 216 1 219 1 241 1 242 1 248 1 253 1 260 1 277 1 324 1 332 1 339 1 352 1 355 1 357 1 370 1 430 1 446 1 447 1 468 1 518 1 530 1 560 1 563 1 565 1 569 1 576 1 606 1 617 1 636 1 656 1 670 1 693 1 727 1 747 1 764 1 766 1 830 2 832 1 846 1 859 2 902 1 946 1 949 1 950 1 968 1 985 1 998 1 688 1 726 1 792 1 810 1 886 1 892 1 915 1 926 1 937 1 943 1 980 1 1004 1 1020 1 1022 1 1023 1 1024 1 
1 212 13 1 18 1 35 1 36 1 47 1 68 1 76 1 92 1 106 1 128 1 140 1 158 1 186 2 198 1 218 1 230 1 242 2 272 1 283 1 313 1 330 1 343 1 355 1 359 1 404 1 419 1 439 1 462 1 466 1 468 2 472 1 507 1 511 1 515 1 547 1 554 2 592 1 600 1 603 1 617 1 638 1 651 1 24 1 51 1 60 1 71 1 82 1 87 1 113 1 214 1 225 1 252 1 277 1 303 1 326 1 356 1 360 1 412 1 477 1 481 1 489 1 508 1 517 1 553 1 581 1 586 1 605 1 616 1 630 1 654 1 662 1 662 1 681 1 687 1 706 1 718 1 725 1 731 1 749 1 752 1 797 2 799 1 849 1 867 1 870 1 872 1 900 1 901 1 934 1 935 1 960 1 963 1 967 1 977 1 983 1 985 1 986 1 705 1 710 1 747 1 765 1 776 1 783 1 784 1 809 1 816 1 823 1 844 1 881 1 889 1 904 1 912 1 916 1 936 1 937 1 954 1 969 1 991 1 993 1 1000 1 1007 1 1013 1 1018 1 1025 1 
1 213 6 1 39 1 65 1 80 1 98 1 114 1 127 1 130 1 142 1 174 1 180 1 188 1 247 1 251 1 306 1 331 2 345 1 357 1 360 1 367 1 380 1 394 1 413 1 419 1 425 1 438 1 453 1 460 1 461 1 463 1 500 1 504 1 516 1 535 1 538 1 553 2 604 1 635 1 646 1 1 1 3 1 4 1 7 1 12 1 13 1 15 1 27 1 50 1 53 1 64 1 75 1 109 1 136 1 149 1 166 1 168 1 169 1 196 1 217 1 222 1 230 1 255 1 266 1 267 1 271 1 273 1 290 1 317 1 319 1 351 1 353 1 372 1 392 1 434 1 442 1 490 1 509 1 543 1 561 1 587 1 611 1 634 1 644 1 673 1 692 1 708 1 712 1 717 1 730 1 731 1 741 1 748 1 752 1 764 1 771 1 822 1 823 1 833 1 855 1 861 1 884 1 900 1 912 1 954 1 982 1 706 1 806 1 815 1 825 1 836 1 840 1 872 1 891 1 894 1 936 1 938 1 939 1 947 1 973 1 989 1 991 1 995 1 1000 1 1002 1 1017 1 1020 1 1022 1 1026 1 
1 210 2 1 4 1 9 1 14 1 38 1 76 1 84 1 101 1 103 1 109 1 131 1 138 1 141 2 146 1 151 1 154 1 174 1 182 1 201 1 223 1 227 1 250 1 259 1 311 1 313 2 318 1 326 1 338 1 351 1 375 1 380 1 392 1 416 1 422 1 428 1 433 1 439 1 455 1 478 1 505 1 512 1 554 1 555 1 567 1 594 1 658 1 74 1 99 1 200 1 203 1 207 1 210 1 240 1 249 1 262 1 268 1 269 1 300 1 301 1 304 1 312 1 320 1 321 1 352 1 356 1 364 1 391 1 430 1 444 1 449 1 461 1 490 1 504 1 511 1 518 1 543 1 552 1 577 1 596 1 597 1 605 1 612 1 616 1 619 1 660 1 666 1 674 1 687 1 725 1 727 1 743 1 745 1 814 1 817 1 823 1 854 1 886 1 907 1 918 1 922 1 928 1 932 1 937 1 950 1 972 1 979 1 997 1 669 1 686 1 701 1 742 1 801 1 810 1 841 1 842 1 853 1 875 1 876 1 887 1 905 1 916 1 957 1 1015 1 
1 209 42 1 74 1 87 1 123 1 131 1 201 1 225 1 248 1 252 1 277 1 283 1 303 1 310 1 324 1 326 1 333 1 348 2 356 1 377 1 380 1 406 1 412 1 419 1 420 1 423 2 434 1 455 1 471 1 472 1 484 1 498 1 499 1 511 1 514 1 548 1 579 1 585 1 635 1 638 1 651 1 22 1 30 1 35 1 62 1 99 1 102 1 142 1 166 1 169 1 175 1 190 1 230 1 235 1 241 1 363 1 383 1 388 1 394 1 411 1 416 1 432 1 438 1 446 1 453 1 550 1 571 1 592 1 604 1 616 1 636 1 642 1 656 1 678 2 716 1 731 1 745 1 768 1 772 1 797 1 805 1 806 1 815 1 820 1 824 1 835 1 837 2 859 1 863 1 874 1 893 2 894 1 921 1 950 1 970 1 998 1 674 1 675 1 680 1 684 1 694 1 699 1 712 1 742 1 743 1 744 1 802 1 854 1 861 1 875 1 879 1 892 1 911 1 912 1 954 1 955 1 988 1 994 1 1015 1 
1 211 6 1 16 2 25 1 49 1 59 1 62 1 103 2 107 1 109 1 129 1 151 1 161 1 197 1 237 1 240 1 320 1 323 1 342 1 394 1 402 1 413 1 430 1 438 1 449 1 462 1 463 1 464 1 470 1 479 1 483 1 485 1 557 1 558 1 566 1 583 1 592 1 597 1 603 1 612 1 625 1 627 1 656 1 664 1 48 1 50 1 65 1 69 1 81 1 82 1 120 1 136 1 170 1 208 1 212 1 222 1 230 1 245 1 285 1 319 1 325 1 355 1 391 1 434 1 444 1 455 1 467 1 490 1 528 1 531 1 551 1 586 1 591 1 607 1 608 1 634 1 646 1 720 1 721 1 742 2 767 1 773 1 781 1 796 1 797 1 799 1 802 1 822 1 850 1 956 1 963 1 973 1 994 1 998 1 675 1 677 1 687 1 690 1 706 1 708 1 712 1 717 1 746 1 748 1 783 1 804 1 806 1 842 1 845 1 846 1 877 1 904 1 928 1 937 1 944 1 945 1 981 1 1007 1 1011 1 1026 1 
1 209 15 1 31 1 37 1 44 1 47 1 50 1 69 1 74 1 102 1 103 2 132 1 144 1 174 1 176 2 268 1 271 1 303 1 327 1 329 1 359 1 383 1 417 1 472 1 480 1 525 1 548 1 550 1 567 1 573 2 577 1 580 1 586 1 597 1 614 1 622 1 627 1 632 1 647 1 41 1 112 1 154 1 157 1 178 1 213 1 226 1 261 1 283 1 322 1 351 1 352 1 362 1 401 1 448 1 452 1 465 1 482 1 493 1 497 1 502 1 503 1 524 1 535 1 553 1 581 1 630 1 674 1 690 1 710 1 713 1 718 1 733 2 740 1 756 1 757 1 763 1 770 1 788 1 795 1 813 1 867 1 881 1 889 2 957 1 970 1 974 1 678 1 703 1 723 1 734 1 758 1 765 1 771 1 825 1 832 1 835 1 897 1 919 1 928 1 963 1 965 1 977 1 984 1 1014 1 1015 1 
1 208 23 1 49 1 77 1 95 1 101 1 117 1 174 2 175 1 183 1 184 1 192 1 207 1 216 2 241 1 274 1 278 1 279 1 313 1 335 1 358 1 379 2 458 2 522 2 538 1 542 2 549 1 586 1 594 1 631 1 638 1 642 1 40 1 45 1 46 1 54 1 63 1 91 1 100 1 110 1 121 1 123 1 128 1 129 1 155 1 173 1 179 1 188 1 217 1 225 1 249 1 264 1 281 1 295 1 304 1 306 1 322 1 363 1 385 1 400 1 454 1 467 1 488 1 511 1 524 1 543 1 583 1 587 1 595 1 640 1 669 1 683 1 694 1 716 1 743 2 754 1 760 1 775 1 785 1 797 1 804 1 822 1 841 1 861 1 862 1 863 1 889 1 896 2 902 2 913 1 929 1 949 1 955 1 958 1 966 1 672 1 673 1 710 1 719 1 770 1 789 1 807 1 851 1 856 1 857 1 871 1 875 1 901 1 918 1 920 1 942 1 947 1 976 1 1010 1 1023 1 
1 210 1 1 13 1 15 1 36 1 47 1 80 1 90 2 101 1 137 1 155 1 167 1 169 1 220 1 238 1 242 1 250 1 261 1 271 1 281 1 287 1 301 1 315 1 323 1 324 1 337 1 352 1 367 1 388 1 389 1 408 1 413 1 438 2 473 1 484 1 512 1 528 1 567 1 581 2 582 1 591 1 607 1 625 1 627 1 649 1 668 1 11 1 32 1 46 1 58 1 68 1 69 1 77 1 89 1 102 1 123 1 152 1 164 1 183 1 191 1 206 1 253 1 266 1 356 1 409 1 414 1 418 1 419 1 424 1 449 1 487 1 488 1 503 1 548 1 549 1 558 1 595 1 617 1 622 1 664 1 674 1 708 1 722 1 738 1 742 1 755 1 767 1 768 1 778 1 786 1 791 2 800 1 806 1 809 1 823 1 840 1 846 1 851 1 860 2 861 1 887 1 903 1 917 1 918 2 965 2 969 1 670 1 676 1 677 1 698 1 725 1 751 1 783 1 803 1 811 1 845 1 848 1 864 1 891 1 905 1 912 1 941 1 955 1 987 1 997 1 1004 1 1022 1 
1 209 7 1 8 1 20 1 25 1 27 1 44 1 47 1 52 1 53 1 70 1 78 1 108 1 185 1 218 1 257 1 260 1 293 1 297 1 299 1 308 1 340 2 370 1 402 1 423 1 442 1 461 1 472 1 475 1 480 1 487 1 511 1 546 1 551 1 556 1 558 2 596 1 628 1 629 1 646 1 661 1 33 1 37 1 74 1 101 1 114 1 122 1 135 1 151 1 166 1 199 1 210 1 243 1 263 1 266 1 289 1 298 1 345 1 349 1 366 1 378 1 393 1 414 1 426 1 433 1 435 1 438 1 454 1 457 1 466 1 519 1 522 1 525 1 535 1 536 1 538 1 562 1 563 1 567 1 579 1 604 1 616 1 634 1 651 1 669 1 683 2 684 1 706 1 707 1 775 1 780 1 784 1 809 1 831 1 837 1 844 1 846 1 865 1 874 1 878 1 897 1 920 1 932 1 937 1 971 1 986 1 671 1 688 1 691 1 703 1 722 1 736 1 785 1 798 1 806 1 814 1 815 1 826 1 833 1 838 1 854 1 866 1 868 1 872 1 888 1 914 1 925 1 938 1 944 1 948 1 952 1 956 1 958 1 990 1 1003 1 
1 210 18 1 39 1 56 1 72 1 126 1 165 1 171 1 193 1 194 1 197 1 208 1 211 1 223 1 242 1 281 1 282 1 295 1 301 1 306 1 340 1 355 1 358 1 394 1 419 1 427 1 450 1 459 1 498 1 527 1 544 1 615 1 658 1 660 1 17 1 24 1 52 1 64 1 146 1 147 1 184 1 188 1 234 1 238 1 258 1 260 1 288 1 328 1 348 1 349 1 384 1 385 1 387 1 469 1 474 1 514 1 520 1 545 1 557 1 576 1 594 1 627 1 645 1 670 1 672 1 685 1 686 1 692 1 707 1 716 1 760 1 771 1 794 1 831 1 882 2 883 1 886 1 907 1 909 1 920 1 928 1 939 1 984 1 987 1 720 1 728 1 745 1 762 1 777 1 784 1 801 1 810 1 824 1 833 1 850 1 857 1 884 1 924 1 955 1 968 1 974 1 997 1 1009 1 1015 1 1019 1 
1 214 19 1 20 1 84 1 101 1 104 2 130 2 132 1 142 1 193 1 197 1 225 1 247 1 261 1 265 1 270 1 291 1 295 1 341 1 351 1 387 1 390 1 393 2 432 1 479 1 488 1 511 2 518 1 522 1 531 1 551 1 554 1 555 2 586 1 587 1 595 1 631 1 639 1 671 1 23 1 37 1 50 1 52 1 53 1 60 1 69 1 89 1 90 1 173 1 198 1 201 1 268 1 337 1 356 1 358 1 369 1 381 1 399 1 409 1 439 1 456 1 457 1 497 1 500 1 523 1 583 1 658 1 668 1 672 1 672 1 684 1 714 1 742 1 772 1 773 1 786 1 791 1 834 1 861 1 888 1 898 1 906 1 915 1 918 1 965 1 968 1 988 2 691 1 694 1 703 1 715 1 717 1 722 1 732 1 749 1 771 1 781 1 785 1 816 1 860 1 884 1 903 1 904 1 909 1 938 1 940 1 944 1 972 1 983 1 989 1 1014 1 1018 1 1019 1 1022 1 1023 1 
1 207 7 1 19 1 37 1 39 1 43 1 63 1 77 1 129 1 137 1 145 1 152 1 165 1 182 2 190 1 216 1 228 1 248 1 249 2 250 1 269 1 298 1 299 1 323 1 344 1 361 1 393 1 402 2 405 1 436 1 437 1 443 1 455 1 471 1 473 1 487 1 503 1 523 1 575 1 579 1 604 1 609 1 622 1 628 1 655 1 663 1 10 1 14 1 35 1 94 1 95 1 105 1 123 1 135 1 166 1 180 1 184 1 202 1 213 1 218 1 220 1 235 1 260 1 261 1 262 1 263 1 287 1 290 1 346 1 354 1 374 1 521 1 532 1 537 1 554 1 564 1 586 1 616 1 629 1 642 1 668 1 698 1 709 2 746 1 750 1 782 1 807 2 818 1 833 1 875 1 882 1 909 1 929 1 931 2 733 1 785 1 795 1 848 1 852 1 867 1 879 1 886 1 891 1 896 1 949 1 984 1 1015 1 1018 1 1023 1 1024 1 
1 207 38 1 59 1 98 1 111 1 112 2 138 1 153 1 187 2 201 1 217 1 218 1 246 1 258 1 330 1 341 1 383 2 406 1 430 1 448 1 462 1 472 1 491 1 499 1 502 1 535 1 574 1 578 1 583 1 588 1 599 1 619 1 627 1 640 1 664 1 667 1 669 1 1 1 17 1 56 1 57 1 105 1 107 1 124 1 127 1 137 1 148 1 158 1 167 1 190 1 206 1 236 1 237 1 240 1 241 1 252 1 256 1 280 1 298 1 322 1 336 1 340 1 350 1 365 1 381 1 402 1 422 1 437 1 441 1 452 1 456 1 470 1 489 1 494 1 505 1 514 1 541 1 557 1 566 1 569 1 571 1 586 1 589 1 603 1 605 1 611 1 624 1 625 1 639 1 665 1 686 1 706 1 722 1 745 1 787 1 789 1 791 1 847 2 874 1 893 2 900 1 902 1 921 1 966 1 968 1 980 1 695 1 718 1 733 1 751 1 765 1 772 1 773 1 794 1 812 1 818 1 822 1 825 1 848 1 850 1 856 1 861 1 891 1 906 1 993 1 995 1 1000 1 1006 1 1024 1 1027 1 
1 215 27 1 38 2 71 1 75 1 78 1 111 2 127 2 129 1 130 1 144 1 164 1 176 1 188 1 209 1 218 1 233 1 240 1 242 1 280 1 283 1 291 1 295 1 306 2 339 1 340 1 366 2 400 1 426 2 455 1 458 1 464 1 471 1 483 1 542 1 549 1 550 1 558 1 560 1 608 1 613 1 632 1 650 1 8 1 50 1 77 1 85 1 89 1 103 1 128 1 143 1 147 1 148 1 167 1 168 1 192 1 195 1 219 1 256 1 258 1 279 1 309 1 355 1 363 1 377 1 378 1 384 1 436 1 439 1 469 1 493 1 499 1 514 1 540 1 547 1 562 1 570 1 582 1 589 1 593 1 636 1 637 1 643 1 651 1 655 1 660 1 665 1 666 1 702 1 725 1 745 1 752 1 754 1 767 1 772 1 774 2 784 1 801 1 833 1 896 1 907 1 913 1 957 1 962 1 966 1 970 1 984 1 986 1 682 1 689 1 711 1 735 1 736 1 795 1 839 1 842 1 884 1 914 1 928 1 935 1 948 1 951 1 1003 1 1011 1 1026 1 
1 205 33 1 54 1 83 1 115 1 116 1 124 1 132 1 141 1 146 1 159 1 189 1 243 1 269 1 280 1 284 1 308 1 313 1 317 1 341 1 357 1 370 1 385 1 413 1 416 2 443 1 444 1 449 1 460 2 469 1 487 1 507 1 516 1 535 1 552 1 556 1 557 1 567 1 596 1 632 1 651 1 2 1 7 1 13 1 26 1 31 1 48 1 80 1 91 1 136 1 162 1 198 1 204 1 211 1 225 1 240 1 248 1 271 1 275 1 305 1 307 1 345 1 353 1 389 1 391 1 454 1 473 1 493 1 499 1 506 1 560 1 570 1 594 1 610 1 630 1 634 1 669 1 684 1 691 1 735 1 785 1 801 1 803 1 828 1 834 1 856 1 863 2 891 1 945 1 951 1 952 1 953 1 955 1 983 1 690 1 693 1 697 1 724 1 732 1 745 1 763 1 784 1 791 1 804 1 805 1 808 1 868 1 904 1 935 1 982 1 1025 1 
1 211 10 1 30 1 45 1 53 2 64 1 68 1 84 1 124 1 157 1 163 1 178 1 237 1 263 1 273 2 274 1 306 1 334 1 343 1 345 1 348 2 374 1 383 1 392 1 409 1 442 1 457 1 464 1 465 1 468 1 474 1 479 1 480 1 488 1 493 1 508 1 531 1 540 1 552 1 557 1 562 1 573 1 587 1 589 1 607 1 621 1 642 1 4 1 11 1 86 1 128 1 134 1 141 1 162 1 187 1 197 1 200 1 207 1 215 1 219 1 222 1 229 1 320 1 339 1 342 1 349 1 351 1 368 1 378 1 380 1 389 1 398 1 405 1 418 1 424 1 434 1 483 1 504 1 519 1 525 1 539 1 564 1 570 1 591 1 630 1 635 1 637 1 648 1 666 1 669 1 693 1 695 1 743 1 824 1 835 1 839 1 857 1 867 1 872 1 917 1 924 1 947 1 965 1 992 1 684 1 705 1 742 1 744 1 747 1 812 1 816 1 817 1 818 1 829 1 860 1 883 1 886 1 912 1 916 1 931 1 933 1 952 1 964 1 973 1 1000 1 1002 1 1005 1 1007 1 1014 1 
1 210 55 1 64 1 86 1 98 1 115 1 131 1 140 1 151 1 185 1 205 1 236 1 253 1 271 1 286 1 302 1 305 1 311 1 327 1 338 1 354 1 376 1 377 1 402 1 423 1 425 1 428 1 450 1 454 1 487 1 493 1 497 1 519 2 520 1 533 1 550 1 552 1 581 1 593 1 603 1 616 1 618 1 621 1 627 1 629 1 665 2 17 1 25 1 31 1 33 1 49 1 75 1 121 1 148 1 156 1 173 1 182 1 204 1 207 1 228 1 241 1 276 1 285 1 292 1 296 1 309 1 323 1 364 1 381 1 382 1 386 1 396 1 398 1 418 1 434 1 494 1 501 1 504 1 594 1 643 1 667 1 690 1 700 1 718 1 739 1 740 1 751 1 754 1 756 1 760 1 770 1 789 1 809 1 827 1 863 1 866 1 911 1 925 1 929 1 933 1 938 1 953 2 980 1 991 1 996 1 706 1 711 1 714 1 741 1 743 1 753 1 761 1 838 1 896 1 956 1 966 1 1000 1 1003 1 1023 1 1025 1 
1 210 11 1 34 1 38 1 41 1 59 1 64 1 71 1 72 1 90 1 96 1 117 1 141 1 144 1 151 1 153 1 164 1 172 1 174 1 193 1 208 1 234 1 265 1 281 1 285 1 299 1 336 1 338 1 340 1 384 1 440 1 457 1 461 1 465 1 500 1 505 1 553 1 556 1 558 1 574 2 648 1 654 1 660 1 5 1 7 1 24 1 35 1 67 1 94 1 105 1 107 1 114 1 116 1 129 1 138 1 179 1 192 1 204 1 212 1 223 1 228 1 235 1 256 1 288 1 289 1 326 1 349 1 364 1 371 1 391 1 394 1 426 1 448 1 462 1 474 1 498 1 563 1 594 1 602 1 623 1 631 1 655 1 684 1 707 1 746 1 790 1 810 2 814 1 835 2 836 1 843 1 851 1 857 1 866 2 914 1 921 1 926 1 928 1 930 1 951 1 681 1 699 1 719 1 721 1 723 1 757 1 769 1 824 1 847 1 896 1 911 1 941 1 985 1 998 1 1008 1 1018 1 1021 1 1024 1 
1 206 24 1 36 1 37 1 52 1 83 1 86 1 96 1 105 1 128 1 139 1 151 2 163 1 207 1 212 1 216 2 226 1 255 1 258 1 274 1 282 1 287 1 313 1 321 1 331 1 336 1 359 1 363 1 375 1 380 1 388 1 406 1 408 1 489 1 504 2 516 1 523 1 529 1 557 2 574 1 591 1 599 1 644 2 654 1 71 1 80 1 121 1 123 1 130 1 135 1 143 1 149 1 198 1 236 1 264 1 316 1 318 1 333 1 351 1 368 1 371 1 373 1 429 1 440 1 451 1 452 1 458 1 468 1 511 1 517 1 571 1 592 1 623 1 626 1 628 1 634 1 638 1 665 1 708 1 724 1 742 1 796 1 838 1 846 1 855 1 861 1 862 1 870 1 874 1 944 1 971 1 980 1 985 1 992 1 688 1 704 1 711 1 734 1 741 1 755 1 829 1 836 1 886 1 899 1 903 1 906 1 922 1 932 1 941 1 982 1 994 1 995 1 1018 1 1027 1 
1 206 2 1 24 1 32 1 42 1 56 1 59 1 77 1 80 1 99 1 107 1 113 1 135 2 146 1 164 1 178 1 208 1 223 1 226 1 233 1 254 1 258 2 264 1 268 1 273 1 289 1 297 1 357 1 407 1 423 1 456 1 473 1 488 1 498 1 505 1 527 1 539 1 541 1 547 1 559 1 560 1 573 2 574 1 612 1 622 1 659 1 662 1 27 1 38 1 67 1 74 1 76 1 81 1 87 1 90 1 101 1 108 1 152 1 218 1 221 1 244 1 261 1 279 1 294 1 406 1 431 1 436 1 459 1 502 1 525 1 561 1 604 1 620 1 679 1 684 1 707 1 735 1 760 1 763 1 792 1 817 2 828 1 831 2 841 1 870 1 881 1 941 1 956 1 962 1 966 1 967 1 995 2 699 1 706 1 708 1 718 1 725 1 728 1 742 1 751 1 767 1 776 1 805 1 858 1 884 1 896 1 919 1 932 1 960 1 969 1 974 1 1006 1 1026 1 
1 208 17 1 62 1 80 2 83 1 98 2 102 1 124 1 140 1 142 1 173 2 199 1 212 1 225 1 230 1 250 1 252 1 310 1 328 1 332 1 344 1 371 1 373 1 374 1 378 1 387 1 407 1 408 1 438 1 444 1 452 1 453 1 456 1 517 1 529 2 545 1 563 1 591 1 605 1 622 1 637 1 660 1 7 1 34 1 63 1 88 1 119 1 125 1 126 1 145 1 152 1 162 1 180 1 188 1 205 1 216 1 251 1 255 1 287 1 295 1 309 1 311 1 317 1 321 1 345 1 472 1 491 1 499 1 500 1 533 1 546 1 564 1 571 1 580 1 638 1 643 1 675 1 686 1 688 1 690 1 699 1 706 1 772 1 795 1 800 1 806 1 816 1 829 1 830 1 833 1 867 1 890 1 895 1 897 1 926 1 944 1 955 1 971 1 689 1 698 1 728 1 755 1 763 1 805 1 822 1 842 1 845 1 850 1 855 1 861 1 869 1 884 1 910 1 911 1 934 1 981 1 
1 203 21 1 33 1 58 1 59 1 84 1 96 1 105 1 107 1 120 1 155 1 173 1 174 1 252 1 258 1 260 1 322 1 354 1 395 1 410 1 415 1 440 1 452 1 510 1 516 2 519 1 544 1 547 1 597 1 638 2 647 1 653 1 668 1 670 2 4 1 18 1 35 1 36 1 39 1 45 1 48 1 52 1 106 1 127 1 128 1 147 1 149 1 191 1 199 1 219 1 268 1 279 1 292 1 315 1 344 1 432 1 435 1 466 1 470 1 483 1 485 1 515 1 535 1 541 1 553 1 564 1 580 1 591 1 592 1 608 1 610 1 630 1 686 1 706 1 712 1 734 2 777 1 779 1 782 2 793 1 821 2 838 1 850 1 855 1 921 1 924 1 931 1 955 1 980 1 998 1 705 1 765 1 781 1 783 1 823 1 852 1 881 1 905 1 911 1 912 1 914 1 935 1 953 1 957 1 965 1 994 1 1005 1 
1 212 5 1 33 1 57 1 80 1 134 1 167 1 173 1 195 1 218 2 251 1 270 1 273 1 309 1 317 1 324 1 337 1 407 2 409 1 418 1 441 1 452 2 481 1 493 1 494 1 502 1 509 1 523 1 531 1 575 1 588 1 598 1 611 1 642 2 643 1 670 1 672 1 676 1 679 1 681 1 12 1 16 1 90 1 98 1 103 1 117 1 139 1 143 1 144 1 157 1 166 1 201 1 214 1 246 1 254 1 264 1 275 1 281 1 282 1 305 1 308 1 319 1 333 1 342 1 354 1 356 1 385 1 415 1 430 1 454 1 464 1 469 1 473 1 532 1 543 1 601 1 610 1 625 1 644 1 665 1 677 1 688 1 702 1 709 1 716 1 768 1 774 1 775 1 802 1 809 1 852 1 857 1 865 1 868 1 891 1 895 1 899 1 905 1 926 1 932 1 957 2 964 1 968 1 990 1 995 1 686 1 694 1 695 1 698 1 744 1 749 1 762 1 771 1 789 1 813 1 817 1 839 1 841 1 851 1 902 1 911 1 946 1 952 1 954 1 996 1 1019 1 1025 1 1026 1 
1 209 16 1 31 1 69 1 75 2 78 1 129 1 136 1 140 1 147 1 157 1 168 1 182 2 203 1 210 1 215 1 230 1 236 1 265 1 304 1 321 1 322 1 333 1 338 1 377 1 408 1 432 1 441 1 475 1 496 1 540 1 547 1 552 1 588 1 591 1 601 1 637 1 671 1 34 1 35 1 37 1 41 1 43 1 59 1 60 1 80 1 82 1 90 1 100 1 123 1 128 1 132 1 194 1 216 1 221 1 238 1 250 1 256 1 262 1 266 1 269 1 283 1 294 1 332 1 353 1 371 1 378 1 418 1 468 1 484 1 519 1 529 1 555 1 583 1 589 1 613 1 686 1 705 1 723 1 748 1 750 1 752 1 765 1 807 1 811 1 830 1 848 1 851 1 858 1 876 1 890 1 920 1 921 1 965 1 976 1 977 1 983 1 985 1 687 1 736 1 743 1 760 1 763 1 774 1 850 1 863 1 873 1 879 1 895 1 897 1 906 1 953 1 955 1 957 1 996 1 1000 1 1006 1 1013 1 1017 1 1024 1 
1 210 42 1 102 1 135 1 148 1 153 2 156 1 193 2 194 1 216 1 217 2 268 1 274 1 284 1 297 1 334 1 354 1 359 1 360 1 375 1 376 1 394 1 396 1 408 1 411 2 451 1 452 1 468 1 471 1 476 1 481 1 487 1 507 1 522 1 528 1 560 1 563 1 564 1 595 1 642 1 657 2 671 1 674 1 682 1 683 1 685 1 18 1 36 1 46 1 56 1 74 1 80 1 83 1 89 1 97 1 138 1 154 1 177 1 188 1 212 1 224 1 233 1 252 1 255 1 318 1 344 1 380 1 385 1 414 1 436 1 441 1 444 1 450 1 486 1 494 1 497 1 502 1 526 1 527 1 535 1 572 1 583 1 608 1 660 1 664 1 684 1 717 1 762 1 774 1 794 1 802 1 818 1 848 1 859 1 871 1 873 1 903 1 906 1 925 1 928 1 941 1 960 1 963 1 975 1 716 1 752 1 764 1 808 1 814 1 838 1 874 1 897 1 907 1 912 1 930 1 947 1 980 1 999 1 1012 1 1022 1 
1 207 1 2 61 1 62 1 67 1 87 1 92 1 138 1 149 1 155 1 161 2 170 1 180 1 189 1 203 1 223 1 242 1 295 1 296 1 312 1 385 1 390 1 413 2 421 1 430 1 443 1 451 1 483 1 532 1 553 1 565 1 595 1 608 1 611 1 621 1 637 1 639 1 641 1 654 1 662 1 664 1 16 1 40 1 55 1 58 1 72 1 95 1 102 1 113 1 137 1 145 1 148 1 162 1 177 1 241 1 247 1 252 1 254 1 299 1 353 1 357 1 397 1 402 1 411 1 422 1 435 1 438 1 468 1 471 1 479 1 488 1 496 1 511 1 521 1 541 1 588 1 618 1 635 1 666 1 685 1 691 2 724 1 726 1 746 1 782 1 790 1 791 2 806 1 847 1 856 1 857 2 860 2 861 1 865 1 869 1 875 1 923 1 961 1 962 1 967 1 968 1 974 1 981 1 992 1 703 1 708 1 719 1 730 1 751 1 755 1 772 1 824 1 851 1 858 1 870 1 916 1 956 1 1019 1 
1 206 17 1 20 1 21 1 27 1 59 1 69 1 86 1 102 1 111 1 128 1 168 1 197 1 202 1 248 1 258 1 280 1 289 1 296 1 297 1 312 1 317 1 330 1 397 1 410 1 465 1 486 1 488 1 496 1 526 1 549 1 554 1 561 1 575 1 605 1 608 1 646 1 650 1 682 1 684 1 1 1 22 1 38 1 54 1 76 1 126 1 132 1 161 1 165 1 183 1 185 1 188 1 191 1 213 1 218 1 231 1 263 1 318 1 340 1 362 1 406 1 427 1 440 1 455 1 491 1 499 1 508 1 521 1 545 1 552 1 555 1 574 1 630 1 640 1 658 1 660 1 661 1 670 1 680 1 690 1 731 1 783 2 795 1 836 1 856 1 859 1 879 2 957 1 970 1 993 1 705 1 738 1 742 1 764 1 779 1 810 1 840 1 841 1 868 1 890 1 928 1 940 1 951 1 953 1 962 1 997 1 1006 1 1025 1 
1 215 9 1 25 2 31 1 42 1 49 1 69 1 103 1 109 1 130 1 144 1 187 1 196 1 202 2 214 1 258 1 265 1 271 1 298 1 331 1 339 1 341 2 354 1 407 2 435 1 446 1 451 1 522 1 552 1 567 1 591 1 609 1 642 1 647 1 659 1 660 1 10 1 15 1 46 1 79 1 93 1 104 1 124 1 134 1 152 1 161 1 164 1 197 1 210 1 212 1 218 1 219 1 313 1 332 1 373 1 383 1 394 1 399 1 400 1 411 1 423 1 426 1 442 1 454 1 456 1 497 1 508 1 541 1 569 1 581 1 612 1 628 1 656 1 675 1 682 1 701 1 702 2 706 1 720 1 726 1 729 1 779 1 798 1 804 1 820 1 846 1 858 1 873 1 874 1 884 1 907 1 927 1 936 1 954 1 958 1 960 1 691 1 696 1 730 1 734 1 735 1 739 1 760 1 803 1 835 1 844 1 856 1 896 1 932 1 964 1 996 1 1000 1 1009 1 1011 1 1023 1 
1 204 6 1 17 1 84 1 93 1 94 1 104 1 125 1 140 1 141 1 145 1 146 1 152 1 173 1 181 1 189 1 201 2 226 1 242 1 260 1 283 1 319 1 361 1 370 1 403 1 413 1 422 1 436 1 442 1 451 1 522 1 543 1 611 1 629 1 658 1 667 1 678 1 682 1 688 1 5 1 19 1 25 1 38 1 71 1 98 1 109 1 111 1 134 1 139 1 160 1 165 1 211 1 225 1 241 1 258 1 307 1 308 1 323 1 328 1 354 1 397 1 408 1 414 1 460 1 477 1 488 1 491 1 506 1 518 1 531 1 541 1 551 1 568 1 574 1 578 1 586 1 594 1 617 1 645 1 666 1 676 1 700 1 718 1 725 1 731 1 736 1 772 1 779 1 825 1 826 1 827 1 836 1 837 1 850 1 875 1 881 1 925 1 927 1 931 1 933 1 942 1 959 1 963 1 969 1 995 1 698 1 702 1 719 1 746 1 755 1 769 1 777 1 791 1 848 1 857 1 868 1 873 1 934 1 937 1 962 1 977 1 979 1 985 1 1008 1 
1 208 55 1 78 1 79 1 80 1 123 1 149 1 170 1 186 1 187 1 201 1 204 1 220 1 236 1 264 1 280 1 291 1 297 2 316 1 324 1 348 1 350 1 353 1 359 1 365 1 385 1 398 1 413 1 419 1 430 1 459 1 461 1 463 1 492 1 517 1 532 1 533 1 546 1 547 1 585 1 595 1 618 1 625 1 654 1 676 1 687 2 10 1 47 1 122 1 151 1 177 1 184 1 191 1 196 1 207 1 234 1 246 1 248 1 279 1 285 1 333 1 360 1 368 1 380 1 404 1 411 1 423 1 487 1 489 1 508 1 509 1 529 1 542 1 557 1 567 1 588 1 606 1 624 1 626 1 642 1 670 1 672 1 689 1 717 1 718 1 719 1 768 1 784 1 802 1 806 1 825 1 833 1 885 1 938 1 989 1 701 1 759 1 799 1 800 1 808 1 818 1 824 1 832 1 842 1 845 1 850 1 859 1 871 1 874 1 894 1 942 1 946 1 950 1 980 1 990 1 1003 1 1007 1 1013 1 1022 1 
1 209 1 1 7 1 18 1 24 1 28 1 44 1 65 1 90 1 92 1 164 1 209 1 229 1 235 1 340 1 347 1 364 1 366 1 401 1 410 1 431 1 432 1 446 1 448 1 452 1 466 1 469 1 485 1 502 1 507 1 520 1 568 1 637 1 654 1 657 2 663 1 671 1 31 1 49 1 63 1 81 1 102 1 106 1 141 1 155 1 170 1 189 1 204 1 206 1 246 1 259 1 262 1 267 1 269 1 270 1 293 1 308 1 312 1 359 1 425 1 439 1 453 1 487 1 499 1 505 1 523 1 528 1 551 1 582 1 586 1 588 1 598 1 601 1 656 1 702 2 730 1 734 2 735 2 744 1 752 2 783 1 795 1 798 1 804 1 862 1 878 1 887 1 911 1 991 1 997 2 703 1 733 1 736 1 859 1 876 1 909 1 921 1 934 1 959 1 966 1 985 1 999 1 1014 1 1017 1 
1 211 7 1 12 1 13 1 22 1 25 1 30 1 38 1 85 1 100 2 130 1 132 1 201 2 231 1 237 1 276 1 289 1 294 1 301 1 304 1 322 1 333 1 348 1 365 1 382 1 383 1 386 1 403 1 420 1 442 1 445 1 454 1 469 1 475 1 477 1 500 1 542 1 577 1 583 2 587 1 596 1 599 1 603 1 620 1 627 1 647 1 661 1 677 1 10 1 16 1 17 1 52 1 124 1 126 1 155 1 166 1 214 1 225 1 230 1 244 1 255 1 339 1 369 1 394 1 416 1 419 1 433 1 443 1 474 1 535 1 538 1 554 1 561 1 575 1 586 1 593 1 604 1 615 1 626 1 634 1 653 1 657 1 676 1 694 1 700 1 740 1 747 1 765 1 786 1 796 1 812 1 814 1 826 1 838 1 840 1 911 1 926 1 928 2 974 1 998 1 767 1 802 1 803 1 818 1 839 1 860 1 867 1 901 1 932 1 933 1 934 1 983 1 987 1 1008 1 1020 1 
1 212 38 1 44 1 79 1 81 1 108 1 143 1 190 1 191 1 213 1 285 1 287 2 288 1 299 1 340 1 373 1 375 1 381 1 404 1 405 1 406 1 416 1 423 1 480 1 487 1 491 1 511 1 524 1 532 1 557 1 559 1 620 1 640 1 653 1 658 1 668 1 693 1 39 1 59 1 78 1 89 1 90 1 118 1 137 1 156 1 166 1 172 1 203 1 249 1 250 1 294 1 307 1 312 1 335 1 339 1 390 1 403 1 433 1 438 1 439 1 450 1 497 1 498 1 508 1 509 1 512 1 547 1 569 1 575 1 580 1 586 1 623 1 642 1 657 1 665 1 672 1 684 1 705 1 712 1 723 1 786 1 790 1 817 2 826 1 850 1 859 1 869 1 877 1 878 1 898 1 903 1 905 1 923 1 926 1 929 1 938 1 953 1 968 1 975 1 703 1 743 1 770 1 784 1 810 1 822 1 845 1 884 1 910 1 917 1 934 1 950 1 986 1 1007 1 1012 1 1015 1 1020 1 1026 1 
1 212 61 2 87 1 97 2 111 1 125 1 130 1 156 1 174 1 194 1 203 1 205 1 216 1 217 1 231 1 233 1 241 1 246 1 254 1 268 1 283 1 295 1 334 1 358 1 360 1 366 1 395 1 399 1 403 1 429 1 438 1 459 1 460 1 488 1 506 1 525 1 547 1 566 1 594 1 601 1 629 1 677 1 25 1 31 1 42 1 49 1 90 1 106 1 121 1 140 1 155 1 173 1 177 1 192 1 196 1 208 1 220 1 223 1 234 1 253 1 265 1 297 1 331 1 356 1 368 1 390 1 425 1 445 1 448 1 461 1 486 1 501 1 507 1 535 1 583 1 584 1 600 1 635 1 645 1 652 1 674 1 684 1 719 1 739 1 755 1 776 1 815 1 834 1 837 1 840 1 842 1 844 1 872 1 874 1 892 1 896 1 912 1 941 1 954 1 961 1 978 1 984 1 997 1 700 1 720 1 726 1 730 1 738 1 742 1 757 1 772 1 777 1 791 1 808 1 833 1 850 1 855 1 867 1 917 1 918 1 990 1 1010 1 1012 1 1024 1 
1 209 27 1 56 1 58 1 70 1 80 2 106 1 117 1 124 1 133 1 134 1 160 1 165 1 167 1 178 1 180 1 184 1 209 1 229 1 232 1 239 1 245 1 247 1 256 1 274 1 286 1 316 1 345 1 369 1 396 1 419 2 447 1 453 1 454 1 463 1 471 1 475 1 491 1 505 1 530 1 542 1 544 1 552 1 575 1 613 1 614 1 625 1 644 1 659 1 15 1 29 1 37 1 38 1 53 1 85 1 88 1 95 1 122 1 137 1 194 1 206 1 231 1 244 1 313 1 344 1 365 1 392 1 462 1 466 1 487 1 524 1 548 1 554 1 560 1 592 1 599 1 607 1 637 1 689 1 707 2 717 1 739 2 755 2 799 1 804 1 809 1 825 2 844 1 847 1 851 1 873 2 887 1 897 1 900 1 916 1 925 1 929 1 937 1 952 1 955 1 957 1 991 1 993 1 703 1 705 1 726 1 745 1 776 1 788 1 790 1 810 1 826 1 870 1 902 1 914 1 931 1 962 1 971 1 1023 1 
1 207 15 1 44 1 54 1 76 1 81 1 99 1 113 1 159 1 161 1 189 1 196 1 215 1 216 2 218 1 224 1 240 1 280 1 292 1 300 1 319 1 323 1 331 2 348 1 350 1 358 1 364 1 391 1 400 1 411 1 457 1 464 1 477 2 504 1 506 2 527 1 551 1 577 1 587 1 642 1 2 1 13 1 63 1 65 1 115 1 126 1 158 1 162 1 165 1 197 1 199 1 204 1 236 1 267 1 314 1 315 1 366 1 439 1 514 1 523 1 544 1 561 1 563 1 570 1 597 1 623 1 646 1 656 1 659 1 676 1 810 1 815 1 831 1 838 1 850 1 851 1 852 1 877 1 895 1 923 1 925 1 952 1 966 1 976 1 977 1 985 1 988 1 992 1 733 1 735 1 740 1 782 1 784 1 785 1 812 1 829 1 871 1 890 1 905 1 909 1 911 1 980 1 1008 1 1012 1 1018 1 
1 207 58 1 66 2 75 1 85 1 102 1 122 1 132 2 182 1 200 1 213 1 217 1 226 1 248 1 250 2 253 1 323 1 341 1 343 2 359 2 372 1 397 1 427 1 438 1 491 1 493 2 501 1 503 1 595 1 604 1 618 1 629 1 636 1 643 1 673 1 3 1 4 1 14 1 16 1 28 1 34 1 37 1 49 1 55 1 74 1 109 1 131 1 153 1 174 1 275 1 351 1 423 1 441 1 442 1 453 1 462 1 498 1 511 1 514 1 550 1 571 1 578 1 580 1 599 1 602 1 622 1 669 1 682 1 684 1 690 1 723 1 808 1 824 1 889 1 894 1 938 1 974 1 700 1 703 1 710 1 725 1 734 1 739 1 752 1 781 1 793 1 802 1 836 1 843 1 845 1 846 1 865 1 866 1 893 1 899 1 917 1 954 1 964 1 966 1 984 1 986 1 1012 1 1021 1 
1 215 22 1 27 1 50 1 53 1 67 1 71 1 98 1 101 1 128 1 152 1 178 1 184 1 185 1 205 2 226 1 242 1 255 1 338 1 342 1 388 1 406 1 409 1 410 1 419 1 431 2 454 1 469 1 470 1 480 1 500 1 508 2 509 1 516 1 535 1 546 1 567 1 585 1 587 1 618 1 626 1 637 1 643 1 656 1 682 1 1 1 10 1 13 1 18 1 31 1 66 1 102 1 131 1 136 1 186 1 193 1 202 1 203 1 244 1 278 1 302 1 311 1 350 1 361 1 379 1 381 1 394 1 426 1 427 1 428 1 453 1 463 1 491 1 507 1 513 1 529 1 533 1 545 1 610 1 622 1 665 1 679 1 681 1 707 1 747 1 754 1 762 1 791 1 793 1 820 1 831 1 835 1 845 2 851 1 863 2 876 1 912 2 920 2 937 1 950 1 957 1 719 1 751 1 753 1 760 1 761 1 766 1 771 1 776 1 797 1 833 1 838 1 844 1 873 1 899 1 940 1 944 1 972 1 988 1 991 1 1008 1 1011 1 1016 1 1020 1 
1 206 9 1 14 1 16 1 28 1 30 1 96 2 100 1 159 1 162 1 166 1 173 1 211 1 236 1 278 1 346 1 348 1 364 1 394 1 405 1 436 1 473 1 493 1 513 1 535 1 538 1 543 1 607 1 643 1 678 1 690 1 693 1 7 1 13 1 22 1 24 1 37 1 50 1 52 1 64 1 73 1 78 1 94 1 115 1 136 1 145 1 146 1 157 1 179 1 199 1 202 1 205 1 221 1 259 1 271 1 276 1 288 1 311 1 312 1 315 1 334 1 341 1 351 1 362 1 371 1 420 1 449 1 477 1 491 1 568 1 612 1 619 1 620 1 629 1 633 1 659 1 695 1 698 1 729 1 742 1 755 1 767 1 776 1 785 1 793 1 795 1 801 1 804 1 824 1 838 1 844 1 898 1 936 1 958 1 973 1 982 1 714 1 715 1 727 1 766 1 780 1 812 1 816 1 820 1 834 1 856 1 904 1 917 1 927 1 928 1 933 1 938 1 978 1 
1 208 6 1 15 1 34 1 43 1 45 1 60 1 62 1 126 1 129 1 130 1 139 1 220 1 223 1 256 1 272 1 275 1 290 1 308 1 313 1 377 1 378 1 385 1 391 1 404 1 427 1 436 1 465 1 471 1 479 1 490 1 503 1 518 1 534 1 536 2 542 1 584 1 603 1 612 1 660 1 689 1 5 1 9 1 33 1 42 1 51 1 69 1 110 1 118 1 125 1 133 1 153 1 194 1 204 1 211 1 214 1 231 1 245 1 254 1 260 1 303 1 305 1 324 1 327 1 350 1 376 1 384 1 392 1 459 1 477 1 521 1 553 1 556 1 575 1 643 1 664 1 691 1 734 1 764 1 792 1 850 1 853 1 859 1 943 1 948 1 974 1 992 1 703 1 738 1 749 1 757 1 766 1 774 1 843 1 858 1 869 1 875 1 883 1 900 1 902 1 920 1 955 1 961 1 979 1 981 1 987 1 1003 1 1026 1 
1 211 3 1 11 1 16 1 25 1 26 1 42 1 44 1 59 1 60 1 83 1 103 1 109 1 110 2 125 1 128 1 129 1 130 1 132 1 134 1 149 1 154 1 161 1 163 1 177 1 189 1 216 1 224 2 265 1 282 1 349 1 378 1 401 1 433 1 443 1 465 1 481 1 582 1 590 1 596 1 651 1 675 1 684 1 689 2 692 2 10 1 21 1 72 1 73 1 75 1 89 1 92 1 101 1 114 1 123 1 131 1 155 1 165 1 183 1 207 1 214 1 239 1 242 1 279 1 306 1 308 1 319 1 320 1 347 1 352 1 360 1 384 1 393 1 405 1 453 1 473 1 497 1 507 1 512 1 562 1 570 1 579 1 593 1 594 1 597 1 607 1 614 1 623 1 625 1 640 1 646 1 653 1 690 1 707 1 709 1 720 1 815 1 860 1 888 1 890 1 905 1 922 1 928 1 973 1 978 1 980 1 704 1 745 1 768 1 830 1 876 1 884 1 892 1 894 1 910 1 931 1 962 1 998 1 1005 1 1024 1 
1 209 4 1 6 1 14 1 45 1 62 2 65 1 134 1 135 1 141 1 175 1 182 1 194 1 196 1 213 1 219 1 221 1 224 1 230 1 274 1 300 1 319 1 355 1 368 1 394 1 402 1 409 1 420 1 446 1 453 1 455 1 475 1 485 1 489 1 525 1 554 1 563 1 638 1 32 1 57 1 68 1 72 1 90 1 101 1 113 1 118 1 142 1 166 1 176 1 193 1 202 1 235 1 248 1 254 1 284 1 322 1 327 1 382 1 387 1 391 1 397 1 408 1 443 1 482 1 498 1 527 1 541 1 569 1 580 1 594 1 595 1 615 1 644 1 667 1 670 1 672 1 687 1 692 1 694 1 696 1 698 1 701 1 722 1 730 1 735 1 751 1 760 1 806 1 844 1 855 1 880 2 884 1 895 2 911 1 941 1 958 1 767 1 772 1 777 1 791 1 803 1 833 1 842 1 845 1 864 1 871 1 886 1 890 1 929 1 974 1 1012 1 1017 1 1023 1 
1 211 22 1 36 1 65 1 77 1 80 1 97 1 112 2 119 1 124 1 143 1 148 2 158 1 161 1 231 1 247 1 251 1 255 1 293 1 323 1 331 1 342 1 354 2 358 1 361 1 395 1 431 1 433 1 474 1 501 1 505 1 533 1 535 1 542 1 548 1 554 1 560 1 568 1 573 1 597 2 611 1 622 1 648 1 649 1 2 1 31 1 39 1 86 1 93 1 95 1 96 1 114 1 131 1 138 1 172 1 177 1 183 1 227 1 268 1 285 1 322 1 383 1 387 1 388 1 407 1 410 1 414 1 443 1 446 1 452 1 453 1 477 1 495 1 504 1 508 1 515 1 556 1 574 1 592 1 617 1 651 1 680 1 702 1 712 1 718 1 740 1 743 1 763 1 767 1 777 1 804 1 826 1 837 1 867 1 886 1 889 1 913 1 928 1 964 1 989 1 726 1 750 1 807 1 823 1 851 1 859 1 863 1 866 1 883 1 902 1 912 1 1003 1 1010 1 1011 1 1021 1 
1 213 18 1 78 1 92 1 100 1 114 1 140 1 159 2 169 1 187 1 225 1 271 1 310 1 311 1 331 1 342 1 355 2 371 1 390 1 400 1 422 1 460 1 484 1 496 1 519 1 520 1 572 1 615 1 624 1 633 1 640 1 685 1 694 1 20 1 39 1 49 1 50 1 57 1 120 1 121 1 163 1 177 1 188 1 206 1 226 1 227 1 259 1 273 1 285 1 298 1 308 1 377 1 380 1 393 1 396 1 403 1 454 1 508 1 521 1 522 1 562 1 571 1 590 1 606 1 623 1 657 1 662 1 677 1 683 1 688 1 696 1 711 1 737 1 768 1 773 1 795 1 813 1 823 1 858 1 899 1 917 1 938 1 976 1 986 1 992 1 712 1 798 1 802 1 810 1 843 1 868 1 889 1 892 1 903 1 914 1 916 1 929 1 948 1 959 1 966 1 968 1 980 1 991 1 993 1 994 1 1000 1 1008 1 1013 1 1016 1 1027 1 
1 210 3 2 17 1 60 1 64 1 73 1 81 1 91 1 99 1 120 1 147 1 166 1 169 1 195 1 214 1 236 1 271 1 315 2 328 1 359 1 368 1 380 1 443 1 446 1 564 1 567 1 580 1 587 1 591 1 613 1 618 2 662 1 670 1 674 1 682 1 683 1 689 1 1 1 8 1 16 1 43 1 45 1 62 1 69 1 136 1 151 1 158 1 162 1 202 1 208 1 215 1 222 1 232 1 285 1 286 1 306 1 346 1 397 1 441 1 447 1 457 1 468 1 470 1 478 1 483 1 492 1 510 1 517 1 553 1 556 1 559 1 572 1 609 1 628 1 663 1 666 1 678 1 681 1 716 1 732 1 738 1 751 1 765 1 772 1 790 1 822 1 873 1 921 1 966 1 985 1 999 1 715 1 761 1 818 1 837 1 847 1 859 1 872 1 881 1 916 1 917 1 932 1 951 1 963 1 969 1 976 1 981 1 983 1 990 1 1015 1 1016 1 
1 212 21 1 45 1 72 1 79 1 107 1 110 1 122 1 124 1 138 1 151 1 153 1 167 2 168 1 194 1 197 1 218 1 219 1 241 1 266 1 278 1 286 1 305 1 334 1 366 1 373 1 375 1 378 1 397 1 401 1 407 1 471 1 511 1 533 1 540 1 594 1 607 1 645 1 654 1 670 1 671 1 679 1 681 1 696 2 699 1 702 1 2 1 6 1 8 1 9 1 12 1 56 1 158 1 162 1 163 1 242 1 249 1 269 1 284 1 323 1 332 1 377 1 386 1 411 1 427 1 430 1 437 1 439 1 445 1 449 1 458 1 479 1 497 1 553 1 575 1 583 1 622 1 632 1 647 1 653 1 656 1 758 1 767 1 803 1 809 1 811 1 823 1 833 1 922 1 934 1 935 1 960 1 970 1 977 1 713 1 714 1 717 1 771 1 813 1 847 1 881 1 897 1 903 1 925 1 949 1 950 1 967 1 972 1 998 1 1000 1 1003 1 1007 1 1012 1 1016 1 1018 1 1020 1 1023 1 
1 207 8 1 31 1 33 1 69 2 82 2 85 1 94 1 104 1 105 1 161 1 172 1 180 1 192 1 251 1 282 1 289 1 313 1 315 2 330 1 337 1 339 1 368 1 397 1 402 1 442 1 458 1 460 1 461 1 472 1 481 1 506 1 529 1 537 1 541 1 586 1 593 1 601 1 639 1 644 1 646 1 663 1 669 1 680 1 5 1 12 1 14 1 34 1 44 1 50 1 54 1 60 1 63 1 74 1 97 1 126 1 202 1 211 1 225 1 231 1 241 1 248 1 295 1 328 1 332 1 358 1 395 1 452 1 480 1 491 1 494 1 502 1 553 1 569 1 577 1 582 1 607 1 626 1 631 1 653 1 656 1 658 1 660 1 666 1 681 1 687 1 725 1 829 1 844 1 846 1 850 1 854 2 888 1 909 1 910 1 923 1 949 1 960 1 709 1 729 1 742 1 760 1 761 1 773 1 775 1 778 1 785 1 802 1 814 1 847 1 857 1 863 1 890 1 946 1 950 1 980 1 982 1 998 1 1007 1 1014 1 1018 1 1021 1 
1 216 37 1 43 2 80 1 96 1 102 1 136 1 144 1 147 1 156 1 164 1 178 1 184 1 197 1 209 2 250 1 279 1 289 1 314 1 339 2 360 1 378 2 383 1 405 1 416 1 501 1 520 2 541 1 559 1 575 1 625 1 647 1 673 2 684 1 702 1 5 1 61 1 86 1 105 1 106 1 176 1 201 1 219 1 237 1 248 1 265 1 278 1 296 1 304 1 307 1 311 1 315 1 329 1 344 1 350 1 359 1 369 1 370 1 385 1 386 1 421 1 434 1 445 1 451 1 477 1 505 1 518 1 528 1 558 1 561 1 570 1 573 1 582 1 592 1 601 1 606 1 652 1 708 1 728 2 755 1 776 1 791 1 806 1 813 1 825 1 869 1 872 1 887 1 894 1 897 1 914 1 923 1 937 1 939 1 943 1 964 1 993 1 712 1 720 1 747 1 757 1 760 1 772 1 780 1 807 1 812 1 878 1 900 1 909 1 919 1 952 1 965 1 979 1 1005 1 1012 1 1013 1 1016 1 1018 1 1020 1 1026 1 
1 213 36 1 60 1 62 1 85 1 93 1 120 1 131 1 141 1 163 1 181 1 195 1 202 1 235 1 239 1 262 1 279 1 285 1 294 1 304 1 344 1 348 1 356 1 379 1 391 1 395 1 397 1 399 1 425 1 460 1 468 1 473 2 482 1 490 1 496 1 497 1 507 1 510 1 541 1 547 1 566 1 571 1 599 1 624 1 639 1 641 1 651 1 657 1 667 1 39 1 42 1 56 1 61 1 66 1 99 1 113 1 143 1 185 1 225 1 272 1 283 1 316 1 352 1 370 1 398 1 427 1 443 1 465 1 539 1 567 1 637 1 659 1 662 1 668 1 698 1 717 1 727 1 748 1 755 1 787 1 829 1 859 1 867 1 903 2 905 1 924 2 926 1 964 1 974 1 981 1 984 1 986 1 987 1 988 1 997 1 732 1 737 1 749 1 766 1 772 1 785 1 818 1 823 1 841 1 880 1 896 1 959 1 962 1 978 1 994 1 996 1 1000 1 1007 1 1010 1 1014 1 1022 1 
1 211 17 1 30 1 60 1 64 1 78 1 98 1 121 1 129 1 160 1 206 1 214 1 219 1 255 1 273 1 282 1 287 1 293 1 296 1 305 1 312 1 327 1 341 1 361 1 390 1 439 2 485 1 494 1 511 1 524 1 543 1 567 1 568 1 582 1 585 1 601 1 607 1 608 1 620 1 705 1 1 1 37 1 73 1 83 1 84 1 88 1 91 1 95 1 118 1 128 1 130 1 131 1 132 1 153 1 167 1 181 1 211 1 243 1 248 1 262 1 266 1 280 1 298 1 318 1 329 1 353 1 357 1 358 1 373 1 519 1 530 1 532 1 534 1 542 1 558 1 563 1 611 1 638 1 675 1 678 1 680 1 739 1 808 1 822 1 848 1 888 1 892 1 900 1 957 1 967 1 976 1 991 1 716 1 780 1 793 1 830 1 857 1 896 1 902 1 933 1 938 1 952 1 954 1 959 1 968 1 1000 1 1021 1 1026 1 
1 209 2 1 7 1 8 1 13 1 34 1 41 1 51 1 52 1 63 1 75 1 77 1 103 1 104 1 137 1 150 1 158 1 192 1 207 1 208 1 255 1 281 1 284 1 332 1 347 2 374 1 376 1 435 1 438 1 445 1 446 1 451 1 457 1 513 2 517 1 518 1 532 1 548 1 559 1 575 1 583 1 590 1 622 1 635 1 653 1 663 1 683 1 694 1 704 1 60 1 66 1 69 1 70 1 71 1 79 1 98 1 114 1 126 1 127 1 129 1 189 1 196 1 211 1 221 1 241 1 242 1 266 1 267 1 273 1 307 1 319 1 326 1 330 1 333 1 337 1 365 1 366 1 385 1 386 1 403 1 408 1 449 1 477 1 478 1 522 1 530 1 571 1 593 1 607 1 610 1 639 1 652 1 659 1 665 1 666 1 705 1 709 1 733 1 788 1 860 1 907 1 917 1 942 1 951 1 973 1 984 1 716 1 732 1 798 1 841 1 843 1 846 1 872 1 958 1 963 1 964 1 995 1 1005 1 1015 1 1017 1 
1 209 16 1 68 1 97 1 99 1 130 1 143 1 153 1 166 1 190 1 194 1 243 1 248 1 258 1 262 1 285 1 291 2 315 1 364 1 413 1 423 2 447 1 455 1 505 1 507 1 523 1 584 1 623 1 638 1 667 1 22 1 26 1 27 1 28 1 37 1 40 1 82 1 89 1 96 1 123 1 132 1 186 1 219 1 222 1 232 1 256 1 268 1 272 1 274 1 326 1 332 1 349 1 387 1 432 1 442 1 448 1 466 1 476 1 487 1 489 1 491 1 534 1 579 1 580 1 583 1 595 1 611 1 635 1 637 1 707 1 717 1 726 2 794 1 807 1 809 1 812 1 818 1 827 1 830 1 841 1 848 1 857 2 858 1 878 1 883 1 904 1 913 1 922 1 950 1 971 1 989 2 990 1 992 1 718 1 735 1 740 1 774 1 799 1 840 1 842 1 870 1 887 1 894 1 901 1 914 1 921 1 961 1 1008 1 1010 1 1021 1 1024 1 
1 208 18 1 25 2 39 1 63 1 83 1 107 1 146 1 157 1 190 1 243 1 252 1 272 1 275 1 305 1 318 1 336 1 338 1 344 1 350 1 401 1 403 1 409 1 429 1 432 1 437 1 440 1 458 1 467 2 480 1 501 1 541 1 571 1 574 1 602 1 640 1 653 1 672 1 3 1 8 1 38 1 58 1 67 1 75 1 77 1 79 1 215 1 234 1 254 1 276 1 279 1 295 1 360 1 394 1 414 1 433 1 434 1 436 1 453 1 466 1 485 1 493 1 496 1 504 1 567 1 570 1 582 1 592 1 613 1 619 1 622 1 678 1 700 1 707 1 719 1 731 1 750 1 762 1 804 1 818 1 827 1 828 1 838 1 862 1 872 1 889 1 925 1 952 1 960 1 965 1 967 1 970 2 729 1 747 1 759 1 772 1 833 1 842 1 861 1 864 1 894 1 897 1 903 1 918 1 924 1 957 1 983 1 1018 1 1019 1 1020 1 
1 205 12 1 19 1 32 1 67 1 108 2 124 1 135 1 155 1 160 1 200 1 214 1 237 1 259 1 300 1 311 1 313 1 344 1 353 1 366 1 367 1 373 1 381 1 392 1 401 1 424 1 548 1 558 1 563 2 580 1 603 1 604 1 626 1 629 2 632 1 651 1 655 1 16 1 72 1 73 1 100 1 112 1 117 1 122 1 144 1 150 1 175 1 191 1 192 1 208 1 257 1 261 1 269 1 274 1 292 1 301 1 303 1 314 1 329 1 390 1 411 1 458 1 502 1 527 1 536 1 551 1 578 1 596 1 600 1 620 1 631 1 660 1 672 1 700 1 706 1 725 1 727 1 735 1 737 1 761 1 764 1 788 1 815 1 822 1 826 1 884 2 893 1 937 1 954 1 956 1 994 1 716 1 752 1 758 1 768 1 769 1 786 1 806 1 837 1 840 1 843 1 863 1 870 1 890 1 896 1 903 1 907 1 932 1 949 1 973 1 984 1 998 1 1004 1 1026 1 
1 208 5 1 17 1 67 1 107 1 146 1 206 1 214 1 283 1 285 1 298 1 301 1 305 1 331 1 353 1 367 1 458 1 466 1 469 1 483 1 485 1 493 2 510 1 515 2 556 1 580 1 608 1 640 1 653 1 665 1 668 1 671 1 684 1 706 1 6 1 58 1 76 1 94 1 97 1 98 1 114 1 116 1 118 1 120 1 121 1 131 1 142 1 147 1 153 1 163 1 164 1 177 1 191 1 209 1 210 1 224 1 229 1 245 1 247 1 248 1 268 1 279 1 328 1 343 1 346 1 354 1 364 1 376 1 401 1 429 1 435 1 439 1 503 1 530 1 539 1 548 1 559 1 570 1 584 1 588 1 600 1 649 1 656 1 686 1 711 1 712 1 715 1 734 1 749 1 781 1 783 1 793 1 809 1 822 1 839 1 868 1 874 1 876 1 882 1 903 2 905 1 907 1 924 1 930 1 932 1 946 1 950 2 962 1 736 1 755 1 764 1 776 1 796 1 805 1 846 1 861 1 863 1 895 1 896 1 935 1 978 1 1000 1 
1 217 12 1 42 1 106 1 127 1 146 1 203 1 218 1 219 1 227 1 258 1 273 1 285 1 292 1 315 1 323 1 358 1 374 1 382 1 383 1 410 1 418 1 429 1 430 1 449 2 468 1 479 1 487 1 511 1 519 1 535 1 547 1 548 2 576 1 578 1 595 1 600 1 643 1 657 1 663 1 686 1 691 1 696 1 710 1 713 1 3 1 36 1 63 1 72 1 91 1 99 1 109 1 131 1 136 1 149 1 170 1 178 1 194 1 195 1 211 1 217 1 223 1 248 1 249 1 275 1 318 1 320 1 327 1 334 1 345 1 348 1 371 1 441 1 493 1 515 1 566 1 590 1 638 1 647 1 666 1 672 1 707 1 736 1 762 1 770 1 773 1 775 1 811 1 823 1 840 1 843 1 850 1 852 1 895 1 901 1 908 1 910 1 919 1 944 1 965 1 999 1 772 1 782 1 839 1 851 1 869 1 923 1 978 1 984 1 988 1 1007 1 1009 1 1010 1 1011 1 
1 216 37 1 43 1 92 1 96 1 102 1 106 1 107 1 157 1 158 1 187 1 197 1 223 1 251 1 257 2 277 1 281 1 283 1 287 1 310 1 312 1 327 1 350 1 355 1 368 1 390 2 410 1 417 1 438 1 440 1 472 1 504 1 523 1 532 1 533 1 543 1 620 2 627 1 662 1 667 1 678 1 690 1 691 1 704 1 39 1 51 1 52 1 53 1 64 1 74 1 90 1 99 1 114 1 123 1 125 1 169 1 184 1 205 1 212 1 214 1 271 1 316 1 321 1 322 1 328 1 341 1 343 1 412 1 445 1 485 1 488 1 493 1 506 1 562 1 573 1 584 1 606 1 611 1 616 1 621 1 624 1 634 1 642 1 645 1 657 1 674 1 681 1 713 1 740 1 742 1 769 1 784 1 794 1 838 1 851 1 857 1 877 1 880 1 883 1 904 1 908 1 910 1 915 1 929 1 945 1 948 1 964 1 965 1 969 1 993 1 733 1 750 1 768 1 813 1 819 1 848 1 849 1 861 1 875 1 876 1 935 1 937 1 955 1 970 1 978 1 1001 1 1005 1 1007 1 1008 1 1014 1 1021 1 1024 1 
1 209 46 1 50 1 78 1 93 1 103 1 104 1 113 1 127 1 146 1 151 1 154 1 178 1 181 1 210 1 245 1 255 1 257 1 305 1 311 1 322 1 329 1 330 1 343 1 360 1 367 1 372 1 374 2 377 1 416 1 454 1 455 1 461 1 465 1 514 1 520 1 531 1 553 1 578 1 592 1 597 1 601 1 619 1 638 1 648 1 659 1 691 1 695 1 714 1 5 1 21 1 23 1 56 1 81 1 107 1 152 1 168 1 174 1 224 1 252 1 279 1 286 1 310 1 379 1 388 1 389 1 405 1 406 1 408 1 418 1 448 1 460 1 466 1 471 1 495 1 496 1 526 1 545 1 568 1 571 1 591 1 636 1 637 1 641 1 656 1 668 1 679 1 687 1 690 1 699 1 722 1 724 1 728 1 737 1 738 1 739 1 781 1 802 1 809 1 825 1 843 1 880 1 896 1 897 1 898 1 920 1 934 1 937 1 723 1 729 1 733 1 741 1 773 1 777 1 779 1 799 1 811 1 817 1 842 1 881 1 889 1 892 1 933 1 936 1 945 1 948 1 1022 1 1026 1 
1 208 4 1 10 1 18 1 27 1 35 1 50 1 61 1 112 1 118 1 141 1 149 1 154 1 159 2 161 1 199 1 205 2 217 1 280 1 288 1 303 1 321 1 328 1 336 1 341 1 380 1 382 1 400 1 410 1 427 1 462 1 470 1 482 1 516 1 612 1 624 1 666 1 689 1 702 1 11 1 32 1 60 1 92 1 94 1 98 1 128 1 132 1 145 1 151 1 181 1 187 1 239 1 258 1 262 1 302 1 389 1 408 1 459 1 471 1 473 1 477 1 486 1 498 1 510 1 531 1 557 1 559 1 596 1 614 1 637 1 671 1 695 1 709 1 744 1 751 1 757 1 777 1 778 1 795 1 797 1 801 1 816 1 856 1 893 1 915 1 916 1 930 1 938 1 940 1 962 1 973 1 998 1 790 1 821 1 836 1 844 1 848 1 858 1 862 1 889 1 945 1 969 1 975 1 993 1 999 1 1004 1 1006 1 1013 1 
1 207 7 1 29 2 71 2 88 1 142 1 156 1 165 1 207 1 218 1 242 1 253 1 263 1 269 1 274 1 279 1 290 1 308 1 322 1 329 1 341 1 367 1 393 1 401 1 410 1 416 2 436 1 441 1 466 1 468 1 494 1 497 1 513 2 530 1 538 1 599 1 615 1 618 1 666 1 3 1 32 1 40 1 41 1 50 1 89 1 106 1 130 1 131 1 137 1 145 1 151 1 174 1 185 1 190 1 235 1 238 1 239 1 252 1 297 1 298 1 363 1 377 1 387 1 415 1 425 1 448 1 463 1 474 1 509 1 510 1 518 1 533 1 543 1 554 1 573 1 577 1 589 1 607 1 620 1 679 1 732 1 740 1 743 1 788 1 821 1 824 1 852 1 856 1 860 1 903 2 923 1 947 1 949 1 954 1 958 1 964 1 742 1 758 1 766 1 771 1 796 1 839 1 844 1 849 1 858 1 861 1 882 1 883 1 898 1 942 1 969 1 973 1 978 1 998 1 1026 1 1027 1 
1 207 5 1 32 1 107 2 141 1 195 1 199 1 208 1 256 1 262 1 283 1 313 1 324 1 363 1 372 1 387 1 399 1 413 1 425 1 448 2 449 1 462 1 469 1 474 1 497 1 504 1 507 1 514 1 521 1 522 1 550 1 559 1 569 1 606 1 627 1 628 1 635 1 641 1 669 1 674 1 703 1 719 1 1 1 3 1 16 1 18 1 23 1 30 1 64 1 65 1 79 1 87 1 93 1 100 1 126 1 131 1 149 1 213 1 236 1 287 1 291 1 299 1 304 1 311 1 366 1 379 1 390 1 398 1 408 1 423 1 429 1 434 1 452 1 454 1 477 1 480 1 503 1 542 1 561 1 572 1 582 1 617 1 619 1 637 1 653 1 670 1 672 1 722 1 722 1 725 2 767 1 822 1 829 1 873 1 876 1 889 1 904 2 924 1 925 1 960 1 972 1 762 1 817 1 825 1 826 1 853 1 868 1 879 1 914 1 936 1 987 1 991 1 1010 1 1014 1 1020 1 
1 212 43 1 46 1 54 1 83 1 96 2 141 1 145 1 181 1 191 1 194 1 240 1 259 1 269 1 282 1 328 1 329 1 333 1 339 1 385 1 392 1 420 1 421 1 438 1 479 1 482 1 496 1 506 1 507 1 535 1 556 1 564 1 593 1 599 1 600 1 606 1 614 1 635 1 645 1 647 1 685 1 694 1 698 1 3 1 19 1 28 1 57 1 75 1 87 1 116 1 133 1 178 1 196 1 199 1 211 1 237 1 238 1 250 1 287 1 303 1 313 1 349 1 352 1 369 1 393 1 399 1 413 1 417 1 488 1 517 1 558 1 566 1 587 1 641 1 667 1 679 1 719 1 724 1 726 1 740 1 749 1 750 1 755 1 766 1 798 1 801 1 813 2 814 1 863 1 874 1 894 1 911 1 932 1 956 1 987 1 737 1 768 1 778 1 782 1 807 1 820 1 828 1 835 1 847 1 850 1 882 1 899 1 916 1 921 1 924 1 938 1 948 1 950 1 958 1 966 1 1000 1 1007 1 1008 1 1011 1 1015 1 
1 212 10 1 22 1 59 1 67 1 111 1 121 1 122 1 126 1 177 1 190 1 200 1 205 1 245 1 280 1 298 1 326 1 342 1 345 1 352 1 362 1 369 1 394 1 407 1 426 1 440 1 444 1 453 1 480 1 482 1 499 1 512 1 514 1 536 2 555 1 560 1 575 1 579 1 597 1 603 1 605 1 621 1 634 1 644 1 680 1 687 1 719 1 723 1 14 1 31 1 70 1 76 1 77 1 102 1 116 1 124 1 130 1 131 1 158 1 181 1 195 1 198 1 203 1 207 1 219 1 220 1 242 1 260 1 266 1 309 1 312 1 333 1 336 1 351 1 363 1 380 1 381 1 402 1 443 1 448 1 458 1 465 1 481 1 506 1 542 1 564 1 578 1 596 1 600 1 609 1 622 1 676 1 727 1 741 1 745 1 747 1 763 1 778 1 836 1 845 1 870 1 885 1 890 1 913 1 916 1 924 1 984 2 731 1 761 1 770 1 787 1 856 1 861 1 896 1 928 1 932 1 933 1 975 1 982 1 1000 1 1004 1 1009 1 1016 1 1020 1 
1 210 2 1 21 1 52 1 58 1 71 1 83 1 119 2 122 1 129 1 168 1 170 1 172 1 180 1 236 1 253 1 266 2 295 1 305 1 309 1 329 1 349 1 359 1 361 1 395 1 408 1 413 1 425 1 447 1 500 1 511 1 537 1 549 1 562 1 583 1 643 1 644 1 662 1 664 1 675 1 690 1 708 1 715 1 722 2 38 1 39 1 56 1 125 1 187 1 195 1 233 1 263 1 268 1 273 1 274 1 281 1 285 1 313 1 323 1 383 1 390 1 393 1 442 1 454 1 458 1 474 1 475 1 532 1 543 1 589 1 620 1 634 1 669 1 681 1 698 1 727 1 763 1 766 1 809 1 824 1 864 1 887 1 898 1 955 1 966 1 967 1 972 1 983 1 999 1 735 1 762 1 786 1 811 1 835 1 845 1 870 1 906 1 954 1 958 1 975 1 996 1 1006 1 1016 1 1018 1 
1 207 19 1 27 1 53 1 70 1 73 1 81 1 107 1 126 1 131 1 134 1 150 1 153 1 160 1 170 1 199 1 225 1 267 1 269 1 281 1 307 1 376 1 415 1 426 1 509 1 554 1 560 1 580 1 584 1 600 1 606 1 615 1 644 1 687 1 689 1 713 2 723 1 12 1 14 1 34 1 71 1 105 1 110 1 122 1 183 1 196 1 217 1 224 1 234 1 264 1 271 1 298 1 306 1 319 1 366 1 371 1 392 1 400 1 427 1 431 1 441 1 483 1 510 1 521 1 533 1 555 1 564 1 572 1 576 1 594 1 598 1 612 1 622 1 636 1 638 1 661 1 695 1 696 1 704 1 741 1 759 1 763 1 770 1 801 1 827 1 840 1 857 1 872 1 876 1 975 1 983 1 992 1 995 1 999 1 745 1 748 1 750 1 779 1 784 1 824 1 831 1 836 1 837 1 853 1 865 1 875 1 886 1 900 1 905 1 936 1 960 1 998 1 1022 1 
1 211 6 1 14 1 25 1 39 1 53 1 89 1 116 1 150 1 151 1 153 1 155 1 157 1 194 1 201 1 202 1 244 1 282 1 313 1 320 1 368 1 372 1 377 1 406 1 418 2 454 1 457 1 480 1 481 1 516 1 529 1 538 1 573 1 586 1 594 1 607 1 652 1 655 2 661 1 664 1 710 1 715 1 724 1 725 1 27 1 56 1 87 1 96 1 113 1 121 1 159 1 172 1 179 1 232 1 246 1 251 1 268 1 270 1 350 1 364 1 382 1 390 1 431 1 447 1 452 1 482 1 508 1 510 1 515 1 522 1 557 1 563 1 587 1 604 1 613 1 638 1 648 1 660 1 700 1 732 1 736 1 787 2 818 1 822 1 827 1 830 1 839 1 856 1 925 1 939 1 959 1 980 1 984 1 748 1 752 1 766 1 771 1 797 1 809 1 819 1 826 1 828 1 831 1 895 1 906 1 910 1 944 1 946 1 948 1 994 1 1006 1 1017 1 
1 216 20 1 26 1 92 1 94 1 116 1 144 1 162 1 194 1 208 1 271 1 312 1 319 1 321 1 323 1 325 1 351 1 362 1 373 1 381 1 393 1 396 2 399 1 422 1 448 1 450 1 456 1 493 1 497 1 513 1 556 1 557 1 568 1 610 1 616 1 629 1 638 1 640 1 650 1 656 1 709 2 719 1 15 1 17 1 22 1 44 1 55 1 63 1 71 1 114 1 160 1 196 1 223 1 232 1 239 1 294 1 407 1 458 1 495 1 579 1 595 1 596 1 605 1 606 1 619 1 652 1 671 1 681 1 682 1 729 1 757 1 758 1 767 2 775 2 777 1 779 2 782 1 785 1 789 1 805 1 813 1 821 1 837 1 846 1 848 1 855 1 863 2 887 1 911 1 936 1 969 1 972 1 977 1 982 1 732 1 751 1 766 1 768 1 797 1 835 1 883 1 907 1 928 1 947 1 981 1 985 1 1000 1 1002 1 1003 1 1012 1 1021 1 
1 208 8 1 10 1 12 1 61 1 120 1 122 1 130 2 150 1 171 1 187 1 206 1 210 1 216 1 235 1 238 1 251 1 290 1 311 1 337 1 430 1 450 2 463 1 464 2 508 2 528 1 533 1 543 1 548 1 566 1 590 1 600 1 635 1 653 1 689 1 700 1 728 1 98 1 109 1 141 1 153 1 156 1 164 1 213 1 228 1 262 1 268 1 292 1 318 1 345 1 346 1 353 1 356 1 363 1 406 1 449 1 493 1 500 1 522 1 567 1 615 1 623 1 645 1 659 1 708 1 714 1 719 1 771 2 784 1 793 1 832 1 858 1 866 1 869 1 916 1 932 2 953 1 963 1 965 2 733 1 763 1 781 1 783 1 792 1 807 1 815 1 820 1 833 1 834 1 908 1 915 1 920 1 947 1 950 1 976 1 1006 1 1014 1 1021 1 
1 210 7 1 15 1 18 1 27 1 35 1 43 2 92 1 118 1 121 1 125 1 167 1 176 1 188 1 190 1 207 1 208 1 252 1 262 1 304 1 362 1 417 1 423 1 453 1 482 1 503 1 533 2 563 1 580 1 590 1 600 1 618 1 623 1 631 1 635 1 651 1 653 1 663 1 692 1 703 1 8 1 26 1 49 1 63 1 87 1 88 1 95 1 119 1 129 1 170 1 184 1 192 1 250 1 266 1 267 1 280 1 298 1 301 1 330 1 333 1 341 1 359 1 360 1 419 1 422 1 452 1 458 1 460 1 465 1 501 1 512 1 523 1 538 1 540 1 545 1 548 1 601 1 602 1 657 1 687 1 689 1 695 1 730 1 730 1 787 1 788 1 805 1 844 1 870 1 886 1 916 1 928 1 932 1 938 1 944 1 945 1 958 1 959 1 990 1 992 1 995 1 759 1 796 1 808 1 810 1 833 1 838 1 903 1 912 1 934 1 940 1 957 1 1006 1 1012 1 1017 1 1023 1 1026 1 
1 210 2 1 25 1 32 1 42 2 49 1 67 1 84 1 123 1 124 1 128 1 141 1 151 1 196 2 207 1 226 1 247 1 258 1 269 2 273 1 280 1 308 1 314 1 321 1 339 1 352 1 359 1 364 1 412 1 422 1 440 1 469 1 483 1 502 1 542 1 559 1 560 1 564 1 587 1 603 1 611 1 630 1 637 1 647 1 648 1 662 1 663 1 665 1 688 1 690 1 714 1 12 1 31 1 37 1 47 1 60 1 70 1 83 1 91 1 106 1 119 1 122 1 132 1 146 1 159 1 170 1 208 1 222 1 242 1 257 1 261 1 291 1 292 1 329 1 362 1 372 1 416 1 420 1 432 1 463 1 489 1 501 1 516 1 521 1 531 1 597 1 599 1 621 1 631 1 724 1 746 1 747 1 767 1 768 1 774 1 778 1 783 1 802 1 828 1 830 1 860 1 883 1 900 1 928 1 985 1 993 1 996 2 739 1 741 1 839 1 841 1 842 1 878 1 887 1 898 1 919 1 937 1 939 1 958 1 969 1 975 1 981 1 1005 1 1009 1 1012 1 1014 1 1024 1 
1 208 17 1 35 1 48 1 53 1 64 1 77 1 99 1 101 1 143 2 186 1 190 1 193 2 206 1 211 1 216 1 285 1 295 1 306 1 310 1 341 1 369 1 371 1 380 1 414 1 424 1 429 1 487 1 527 1 548 1 557 1 560 1 567 1 577 1 600 1 607 1 610 1 612 1 630 1 644 1 652 1 706 1 721 1 727 1 20 1 23 1 37 1 58 1 62 1 89 1 100 1 110 1 111 1 125 1 128 1 168 1 171 1 226 1 314 1 319 1 326 1 328 1 343 1 345 1 370 1 379 1 385 1 400 1 422 1 434 1 466 1 474 1 488 1 489 1 529 1 530 1 535 1 544 1 547 1 549 1 564 1 576 1 585 1 598 1 601 1 621 1 628 1 672 1 676 1 710 1 712 1 728 1 733 1 764 1 780 1 781 1 783 1 798 1 800 1 808 1 813 1 818 1 826 1 827 1 830 2 836 1 859 2 921 1 998 1 752 1 788 1 821 1 866 1 895 1 902 1 934 1 947 1 949 1 963 1 978 1 991 1 1006 1 1019 1 
1 210 56 1 67 1 75 1 84 1 94 1 95 1 99 1 116 1 128 1 146 1 148 1 162 1 163 1 173 1 193 1 203 1 271 1 295 1 312 1 356 1 368 2 413 1 414 1 422 1 428 1 432 1 454 1 486 1 494 1 505 1 528 1 543 1 560 2 584 1 587 1 618 1 621 1 646 1 650 1 659 1 667 2 712 1 732 1 47 1 79 1 86 1 87 1 113 1 126 1 143 1 167 1 172 1 229 1 243 1 267 1 309 1 317 1 331 1 387 1 423 1 425 1 433 1 447 1 466 1 476 1 512 1 517 1 522 1 565 1 603 1 632 1 656 1 673 1 674 1 692 1 697 1 718 1 719 1 729 1 755 1 765 1 767 1 779 1 783 1 824 1 831 1 833 1 856 1 859 1 896 1 905 1 920 1 961 1 985 1 991 1 749 1 750 1 759 1 760 1 763 1 773 1 819 1 822 1 826 1 879 1 898 1 900 1 903 1 922 1 951 1 960 1 1000 1 1008 1 
1 212 18 1 38 1 83 1 96 1 103 1 108 1 112 1 113 2 139 1 140 1 192 1 234 1 235 1 268 1 273 1 284 1 292 1 303 1 304 1 305 1 321 1 339 1 356 1 360 1 391 1 413 1 416 1 472 1 480 1 483 1 490 1 491 1 530 1 535 2 588 1 612 1 652 1 657 1 683 2 692 2 701 1 716 1 7 1 41 1 44 1 53 1 70 1 86 1 110 1 133 1 141 1 150 1 197 1 200 1 229 1 244 1 249 1 291 1 311 1 334 1 361 1 386 1 426 1 441 1 454 1 471 1 485 1 502 1 517 1 522 1 533 1 549 1 563 1 572 1 574 1 577 1 578 1 581 1 586 1 594 1 595 1 604 1 613 1 617 1 645 1 667 1 680 1 689 1 698 1 762 1 765 1 767 1 771 1 792 1 856 1 857 1 872 1 878 1 903 1 929 1 938 1 951 1 980 1 989 1 756 1 774 1 783 1 793 1 796 1 797 1 831 1 885 1 891 1 898 1 906 1 923 1 944 1 958 1 987 1 990 1 1003 1 1018 1 1023 1 1025 1 1027 1 
1 214 2 2 7 1 40 1 71 1 75 1 104 1 106 1 136 1 149 1 150 1 162 1 194 1 198 1 235 1 262 1 272 1 285 1 314 1 326 1 330 1 357 2 375 1 376 1 381 1 386 1 425 1 449 1 466 1 467 1 510 1 572 1 574 1 592 1 594 1 627 1 631 1 632 1 640 1 649 1 676 1 681 1 692 2 703 1 715 1 41 1 49 1 55 1 102 1 197 1 200 1 223 1 233 1 273 1 277 1 308 1 312 1 345 1 348 1 351 1 373 1 387 1 393 1 402 1 405 1 411 1 418 1 438 1 440 1 445 1 454 1 468 1 478 1 508 1 527 1 558 1 566 1 580 1 603 1 606 1 641 1 644 1 645 1 646 1 675 1 689 1 697 1 713 1 725 1 749 1 769 2 772 1 785 1 786 1 793 1 808 1 811 1 832 1 835 1 842 1 852 1 857 1 866 1 880 1 884 2 909 1 913 1 925 1 926 1 945 1 954 1 962 1 982 1 752 1 755 1 787 1 795 1 799 1 845 1 865 1 911 1 924 1 927 1 942 1 951 1 986 1 1013 1 1015 1 1026 1 
1 212 5 2 16 1 48 1 56 1 66 1 69 1 83 2 88 1 96 1 112 2 125 1 153 1 173 1 215 2 236 1 244 1 251 1 252 1 318 1 325 1 326 1 334 1 341 1 369 1 401 1 429 1 435 1 439 1 452 1 467 2 470 2 505 1 518 1 530 1 546 1 559 1 576 1 588 1 596 1 631 1 634 1 644 1 690 1 717 1 727 1 4 1 6 1 18 1 20 1 35 1 43 1 62 1 74 1 81 1 95 1 135 1 180 1 187 1 243 1 283 1 287 1 293 1 308 1 312 1 324 1 331 1 335 1 344 1 346 1 347 1 383 1 389 1 410 1 442 1 461 1 472 1 479 1 493 1 523 1 537 1 544 1 552 1 562 1 577 1 582 1 613 1 629 1 639 1 640 1 650 1 659 1 670 1 675 1 685 1 692 1 716 1 751 1 767 1 778 1 783 1 788 1 792 1 795 1 804 1 805 1 826 2 855 1 878 1 925 1 931 1 935 1 969 2 982 2 993 1 745 1 773 1 786 1 811 1 836 1 843 1 869 1 874 1 876 1 877 1 879 1 902 1 905 1 922 1 929 1 945 1 1009 1 1018 1 1025 1 
1 210 34 1 82 1 105 1 107 1 113 1 116 1 133 1 165 1 169 1 197 1 213 1 247 1 253 1 268 1 294 1 311 1 330 1 331 1 357 1 376 1 386 1 403 1 419 1 422 1 427 1 438 1 443 1 450 1 461 1 486 1 498 2 506 1 510 1 543 2 549 2 559 1 590 1 611 2 650 2 705 1 715 1 719 1 46 1 56 1 75 1 93 1 94 1 108 1 141 1 144 1 146 1 147 1 162 1 173 1 182 1 223 1 242 1 252 1 271 1 309 1 317 1 354 1 375 1 417 1 431 1 456 1 469 1 470 1 472 1 487 1 488 1 491 1 495 1 514 1 539 1 545 1 592 1 606 1 615 1 660 1 710 1 723 1 744 1 766 1 809 1 818 1 825 1 832 1 847 1 856 1 864 1 868 2 908 1 909 1 927 1 969 1 745 1 775 1 780 1 788 1 795 1 811 1 816 1 875 1 891 1 900 1 917 1 938 1 944 1 965 1 988 1 997 1 1000 1 1003 1 1012 1 1013 1 
1 208 10 1 18 1 27 1 37 1 57 1 70 1 82 1 105 1 119 1 120 1 141 1 152 1 165 1 199 1 210 1 222 1 235 1 237 1 248 1 252 1 273 2 274 1 279 1 309 1 325 1 328 1 351 1 371 1 379 1 424 1 432 1 500 1 503 1 525 1 543 1 552 1 579 1 589 1 595 1 608 1 621 1 628 1 659 1 660 1 669 1 706 1 719 1 4 1 20 1 24 1 34 1 44 1 46 1 73 1 75 1 106 1 118 1 137 1 184 1 217 1 255 1 286 1 321 1 323 1 329 1 380 1 386 1 402 1 410 1 431 1 458 1 469 1 484 1 506 1 510 1 515 1 522 1 544 1 569 1 577 1 580 1 581 1 619 1 629 1 633 1 688 1 695 1 701 1 828 1 831 1 837 1 862 1 878 1 891 1 923 2 929 1 977 1 982 1 994 1 764 1 770 1 852 1 853 1 856 1 858 1 879 1 893 1 950 1 964 1 966 1 983 1 1002 1 1007 1 1020 1 
1 211 3 1 5 1 13 1 16 1 20 1 21 1 22 1 69 1 76 1 128 1 134 1 138 1 192 1 195 1 196 1 216 1 235 1 243 2 286 1 292 1 302 1 305 1 332 1 339 1 345 1 349 1 350 1 353 1 355 1 378 1 398 1 408 1 410 1 430 1 457 1 471 1 477 1 487 1 510 1 523 1 591 1 608 1 611 1 623 1 637 1 638 1 657 1 678 1 695 1 696 2 711 1 719 1 12 1 53 1 94 1 110 1 135 1 152 1 180 1 222 1 225 1 278 1 317 1 322 1 324 1 336 1 370 1 381 1 385 1 393 1 413 1 425 1 433 1 434 1 452 1 468 1 507 1 522 1 535 1 541 1 577 1 578 1 596 1 628 1 643 1 660 1 689 1 698 1 731 1 755 1 763 1 785 1 822 1 852 1 866 1 900 1 910 1 953 1 958 2 968 1 991 1 743 1 776 1 783 1 798 1 812 1 815 1 871 1 887 1 891 1 895 1 914 1 932 1 967 1 985 1 989 1 1006 1 1009 1 1010 1 
1 208 6 1 26 1 47 1 58 1 86 1 161 1 170 1 172 1 178 1 206 1 242 1 247 1 254 1 269 1 279 1 303 1 318 1 321 1 372 1 376 1 413 1 414 1 417 1 431 1 439 1 447 1 458 2 471 1 603 1 605 1 629 1 641 1 667 1 678 1 693 1 704 1 718 1 721 1 723 1 40 1 56 1 57 1 71 1 82 1 130 1 153 1 156 1 162 1 179 1 181 1 191 1 202 1 240 1 257 1 275 1 287 1 288 1 289 1 302 1 305 1 314 1 316 1 363 1 385 1 402 1 411 1 426 1 429 1 430 1 450 1 482 1 486 1 499 1 504 1 506 1 515 1 558 1 562 1 576 1 581 1 598 1 602 1 611 1 617 1 638 1 652 1 697 1 713 1 755 1 780 1 801 1 823 1 891 1 902 1 903 1 909 1 915 1 921 1 925 1 931 1 942 1 944 1 960 1 969 1 973 1 975 1 982 1 984 1 763 1 770 1 785 1 807 1 816 1 826 1 834 1 877 1 905 1 917 1 930 1 941 1 988 1 1018 1 
1 208 8 1 16 1 27 1 43 1 46 1 63 1 71 1 83 1 125 1 144 1 151 1 179 1 212 1 214 1 221 1 229 1 232 1 316 1 333 1 342 1 379 1 384 1 387 2 415 1 428 1 451 1 454 1 460 2 462 1 469 1 473 1 493 1 498 1 507 1 525 1 586 1 600 1 602 1 648 1 658 2 663 1 724 1 726 1 7 1 15 1 70 1 74 1 126 1 136 1 191 1 223 1 259 1 261 1 266 1 274 1 289 1 293 1 307 1 314 1 338 1 339 1 344 1 351 1 357 1 358 1 376 1 380 1 414 1 437 1 443 1 447 1 470 1 522 1 542 1 553 1 563 1 568 1 570 1 625 1 649 1 678 1 680 1 719 1 731 1 744 1 773 1 796 1 798 1 811 1 841 1 845 1 867 1 874 1 883 1 889 1 901 2 911 1 942 1 969 1 986 1 999 1 759 1 760 1 771 1 779 1 788 1 797 1 821 1 852 1 864 1 898 1 904 1 937 1 975 1 993 1 1009 1 1013 1 
1 209 3 1 7 1 11 1 26 1 46 1 80 1 114 1 116 1 138 1 162 1 203 1 217 1 221 1 229 1 255 1 268 1 304 1 321 1 333 1 355 1 375 1 387 1 389 1 406 1 410 1 421 2 425 1 436 1 439 1 474 1 479 1 513 1 525 1 542 1 553 2 554 1 559 1 561 1 567 1 580 1 608 1 619 1 629 1 642 1 666 2 669 1 672 1 680 1 700 1 718 1 12 1 14 1 27 1 30 1 49 1 102 1 141 1 177 1 195 1 216 1 234 1 254 1 287 1 292 1 372 1 392 1 408 1 430 1 462 1 473 1 492 1 502 1 565 1 591 1 594 1 595 1 623 1 632 1 659 1 664 1 665 1 677 1 681 1 688 1 695 1 708 1 721 1 759 1 796 1 836 1 838 1 845 1 858 1 860 1 885 1 914 1 965 1 971 1 980 1 982 2 749 1 776 1 778 1 790 1 795 1 806 1 863 1 869 1 906 1 926 1 962 1 968 1 988 1 1001 1 
1 210 10 1 35 1 48 1 64 1 65 1 70 1 83 1 93 1 102 1 103 1 107 1 110 1 115 2 157 1 163 1 166 1 187 2 191 1 192 1 202 1 206 1 213 1 224 1 236 1 260 1 281 1 288 1 388 1 410 1 412 1 434 1 444 1 449 1 455 1 499 1 527 2 584 1 595 1 612 1 630 1 653 2 664 1 668 2 677 1 704 1 721 1 2 1 18 1 33 1 46 1 47 1 53 1 56 1 88 1 133 1 136 1 154 1 185 1 189 1 200 1 225 1 231 1 256 1 274 1 279 1 306 1 334 1 335 1 363 1 390 1 422 1 425 1 426 1 435 1 467 1 496 1 512 1 519 1 538 1 581 1 582 1 586 1 622 1 638 1 647 1 649 1 660 1 665 1 678 1 685 1 694 1 739 1 753 1 755 1 805 1 821 1 823 1 841 1 843 1 846 1 875 1 880 1 888 1 937 1 944 1 980 1 772 1 813 1 839 1 857 1 861 1 864 1 873 1 878 1 1003 1 1019 1 1024 1 
1 211 4 2 35 1 39 1 54 1 118 1 147 1 161 1 172 1 185 1 193 1 240 1 251 1 259 1 264 1 283 1 312 2 317 1 357 1 358 1 373 1 376 2 396 1 400 1 487 1 491 1 502 1 545 1 568 1 571 1 604 1 612 1 636 1 692 1 720 1 737 1 741 1 11 1 28 1 58 1 71 1 73 1 88 1 101 1 119 1 121 1 140 1 200 1 226 1 232 1 244 1 279 1 289 1 292 1 303 1 343 1 356 1 383 1 401 1 410 1 420 1 424 1 433 1 460 1 478 1 490 1 497 1 504 1 548 1 563 1 575 1 626 1 641 1 649 1 650 1 655 1 665 1 677 1 684 1 763 1 775 1 778 1 780 1 810 1 832 2 849 1 866 2 900 1 908 1 929 1 936 1 963 1 965 1 979 1 747 1 761 1 762 1 768 1 771 1 806 1 808 1 809 1 813 1 823 1 835 1 844 1 882 1 890 1 923 1 935 1 942 1 960 1 985 1 1005 1 1007 1 1014 1 1018 1 
1 208 11 1 12 2 44 1 87 2 91 1 94 1 136 1 140 1 169 1 173 1 201 1 239 1 247 1 255 1 266 1 290 1 296 1 309 1 343 1 348 1 354 1 367 1 377 1 391 1 396 1 409 1 463 1 465 1 476 1 477 1 483 1 487 1 491 1 503 2 535 1 537 1 543 1 547 2 555 1 567 1 606 1 621 1 645 1 650 1 664 1 665 1 674 1 675 1 724 1 13 1 24 1 78 1 107 1 120 1 128 1 135 1 168 1 177 1 208 1 281 1 312 1 318 1 380 1 389 1 405 1 412 1 422 1 434 1 442 1 464 1 587 1 589 1 594 1 602 1 656 1 671 1 676 1 696 1 702 1 726 1 736 1 737 1 748 1 763 1 789 1 797 1 805 1 816 1 831 1 869 1 871 1 879 1 882 1 885 1 891 1 892 1 899 1 901 1 909 1 920 1 932 2 945 1 946 1 953 1 962 1 752 1 771 1 800 1 803 1 863 1 914 1 929 1 950 1 961 1 980 1 984 1 997 1 1009 1 1015 1 1025 1 
1 209 14 1 24 1 35 1 56 1 80 1 83 1 96 1 100 1 129 1 137 1 182 1 215 1 242 2 258 1 275 1 301 1 303 1 327 1 335 1 395 1 404 1 418 1 439 1 479 1 481 1 485 1 523 1 524 2 559 1 568 1 582 1 590 1 599 1 616 1 621 1 634 1 657 1 673 1 679 1 687 1 731 1 16 1 30 1 38 1 72 1 97 1 107 1 119 1 136 1 169 1 260 1 272 1 302 1 333 1 339 1 361 1 375 1 384 1 408 1 420 1 426 1 474 1 476 1 502 1 530 1 533 1 539 1 557 1 573 1 589 1 604 1 609 1 612 1 643 1 666 1 690 1 761 1 765 1 787 1 794 1 797 1 807 1 875 1 894 1 907 1 917 1 965 1 970 1 764 1 770 1 775 1 777 1 793 1 802 1 803 1 804 1 851 1 889 1 936 1 950 1 977 1 979 1 1003 1 1008 1 1010 1 
1 210 15 1 35 1 76 1 78 1 153 1 164 1 191 1 222 1 223 2 224 1 279 1 283 1 298 1 314 1 322 1 335 1 355 1 375 1 382 1 385 1 392 1 414 1 427 1 445 1 463 1 470 1 493 1 532 1 560 1 598 1 631 1 633 1 636 1 648 1 661 1 693 1 699 1 724 1 731 1 5 1 7 1 31 1 43 1 65 1 66 1 79 1 116 1 131 1 142 1 149 1 190 1 211 1 228 1 236 1 239 1 293 1 341 1 351 1 354 1 374 1 376 1 390 1 405 1 423 1 429 1 435 1 469 1 474 1 479 1 480 1 496 1 497 1 546 1 558 1 586 1 588 1 603 1 604 1 662 1 677 1 709 1 714 1 744 1 768 1 789 1 798 1 806 1 842 1 856 1 874 1 883 1 913 1 932 1 938 1 952 1 984 1 992 1 997 1 752 1 764 1 769 1 780 1 783 1 800 1 809 1 816 1 834 1 839 1 860 1 865 1 870 1 907 1 926 1 935 1 960 1 990 1 1000 1 1013 1 1016 1 
1 208 7 1 49 1 54 1 67 1 97 1 98 1 101 1 126 1 127 1 130 1 156 1 161 1 164 1 182 1 213 1 252 1 280 1 310 1 313 1 344 1 346 1 352 1 355 1 357 1 364 1 376 1 382 1 384 1 400 1 417 1 426 1 427 1 466 1 486 1 531 1 536 1 537 1 555 2 565 1 591 1 635 1 653 1 663 1 685 1 710 1 745 1 3 1 66 1 75 1 91 1 94 1 111 1 118 1 143 1 158 1 176 1 205 1 230 1 281 1 387 1 394 1 399 1 406 1 409 1 521 1 539 1 569 1 580 1 620 1 639 1 640 1 646 1 648 1 666 1 726 1 727 1 757 1 779 1 786 1 790 1 793 1 797 1 805 1 823 1 824 1 836 2 850 1 857 1 868 1 873 1 890 1 914 1 924 1 946 1 787 1 795 1 809 1 819 1 830 1 837 1 866 1 919 1 948 1 951 1 963 1 984 1 998 1 1003 1 1018 1 1023 1 1027 1 
1 204 10 1 36 1 46 2 52 1 65 1 66 1 67 1 113 1 120 1 121 1 163 1 180 1 192 1 208 1 215 2 217 1 319 1 322 1 323 1 331 1 348 1 386 1 415 1 449 1 452 1 453 1 474 1 476 1 482 1 486 1 490 1 516 1 520 1 526 1 556 1 559 1 580 1 614 1 627 1 629 2 645 1 662 1 716 1 723 1 735 1 13 1 32 1 53 1 56 1 58 1 80 1 81 1 106 1 117 1 156 1 196 1 198 1 200 1 209 1 228 1 241 1 244 1 256 1 270 1 294 1 326 1 344 1 350 1 356 1 379 1 381 1 393 1 396 1 418 1 445 1 458 1 471 1 500 1 519 1 535 1 537 1 544 1 545 1 552 1 558 1 615 1 628 1 632 1 654 1 672 1 684 1 701 1 710 1 733 1 742 1 749 1 749 1 766 1 788 1 824 1 826 1 854 1 863 1 880 1 886 1 901 1 919 1 928 1 943 1 962 2 967 1 969 1 991 1 996 1 760 1 770 1 772 1 775 1 792 1 804 1 828 1 840 1 848 1 875 1 896 1 917 1 939 1 946 1 977 1 982 1 
1 212 5 1 49 1 60 1 83 1 103 1 117 1 120 1 121 1 130 1 138 1 179 1 212 1 229 1 235 1 243 1 276 1 287 1 301 1 304 1 306 1 310 1 330 1 332 1 369 1 378 1 381 1 416 1 429 1 433 1 462 1 463 1 497 1 509 1 511 1 519 1 545 1 559 1 563 1 589 1 673 1 685 1 714 1 723 1 18 1 25 1 37 1 68 1 77 1 90 1 149 1 152 1 156 1 162 1 203 1 211 1 223 1 261 1 290 1 296 1 316 1 360 1 372 1 373 1 396 1 419 1 422 1 428 1 440 1 445 1 456 1 500 1 513 1 524 1 536 1 578 1 607 1 616 1 618 1 620 1 632 1 650 1 704 1 718 1 726 1 733 1 765 1 776 1 814 1 837 1 843 2 844 1 849 1 851 2 862 1 868 1 870 1 882 1 893 1 906 2 940 1 965 1 968 1 980 1 985 1 988 1 993 1 754 1 775 1 791 1 797 1 804 1 810 1 863 1 883 1 884 1 951 1 962 1 970 1 976 1 1001 1 1003 1 1006 1 1015 1 1017 1 1024 1 
1 211 30 1 70 1 79 1 94 1 125 1 141 1 148 1 150 1 164 1 165 1 177 1 222 1 231 1 271 1 275 1 285 1 287 1 288 1 311 1 316 1 340 1 419 1 423 1 436 1 441 1 497 1 516 1 520 1 524 1 533 1 540 1 545 1 546 1 555 1 570 1 577 1 587 1 599 1 603 1 613 1 629 1 636 1 658 1 678 1 703 1 706 1 720 1 736 1 24 1 46 1 80 1 96 1 129 1 132 1 135 1 151 1 181 1 190 1 191 1 214 1 226 1 246 1 264 1 277 1 292 1 298 1 315 1 318 1 336 1 361 1 395 1 404 1 424 1 428 1 554 1 567 1 574 1 616 1 660 1 669 1 674 1 681 1 687 1 699 1 728 1 772 1 845 1 877 1 948 1 951 1 952 2 965 1 998 1 999 1 769 1 808 1 816 1 818 1 888 1 898 1 901 1 928 1 934 1 968 1 1000 1 1008 1 1009 1 1023 1 
1 209 18 1 35 1 43 1 45 2 46 1 61 1 77 1 92 1 113 1 130 1 142 1 168 1 198 1 228 1 232 1 273 1 293 1 301 1 303 1 305 1 306 1 322 1 341 1 353 1 387 1 388 1 403 1 412 1 415 1 427 1 447 1 468 2 469 1 481 1 501 1 517 1 554 1 576 1 595 2 636 1 659 1 662 1 663 1 675 1 685 1 692 2 12 1 42 1 52 1 62 1 63 1 134 1 137 1 176 1 190 1 194 1 244 1 246 1 253 1 254 1 272 1 300 1 323 1 325 1 345 1 374 1 410 1 472 1 482 1 497 1 499 1 534 1 535 1 537 1 540 1 558 1 603 1 630 1 686 1 698 1 715 1 727 1 732 1 735 1 745 1 747 1 765 1 766 1 782 1 789 2 797 1 799 2 804 1 828 1 848 1 853 1 868 1 918 2 967 1 974 1 755 1 763 1 783 1 798 1 838 1 844 1 888 1 898 1 936 1 947 1 956 1 994 1 1012 1 1024 1 
1 212 7 1 20 1 37 1 42 1 45 1 67 1 81 1 101 1 110 1 120 1 124 1 129 1 165 1 168 1 174 1 184 1 188 1 200 1 213 1 216 1 219 1 243 1 264 1 265 2 278 1 288 1 314 1 370 1 409 1 448 1 470 1 484 1 489 1 493 1 509 1 514 1 550 1 565 1 591 1 613 1 636 1 637 2 641 1 743 1 6 1 32 1 39 1 58 1 148 1 150 1 158 1 176 1 182 1 207 1 230 1 232 1 244 1 250 1 298 1 299 1 348 1 353 1 357 1 364 1 369 1 376 1 393 1 396 1 439 1 440 1 441 1 443 1 463 1 478 1 487 1 502 1 522 1 579 1 608 1 619 1 634 1 678 1 699 1 783 1 832 1 838 1 876 1 913 1 914 1 915 1 922 1 934 1 948 1 962 2 999 1 778 1 779 1 787 1 789 1 802 1 812 1 827 1 857 1 871 1 872 1 889 1 890 1 899 1 900 1 921 1 935 1 950 1 956 1 1006 1 1020 1 1023 1 
1 213 13 1 29 1 38 1 43 1 44 1 50 1 79 1 87 1 111 1 116 1 123 1 135 1 146 1 154 1 164 1 180 1 247 1 268 1 270 1 300 1 313 1 351 1 353 1 354 1 358 1 394 1 413 1 415 1 417 1 467 1 468 1 474 1 487 1 497 1 506 1 513 1 602 1 642 1 643 1 644 1 653 1 668 1 675 1 678 1 699 1 2 1 9 1 28 1 48 1 72 1 76 1 92 1 105 1 106 1 109 1 115 1 121 1 122 1 212 1 215 1 224 1 228 1 288 1 295 1 302 1 325 1 331 1 355 1 360 1 374 1 375 1 388 1 404 1 437 1 439 1 448 1 475 1 504 1 519 1 522 1 523 1 543 1 545 1 547 1 579 1 750 1 790 1 794 1 820 1 824 1 841 1 861 1 882 1 892 1 904 1 920 1 942 2 943 1 953 2 989 1 823 1 827 1 837 1 853 1 858 1 938 1 965 1 1008 1 1009 1 1015 1 1016 1 1018 1 1025 1 1027 1 
1 210 3 1 9 1 11 1 77 1 85 1 89 1 117 1 119 1 130 1 175 1 189 1 213 1 248 1 254 1 256 1 258 1 260 1 274 2 276 1 294 1 309 1 311 1 343 1 378 1 393 1 399 1 468 1 517 1 535 1 558 1 560 1 590 1 615 1 624 1 646 1 669 1 695 1 696 2 700 1 709 1 710 1 723 1 733 1 739 1 740 1 743 1 8 1 13 1 22 1 24 1 41 1 46 1 56 1 60 1 64 1 68 1 81 1 82 1 112 1 120 1 139 1 161 1 200 1 227 1 296 1 308 1 326 1 349 1 363 1 366 1 369 1 370 1 377 1 406 1 413 1 435 1 442 1 447 1 506 1 515 1 550 1 619 1 639 1 680 1 682 1 687 1 690 1 716 1 735 1 752 1 757 1 772 1 775 1 789 1 808 1 821 1 829 1 847 1 854 2 855 1 856 2 908 1 910 1 943 1 944 1 997 1 999 1 769 1 778 1 782 1 806 1 838 1 849 1 851 1 860 1 911 1 925 1 933 1 940 1 972 1 983 1 1007 1 1011 1 1019 1 1020 1 
1 205 37 1 41 1 46 1 53 1 54 1 62 1 66 1 69 1 93 1 96 1 102 1 108 1 132 1 138 1 154 1 177 1 227 1 233 1 236 1 251 1 270 1 275 1 315 1 327 1 342 1 347 1 372 1 390 1 393 1 395 1 461 1 484 1 485 1 502 1 504 1 507 1 522 1 525 1 551 1 560 1 568 1 577 1 631 1 667 1 678 1 12 1 13 1 30 1 39 1 40 1 56 1 83 1 84 1 91 1 110 1 111 1 114 1 115 1 156 1 159 1 192 1 204 1 216 1 231 1 247 1 250 1 255 1 286 1 303 1 316 1 320 1 325 1 359 1 373 1 394 1 397 1 398 1 399 1 402 1 420 1 427 1 455 1 498 1 540 1 576 1 621 1 734 1 760 1 764 1 778 1 789 1 798 1 814 1 862 1 889 1 904 1 910 1 916 2 926 1 960 2 976 1 997 1 998 1 769 1 795 1 804 1 811 1 815 1 818 1 860 1 874 1 911 1 925 1 931 1 952 1 959 1 970 1 
1 208 2 1 25 1 31 1 34 1 58 1 63 1 75 1 114 1 140 2 158 1 165 1 166 1 178 1 203 1 209 1 215 1 219 1 225 1 232 1 242 1 252 1 258 1 301 1 302 1 304 1 318 1 346 1 351 1 356 1 412 1 420 1 433 1 434 1 439 2 450 1 451 1 453 1 470 1 493 1 500 1 501 1 523 2 527 1 545 1 558 1 562 1 563 1 565 1 598 1 635 2 640 1 651 1 655 1 667 1 720 1 728 1 748 1 755 1 19 1 50 1 54 1 68 1 105 1 121 1 125 1 141 1 142 1 154 1 211 1 234 1 251 1 257 1 277 1 278 1 310 1 321 1 329 1 361 1 374 1 446 1 463 1 474 1 481 1 505 1 524 1 531 1 538 1 539 1 546 1 555 1 584 1 604 1 616 1 679 1 695 1 701 1 709 1 777 1 782 1 786 1 789 1 802 1 842 1 881 1 902 1 911 1 920 1 940 1 945 1 770 1 821 1 840 1 844 1 859 1 877 1 974 1 985 1 987 1 1023 1 
1 217 9 2 22 2 38 1 57 1 61 2 79 1 90 1 146 1 151 1 153 1 170 1 179 1 185 1 194 1 211 1 220 1 235 1 313 1 329 1 341 1 382 1 402 1 407 1 425 1 452 1 457 1 459 2 463 1 493 2 501 1 504 1 505 1 515 1 541 1 557 1 628 1 707 1 728 1 8 1 23 1 29 1 75 1 81 1 161 1 171 1 205 1 213 1 244 1 266 1 272 1 273 1 274 1 287 1 316 1 322 1 333 1 338 1 350 1 362 1 367 1 393 1 400 1 412 1 416 1 418 1 423 1 442 1 511 1 524 1 537 1 562 1 592 1 593 1 630 1 633 1 650 1 656 1 667 1 715 1 721 1 774 1 785 1 787 1 804 1 821 1 833 1 841 1 852 1 854 1 857 1 873 1 886 1 887 1 894 1 897 1 933 1 947 1 969 1 975 1 976 1 980 1 768 1 802 1 816 1 827 1 843 1 855 1 865 1 866 1 892 1 903 1 951 1 970 1 1004 1 1005 1 1007 1 1009 1 1015 1 1018 1 
1 208 3 1 6 1 33 1 44 1 95 1 125 1 148 1 159 1 161 1 173 1 201 1 209 1 231 1 233 1 237 1 244 1 251 1 261 1 284 1 290 1 296 1 312 1 314 1 341 1 343 1 345 1 354 1 362 1 368 2 387 1 412 1 414 1 433 1 441 2 480 1 484 1 549 1 561 1 572 1 584 1 654 1 726 1 742 1 15 1 20 1 40 1 45 1 75 1 80 1 109 1 115 1 145 1 169 1 178 1 217 1 236 1 269 1 270 1 336 1 375 1 392 1 407 1 436 1 474 1 488 1 491 1 495 1 512 1 520 1 526 1 537 1 538 1 562 1 573 1 628 1 633 1 641 1 644 1 691 1 714 1 730 1 733 1 741 1 771 1 789 1 803 1 822 1 829 1 845 1 864 1 880 1 894 2 924 1 928 1 943 1 948 1 951 1 982 1 998 1 769 1 783 1 790 1 840 1 884 1 885 1 896 1 899 1 939 1 941 1 954 1 958 1 962 1 987 1 1017 1 1019 1 
1 211 8 1 9 1 27 1 28 1 55 1 65 1 70 1 99 2 104 1 118 1 129 1 154 1 179 1 180 1 181 1 191 1 192 1 197 1 221 1 250 1 263 1 277 1 326 1 328 1 356 1 377 1 388 1 446 1 448 2 458 1 483 1 523 1 529 1 585 1 604 1 608 1 638 1 668 1 671 1 678 1 681 1 703 1 756 1 11 1 32 1 62 1 69 1 83 1 98 1 119 1 167 1 176 1 187 1 195 1 228 1 235 1 245 1 257 1 274 1 280 1 285 1 288 1 347 1 349 1 378 1 387 1 402 1 406 1 422 1 462 1 476 1 478 1 486 1 489 1 494 1 495 1 501 1 507 1 509 1 514 1 527 1 531 1 544 1 565 1 580 1 589 1 613 1 619 1 627 1 641 1 685 1 689 1 699 1 708 1 709 1 733 1 741 1 749 1 768 1 778 2 798 1 805 1 818 1 870 1 937 1 995 1 764 1 774 1 792 1 806 1 811 1 850 1 853 1 876 1 897 1 921 1 924 1 925 1 951 1 997 1 1005 1 1008 1 1020 1 1022 1 1025 1 1026 1 
1 209 36 1 40 1 49 1 56 1 74 2 81 1 82 1 91 1 92 1 113 1 163 1 180 1 206 1 222 1 225 1 235 1 240 1 245 1 264 1 282 2 320 1 366 1 368 2 385 1 423 1 437 1 454 1 462 1 465 2 469 1 477 1 484 1 519 1 529 1 544 2 610 1 613 1 618 1 626 1 630 1 641 1 715 1 746 1 5 1 53 1 79 1 88 1 90 1 96 1 98 1 100 1 108 1 123 1 136 1 146 1 172 1 192 1 200 1 203 1 208 1 211 1 241 1 268 1 273 1 291 1 309 1 312 1 343 1 355 1 367 1 376 1 403 1 418 1 424 1 425 1 430 1 439 1 443 1 461 1 466 1 467 1 485 1 495 1 509 1 511 1 552 1 571 1 582 1 585 1 586 1 633 1 678 1 699 1 706 1 708 1 724 1 744 1 765 1 795 1 822 1 869 1 878 1 893 1 900 1 921 2 942 1 950 1 972 1 999 1 763 1 776 1 789 1 834 1 847 1 854 1 873 1 904 1 917 1 922 1 938 1 943 1 951 1 967 1 1003 1 
1 207 10 1 14 1 33 1 38 1 45 1 109 1 121 1 163 1 194 1 249 1 279 1 298 1 313 1 365 1 377 2 390 1 417 1 439 1 442 1 473 1 475 2 480 1 489 1 505 1 508 1 551 1 583 1 622 1 640 1 650 1 658 1 686 1 699 1 714 1 717 1 734 1 26 1 31 1 44 1 49 1 62 1 75 1 95 1 117 1 144 1 147 1 153 1 175 1 195 1 199 1 223 1 227 1 254 1 262 1 264 1 299 1 325 1 363 1 368 1 388 1 413 1 421 1 443 1 455 1 488 1 536 1 546 1 572 1 575 1 604 1 613 1 616 1 626 1 641 1 643 1 654 1 671 1 684 1 722 1 725 1 744 1 781 1 792 1 798 1 800 1 830 1 835 1 892 1 909 1 914 2 925 1 944 1 965 1 769 1 790 1 823 1 832 1 834 1 865 1 906 1 923 1 943 1 963 1 972 1 990 1 991 1 992 1 998 1 1002 1 1012 1 
1 212 10 1 11 1 13 1 16 1 26 1 38 1 42 1 50 1 53 2 65 1 79 1 129 1 133 1 151 1 169 1 178 1 187 1 245 1 280 1 291 1 298 1 300 1 303 1 356 2 374 1 399 1 413 1 420 1 428 1 444 1 496 1 515 1 589 1 603 2 610 1 613 1 617 1 653 1 656 1 660 1 667 1 681 1 704 1 724 1 725 1 726 1 739 1 744 1 745 1 34 1 75 1 111 1 136 1 203 1 210 1 213 1 239 1 249 1 273 1 299 1 314 1 344 1 353 1 355 1 389 1 393 1 406 1 433 1 455 1 462 1 495 1 548 1 550 1 576 1 583 1 595 1 622 1 630 1 631 1 638 1 639 1 658 1 676 1 682 1 685 1 729 1 733 1 740 1 752 1 761 1 809 1 811 1 840 1 849 1 859 1 875 1 919 1 922 1 928 1 930 1 792 1 805 1 885 1 910 1 949 1 978 1 999 1 1002 1 1012 1 1018 1 1021 1 1026 1 
1 214 23 1 26 2 32 1 38 1 51 1 65 1 78 1 81 2 85 1 93 1 94 1 96 1 108 1 112 1 121 1 166 2 172 1 174 1 201 1 230 1 249 1 251 1 253 1 300 1 340 1 347 1 348 1 376 1 393 1 397 1 427 1 434 1 439 1 448 1 456 1 472 1 488 1 500 1 519 1 544 1 554 1 614 1 642 1 661 1 663 1 701 1 715 1 732 1 756 1 61 1 67 1 105 1 110 1 124 1 139 1 146 1 147 1 199 1 321 1 330 1 335 1 344 1 361 1 412 1 447 1 453 1 464 1 469 1 481 1 501 1 504 1 510 1 513 1 539 1 542 1 545 1 559 1 593 1 686 1 688 1 716 1 738 1 746 1 747 1 760 1 771 1 777 1 808 1 857 1 859 1 874 1 875 1 917 1 954 2 966 1 974 1 776 1 778 1 803 1 805 1 820 1 825 1 826 1 850 1 868 1 876 1 883 1 895 1 904 1 909 1 919 1 932 1 941 1 942 1 959 1 989 1 1000 1 1001 1 1002 1 1013 1 
1 212 69 1 94 1 95 1 105 1 116 1 130 1 136 1 211 1 216 1 221 1 222 2 227 1 258 1 260 1 270 1 273 1 278 1 290 1 306 1 313 1 326 1 329 1 332 1 350 1 389 1 404 1 406 1 435 1 455 1 469 1 487 1 504 1 530 1 539 1 555 2 564 1 571 1 579 1 580 1 608 1 616 1 638 2 641 1 652 1 685 1 693 1 706 1 733 1 734 1 746 1 750 1 752 1 761 1 28 1 62 1 82 1 96 1 125 1 143 1 148 1 172 1 184 1 218 1 223 1 259 1 283 1 289 1 318 1 321 1 373 1 418 1 427 1 432 1 441 1 464 1 494 1 497 1 508 1 514 1 554 1 600 1 625 1 635 1 645 1 657 1 662 1 667 1 674 1 683 1 769 1 774 1 780 1 820 1 852 1 877 1 905 1 909 1 929 1 962 1 980 1 986 1 988 1 996 2 766 1 788 1 848 1 857 1 910 1 932 1 958 1 990 1 999 1 1003 1 1025 1 
1 210 8 2 12 1 65 1 71 1 79 1 87 1 89 1 92 1 98 1 102 1 117 1 143 1 163 1 177 1 178 1 181 1 187 2 202 1 214 1 248 1 252 1 262 1 282 1 283 1 286 1 303 1 334 1 335 1 336 1 352 1 357 1 385 1 413 1 465 1 472 1 490 1 500 2 525 1 526 1 571 1 590 2 592 1 603 1 624 1 630 1 634 1 658 1 659 1 661 1 723 1 725 1 737 1 749 1 752 1 1 1 25 1 125 1 145 1 147 1 149 1 155 1 193 1 230 1 237 1 238 1 241 1 270 1 302 1 343 1 351 1 383 1 390 1 392 1 436 1 485 1 510 1 527 1 550 1 598 1 604 1 605 1 638 1 648 1 655 1 699 1 700 1 701 1 710 1 721 1 727 1 728 1 765 1 791 1 818 1 823 2 833 1 850 1 851 1 865 1 895 1 917 1 927 2 931 1 937 1 961 1 963 1 964 1 976 1 798 1 813 1 815 1 860 1 879 1 918 1 981 1 1023 1 
1 212 9 1 11 1 14 1 20 1 24 1 36 1 39 1 73 2 82 1 103 1 105 1 113 1 123 1 139 2 158 1 170 1 178 1 219 1 226 1 232 1 247 1 282 1 287 1 291 1 296 1 314 1 315 1 322 1 334 1 346 1 354 1 361 1 373 1 394 1 396 1 416 1 429 1 437 1 438 1 454 1 459 1 509 1 595 1 604 1 666 1 669 1 675 1 700 1 704 1 707 1 722 1 728 2 731 1 733 1 734 1 736 1 6 1 25 1 69 1 75 1 101 1 125 1 132 1 152 1 167 1 209 1 264 1 266 1 324 1 418 1 426 1 427 1 428 1 461 1 466 1 480 1 501 1 510 1 517 1 527 1 540 1 567 1 593 1 600 1 613 1 618 1 635 1 681 1 693 1 703 1 812 1 838 1 865 1 876 1 880 1 885 1 904 1 953 1 985 1 993 1 774 1 786 1 802 1 807 1 828 1 830 1 836 1 856 1 858 1 867 1 881 1 893 1 909 1 911 1 929 1 937 1 963 1 1007 1 1023 1 1025 1 1027 1 
1 214 32 1 91 1 100 1 116 2 121 1 134 1 154 1 190 2 199 1 200 1 207 1 213 1 217 1 219 2 249 1 281 1 282 1 304 1 325 1 326 1 337 1 338 1 340 1 352 1 361 1 383 1 408 1 413 1 437 1 448 1 470 1 504 1 515 1 524 1 537 1 542 2 565 1 583 1 585 1 591 1 595 1 610 1 626 1 653 1 665 1 669 1 684 1 691 1 705 1 731 1 747 1 760 1 27 1 39 1 50 1 67 1 131 1 142 1 171 1 188 1 221 1 224 1 247 1 263 1 265 1 271 1 301 1 316 1 331 1 358 1 444 1 445 1 479 1 488 1 492 1 502 1 552 1 576 1 577 1 584 1 617 1 628 1 637 1 646 1 702 1 715 1 718 1 723 1 728 1 744 1 758 1 777 1 783 1 803 1 836 1 841 1 843 1 882 1 897 1 939 1 771 1 822 1 839 1 850 1 859 1 880 1 960 1 968 1 994 1 1001 1 1002 1 1025 1 1027 1 
1 212 14 1 15 1 16 1 73 1 101 1 147 1 165 1 184 1 189 2 192 2 196 1 200 1 201 1 214 1 250 1 260 1 282 1 285 1 286 1 314 1 317 1 325 1 327 1 371 1 399 1 407 1 442 1 448 1 467 1 490 1 509 1 514 1 570 1 571 1 577 1 579 1 630 1 657 1 718 1 735 2 765 1 4 1 8 1 36 1 71 1 84 1 85 1 135 1 141 1 153 1 172 1 180 1 194 1 197 1 237 1 266 1 276 1 302 1 309 1 355 1 364 1 373 1 386 1 443 1 475 1 488 1 489 1 493 1 515 1 526 1 527 1 534 1 565 1 576 1 590 1 612 1 638 1 679 1 690 1 715 1 747 1 751 1 755 1 756 1 759 1 762 1 776 1 798 1 803 2 812 1 817 1 834 1 841 1 853 2 877 1 881 1 889 1 895 2 901 1 940 1 962 1 979 1 990 1 777 1 793 1 806 1 811 1 816 1 821 1 822 1 825 1 872 1 873 1 875 1 887 1 949 1 961 1 1005 1 1011 1 1013 1 1017 1 1019 1 1023 1 
1 215 22 2 32 1 35 1 39 1 56 1 62 1 83 1 88 1 101 1 111 1 123 1 134 1 148 1 172 1 182 1 228 1 229 1 241 1 251 1 262 1 267 1 291 1 303 1 333 2 370 1 375 1 394 1 399 2 404 2 434 1 440 1 447 1 449 1 468 1 473 1 505 1 512 1 518 1 547 1 548 1 576 1 600 1 650 1 660 1 667 1 678 1 717 1 726 1 38 1 50 1 70 1 78 1 96 1 114 1 133 1 157 1 185 1 201 1 203 1 240 1 274 1 275 1 298 1 299 1 323 1 327 1 353 1 357 1 367 1 424 1 430 1 436 1 463 1 477 1 492 1 552 1 561 1 581 1 603 1 612 1 618 1 668 1 694 1 724 1 738 1 740 1 746 1 749 1 757 1 770 1 770 1 778 1 785 1 794 1 811 1 826 1 831 1 842 1 845 1 852 1 874 1 881 1 906 1 910 1 972 1 829 1 863 1 888 1 893 1 914 1 924 1 954 1 958 1 1001 1 1008 1 1011 1 1019 1 1020 1 1022 1 1024 1 
1 212 24 1 31 1 41 1 47 1 48 1 84 1 91 1 95 1 108 1 120 1 133 1 183 1 190 1 201 1 224 1 240 1 241 1 251 1 264 1 269 1 274 1 288 2 319 1 336 1 370 2 375 1 380 2 386 1 414 1 427 2 429 1 436 1 467 1 496 1 544 2 555 1 595 2 599 1 625 1 663 1 671 1 729 2 734 1 759 1 764 1 4 1 15 1 38 1 39 1 54 1 65 1 92 1 143 1 150 1 154 1 168 1 188 1 199 1 210 1 220 1 271 1 409 1 433 1 435 1 443 1 452 1 461 1 462 1 466 1 469 1 501 1 502 1 565 1 594 1 616 1 626 1 638 1 653 1 667 1 672 1 684 1 699 1 707 1 721 1 727 1 741 1 744 1 745 1 768 1 776 1 786 2 801 1 804 1 815 1 823 1 848 1 863 1 869 1 879 1 884 1 886 1 889 1 914 1 917 1 928 1 931 1 951 1 989 1 773 1 787 1 799 1 814 1 834 1 838 1 853 1 858 1 880 1 894 1 964 1 990 1 999 1 1013 1 1022 1 
1 202 39 1 42 1 64 1 65 1 81 1 86 1 123 1 149 1 151 1 161 1 173 1 203 1 268 1 282 1 311 2 313 1 316 1 320 1 328 1 372 1 375 1 400 1 402 1 413 1 444 1 464 1 476 1 487 1 488 1 496 1 521 1 533 1 541 1 545 1 570 1 613 1 625 2 644 1 665 1 672 1 675 1 682 1 690 1 706 1 735 1 751 1 755 1 62 1 85 1 98 1 118 1 137 1 165 1 208 1 210 1 315 1 355 1 356 1 369 1 404 1 460 1 483 1 503 1 509 1 528 1 550 1 555 1 564 1 568 1 582 1 607 1 623 1 637 1 674 1 687 1 695 1 703 1 709 1 710 1 714 1 717 1 743 1 749 1 777 1 782 1 798 1 812 1 835 1 847 1 850 1 874 1 881 1 883 1 893 1 906 2 907 1 911 1 914 1 926 1 927 1 930 1 941 1 946 1 951 1 959 1 962 1 994 1 787 1 788 1 803 1 838 1 846 1 867 1 884 1 902 1 909 1 968 1 969 1 972 1 973 1 987 1 
1 212 44 1 49 1 54 1 79 1 82 1 84 1 108 1 113 1 120 1 158 1 167 1 172 1 183 1 189 1 204 2 223 1 240 1 254 1 290 1 329 1 346 1 356 1 404 1 405 1 408 1 421 2 424 1 447 1 473 1 501 1 520 1 559 1 568 1 574 1 590 1 610 1 613 1 617 1 666 1 672 1 705 1 717 1 741 1 19 1 64 1 67 1 111 1 130 1 153 1 164 1 168 1 169 1 179 1 200 1 210 1 216 1 301 1 321 1 326 1 327 1 337 1 339 1 409 1 417 1 428 1 452 1 456 1 457 1 475 1 480 1 484 1 500 1 533 1 534 1 537 1 567 1 571 1 589 1 606 1 616 1 621 1 622 1 632 1 656 1 674 1 708 1 719 1 733 1 736 1 771 1 782 1 794 1 805 1 890 1 924 1 944 1 946 2 965 1 776 1 837 1 842 1 845 1 848 1 849 1 853 1 854 1 866 1 878 1 903 1 925 1 929 1 949 1 971 1 972 1 979 1 1001 1 1010 1 1013 1 1027 1 
1 209 14 1 22 1 23 1 24 1 26 1 57 1 79 1 120 1 121 1 132 1 138 1 140 1 146 1 157 1 158 1 159 1 163 1 177 1 179 1 204 1 232 1 240 1 246 1 262 1 270 1 272 1 288 1 306 1 317 1 335 1 369 1 407 2 422 1 453 1 495 1 498 1 512 1 530 1 545 1 572 1 607 1 610 1 639 1 659 2 675 2 684 1 686 1 731 1 758 1 765 1 42 1 48 1 95 1 127 1 137 1 168 1 170 1 187 1 192 1 211 1 217 1 227 1 252 1 268 1 308 1 331 1 413 1 423 1 439 1 456 1 508 1 551 1 584 1 624 1 633 1 635 1 654 1 685 1 701 1 713 1 734 1 760 1 767 1 797 1 821 1 832 1 854 1 859 1 873 1 905 1 913 2 915 1 923 1 955 1 990 1 994 1 788 1 793 1 809 1 829 1 847 1 862 1 893 1 924 1 935 1 991 1 1001 1 1005 1 1014 1 
1 208 5 2 38 1 54 1 57 1 105 1 107 2 154 1 162 1 167 1 170 1 195 1 211 1 230 1 232 1 269 1 271 1 272 1 286 1 309 1 311 1 316 2 402 1 404 1 422 1 426 1 431 1 464 1 485 1 487 1 512 1 514 1 517 1 529 2 532 1 547 1 560 1 567 1 568 1 571 1 583 1 601 1 610 1 613 1 617 1 638 1 645 1 653 1 668 1 670 1 684 1 717 1 728 2 744 1 755 1 8 1 46 1 68 1 96 1 106 1 108 1 114 1 133 1 181 1 189 1 201 1 259 1 260 1 279 1 300 1 301 1 324 1 377 1 414 1 419 1 428 1 445 1 463 1 507 1 526 1 528 1 585 1 586 1 593 1 597 1 616 1 621 1 624 1 626 1 635 1 651 1 708 1 737 1 746 1 749 1 750 1 783 1 787 1 806 1 810 1 826 1 853 1 872 1 875 1 934 1 952 1 963 1 966 1 972 1 777 1 832 1 836 1 840 1 841 1 880 1 919 1 969 1 973 1 998 1 1001 1 1013 1 1018 1 1022 1 
1 207 37 1 45 1 48 1 86 1 99 1 111 1 151 1 162 1 169 1 175 1 195 1 203 1 241 1 255 1 266 1 280 1 307 2 327 1 340 1 344 1 347 1 357 1 365 2 368 1 423 1 428 1 435 1 452 1 483 1 492 1 496 1 504 1 525 1 536 1 562 1 580 1 590 1 636 1 655 1 657 1 658 1 695 1 700 1 709 1 750 1 769 1 771 1 68 1 80 1 102 1 103 1 118 1 126 1 127 1 132 1 135 1 184 1 201 1 207 1 223 1 230 1 254 1 262 1 263 1 322 1 351 1 369 1 419 1 479 1 491 1 498 1 501 1 505 1 506 1 516 1 522 1 524 1 532 1 540 1 553 1 589 1 662 1 681 1 696 1 699 1 716 1 739 1 742 1 761 1 764 1 773 1 797 1 802 1 811 1 843 1 908 1 910 1 956 1 962 1 963 1 967 1 969 1 987 1 786 1 821 1 842 1 846 1 885 1 916 1 948 1 950 1 981 1 1010 1 1012 1 1016 1 
1 209 46 1 83 1 86 1 92 1 116 1 118 1 122 1 141 1 148 2 176 1 191 1 250 1 275 1 283 1 308 1 333 1 355 1 380 1 440 1 483 1 499 1 507 1 510 1 515 1 527 1 545 1 559 1 577 1 595 1 623 1 683 1 704 1 720 1 728 1 757 1 764 1 768 1 772 1 6 1 27 1 37 1 38 1 65 1 73 1 95 1 105 1 128 1 139 1 156 1 169 1 173 1 192 1 214 1 215 1 225 1 227 1 230 1 234 1 309 1 316 1 345 1 357 1 375 1 398 1 433 1 453 1 454 1 458 1 488 1 564 1 573 1 575 1 583 1 594 1 606 1 610 1 641 1 652 1 671 1 690 1 695 1 703 1 719 1 746 1 769 1 775 1 785 1 793 1 808 1 809 1 813 1 844 2 872 1 909 2 923 1 930 1 945 1 979 1 980 1 780 1 798 1 811 1 816 1 817 1 842 1 853 1 876 1 878 1 894 1 947 1 955 1 960 1 966 1 967 1 993 1 995 1 1016 1 
1 209 28 1 51 1 55 1 65 1 69 1 81 1 82 1 110 1 140 1 181 1 185 1 191 1 207 1 229 1 259 1 291 1 297 1 313 2 316 1 320 1 344 1 358 1 360 1 389 1 393 1 420 1 441 1 443 1 450 1 462 1 546 1 561 1 570 1 578 2 595 1 638 2 657 1 669 1 720 1 724 1 731 1 736 1 744 1 756 1 760 2 770 1 72 1 78 1 84 1 103 1 111 1 120 1 157 1 166 1 175 1 190 1 201 1 204 1 243 1 268 1 283 1 290 1 292 1 319 1 321 1 349 1 367 1 377 1 390 1 417 1 468 1 488 1 490 1 496 1 533 1 597 1 607 1 625 1 626 1 708 1 723 1 742 1 753 1 755 1 764 1 798 1 800 1 804 1 828 1 838 1 841 1 852 1 867 2 869 1 911 1 912 1 914 1 947 1 986 1 987 1 999 2 782 1 786 1 791 1 795 1 805 1 812 1 850 1 870 1 887 1 948 1 964 1 974 1 1004 1 1008 1 1009 1 1021 1 1022 1 
1 208 12 1 16 1 23 1 25 1 33 1 37 1 58 1 61 1 69 1 75 1 88 1 94 1 103 1 128 1 141 1 187 1 189 1 194 1 204 1 208 1 231 1 234 1 238 1 251 1 301 1 318 1 327 1 359 1 408 1 428 1 440 1 444 1 451 1 463 1 473 1 484 1 493 1 515 2 526 1 527 1 528 1 549 1 591 1 626 1 627 2 683 1 689 1 690 1 728 2 733 1 748 1 5 1 22 1 42 1 67 1 79 1 84 1 90 1 100 1 122 1 125 1 155 1 163 1 169 1 172 1 190 1 239 1 259 1 261 1 319 1 329 1 331 1 362 1 372 1 388 1 406 1 417 1 461 1 500 1 510 1 534 1 542 1 551 1 558 1 611 1 615 1 688 1 719 1 726 1 741 1 753 1 782 1 822 1 823 1 864 2 884 1 959 1 986 1 988 1 993 1 994 1 787 1 832 1 845 1 862 1 911 1 919 1 934 1 951 1 991 1 999 1 1007 1 
1 208 5 1 47 1 59 1 65 1 87 1 90 1 96 1 99 2 142 1 145 1 158 1 168 1 179 1 185 1 188 1 192 1 224 1 242 2 246 1 247 2 255 1 296 1 312 1 352 1 362 1 365 1 370 1 383 1 388 1 416 1 480 1 482 1 498 1 528 1 543 1 546 1 549 1 558 1 630 1 632 1 642 1 645 1 670 1 732 1 740 1 744 1 765 1 3 1 16 1 52 1 94 1 98 1 118 1 133 1 146 1 153 1 162 1 182 1 183 1 225 1 234 1 239 1 240 1 249 1 256 1 277 1 289 1 293 1 384 1 389 1 391 1 414 1 425 1 434 1 451 1 510 1 522 1 569 1 571 1 586 1 592 1 616 1 620 1 626 1 636 1 700 1 709 1 711 1 737 1 747 1 777 1 802 1 816 1 861 1 866 1 897 1 914 1 923 1 937 1 784 1 785 1 786 1 796 1 862 1 949 1 987 1 996 1 1001 1 1005 1 1006 1 1012 1 1017 1 
1 209 1 1 11 1 19 1 34 1 78 1 125 1 129 1 150 1 163 1 185 1 230 1 245 1 248 1 257 1 293 1 301 1 303 1 329 1 330 1 338 1 358 1 398 1 399 1 404 1 413 1 455 1 457 1 465 1 477 1 497 1 499 1 500 2 503 1 510 1 586 1 618 1 636 1 660 1 666 1 716 1 719 1 732 1 762 1 16 1 18 1 23 1 41 1 58 1 92 1 96 1 140 1 147 1 162 1 164 1 213 1 217 1 242 1 300 1 333 1 334 1 344 1 377 1 394 1 405 1 407 1 496 1 507 1 509 1 527 1 537 1 559 1 571 1 581 1 582 1 585 1 672 1 683 1 698 1 729 1 781 1 781 1 800 1 805 1 816 1 842 1 859 1 867 1 872 1 891 1 943 1 978 1 791 1 794 1 823 1 866 1 877 1 892 1 894 1 907 1 925 1 929 1 932 1 935 1 947 1 984 1 996 1 1005 1 1012 1 1024 1 
1 202 2 1 21 1 41 1 92 1 108 1 124 1 163 1 216 1 244 1 247 1 260 1 272 1 282 1 307 1 318 2 332 1 333 2 357 1 377 1 382 1 392 1 411 1 427 1 431 1 447 1 475 1 482 1 530 1 534 1 535 1 548 1 553 1 554 1 556 1 562 2 563 1 566 1 567 1 570 1 577 1 585 2 591 1 620 1 636 2 648 1 673 1 683 2 687 1 728 1 752 1 757 1 772 1 773 1 779 1 16 1 22 1 32 1 66 1 69 1 70 1 71 1 80 1 84 1 85 1 91 1 121 1 140 1 155 1 171 1 179 1 193 1 210 1 234 1 288 1 309 1 322 1 344 1 347 1 361 1 362 1 372 1 374 1 406 1 412 1 469 1 471 1 487 1 513 1 523 1 525 1 526 1 547 1 572 1 598 1 611 1 625 1 638 1 640 1 644 1 649 1 697 1 717 1 723 1 755 1 778 1 804 1 852 2 872 1 873 2 914 1 926 1 929 1 937 1 943 1 961 1 963 1 968 1 972 1 813 1 825 1 828 1 830 1 841 1 850 1 892 1 919 1 935 1 1027 1 
1 209 14 1 26 1 28 1 42 1 54 1 93 1 148 1 154 1 159 1 163 1 165 1 179 1 186 1 193 1 200 1 208 1 231 1 237 1 283 1 293 1 304 1 310 1 327 1 338 1 351 1 361 1 374 1 383 1 408 1 416 1 467 1 521 1 542 1 551 1 570 1 571 1 609 1 614 1 619 1 688 2 692 1 716 1 731 1 732 1 733 1 736 1 753 1 768 1 775 1 23 1 56 1 65 1 68 1 160 1 170 1 217 1 229 1 238 1 253 1 254 1 269 1 272 1 274 1 275 1 319 1 343 1 352 1 384 1 385 1 390 1 400 1 438 1 439 1 442 1 475 1 479 1 480 1 501 1 511 1 526 1 527 1 590 1 592 1 627 1 640 1 644 1 652 1 662 1 666 1 669 1 683 1 729 1 734 1 739 1 747 1 752 1 759 1 809 1 839 1 856 1 865 1 881 2 902 1 922 1 925 1 940 1 872 1 889 1 892 1 894 1 897 1 907 1 927 1 950 1 963 1 975 1 1002 1 1005 1 1006 1 1019 1 1021 1 
1 209 13 1 23 1 72 1 102 1 106 1 117 1 121 1 123 1 125 1 141 1 174 2 185 1 207 1 224 1 229 1 272 1 281 1 313 1 322 1 328 1 337 1 339 1 387 1 391 1 416 1 429 1 446 1 500 1 508 2 537 1 566 1 567 1 578 1 598 1 651 1 659 1 670 1 675 1 691 1 718 1 729 1 24 1 30 1 54 1 103 1 160 1 162 1 188 1 193 1 238 1 331 1 340 1 381 1 389 1 491 1 518 1 527 1 548 1 559 1 580 1 586 1 592 1 614 1 622 1 628 1 647 1 662 1 671 1 676 1 694 1 697 1 726 1 780 1 786 1 813 1 834 1 838 1 848 1 861 1 882 1 894 1 900 1 902 1 907 1 949 1 789 1 804 1 817 1 819 1 844 1 860 1 863 1 883 1 924 1 931 1 956 1 973 1 976 1 980 1 983 1 1008 1 1011 1 1016 1 
1 207 43 1 55 1 109 1 115 1 121 1 141 1 146 1 188 1 256 1 288 1 295 1 326 1 356 1 363 1 365 1 384 1 407 1 440 2 449 1 454 1 455 1 457 1 487 1 521 1 541 1 544 1 557 1 566 1 591 1 593 1 595 1 614 1 629 1 630 1 631 1 637 1 668 1 676 1 700 1 728 1 735 1 739 1 758 1 770 1 777 1 15 1 41 1 53 1 56 1 84 1 96 1 128 1 173 1 183 1 189 1 230 1 243 1 276 1 290 1 308 1 317 1 329 1 338 1 347 1 385 1 416 1 509 1 522 1 525 1 526 1 555 1 556 1 584 1 622 1 628 1 641 1 649 1 670 1 672 1 673 1 697 1 708 1 710 1 740 1 780 1 789 1 804 1 807 1 814 1 817 2 822 1 843 1 845 1 863 1 867 1 879 1 887 1 901 1 904 1 908 1 910 1 967 1 990 1 805 1 828 1 829 1 919 1 924 1 949 1 975 1 987 1 997 1 1012 1 
1 211 28 1 30 1 62 2 67 1 84 1 109 1 125 1 142 1 240 1 243 1 247 1 259 1 265 1 295 1 324 1 325 1 328 1 329 1 333 1 335 1 370 1 371 1 395 1 398 1 424 1 427 1 433 1 441 1 454 1 482 1 512 1 536 1 551 1 569 1 594 1 623 1 669 1 672 1 693 1 694 1 735 1 748 1 757 1 771 2 784 1 6 1 26 1 75 1 102 1 115 1 141 1 143 1 157 1 179 1 181 1 184 1 193 1 194 1 204 1 233 1 244 1 255 1 269 1 289 1 294 1 306 1 360 1 369 1 378 1 387 1 414 1 428 1 432 1 434 1 435 1 459 1 483 1 505 1 554 1 564 1 592 1 629 1 632 1 644 1 715 1 725 1 736 1 767 1 776 1 778 1 780 1 799 1 800 1 804 1 808 1 831 1 832 1 854 1 860 2 868 1 875 1 880 1 887 1 912 1 918 1 929 1 931 1 946 1 969 1 973 1 976 1 990 1 798 1 822 1 829 1 838 1 909 1 915 1 924 1 947 1 961 1 967 1 1001 1 1002 1 1006 1 1011 1 1013 1 
1 216 4 1 29 1 56 1 63 1 85 1 99 1 108 1 125 1 152 1 154 1 167 1 173 1 210 1 215 1 228 1 273 1 298 1 300 1 303 1 315 1 346 1 349 1 364 1 367 1 381 1 392 1 401 1 419 2 424 1 450 1 451 1 530 1 562 1 593 1 660 1 674 1 710 1 727 2 730 1 746 1 758 1 775 1 8 1 9 1 21 1 37 1 53 1 70 1 73 1 92 1 131 1 183 1 198 1 206 1 208 1 218 1 236 1 271 1 284 1 291 1 295 1 299 1 325 1 374 1 376 1 428 1 462 1 467 1 483 1 524 1 540 1 560 1 563 1 589 1 592 1 598 1 634 1 641 1 646 1 650 1 724 1 735 1 748 1 753 1 771 1 772 1 779 1 787 1 787 1 818 1 908 1 918 1 928 2 936 1 947 2 958 1 972 1 974 1 977 1 988 1 846 1 860 1 871 1 889 1 913 1 925 1 952 1 957 1 1001 1 1006 1 1009 1 1010 1 1012 1 1016 1 
1 211 16 1 29 1 33 1 56 1 78 2 150 1 172 1 174 1 187 1 188 1 189 1 207 1 215 1 288 1 294 1 370 1 404 1 413 1 423 2 424 1 432 1 442 1 444 1 447 1 454 1 456 1 463 1 469 1 490 1 495 1 507 1 517 1 532 1 540 1 541 1 547 1 550 1 559 1 568 1 609 1 614 2 648 1 667 1 712 1 715 1 721 1 730 1 736 1 749 1 9 1 11 1 13 1 28 1 45 1 74 1 115 1 134 1 145 1 155 1 165 1 179 1 186 1 212 1 217 1 236 1 272 1 273 1 274 1 287 1 292 1 306 1 311 1 321 1 344 1 352 1 353 1 378 1 382 1 399 1 431 1 450 1 473 1 528 1 545 1 546 1 570 1 587 1 591 1 618 1 638 1 654 1 656 1 696 1 732 1 737 1 741 1 765 1 772 1 774 1 807 2 865 1 887 1 888 1 894 1 931 1 933 1 947 1 986 2 993 1 999 1 794 1 860 1 861 1 866 1 918 1 957 1 976 1 979 1 1007 1 1008 1 1009 1 1010 1 1022 1 
1 209 14 1 32 1 34 1 35 1 37 1 42 1 43 1 51 1 88 2 107 1 120 1 124 1 127 1 131 1 153 1 155 1 169 1 187 1 197 1 201 1 219 1 232 2 268 1 272 1 323 1 325 1 335 1 364 1 380 1 450 1 459 2 466 2 467 1 501 1 523 1 563 1 588 1 622 1 624 1 627 1 630 1 633 1 642 1 647 1 674 1 678 1 728 1 745 1 747 1 752 2 755 1 756 1 757 1 759 1 785 1 26 1 27 1 94 1 138 1 156 1 162 1 168 1 180 1 189 1 193 1 196 1 210 1 235 1 240 1 251 1 264 1 352 1 355 1 372 1 413 1 425 1 429 1 443 1 453 1 481 1 484 1 492 1 493 1 522 1 552 1 575 1 616 1 629 1 636 1 668 1 684 1 753 1 761 1 784 1 802 1 810 1 817 1 819 1 833 1 857 1 903 1 956 1 965 1 987 1 846 1 854 1 874 1 900 1 919 1 930 1 939 1 959 1 990 1 991 1 993 1 1002 1 1014 1 
1 205 1 1 65 1 69 1 73 1 105 1 153 1 169 1 182 1 183 1 187 1 197 1 201 1 225 1 247 1 259 1 294 1 316 1 340 1 348 1 367 1 383 2 389 1 403 1 418 1 426 1 448 1 461 1 475 1 476 1 491 1 502 1 519 1 550 1 555 1 568 1 576 1 588 1 602 1 622 1 626 1 679 1 687 1 694 1 706 1 748 1 754 1 2 1 19 1 33 1 110 1 124 1 149 1 158 1 206 1 217 1 241 1 246 1 248 1 275 1 305 1 319 1 320 1 351 1 353 1 359 1 405 1 409 1 437 1 470 1 493 1 510 1 521 1 525 1 543 1 552 1 565 1 582 1 599 1 603 1 649 1 657 1 658 1 696 1 720 1 742 1 759 1 762 1 797 1 826 1 838 1 843 1 858 1 913 1 914 1 917 1 933 1 949 1 983 1 990 1 819 1 840 1 841 1 850 1 853 1 864 1 871 1 878 1 893 1 931 1 967 1 1011 1 1013 1 1015 1 1016 1 
1 212 4 1 24 1 25 1 28 1 35 1 40 1 72 1 74 1 77 1 156 1 164 1 168 1 169 1 193 1 198 1 224 1 244 1 254 1 255 1 273 1 314 1 318 1 337 1 398 1 450 1 477 1 497 1 499 1 509 1 515 2 526 2 529 1 543 1 544 1 587 1 590 1 606 1 611 1 643 1 655 1 669 2 672 1 674 1 687 2 699 1 709 1 766 1 18 1 32 1 57 1 64 1 107 1 118 1 136 1 147 1 158 1 161 1 166 1 174 1 219 1 234 1 240 1 344 1 381 1 417 1 422 1 431 1 442 1 447 1 449 1 456 1 468 1 500 1 506 1 511 1 599 1 612 1 613 1 642 1 654 1 676 1 690 1 695 1 703 1 750 1 778 1 781 1 807 1 816 1 874 1 879 2 959 1 960 1 797 1 850 1 864 1 883 1 889 1 929 1 985 1 1000 1 1004 1 1007 1 1017 1 1026 1 1027 1 
1 209 14 2 19 1 31 1 44 1 48 1 63 1 69 1 87 1 96 1 118 1 152 1 155 1 190 1 198 1 205 1 239 2 244 1 288 1 314 1 365 1 368 1 386 1 391 1 394 1 413 1 459 1 469 1 531 1 532 1 542 1 572 1 621 1 681 1 701 1 734 1 736 1 762 1 1 1 10 1 24 1 47 1 60 1 70 1 81 1 90 1 105 1 122 1 143 1 149 1 180 1 208 1 214 1 254 1 268 1 282 1 311 1 320 1 358 1 371 1 400 1 454 1 470 1 496 1 508 1 557 1 569 1 578 1 651 1 661 1 729 1 749 1 760 1 763 1 807 1 815 1 824 1 827 1 838 1 851 1 873 1 882 2 920 1 930 1 955 1 971 2 988 1 808 1 853 1 863 1 864 1 869 1 907 1 913 1 917 1 949 1 966 1 970 1 979 1 1018 1 1023 1 
1 210 5 1 28 1 40 1 66 2 88 1 92 1 95 1 98 1 111 1 120 1 124 1 139 1 155 1 185 1 186 1 191 1 220 1 267 1 270 1 305 1 314 1 315 1 347 1 367 1 368 1 371 1 433 1 460 1 464 1 485 2 496 1 501 1 510 1 520 1 550 2 609 1 610 1 630 1 683 1 699 1 700 1 716 1 729 1 735 1 748 1 777 1 4 1 20 1 27 1 39 1 63 1 65 1 87 1 151 1 157 1 168 1 192 1 237 1 263 1 322 1 351 1 370 1 374 1 381 1 382 1 396 1 407 1 416 1 467 1 556 1 564 1 568 1 623 1 625 1 641 1 698 1 711 1 734 1 746 1 769 1 774 1 807 1 824 1 827 1 839 1 855 1 865 1 912 1 920 1 927 1 938 1 950 1 952 1 969 1 993 1 810 1 817 1 818 1 822 1 900 1 942 1 961 1 966 1 968 1 974 1 979 1 1002 1 1012 1 1017 1 
1 209 26 1 43 1 49 1 61 1 73 1 75 1 83 1 129 1 142 1 143 1 176 2 197 1 199 1 223 1 245 1 249 1 253 1 263 1 267 1 270 1 282 1 285 1 312 1 327 1 335 1 358 1 363 1 384 2 421 1 431 1 486 1 509 1 533 1 546 1 569 1 594 1 601 1 613 1 622 1 646 1 649 1 658 1 671 1 686 1 713 1 718 1 746 1 754 1 770 1 773 1 2 1 17 1 36 1 48 1 65 1 86 1 93 1 140 1 153 1 168 1 169 1 186 1 210 1 212 1 235 1 240 1 258 1 261 1 262 1 277 1 307 1 317 1 345 1 349 1 373 1 389 1 392 1 420 1 463 1 480 1 484 1 488 1 490 1 527 1 536 1 575 1 579 1 629 1 642 1 656 1 674 1 781 1 788 1 842 1 878 1 883 1 901 2 922 1 979 1 994 1 799 1 897 1 900 1 919 1 921 1 936 1 957 1 973 1 981 1 984 1 996 1 1010 1 1021 1 
1 213 17 1 55 1 68 1 86 1 91 1 116 1 129 1 258 1 298 1 301 1 343 1 366 1 373 1 391 1 411 1 412 1 440 1 442 1 470 2 513 1 514 1 556 1 610 1 619 1 621 1 622 1 645 1 657 1 667 1 682 1 688 1 692 1 700 1 705 1 720 1 736 1 761 1 8 1 29 1 36 1 40 1 44 1 51 1 54 1 56 1 60 1 78 1 101 1 121 1 140 1 142 1 195 1 217 1 221 1 260 1 291 1 309 1 314 1 319 1 330 1 340 1 349 1 350 1 358 1 359 1 392 1 406 1 419 1 445 1 446 1 450 1 456 1 460 1 477 1 531 1 565 1 566 1 570 1 572 1 581 1 586 1 588 1 589 1 612 1 613 1 634 1 636 1 647 1 660 1 673 1 675 1 735 1 737 1 742 1 748 1 756 1 778 1 804 1 813 1 869 1 871 1 932 1 942 1 955 1 956 1 963 1 969 1 811 1 839 1 849 1 850 1 874 1 877 1 897 1 912 1 944 1 945 1 948 1 960 1 967 1 983 1 997 1 1009 1 1011 1 1021 1 1024 1 
1 206 15 1 18 1 30 1 36 1 39 1 56 1 65 1 90 1 113 1 119 1 125 1 135 1 152 1 182 2 188 1 216 1 228 1 250 1 264 1 270 1 290 1 294 1 322 1 403 1 414 1 415 1 453 1 470 1 472 1 475 1 501 1 510 2 518 1 545 1 552 1 557 1 563 1 569 1 590 1 613 1 614 1 624 1 635 1 640 1 657 2 666 1 680 1 693 1 741 1 742 1 9 1 10 1 37 1 48 1 64 1 67 1 83 1 114 1 123 1 134 1 163 1 166 1 179 1 181 1 213 1 273 1 279 1 300 1 332 1 335 1 337 1 346 1 376 1 391 1 397 1 411 1 424 1 436 1 460 1 463 1 495 1 517 1 522 1 523 1 527 1 578 1 612 1 619 1 646 1 716 1 721 1 730 1 734 1 780 1 836 1 839 2 844 1 860 1 864 1 892 1 897 1 918 1 935 1 951 1 968 1 987 1 998 1 797 1 809 1 832 1 858 1 870 1 911 1 952 1 990 1 1017 1 1024 1 1027 1 
1 209 2 1 7 1 40 1 47 1 54 1 81 1 102 1 109 1 140 1 153 1 161 1 171 1 213 1 245 1 290 1 313 1 319 1 333 1 354 1 362 1 382 1 393 1 394 1 424 1 425 1 428 2 440 1 448 1 451 1 463 1 472 1 473 1 474 1 484 1 487 1 576 1 586 1 592 1 611 1 614 1 621 1 625 1 640 1 662 2 665 1 666 1 668 1 720 1 745 1 746 1 748 1 752 1 774 1 776 1 790 1 18 1 56 1 79 1 130 1 145 1 155 1 170 1 182 1 192 1 223 1 243 1 271 1 278 1 286 1 304 1 324 1 365 1 367 1 403 1 412 1 420 1 435 1 446 1 460 1 465 1 469 1 498 1 526 1 535 1 608 1 617 1 647 1 699 1 727 1 728 1 734 1 741 1 750 1 791 1 796 1 798 1 820 1 864 1 872 1 875 1 884 1 889 1 917 1 920 1 938 1 942 1 956 1 985 1 807 1 812 1 816 1 848 1 912 1 916 1 969 1 973 1 979 1 987 1 998 1 1000 1 1003 1 1004 1 1008 1 1010 1 
1 208 44 1 87 1 95 1 128 1 159 1 204 1 257 1 297 1 331 1 343 1 345 1 346 1 349 1 358 1 380 1 382 1 406 1 408 1 412 1 415 1 452 1 453 1 474 1 483 1 489 1 496 2 547 2 558 1 561 1 562 1 612 1 624 1 689 1 692 1 723 1 732 1 741 1 747 1 756 1 760 1 762 1 769 1 772 1 778 1 797 1 24 1 94 1 118 1 134 1 142 1 156 1 162 1 174 1 177 1 182 1 194 1 198 1 216 1 255 1 279 1 319 1 347 1 359 1 364 1 369 1 410 1 416 1 423 1 476 1 494 1 571 1 588 1 593 1 598 1 647 1 653 1 670 1 705 1 712 1 739 1 752 1 766 1 777 1 786 1 800 1 803 1 821 1 823 1 834 1 845 1 864 1 885 1 915 1 921 1 939 1 984 1 989 1 991 1 996 1 826 1 829 1 837 1 841 1 849 1 855 1 871 1 914 1 960 1 968 1 1002 1 1010 1 1013 1 
1 212 2 1 10 1 11 2 17 1 25 1 51 1 61 1 65 1 100 1 114 1 214 1 266 1 272 1 274 1 300 1 312 1 378 1 398 1 402 1 426 1 468 1 494 1 503 1 527 1 571 1 581 1 601 1 607 1 613 1 626 1 627 1 638 2 651 1 657 1 662 1 666 1 696 1 752 2 786 1 23 1 66 1 73 1 75 1 101 1 107 1 119 1 123 1 159 1 168 1 170 1 172 1 196 1 207 1 238 1 265 1 267 1 338 1 354 1 384 1 389 1 393 1 412 1 422 1 440 1 456 1 462 1 480 1 487 1 491 1 492 1 550 1 562 1 564 1 569 1 570 1 576 1 592 1 643 1 655 1 691 1 713 1 719 1 735 1 771 1 794 1 821 1 830 1 872 1 875 1 915 1 923 1 931 1 944 1 948 1 982 2 984 2 990 1 801 1 842 1 845 1 852 1 858 1 911 1 917 1 918 1 938 1 959 1 964 1 996 1 1014 1 1018 1 1019 1 1020 1 
1 206 9 1 19 1 21 1 58 1 71 1 77 2 80 1 97 1 111 1 116 1 173 1 181 1 193 1 195 1 205 1 208 1 263 1 285 1 290 2 293 1 310 1 315 1 340 1 369 1 379 1 421 1 432 1 435 1 462 1 482 1 495 1 536 1 539 1 542 1 561 1 575 1 581 1 589 1 669 1 682 1 732 1 762 1 778 1 781 1 786 1 798 1 5 1 74 1 81 1 92 1 117 1 132 1 192 1 199 1 223 1 227 1 230 1 232 1 268 1 305 1 314 1 331 1 362 1 393 1 398 1 399 1 407 1 448 1 452 1 493 1 498 1 514 1 523 1 558 1 560 1 567 1 573 1 582 1 594 1 595 1 599 1 630 1 641 1 646 1 652 1 691 1 745 1 747 1 802 1 810 1 823 2 885 1 934 1 960 1 965 1 975 1 983 1 989 1 815 1 816 1 819 1 845 1 879 1 886 1 890 1 894 1 936 1 944 1 950 1 998 1 1003 1 1026 1 
1 212 17 1 21 1 23 1 46 1 52 1 67 1 79 1 87 1 102 1 142 1 159 1 175 2 181 1 193 1 242 2 263 1 281 1 295 1 313 1 350 1 360 1 362 1 389 1 444 1 446 1 449 2 454 1 458 1 482 1 516 1 566 1 572 1 582 1 588 1 595 1 599 1 614 1 646 1 648 1 657 1 675 1 676 1 700 1 720 1 723 1 726 1 740 1 771 1 4 1 7 1 45 1 107 1 126 1 157 1 166 1 182 1 221 1 229 1 237 1 259 1 272 1 326 1 335 1 339 1 347 1 368 1 371 1 393 1 415 1 460 1 470 1 490 1 507 1 527 1 534 1 540 1 578 1 616 1 664 1 671 1 799 1 826 1 836 1 839 1 854 1 865 1 894 1 900 1 916 1 935 1 939 1 940 1 983 1 987 1 996 1 812 1 825 1 831 1 869 1 876 1 878 1 884 1 901 1 907 1 930 1 957 1 963 1 998 1 1017 1 1018 1 1023 1 
1 213 16 1 94 1 109 1 113 1 116 1 124 1 228 1 249 1 255 1 310 1 314 1 316 1 363 2 373 1 387 1 407 1 413 2 417 1 420 1 421 1 443 1 469 1 508 1 533 1 561 1 577 1 596 1 616 1 666 1 684 1 686 1 691 1 719 1 731 1 757 1 776 1 780 1 789 1 800 1 19 1 27 1 39 1 130 1 152 1 154 1 163 1 178 1 182 1 184 1 212 1 214 1 227 1 260 1 282 1 291 1 306 1 309 1 320 1 332 1 333 1 356 1 357 1 380 1 381 1 412 1 478 1 482 1 485 1 491 1 494 1 501 1 511 1 547 1 549 1 552 1 565 1 595 1 600 1 604 1 618 1 620 1 656 1 658 1 665 1 693 1 698 1 705 1 708 1 746 1 753 1 758 1 767 1 821 1 822 1 849 1 892 1 902 2 905 1 918 1 948 1 979 1 804 1 819 1 825 1 831 1 841 1 854 1 860 1 886 1 900 1 928 1 933 1 977 1 1001 1 1005 1 1009 1 1011 1 1016 1 1019 1 1023 1 1027 1 
1 207 5 1 18 1 76 2 102 1 109 1 125 1 135 1 145 1 167 1 183 1 201 1 220 1 289 1 296 1 307 1 310 1 319 1 326 1 362 1 388 1 399 2 425 1 426 1 436 1 488 1 495 1 510 1 513 1 522 1 548 1 676 1 707 1 759 1 768 1 769 2 798 1 31 1 82 1 121 1 127 1 154 1 163 1 195 1 240 1 258 1 262 1 271 1 272 1 286 1 316 1 331 1 337 1 346 1 379 1 386 1 389 1 447 1 477 1 506 1 530 1 558 1 561 1 562 1 573 1 604 1 607 1 623 1 633 1 635 1 646 1 669 1 689 1 693 1 703 1 745 1 746 1 764 1 772 1 821 1 832 1 859 1 873 1 883 1 894 1 907 1 910 1 917 1 918 1 933 1 942 1 968 1 815 1 840 1 844 1 847 1 848 1 895 1 904 1 971 1 977 1 1008 1 1019 1 1021 1 
1 211 10 2 35 1 54 1 74 1 82 1 88 1 101 1 109 1 114 1 132 1 163 1 177 1 255 1 263 1 299 1 374 1 398 1 410 1 420 1 441 1 444 1 449 1 450 1 478 1 490 1 498 1 531 1 538 1 548 1 576 2 595 1 612 1 635 1 647 1 658 1 668 1 689 1 692 1 696 1 700 1 704 1 714 1 736 1 752 1 758 1 771 1 778 1 782 1 785 1 786 1 795 1 2 1 8 1 9 1 34 1 64 1 69 1 75 1 125 1 181 1 189 1 211 1 248 1 296 1 303 1 316 1 324 1 342 1 364 1 365 1 380 1 382 1 424 1 431 1 511 1 533 1 536 1 539 1 574 1 586 1 590 1 604 1 607 1 643 1 666 1 676 1 746 1 749 1 750 1 756 1 784 1 802 1 815 1 823 1 825 1 826 1 868 1 889 1 914 1 929 1 950 1 952 1 956 1 986 1 987 1 996 1 827 1 832 1 839 1 849 1 864 1 886 1 902 1 954 1 971 1 999 1 1007 1 1017 1 1023 1 
1 208 25 1 71 1 83 1 84 1 91 1 130 1 159 1 205 1 210 1 231 1 232 1 241 1 273 1 274 1 277 1 280 1 289 1 303 1 316 1 326 1 328 1 331 1 339 1 356 1 357 1 359 1 375 1 380 1 403 1 409 1 418 1 428 1 435 1 440 1 445 1 448 1 453 1 470 1 497 1 556 1 576 1 577 1 580 1 619 1 636 1 665 1 728 1 730 1 736 1 743 1 745 1 748 1 760 1 773 1 781 1 4 1 5 1 10 1 65 1 66 1 90 1 104 1 127 1 163 1 167 1 174 1 213 1 216 1 221 1 229 1 238 1 245 1 276 1 312 1 321 1 329 1 352 1 353 1 369 1 385 1 417 1 505 1 507 1 512 1 514 1 531 1 544 1 604 1 608 1 618 1 629 1 649 1 676 1 681 1 682 1 716 1 763 1 764 1 778 1 785 1 817 1 820 1 840 1 865 1 881 2 905 1 915 1 935 1 955 1 957 1 967 1 986 1 987 1 839 1 846 1 875 1 878 1 895 1 901 1 916 1 927 1 992 1 994 1 996 1 1001 1 1002 1 1006 1 1015 1 1019 1 
1 207 4 1 6 1 23 1 24 1 32 1 39 1 42 1 44 1 51 1 72 1 98 1 110 1 156 1 216 1 221 1 239 1 243 1 252 1 322 1 323 1 326 1 350 1 354 1 357 1 361 1 366 1 393 1 406 1 425 1 429 1 449 1 451 1 483 1 495 1 502 1 518 1 519 1 528 1 546 1 552 1 556 1 586 1 613 1 645 1 665 1 669 1 682 1 687 1 691 1 703 1 709 1 747 1 775 1 9 1 41 1 113 1 120 1 131 1 139 1 152 1 175 1 197 1 199 1 205 1 206 1 212 1 227 1 260 1 264 1 324 1 375 1 384 1 385 1 386 1 400 1 418 1 419 1 432 1 444 1 445 1 457 1 468 1 479 1 482 1 525 1 539 1 544 1 577 1 587 1 596 1 609 1 635 1 663 1 666 1 670 1 715 1 742 1 744 1 755 1 760 1 769 1 836 1 840 1 844 1 846 1 850 1 865 1 934 1 948 1 812 1 834 1 871 1 887 1 919 1 935 1 942 1 980 1 1006 1 1018 1 
1 208 3 1 39 1 41 1 122 1 143 1 161 1 187 1 196 1 201 1 226 1 279 1 299 1 311 2 379 1 385 1 391 2 430 1 441 1 457 1 463 1 492 2 504 1 507 1 517 1 523 1 533 1 535 1 547 1 551 1 558 1 571 1 578 1 596 1 673 2 685 1 713 1 746 1 785 1 788 2 791 1 792 1 793 1 20 1 79 1 99 1 109 1 116 1 153 1 248 1 251 1 257 1 267 1 341 1 366 1 367 1 397 1 412 1 437 1 451 1 459 1 467 1 487 1 500 1 526 1 531 1 570 1 574 1 587 1 617 1 630 1 633 1 657 1 668 1 704 1 709 1 723 1 729 1 740 1 767 1 797 1 828 1 841 1 849 1 853 1 876 1 885 1 902 1 920 1 931 2 935 1 957 1 970 1 819 1 823 1 835 1 850 1 856 1 871 1 898 1 909 1 917 1 960 1 962 1 1004 1 1012 1 1013 1 
1 209 26 1 102 1 111 1 128 1 136 1 139 1 161 1 172 1 215 1 245 1 261 1 280 1 283 1 296 1 335 1 343 2 408 1 422 1 424 1 464 1 470 1 498 1 511 1 592 1 618 1 625 1 637 1 646 1 659 1 698 1 711 1 732 1 735 1 755 1 764 1 777 1 786 1 9 1 18 1 20 1 22 1 74 1 75 1 79 1 82 1 118 1 124 1 126 1 138 1 155 1 170 1 198 1 205 1 224 1 228 1 240 1 315 1 324 1 339 1 341 1 353 1 364 1 418 1 446 1 479 1 500 1 515 1 522 1 557 1 582 1 589 1 622 1 624 1 676 1 686 1 691 1 695 1 730 1 744 1 751 1 792 1 813 1 849 1 894 1 906 1 908 1 914 1 927 1 952 1 960 1 970 1 993 1 834 1 838 1 859 1 863 1 882 1 886 1 909 1 932 1 940 1 976 1 991 1 1001 1 1016 1 1019 1 
1 207 11 1 18 1 19 1 37 1 55 1 121 1 136 1 141 1 152 1 180 1 194 1 229 2 244 1 287 1 292 1 305 1 306 1 307 1 308 1 310 1 339 1 346 1 351 1 387 1 404 1 405 1 410 1 449 1 453 1 465 1 486 1 496 1 512 1 515 1 533 1 549 1 583 1 603 1 606 1 636 1 637 1 655 1 669 1 670 1 678 1 684 1 696 1 707 1 713 1 716 1 719 1 725 1 737 1 763 1 777 1 783 1 3 1 6 1 9 1 30 1 35 1 50 1 65 1 78 1 83 1 100 1 123 1 129 1 139 1 157 1 159 1 163 1 168 1 185 1 223 1 233 1 241 1 243 1 274 1 349 1 395 1 414 1 419 1 436 1 441 1 459 1 466 1 467 1 488 1 505 1 511 1 535 1 548 1 560 1 571 1 600 1 650 1 662 1 727 1 744 1 747 1 748 1 774 1 796 1 830 1 855 1 863 1 875 1 879 1 919 1 930 1 935 1 938 1 959 1 962 1 975 1 977 1 979 1 987 1 814 1 820 1 833 1 847 1 887 1 901 1 912 1 942 1 947 1 960 1 
1 208 36 1 47 1 63 1 64 1 88 1 125 1 126 1 144 1 214 1 238 1 254 1 296 1 304 1 311 1 336 1 348 1 351 1 352 1 368 1 376 1 408 2 453 1 456 1 473 1 476 1 483 1 507 2 524 1 533 1 561 1 579 1 586 1 630 1 647 1 649 1 679 2 697 1 744 1 775 1 789 1 800 1 41 1 103 1 134 1 135 1 169 1 175 1 177 1 185 1 197 1 210 1 220 1 236 1 259 1 284 1 295 1 314 1 337 1 371 1 377 1 390 1 400 1 426 1 446 1 459 1 467 1 477 1 485 1 493 1 516 1 528 1 549 1 598 1 599 1 637 1 656 1 660 1 661 1 664 1 671 1 688 1 694 1 696 1 705 1 730 1 750 1 793 1 832 1 849 2 851 1 853 1 861 1 867 1 870 1 878 1 880 1 902 1 908 1 911 1 916 1 921 1 923 1 957 1 987 1 994 1 995 1 827 1 846 1 848 1 860 1 864 1 897 1 907 1 910 1 1002 1 1003 1 1008 1 1020 1 1027 1 
1 213 35 1 37 1 56 1 108 1 112 1 131 1 225 1 232 1 289 1 298 1 332 1 344 1 373 1 376 1 397 1 495 1 498 1 504 1 511 1 513 1 540 1 566 1 574 1 583 1 595 1 602 1 605 1 608 1 610 1 614 1 625 1 685 1 707 1 717 1 735 1 741 1 763 1 770 1 776 1 1 1 18 1 45 1 55 1 71 1 138 1 165 1 167 1 183 1 187 1 201 1 213 1 224 1 252 1 259 1 266 1 276 1 279 1 335 1 339 1 349 1 366 1 383 1 395 1 406 1 407 1 441 1 460 1 473 1 499 1 527 1 534 1 585 1 592 1 599 1 600 1 623 1 654 1 659 1 669 1 719 1 725 1 736 1 737 1 756 1 760 1 769 1 777 1 795 1 834 1 858 1 864 1 883 2 885 1 897 1 918 1 924 1 925 1 930 1 945 1 961 2 962 1 973 1 977 1 983 1 988 1 819 1 823 1 884 1 887 1 908 1 922 1 931 1 965 1 966 1 967 1 1000 1 1006 1 1015 1 1020 1 1025 1 
1 203 52 1 70 1 84 1 95 1 107 1 118 1 129 1 176 1 188 1 203 2 240 1 278 1 279 1 281 2 294 1 309 1 320 1 321 1 357 1 364 1 371 1 398 1 440 1 480 1 486 1 501 1 517 1 534 1 544 1 546 2 564 1 574 1 583 1 602 1 618 1 693 1 713 1 767 1 769 1 772 1 4 1 11 1 27 1 30 1 36 1 43 1 62 1 108 1 111 1 117 1 131 1 139 1 143 1 158 1 165 1 166 1 182 1 186 1 204 1 221 1 228 1 238 1 260 1 301 1 312 1 322 1 332 1 345 1 350 1 360 1 363 1 366 1 376 1 388 1 393 1 415 1 466 1 494 1 516 1 535 1 567 1 584 1 608 1 650 1 674 1 677 1 697 1 700 1 709 1 739 1 753 1 778 1 797 1 801 1 806 1 835 1 838 1 849 1 863 1 927 1 932 1 933 1 934 1 957 1 968 1 976 1 998 1 816 1 819 1 820 1 845 1 851 1 853 1 858 1 865 1 912 1 996 1 1002 1 1007 1 
1 213 52 2 61 1 72 1 81 1 92 1 96 1 101 1 120 1 154 1 158 1 166 1 181 2 193 1 230 1 246 1 261 1 281 2 285 1 298 1 308 1 342 1 424 1 433 1 438 1 465 1 478 1 507 1 520 1 611 1 644 1 652 1 653 1 657 1 667 1 705 1 709 1 723 2 728 1 732 1 777 1 784 1 795 1 808 1 5 1 21 1 54 1 58 1 79 1 93 1 100 1 103 1 122 1 124 1 147 1 213 1 226 1 252 1 270 1 286 1 303 1 403 1 405 1 475 1 499 1 523 1 539 1 565 1 581 1 598 1 599 1 617 1 622 1 684 1 707 1 718 1 743 1 744 1 766 1 782 1 825 1 840 1 851 2 860 1 861 1 866 1 894 1 936 1 945 1 956 1 966 1 967 1 988 1 991 1 994 1 873 1 893 1 919 1 941 1 979 1 996 1 997 1 1000 1 1003 1 1006 1 1010 1 1014 1 1023 1 
1 210 14 1 44 1 89 1 108 1 113 1 126 1 127 1 136 1 141 1 158 1 184 1 201 1 249 1 261 1 284 1 292 1 307 1 329 1 374 1 392 1 414 1 421 1 430 1 438 1 439 1 471 1 493 1 514 1 541 1 545 1 546 1 556 2 578 1 601 1 608 1 659 1 664 1 679 1 693 1 723 1 750 1 756 1 785 1 18 1 21 1 68 1 119 1 138 1 139 1 142 1 147 1 160 1 218 1 227 1 234 1 265 1 289 1 291 1 302 1 327 1 354 1 359 1 370 1 394 1 396 1 406 1 417 1 441 1 453 1 476 1 484 1 499 1 503 1 511 1 531 1 537 1 600 1 609 1 635 1 652 1 653 1 658 1 670 1 686 1 708 1 771 1 809 1 844 1 853 1 920 1 936 1 945 1 960 1 973 1 987 1 994 1 996 1 819 1 823 1 831 1 857 1 864 1 873 1 891 1 901 1 942 1 962 1 974 1 981 1 1007 1 1010 1 1014 1 1020 1 
1 212 34 1 42 1 48 1 80 1 87 1 106 1 119 1 145 1 167 1 185 1 191 1 193 1 194 1 206 1 226 1 241 1 245 1 249 1 264 1 275 2 293 1 295 1 319 1 340 1 368 1 381 1 413 1 414 1 429 1 455 1 469 1 494 1 508 1 514 1 520 1 533 1 542 1 547 1 553 1 575 1 577 1 611 1 613 1 626 1 638 2 646 1 649 1 665 1 695 1 697 1 702 1 715 1 771 1 792 1 804 1 45 1 90 1 111 1 117 1 125 1 127 1 200 1 222 1 233 1 262 1 310 1 318 1 327 1 332 1 336 1 345 1 352 1 362 1 419 1 430 1 439 1 445 1 485 1 506 1 511 1 522 1 539 1 541 1 559 1 574 1 581 1 590 1 629 1 647 1 648 1 652 1 663 1 670 1 729 1 739 1 756 1 766 1 800 1 803 1 834 1 842 1 843 1 873 1 902 1 934 1 942 2 952 1 988 1 820 1 821 1 827 1 884 1 899 1 922 1 927 1 939 1 954 1 1004 1 1005 1 1006 1 1016 1 1017 1 
1 210 24 2 37 1 67 1 68 1 90 1 104 1 147 2 159 1 167 1 199 1 204 1 221 1 237 1 267 1 320 1 341 1 342 1 343 1 370 1 402 1 406 1 417 1 434 1 446 1 474 1 494 1 500 1 511 1 522 1 601 1 614 1 616 1 622 1 623 1 627 1 651 1 652 1 653 1 659 1 682 1 720 1 745 1 780 1 781 1 791 1 27 1 64 1 80 1 88 1 105 1 137 1 170 1 176 1 211 1 218 1 239 1 250 1 270 1 285 1 327 1 334 1 360 1 368 1 374 1 390 1 397 1 400 1 440 1 466 1 468 1 487 1 514 1 518 1 557 1 569 1 603 1 629 1 662 1 672 1 677 1 700 1 737 1 740 1 747 1 751 1 758 1 769 1 777 1 797 1 800 1 812 1 817 1 820 1 862 1 925 1 956 1 964 1 979 1 982 1 840 1 848 1 861 1 873 1 908 1 943 1 950 1 951 1 980 1 983 1 984 1 993 1 1022 1 1025 1 
1 209 45 1 52 1 58 2 59 1 72 2 99 1 105 1 120 2 127 1 140 1 142 1 207 1 212 1 225 1 230 1 244 1 255 1 256 1 278 1 304 1 307 1 337 1 348 1 354 1 357 1 361 1 414 1 418 1 457 1 468 1 483 1 488 1 503 1 510 1 577 1 607 1 615 1 619 1 628 1 636 1 664 1 681 2 694 2 769 1 785 2 789 1 805 1 816 1 20 1 22 1 34 1 46 1 64 1 110 1 163 1 176 1 193 1 238 1 240 1 242 1 243 1 283 1 292 1 299 1 312 1 316 1 323 1 344 1 363 1 369 1 373 1 374 1 381 1 382 1 399 1 401 1 409 1 432 1 440 1 466 1 487 1 496 1 506 1 511 1 513 1 529 1 530 1 550 1 578 1 589 1 632 1 650 1 677 1 684 1 719 1 722 1 777 1 784 1 793 1 817 1 817 1 834 1 843 1 844 1 862 1 885 1 894 1 910 1 927 1 967 1 972 1 977 2 831 1 854 1 865 1 928 1 948 1 956 1 960 1 979 1 986 1 996 1 1018 1 1023 1 
1 206 25 1 42 1 45 1 70 1 83 1 87 1 98 1 128 1 130 1 138 1 144 1 184 1 190 1 221 1 229 1 265 1 282 1 287 1 298 2 306 1 317 1 324 1 329 1 333 1 346 1 351 1 352 1 356 1 359 1 405 1 425 1 427 1 435 1 455 1 463 1 507 1 509 1 533 1 546 1 555 1 576 1 604 1 612 2 623 1 658 1 673 1 686 1 713 1 714 1 727 1 732 1 737 1 760 1 766 1 787 1 7 1 35 1 38 1 44 1 49 1 96 1 101 1 115 1 125 1 178 1 188 1 199 1 216 1 248 1 253 1 260 1 281 1 283 1 315 1 344 1 345 1 358 1 374 1 401 1 424 1 430 1 437 1 438 1 442 1 459 1 537 1 574 1 607 1 616 1 643 1 657 1 674 1 677 1 691 1 693 1 706 1 710 1 751 1 756 1 793 1 864 1 893 1 909 1 923 1 953 1 985 1 995 1 996 1 999 1 857 1 862 1 892 1 894 1 912 1 942 1 956 1 983 1 991 1 1013 1 1014 1 
1 207 17 2 20 1 21 1 27 1 31 1 58 1 71 1 77 1 84 1 105 1 139 1 154 2 160 1 205 1 218 1 228 1 230 1 234 1 242 1 285 1 305 1 311 1 347 1 358 1 360 1 385 1 415 1 419 1 434 1 438 1 456 1 459 1 460 1 467 1 515 1 527 1 534 1 548 1 573 1 584 1 616 1 645 1 657 2 789 1 32 1 42 1 52 1 69 1 112 1 114 1 122 1 150 1 168 1 260 1 276 1 322 1 332 1 338 1 348 1 359 1 395 1 403 1 411 1 496 1 525 1 540 1 545 1 568 1 572 1 595 1 619 1 620 1 623 1 648 1 654 1 718 1 727 1 733 1 748 1 784 1 790 1 800 1 802 1 807 1 811 1 812 1 814 1 822 1 874 1 905 1 918 1 920 1 924 1 932 1 964 1 970 1 984 2 999 1 827 1 849 1 878 1 899 1 910 1 934 1 943 1 974 1 983 1 1004 1 1016 1 
1 211 111 1 118 1 120 1 142 1 144 1 177 1 198 1 229 1 230 1 272 1 288 1 291 2 305 1 353 1 360 1 363 2 377 1 391 1 408 1 414 1 441 1 444 1 453 1 486 1 487 1 497 1 512 1 545 1 563 1 590 1 598 2 612 1 632 1 636 1 665 1 689 1 699 1 754 1 765 1 797 1 805 1 816 1 19 1 25 1 26 1 50 1 51 1 80 1 93 1 159 1 171 1 235 1 240 1 242 1 262 1 267 1 269 1 283 1 313 1 323 1 336 1 367 1 389 1 394 1 404 1 456 1 470 1 489 1 503 1 540 1 551 1 578 1 601 1 615 1 633 1 649 1 700 1 723 1 729 1 764 1 809 1 812 1 815 1 849 1 978 1 984 1 822 1 918 1 931 1 952 1 953 1 955 1 957 1 958 1 970 1 991 1 1002 1 1009 1 1010 1 1024 1 
1 212 19 1 50 1 70 1 75 1 105 1 111 1 118 1 119 1 138 1 148 1 171 1 172 1 191 1 199 1 215 1 251 1 311 1 346 1 366 1 370 1 450 1 454 1 455 1 459 1 492 1 503 1 506 1 518 1 538 1 556 1 569 1 572 1 586 1 591 1 593 1 599 1 600 1 683 2 721 1 728 1 743 1 755 1 758 1 774 1 798 1 799 1 802 1 803 1 12 1 27 1 48 1 56 1 64 1 73 1 87 1 88 1 106 1 108 1 122 1 128 1 130 1 132 1 136 1 231 1 244 1 248 1 257 1 267 1 283 1 326 1 344 1 345 1 397 1 419 1 430 1 436 1 437 1 441 1 445 1 456 1 476 1 541 1 549 1 589 1 610 1 617 1 649 1 720 1 732 1 741 1 757 1 769 1 776 1 815 1 821 1 821 1 827 1 842 1 849 1 853 1 942 1 949 1 959 1 997 1 850 1 884 1 917 1 926 1 931 1 935 1 940 1 966 1 972 1 982 1 1012 1 1016 1 1020 1 
1 212 11 1 16 1 22 1 32 1 39 1 83 1 91 1 94 1 100 1 138 1 149 1 172 2 190 1 225 1 229 1 233 1 239 1 245 1 258 1 275 2 291 1 319 1 325 1 335 1 338 1 348 1 382 1 388 1 390 1 407 1 445 1 449 1 478 1 489 1 500 1 514 1 548 1 551 2 568 1 571 1 580 1 602 1 663 1 666 1 668 1 706 1 711 1 715 1 716 1 722 1 727 1 739 1 759 1 761 1 779 1 785 1 802 1 819 1 17 1 25 1 26 1 78 1 95 1 140 1 159 1 180 1 223 1 259 1 261 1 287 1 299 1 317 1 321 1 350 1 363 1 377 1 381 1 393 1 460 1 470 1 526 1 528 1 531 1 547 1 563 1 565 1 570 1 573 1 590 1 624 1 625 1 674 1 682 1 694 1 733 1 768 1 769 1 786 1 793 1 820 1 835 1 842 1 876 1 910 1 947 1 958 2 855 1 917 1 953 1 965 1 971 1 975 1 979 1 986 1 999 1 1017 1 1026 1 
1 208 17 1 28 1 61 1 66 1 102 1 115 1 118 1 128 1 150 1 219 1 233 1 241 1 261 1 287 1 290 1 298 1 302 1 393 1 399 1 409 1 434 1 437 1 440 1 467 1 480 2 511 1 545 1 563 1 595 1 649 1 650 1 655 1 663 1 664 1 669 1 705 1 707 1 717 1 740 1 743 1 748 1 766 2 771 1 779 1 798 1 800 2 804 1 11 1 25 1 29 1 32 1 36 1 49 1 70 1 91 1 100 1 116 1 122 1 142 1 146 1 169 1 173 1 208 1 209 1 232 1 243 1 258 1 276 1 286 1 292 1 303 1 317 1 339 1 358 1 361 1 377 1 403 1 429 1 448 1 450 1 457 1 505 1 507 1 528 1 540 1 561 1 565 1 590 1 602 1 616 1 645 1 662 1 683 1 704 1 710 1 744 1 754 1 762 1 781 1 807 1 811 1 814 1 823 1 823 1 843 1 866 2 890 1 922 1 966 1 975 1 978 1 986 1 828 1 838 1 840 1 858 1 863 1 878 1 917 1 933 1 950 1 957 1 976 1 987 1 1003 1 1007 1 
1 209 7 1 13 1 15 1 50 1 77 1 111 1 117 1 120 1 129 2 135 1 137 1 144 1 147 1 157 1 173 1 176 1 188 1 195 1 203 1 215 1 231 1 264 1 273 2 282 1 286 1 293 1 308 1 331 1 344 1 359 1 376 1 399 1 403 1 404 1 454 1 465 1 503 1 510 1 537 1 558 2 573 1 581 2 584 1 596 1 607 1 614 1 638 1 665 1 677 1 698 1 700 1 721 1 725 1 733 1 748 1 749 1 754 1 792 1 793 1 9 1 31 1 57 1 76 1 81 1 115 1 138 1 160 1 175 1 209 1 240 1 243 1 254 1 283 1 304 1 416 1 423 1 429 1 443 1 449 1 494 1 497 1 498 1 499 1 528 1 533 1 604 1 623 1 640 1 652 1 671 1 679 1 687 1 691 1 726 1 849 1 867 1 871 1 901 1 922 1 947 1 977 1 979 1 988 2 861 1 862 1 892 1 924 1 932 1 946 1 964 1 1025 1 
1 212 20 1 60 1 66 1 72 1 91 1 122 1 126 1 139 1 191 1 209 1 212 1 295 1 355 1 356 1 379 1 398 1 431 2 437 1 439 1 462 1 470 1 493 1 550 1 573 1 612 1 616 1 637 1 690 1 691 1 696 2 709 1 719 1 737 1 804 1 813 1 70 1 75 1 82 1 98 1 107 1 112 1 132 1 143 1 166 1 186 1 220 1 223 1 252 1 264 1 302 1 312 1 331 1 335 1 367 1 370 1 391 1 412 1 414 1 448 1 457 1 477 1 484 1 522 1 558 1 631 1 633 1 640 1 648 1 649 1 663 1 667 1 674 1 722 1 764 1 769 1 782 1 801 1 802 1 859 2 861 2 866 1 880 2 886 1 887 1 897 1 911 1 916 1 935 1 937 1 947 1 962 1 977 1 982 1 994 1 852 1 855 1 864 1 877 1 881 1 909 1 941 1 975 1 983 1 996 1 1004 1 1017 1 1020 1 1022 1 
1 208 15 1 46 1 71 1 166 1 169 1 175 1 200 1 203 1 213 1 230 1 284 1 293 1 318 1 319 1 401 1 402 1 408 1 423 1 434 1 441 1 457 1 475 1 487 1 496 1 516 1 526 1 537 1 554 1 561 1 566 1 578 1 585 1 627 1 635 1 690 1 693 1 694 1 704 1 715 1 732 1 736 2 749 1 770 1 775 1 790 1 801 1 804 1 18 1 42 1 60 1 79 1 103 1 159 1 179 1 180 1 188 1 250 1 265 1 275 1 321 1 374 1 384 1 391 1 392 1 404 1 432 1 444 1 515 1 521 1 525 1 546 1 553 1 574 1 582 1 586 1 622 1 638 1 643 1 670 1 696 1 722 1 727 1 733 1 740 1 764 1 798 1 857 1 859 1 866 2 874 1 893 1 911 1 944 1 957 1 970 1 978 1 984 1 995 1 835 1 839 1 969 1 977 1 989 1 1004 1 1016 1 
1 210 7 1 47 1 61 1 69 1 90 1 92 1 93 1 106 1 113 1 132 1 147 1 155 1 160 1 231 1 238 1 247 1 263 1 282 1 300 1 326 1 330 1 331 1 362 1 364 1 395 1 399 1 456 1 502 1 509 1 517 1 528 1 547 1 554 2 586 1 589 1 600 1 610 1 643 1 678 1 690 1 713 1 714 1 726 1 727 1 732 1 792 1 793 1 821 1 43 1 48 1 71 1 77 1 87 1 111 1 122 1 131 1 143 1 156 1 179 1 214 1 258 1 273 1 302 1 340 1 358 1 427 1 429 1 463 1 465 1 481 1 506 1 538 1 580 1 603 1 605 1 631 1 753 1 754 1 758 1 804 1 810 1 815 1 819 1 861 1 879 1 900 2 904 2 907 1 928 1 930 1 964 1 966 1 983 1 848 1 850 1 853 1 868 1 869 1 875 1 893 1 903 1 941 1 957 1 965 1 986 1 1007 1 1011 1 1012 1 
1 210 27 1 31 1 33 1 42 1 73 1 108 1 124 1 126 1 155 1 174 1 177 1 196 1 235 1 265 2 282 2 286 1 290 1 306 1 314 1 328 1 332 1 364 1 409 1 418 1 429 1 462 1 463 1 491 1 505 1 507 1 547 1 553 1 570 1 592 1 594 1 611 1 630 1 676 1 681 1 714 1 731 1 738 1 752 1 778 1 807 1 13 1 16 1 19 1 22 1 28 1 54 1 57 1 76 1 85 1 107 1 119 1 148 1 150 1 164 1 221 1 251 1 297 1 304 1 329 1 369 1 405 1 430 1 433 1 452 1 453 1 470 1 482 1 501 1 504 1 513 1 544 1 548 1 552 1 569 1 643 1 723 1 727 1 749 1 767 1 782 1 785 1 823 1 846 1 859 1 896 1 914 1 994 1 995 1 842 1 871 1 909 1 920 1 932 1 937 1 943 1 944 1 950 1 983 1 993 1 1001 1 1026 1 
1 210 2 1 55 1 65 1 95 1 129 1 132 1 134 1 146 2 151 1 152 1 155 1 165 1 178 1 182 1 191 2 194 1 210 1 213 1 215 1 239 1 255 1 257 2 359 1 361 1 370 1 409 1 455 1 484 1 522 1 524 1 543 1 556 2 591 1 600 1 601 1 608 2 626 1 682 1 708 1 710 1 722 1 755 1 759 1 35 1 39 1 45 1 50 1 54 1 105 1 121 1 123 1 127 1 149 1 217 1 270 1 283 1 286 1 289 1 295 1 303 1 332 1 350 1 354 1 390 1 401 1 410 1 434 1 467 1 477 1 494 1 509 1 568 1 620 1 627 1 634 1 649 1 677 1 680 1 697 1 770 1 774 1 785 1 786 1 798 1 892 2 894 1 907 1 912 1 916 1 929 1 976 1 982 1 842 1 857 1 872 1 964 1 967 1 973 1 984 1 996 1 1007 1 1015 1 1019 1 1022 1 
1 215 22 1 28 1 49 1 54 1 74 1 78 1 81 1 82 1 97 1 105 1 106 1 127 1 130 1 132 1 135 2 205 1 211 1 237 1 343 1 364 1 366 1 387 1 390 2 397 1 412 1 413 1 418 1 433 1 444 1 461 1 492 1 505 1 524 1 568 1 573 1 583 1 584 1 600 1 622 1 648 1 661 2 682 1 685 1 713 1 727 1 731 1 732 2 762 1 799 1 809 1 36 1 44 1 46 1 47 1 75 1 86 1 164 1 191 1 192 1 194 1 210 1 212 1 251 1 253 1 281 1 298 1 301 1 302 1 304 1 307 1 314 1 337 1 339 1 340 1 344 1 373 1 384 1 416 1 419 1 420 1 435 1 519 1 527 1 531 1 551 1 586 1 618 1 619 1 623 1 642 1 702 1 711 1 748 1 767 1 782 1 876 1 895 1 911 1 936 1 941 1 945 1 963 1 834 1 836 1 845 1 877 1 927 1 938 1 979 1 980 1 1007 1 1024 1 
1 208 16 1 53 1 55 1 76 1 80 2 86 2 107 1 143 1 146 1 156 2 168 1 196 1 199 1 206 1 224 1 242 1 250 1 259 1 271 1 299 1 303 1 340 1 368 2 371 1 436 1 468 1 524 1 544 1 570 1 572 1 577 1 578 1 583 1 605 1 609 1 617 1 659 1 670 1 671 1 681 2 697 1 699 1 733 1 738 1 745 1 770 1 786 1 66 1 70 1 89 1 135 1 136 1 137 1 142 1 152 1 166 1 184 1 189 1 198 1 211 1 275 1 283 1 296 1 332 1 358 1 377 1 378 1 379 1 401 1 409 1 414 1 423 1 429 1 476 1 484 1 499 1 527 1 538 1 543 1 552 1 573 1 594 1 618 1 632 1 652 1 726 1 727 1 734 1 801 1 802 1 814 1 817 1 840 1 844 1 853 1 873 2 886 1 911 1 923 1 928 1 943 1 950 1 836 1 857 1 866 1 902 1 903 1 907 1 924 1 954 1 971 1 973 1 987 1 994 1 997 1 1006 1 1007 1 1009 1 1012 1 1021 1 
1 208 11 1 22 1 25 1 47 1 52 1 61 1 64 1 102 1 119 1 122 1 140 1 163 1 165 1 212 1 222 1 226 1 227 1 238 1 252 1 267 1 277 1 286 1 294 1 313 1 333 2 341 1 346 1 356 1 386 1 391 1 394 1 427 1 434 1 439 1 444 1 447 1 449 1 466 1 477 1 515 1 525 1 530 2 557 1 567 1 569 1 583 1 615 1 619 1 636 1 654 1 660 1 661 1 729 1 735 1 737 1 744 2 753 1 774 1 786 1 803 1 810 1 28 1 33 1 38 1 100 1 149 1 232 1 235 1 246 1 285 1 404 1 425 1 450 1 451 1 453 1 472 1 490 1 491 1 492 1 500 1 513 1 534 1 543 1 572 1 573 1 667 1 691 1 762 1 775 1 779 1 796 1 804 1 855 1 858 1 889 1 894 1 898 2 903 1 931 1 965 1 969 1 979 1 996 1 869 1 871 1 886 1 890 1 925 1 939 1 964 1 982 1 992 1 1011 1 1018 1 
1 210 13 1 24 1 27 1 36 1 40 1 52 1 86 1 221 1 234 1 283 1 310 1 317 1 333 1 334 1 343 1 347 1 353 1 394 1 400 1 411 1 446 2 451 1 461 1 487 1 518 1 551 1 593 1 637 1 642 1 647 1 663 1 673 1 675 1 682 1 691 1 707 1 733 1 758 1 766 1 789 1 4 1 5 1 8 1 19 1 31 1 33 1 44 1 54 1 66 1 115 1 120 1 121 1 168 1 190 1 238 1 264 1 300 1 301 1 320 1 341 1 366 1 387 1 413 1 417 1 448 1 459 1 466 1 479 1 489 1 495 1 534 1 545 1 560 1 603 1 606 1 611 1 614 1 617 1 628 1 650 1 658 1 670 1 671 1 695 1 699 1 703 1 714 1 729 1 730 1 809 1 866 1 890 1 903 1 906 1 908 1 914 1 918 1 921 1 927 1 932 1 937 1 955 1 967 1 989 1 878 1 899 1 911 1 912 1 916 1 947 1 975 1 982 1 1006 1 1014 1 1023 1 1025 1 
1 218 1 1 29 1 35 1 51 1 125 1 142 1 183 1 196 1 214 1 215 1 218 1 231 1 264 1 273 1 298 1 302 1 327 1 332 1 367 1 396 1 397 2 410 2 420 1 433 2 435 1 440 1 505 2 514 1 524 1 569 1 577 1 579 1 608 1 629 1 631 1 632 1 659 1 672 1 676 1 695 1 769 1 784 1 798 1 811 1 815 1 817 1 12 1 36 1 42 1 56 1 81 1 82 1 83 1 102 1 108 1 109 1 116 1 128 1 172 1 175 1 213 1 217 1 232 1 238 1 241 1 270 1 310 1 337 1 344 1 365 1 384 1 398 1 415 1 428 1 437 1 447 1 455 1 458 1 485 1 495 1 498 1 509 1 528 1 555 1 561 1 600 1 700 1 729 1 740 1 747 1 761 1 762 1 771 1 806 1 808 1 830 1 840 1 843 1 913 1 922 1 933 2 969 1 851 1 862 1 883 1 886 1 902 1 918 1 930 1 941 1 956 1 965 1 1000 1 1016 1 1025 1 
1 207 4 1 7 1 11 1 100 2 119 1 128 1 145 1 193 1 196 1 201 1 232 1 248 1 257 1 268 1 285 2 317 1 318 1 319 1 338 1 343 1 357 1 368 1 371 1 379 1 419 1 431 1 440 1 445 1 508 1 520 2 539 1 546 1 566 1 573 1 580 1 584 1 608 1 617 1 644 1 651 1 659 1 665 1 677 1 679 2 699 1 735 1 762 1 772 1 812 1 822 1 19 1 31 1 32 1 34 1 64 1 90 1 117 1 139 1 153 1 171 1 176 1 225 1 231 1 263 1 280 1 287 1 298 1 305 1 311 1 358 1 388 1 401 1 438 1 452 1 482 1 489 1 495 1 503 1 519 1 540 1 542 1 565 1 578 1 610 1 643 1 646 1 653 1 667 1 689 1 723 1 725 1 728 1 744 1 807 1 826 1 854 1 857 1 877 1 896 1 921 1 949 1 967 2 986 1 842 1 849 1 860 1 875 1 887 1 999 1 1001 1 1021 1 1024 1 
1 218 30 1 103 1 108 1 113 1 122 1 133 1 145 1 188 1 193 1 226 1 229 1 262 1 267 1 292 1 315 1 372 1 382 1 393 1 405 1 412 1 433 1 484 1 521 1 551 1 567 1 584 1 593 1 603 1 604 1 632 2 640 1 660 1 679 1 688 1 690 1 724 1 732 1 742 1 748 2 768 1 796 1 801 1 806 1 29 1 73 1 74 1 104 1 111 1 123 1 155 1 176 1 200 1 219 1 223 1 237 1 244 1 300 1 337 1 368 1 369 1 446 1 471 1 476 1 482 1 493 1 512 1 518 1 534 1 547 1 564 1 566 1 626 1 642 1 663 1 680 1 698 1 720 1 726 1 736 1 767 1 775 1 830 1 831 1 857 1 885 1 888 1 891 1 907 1 913 1 924 1 953 1 977 1 980 1 862 1 866 1 867 1 872 1 883 1 893 1 938 1 988 1 1003 1 1004 1 1008 1 1015 1 1020 1 
1 212 25 1 28 1 45 2 79 1 94 1 130 1 146 1 164 1 185 1 233 1 236 1 255 1 256 2 267 1 269 1 284 1 300 1 351 1 362 1 383 1 390 1 399 1 408 1 433 1 437 1 453 1 459 1 471 1 472 1 473 1 508 1 520 1 523 1 549 1 576 1 580 2 596 1 601 1 617 1 628 1 634 1 635 1 647 1 665 2 670 1 690 1 695 1 704 1 728 1 738 1 750 1 13 1 39 1 47 1 92 1 98 1 113 1 145 1 160 1 175 1 184 1 187 1 216 1 234 1 251 1 264 1 298 1 307 1 314 1 319 1 341 1 377 1 391 1 396 1 413 1 436 1 438 1 461 1 496 1 507 1 510 1 512 1 517 1 533 1 566 1 585 1 587 1 645 1 706 1 715 1 726 1 748 1 754 1 773 1 798 1 838 1 842 1 879 1 880 1 903 1 904 1 927 1 972 1 973 1 839 1 847 1 860 1 875 1 923 1 929 1 941 1 977 1 994 1 995 1 1005 1 1006 1 1013 1 1014 1 
1 212 24 1 33 1 51 1 64 1 99 1 119 1 124 1 133 1 188 1 206 1 217 1 218 1 227 1 259 1 283 1 289 1 347 1 369 1 370 1 383 1 391 1 397 1 428 1 434 1 435 1 498 1 527 1 529 1 539 1 562 1 609 1 611 1 618 1 621 1 680 1 683 1 693 1 697 1 700 1 714 1 718 1 742 1 753 1 767 1 778 1 784 1 790 1 792 1 812 1 837 1 1 1 32 1 55 1 59 1 61 1 65 1 68 1 75 1 96 1 117 1 171 1 183 1 228 1 236 1 239 1 244 1 251 1 264 1 271 1 290 1 305 1 306 1 326 1 331 1 354 1 357 1 398 1 411 1 421 1 427 1 466 1 470 1 477 1 509 1 543 1 552 1 569 1 572 1 583 1 589 1 591 1 604 1 610 1 625 1 637 1 656 1 658 1 670 1 678 1 686 1 699 1 730 1 752 1 755 1 771 1 772 1 786 1 808 1 823 1 861 1 900 1 903 1 904 1 937 1 938 1 964 1 867 1 883 1 910 1 922 1 932 1 957 1 975 1 977 1 981 1 982 1 992 1 1001 1 1008 1 1009 1 1016 1 1025 1 
1 209 7 1 14 1 19 1 26 1 42 1 80 2 159 1 173 1 187 1 209 1 215 1 223 1 240 1 245 1 273 1 291 1 294 1 313 1 323 1 332 1 339 1 343 1 345 1 351 1 366 1 378 1 383 1 389 1 393 1 412 1 428 1 450 1 463 1 467 1 484 1 495 1 500 1 538 1 578 1 591 1 611 1 630 1 660 1 677 1 716 1 727 1 783 1 793 1 796 2 801 1 2 1 13 1 27 1 39 1 55 1 76 1 78 1 104 1 106 1 122 1 130 1 166 1 167 1 177 1 193 1 194 1 211 1 246 1 261 1 263 1 276 1 319 1 341 1 356 1 361 1 380 1 426 1 502 1 512 1 543 1 555 1 563 1 612 1 615 1 632 1 659 1 675 1 684 1 693 1 717 1 721 1 731 1 743 1 747 1 768 1 795 1 804 1 805 1 826 1 837 1 870 1 875 1 892 1 902 1 910 1 913 1 944 1 948 1 949 1 951 1 963 1 964 1 996 1 853 1 862 1 893 1 911 1 947 1 975 1 978 1 988 1 1002 1 1015 1 
1 211 10 1 18 1 48 1 52 1 71 1 72 1 95 2 129 1 151 1 190 1 202 1 247 1 267 1 273 1 282 1 289 1 346 1 356 1 399 1 405 1 416 1 427 1 477 1 508 1 552 1 569 1 586 1 618 1 632 1 669 1 693 1 695 1 717 1 726 1 763 1 805 1 806 1 813 1 831 1 834 1 13 1 28 1 47 1 63 1 85 1 87 1 124 1 164 1 197 1 220 1 245 1 252 1 261 1 262 1 301 1 308 1 309 1 312 1 352 1 376 1 396 1 415 1 424 1 444 1 491 1 514 1 530 1 550 1 562 1 568 1 575 1 590 1 592 1 600 1 607 1 629 1 642 1 663 1 688 1 713 1 715 1 749 1 757 1 759 1 775 1 790 1 803 1 816 1 823 1 867 1 884 1 888 1 889 1 903 1 910 1 946 1 958 1 964 1 971 1 981 1 984 1 989 1 994 2 864 1 879 1 887 1 896 1 993 1 1000 1 1005 1 1012 1 
1 210 1 1 47 1 91 1 92 1 100 1 124 1 133 1 136 1 148 1 184 1 247 1 251 1 261 1 278 1 280 1 283 1 294 1 300 1 327 1 337 1 356 1 364 1 409 1 421 1 437 1 440 1 458 1 465 2 476 1 489 1 498 1 499 1 501 1 546 1 548 1 559 1 584 1 627 1 638 1 643 1 649 1 668 1 681 1 713 1 741 1 743 1 754 1 758 1 768 1 769 1 778 1 807 1 26 1 30 1 71 1 93 1 106 1 111 1 115 1 123 1 141 1 153 1 156 1 159 1 201 1 211 1 224 1 250 1 271 1 292 1 308 1 350 1 392 1 424 1 429 1 441 1 515 1 530 1 547 1 579 1 581 1 610 1 617 1 637 1 664 1 684 1 688 1 710 1 712 1 731 1 775 1 782 1 790 1 798 1 802 1 847 1 866 1 891 1 902 1 951 1 960 1 963 1 859 1 879 1 887 1 934 1 938 1 966 1 976 1 989 1 999 1 1000 1 1006 1 
1 206 22 1 35 1 36 1 38 1 43 1 56 1 60 2 67 2 79 1 87 1 93 1 120 1 127 1 208 1 232 1 277 1 306 1 344 1 350 1 396 1 399 1 470 1 473 1 489 2 491 1 496 1 511 1 539 1 542 1 554 1 570 1 572 1 592 1 611 1 645 1 649 1 653 1 695 1 735 1 747 1 757 1 770 1 781 1 794 1 815 1 821 1 822 1 837 1 1 1 6 1 49 1 72 1 82 1 103 1 194 1 218 1 221 1 245 1 257 1 289 1 296 1 316 1 329 1 339 1 386 1 394 1 466 1 469 1 478 1 513 1 525 1 527 1 531 1 566 1 586 1 591 1 600 1 607 1 664 1 666 1 675 1 682 1 691 1 703 1 713 1 714 1 719 1 731 1 773 1 776 1 777 1 799 1 828 1 829 1 835 1 872 1 883 1 890 1 892 1 902 1 915 1 916 1 924 1 928 1 957 1 963 1 854 1 865 1 898 1 905 1 920 1 937 1 960 1 1019 1 
1 210 18 1 23 1 33 1 72 1 85 1 99 1 101 1 117 1 119 1 130 1 132 1 152 1 195 1 198 1 249 1 306 1 307 1 335 1 347 1 362 1 388 1 394 1 396 1 462 1 520 1 535 1 547 1 558 1 561 1 574 1 597 1 603 2 644 1 646 1 679 1 717 1 719 1 743 1 750 2 768 1 776 1 785 1 790 1 815 1 817 1 823 1 834 1 15 1 24 1 52 1 74 1 75 1 82 1 120 1 129 1 136 1 156 1 176 1 194 1 271 1 367 1 407 1 438 1 444 1 454 1 455 1 490 1 513 1 552 1 557 1 564 1 598 1 607 1 616 1 617 1 621 1 698 1 701 1 705 1 712 1 715 1 736 1 758 1 844 1 857 1 876 1 878 1 881 1 901 1 907 1 920 1 939 1 947 1 950 2 954 1 988 1 989 1 992 1 994 1 997 1 848 1 861 1 868 1 889 1 915 1 966 1 982 1 1003 1 1008 1 1009 1 1015 1 1019 1 
1 208 1 1 13 1 35 1 36 1 51 1 110 1 128 1 133 1 134 2 152 1 179 1 191 1 207 1 223 1 269 1 272 1 304 1 350 1 385 1 423 1 429 1 454 1 458 1 459 1 461 1 475 1 477 1 488 1 492 1 506 1 526 1 537 1 556 1 578 1 579 1 617 1 641 1 642 1 650 1 670 1 695 1 696 1 700 1 703 1 708 1 730 1 750 1 777 2 796 1 806 1 814 1 817 1 831 1 843 1 63 1 65 1 81 1 92 1 99 1 101 1 107 1 129 1 160 1 190 1 199 1 200 1 210 1 217 1 243 1 266 1 282 1 323 1 332 1 366 1 396 1 407 1 424 1 434 1 480 1 481 1 497 1 512 1 513 1 541 1 562 1 589 1 645 1 659 1 662 1 689 1 699 1 720 1 721 1 744 1 752 1 757 1 784 1 803 1 848 1 854 1 898 2 918 1 953 1 964 1 970 1 868 1 873 1 894 1 916 1 969 1 984 1 989 1 999 1 1000 1 1006 1 
1 212 12 1 56 1 75 1 85 1 87 1 112 1 119 1 128 1 146 1 177 1 194 1 197 2 207 1 234 1 270 2 276 1 278 1 285 1 293 1 315 1 378 1 399 1 408 1 485 1 527 1 540 1 541 2 557 1 560 1 578 1 604 1 605 1 612 1 650 1 699 2 724 1 741 1 742 1 751 1 759 1 770 1 785 1 798 1 4 1 13 1 27 1 28 1 37 1 54 1 132 1 140 1 144 1 181 1 205 1 208 1 237 1 238 1 248 1 265 1 296 1 298 1 310 1 317 1 351 1 364 1 397 1 424 1 441 1 447 1 451 1 452 1 506 1 509 1 514 1 522 1 573 1 591 1 643 1 666 1 669 1 682 1 691 1 694 1 698 1 703 1 725 1 735 1 773 1 779 1 799 1 800 1 812 1 830 1 877 1 905 1 913 1 932 1 941 1 942 1 976 1 981 1 850 1 852 1 853 1 855 1 888 1 895 1 898 1 944 1 971 1 991 1 1012 1 1017 1 1022 1 1024 1 
1 211 26 1 34 1 65 1 82 1 90 1 95 1 157 1 166 1 170 1 171 1 176 1 186 1 212 1 251 1 259 1 266 1 282 1 333 1 406 1 414 1 428 1 434 1 451 1 453 1 455 1 461 1 469 1 491 1 493 1 503 1 535 1 551 1 573 1 582 1 609 1 647 1 661 1 669 1 670 1 680 1 689 1 708 1 728 1 743 1 806 1 828 1 10 1 47 1 58 1 59 1 91 1 108 1 139 1 147 1 153 1 184 1 193 1 230 1 234 1 256 1 316 1 413 1 452 1 489 1 502 1 530 1 555 1 589 1 627 1 631 1 666 1 698 1 712 1 716 1 772 1 776 1 787 1 789 1 805 1 810 1 856 1 873 1 875 2 879 1 922 2 934 1 960 1 972 1 980 1 982 1 986 1 848 1 854 1 855 1 880 1 884 1 931 1 940 1 946 1 955 1 962 1 970 1 981 1 997 1 1002 1 1010 1 1011 1 1021 1 
1 213 21 1 27 1 51 1 87 1 89 1 150 1 181 1 270 1 281 1 323 1 326 1 345 1 368 1 372 1 382 1 392 1 408 1 411 1 464 1 468 1 476 1 534 1 565 1 566 1 574 1 582 1 589 1 595 1 609 1 610 1 618 1 626 1 630 1 674 2 687 1 696 1 737 1 755 1 772 1 841 1 5 1 9 1 28 1 39 1 94 1 96 1 143 1 184 1 196 1 227 1 273 1 274 1 289 1 311 1 322 1 427 1 433 1 489 1 491 1 494 1 504 1 523 1 551 1 555 1 563 1 567 1 584 1 633 1 650 1 659 1 679 1 706 1 707 1 708 1 723 1 761 1 774 1 803 1 809 1 837 1 891 2 908 1 928 2 945 1 948 1 954 1 966 1 967 1 972 1 975 1 986 1 989 1 873 1 964 1 983 1 984 1 996 1 1000 1 1013 1 1025 1 1027 1 
1 209 31 1 71 1 116 1 120 1 141 1 155 2 287 1 290 1 291 2 299 1 318 1 330 1 350 1 353 1 382 1 397 1 457 2 458 1 468 1 474 1 503 1 507 1 513 1 519 1 539 2 579 2 591 1 607 1 622 1 629 1 653 1 685 1 686 1 711 1 713 1 728 1 752 1 771 1 784 1 844 1 14 1 20 1 23 1 28 1 37 1 76 1 82 1 108 1 114 1 118 1 140 1 166 1 178 1 196 1 253 1 260 1 266 1 269 1 279 1 295 1 301 1 310 1 323 1 340 1 354 1 376 1 378 1 402 1 408 1 409 1 418 1 456 1 467 1 488 1 500 1 544 1 554 1 561 1 562 1 570 1 571 1 596 1 627 1 631 1 644 1 659 1 669 1 673 1 674 1 690 1 718 1 720 1 749 1 765 1 773 1 797 1 803 1 810 1 816 1 827 1 843 1 846 1 848 1 848 1 863 2 877 1 882 1 887 1 900 1 917 1 940 1 969 1 989 1 855 1 859 1 870 1 918 1 955 1 966 1 981 1 988 1 996 1 1007 1 1009 1 
1 213 4 1 14 1 21 1 41 1 64 1 85 1 88 1 93 1 96 1 105 1 117 1 126 1 139 1 148 1 152 1 158 1 161 1 162 1 165 1 204 1 227 1 229 1 247 1 262 1 284 1 287 1 306 1 308 1 324 1 329 1 382 1 384 1 411 2 425 1 453 1 458 1 466 1 483 1 543 1 546 1 552 1 594 1 624 1 631 1 641 1 662 1 744 1 750 1 763 1 802 1 807 1 808 1 810 2 812 1 820 1 821 1 824 1 13 1 29 1 76 1 78 1 119 1 129 1 166 1 235 1 248 1 261 1 294 1 302 1 321 1 332 1 333 1 350 1 360 1 424 1 428 1 430 1 459 1 461 1 495 1 500 1 524 1 573 1 589 1 616 1 653 1 660 1 718 1 721 1 755 1 773 1 795 1 798 1 804 1 819 1 835 1 888 1 898 1 914 1 936 1 961 1 852 1 855 1 861 1 865 1 930 1 931 1 956 1 1000 1 1002 1 1016 1 1025 1 
1 208 4 2 43 1 69 1 79 1 116 1 147 1 157 1 185 1 194 1 210 1 214 1 224 1 231 1 232 1 244 1 245 1 247 1 299 1 308 1 309 1 315 1 325 1 348 1 352 1 355 1 383 1 390 2 427 1 446 1 469 1 494 1 497 1 527 1 534 1 538 1 540 1 541 1 552 1 560 1 567 1 582 1 609 1 630 1 636 1 648 1 666 1 683 1 690 1 694 1 697 1 701 1 708 1 717 1 748 1 766 1 772 1 806 1 32 1 40 1 83 1 87 1 90 1 133 1 144 1 189 1 205 1 227 1 237 1 249 1 250 1 270 1 275 1 324 1 384 1 430 1 443 1 452 1 480 1 482 1 508 1 555 1 606 1 616 1 624 1 627 1 628 1 671 1 674 1 682 1 685 1 691 1 695 1 723 1 760 1 764 1 768 1 778 1 782 1 790 1 791 1 795 1 807 1 821 1 827 1 845 1 851 1 888 1 917 1 919 1 922 1 929 1 944 1 959 1 972 1 987 1 995 1 998 1 868 1 871 1 901 1 923 1 969 1 988 1 1004 1 1020 1 
1 208 17 1 26 1 28 1 35 1 53 1 97 1 108 1 157 1 158 1 174 1 175 1 178 1 192 1 207 1 218 1 219 1 223 1 247 1 248 1 252 1 258 1 278 1 287 1 324 1 334 1 398 1 411 1 428 1 440 1 466 1 474 1 498 1 544 1 557 1 561 1 566 2 591 2 594 1 608 1 610 1 619 1 620 1 626 1 629 1 632 1 669 1 679 1 685 1 696 1 697 1 699 1 718 1 750 2 766 1 792 1 810 1 813 2 850 1 15 1 27 1 38 1 63 1 68 1 81 1 84 1 93 1 121 1 131 1 166 1 194 1 209 1 224 1 263 1 291 1 303 1 304 1 351 1 356 1 359 1 371 1 378 1 418 1 480 1 567 1 574 1 581 1 611 1 616 1 668 1 684 1 687 1 704 1 717 1 746 1 755 1 812 1 834 1 856 1 890 1 894 1 922 1 959 1 877 1 899 1 900 1 933 1 939 1 941 1 950 1 993 1 1004 1 1006 1 1014 1 
1 214 21 1 36 1 60 1 126 1 129 1 182 1 207 1 227 1 247 1 254 1 261 1 285 1 289 1 309 1 315 1 327 1 331 1 339 1 349 1 362 1 392 1 393 1 426 1 437 1 438 1 564 1 572 1 588 1 591 1 595 1 610 1 684 1 697 1 717 1 721 1 735 1 739 1 758 1 765 1 770 1 778 1 782 2 15 1 33 1 46 1 53 1 63 1 73 1 114 1 123 1 131 1 147 1 169 1 173 1 175 1 181 1 200 1 213 1 215 1 221 1 248 1 258 1 263 1 278 1 280 1 294 1 311 1 334 1 342 1 359 1 367 1 378 1 408 1 447 1 448 1 457 1 486 1 496 1 497 1 534 1 537 1 539 1 613 1 673 1 683 1 738 1 741 1 799 1 825 1 845 1 849 1 863 1 864 1 872 1 873 1 901 1 918 1 938 1 948 1 972 1 995 1 880 1 889 1 892 1 897 1 899 1 925 1 929 1 949 1 971 1 982 1 998 1 1008 1 1023 1 
1 208 3 1 23 1 27 2 37 1 55 1 56 1 58 1 78 1 82 1 105 1 110 1 117 1 123 1 125 1 126 1 148 1 160 1 163 1 182 1 219 1 223 1 242 1 285 1 292 1 301 1 322 1 324 1 341 1 344 1 373 1 387 1 390 1 422 1 455 1 470 1 475 1 479 1 480 1 504 1 519 1 540 1 570 1 606 2 619 1 701 1 752 1 769 2 775 1 807 1 810 1 814 1 821 1 831 1 13 1 57 1 71 1 98 1 132 1 133 1 143 1 165 1 176 1 187 1 191 1 199 1 228 1 264 1 302 1 313 1 321 1 396 1 410 1 432 1 437 1 443 1 467 1 471 1 484 1 531 1 545 1 566 1 593 1 599 1 605 1 620 1 623 1 659 1 664 1 722 1 726 1 738 1 754 1 760 1 771 1 773 1 777 1 790 1 792 1 812 1 827 1 839 1 845 1 854 1 896 2 898 1 948 1 951 2 954 1 995 1 891 1 893 1 912 1 915 1 929 1 947 1 998 1 1002 1 1024 1 
1 206 1 1 33 1 82 1 83 1 102 1 164 2 198 1 209 1 246 1 270 1 277 1 288 1 309 1 336 1 395 1 415 1 416 1 433 1 444 1 450 1 479 1 480 1 501 1 553 1 583 1 588 1 594 1 595 1 605 1 608 1 640 1 644 1 664 1 708 2 749 1 755 2 758 1 774 1 786 1 801 1 835 1 844 1 853 1 5 1 11 1 24 1 40 1 53 1 55 1 99 1 103 1 111 1 137 1 153 1 154 1 181 1 187 1 192 1 195 1 212 1 220 1 222 1 255 1 261 1 289 1 313 1 324 1 326 1 339 1 353 1 360 1 370 1 386 1 397 1 398 1 406 1 440 1 520 1 527 1 544 1 545 1 550 1 552 1 573 1 618 1 621 1 623 1 665 1 670 1 761 1 773 1 789 1 802 1 817 1 842 1 846 1 891 1 907 1 959 1 984 1 889 1 897 1 900 1 904 1 909 1 923 1 924 1 929 1 964 1 965 1 970 1 993 1 1013 1 
1 206 25 1 56 1 105 1 136 1 174 1 203 2 212 1 231 1 234 1 236 1 248 1 281 1 283 1 292 1 298 2 300 1 319 1 373 1 397 1 399 1 405 1 421 1 475 1 502 1 530 1 554 1 557 1 599 1 601 1 603 1 651 1 663 1 680 1 683 1 703 1 728 1 736 1 755 1 793 1 809 1 832 1 9 1 30 1 63 1 69 1 95 1 106 1 143 1 169 1 173 1 204 1 245 1 252 1 254 1 259 1 277 1 291 1 294 1 302 1 305 1 354 1 375 1 389 1 394 1 425 1 428 1 435 1 444 1 478 1 507 1 522 1 535 1 551 1 562 1 569 1 583 1 604 1 658 1 682 1 695 1 758 1 798 1 822 1 825 1 845 1 846 1 848 1 849 1 877 1 921 1 942 1 944 1 983 1 986 1 994 1 864 1 875 1 876 1 878 1 879 1 883 1 900 1 926 1 933 1 952 1 977 1 978 1 990 1 992 1 1001 1 1014 1 1016 1 1024 1 
1 211 7 1 38 2 68 1 132 1 133 1 136 1 148 1 154 1 170 1 180 1 199 1 223 1 247 1 278 2 286 1 289 1 311 1 330 2 345 1 386 1 410 1 411 1 416 1 431 1 475 1 476 1 496 1 514 1 516 1 525 1 535 1 542 1 544 1 556 1 571 1 609 2 619 1 620 1 625 1 631 1 643 1 676 1 687 1 688 1 720 1 721 1 727 1 733 1 734 1 737 1 747 1 755 2 783 1 846 1 851 1 17 1 42 1 58 1 59 1 69 1 90 1 112 1 135 1 150 1 153 1 166 1 171 1 187 1 226 1 245 1 262 1 265 1 271 1 324 1 329 1 348 1 378 1 391 1 395 1 450 1 487 1 515 1 519 1 523 1 534 1 558 1 587 1 668 1 674 1 689 1 700 1 724 1 738 1 767 1 807 1 861 1 874 1 892 1 896 1 901 1 908 1 924 1 944 1 950 1 960 1 973 1 983 2 905 1 912 1 963 1 964 1 989 1 998 1 1000 1 1013 1 1015 1 1023 1 1024 1 
1 207 1 2 3 1 10 1 23 1 45 1 66 1 68 1 89 1 132 1 137 1 160 1 163 1 318 1 325 1 436 1 446 1 447 1 455 1 462 1 465 1 503 1 515 1 524 1 528 1 535 1 544 1 583 1 606 1 609 1 617 1 619 1 677 1 679 1 684 1 687 2 713 2 718 1 726 1 734 1 735 1 748 1 758 1 764 1 789 1 826 1 835 1 836 1 843 1 9 1 27 1 44 1 74 1 75 1 114 1 116 1 126 1 143 1 155 1 185 1 199 1 219 1 220 1 223 1 227 1 238 1 249 1 251 1 265 1 306 1 309 1 310 1 329 1 347 1 356 1 384 1 418 1 434 1 439 1 475 1 501 1 507 1 512 1 542 1 573 1 584 1 598 1 616 1 620 1 622 1 647 1 668 1 671 1 690 1 708 1 711 1 743 1 753 1 765 1 814 1 818 1 829 1 831 1 869 1 881 2 887 1 923 1 927 1 948 1 961 1 965 1 981 1 862 1 911 1 924 1 941 1 947 1 953 1 970 1 999 1 
1 217 4 1 12 2 58 1 63 1 72 1 78 1 90 1 112 1 164 1 169 1 180 1 232 1 256 1 283 1 296 1 313 2 340 1 346 1 347 1 390 1 396 1 412 1 414 1 416 1 429 1 456 1 460 1 484 1 489 1 504 1 513 1 590 1 591 1 627 1 650 1 685 1 689 1 705 1 713 1 729 1 742 1 790 1 811 1 832 1 30 1 36 1 61 1 99 1 111 1 157 1 158 1 192 1 204 1 209 1 211 1 216 1 236 1 270 1 277 1 330 1 337 1 350 1 370 1 405 1 431 1 433 1 434 1 440 1 441 1 451 1 457 1 480 1 492 1 502 1 506 1 508 1 509 1 533 1 539 1 546 1 576 1 582 1 594 1 598 1 615 1 681 1 687 1 701 1 720 1 721 1 738 1 754 1 767 1 771 1 796 1 799 1 812 1 823 1 860 1 899 1 905 1 929 1 958 1 986 1 998 1 890 1 904 1 925 1 942 1 956 1 959 1 969 1 988 1 1003 1 1007 1 1027 1 
1 209 9 2 37 1 40 1 52 1 55 1 74 1 77 1 84 1 86 1 105 1 138 1 164 1 180 1 228 1 239 1 248 1 258 1 270 1 288 1 295 1 325 1 329 1 342 1 362 1 378 1 411 1 413 1 445 1 474 1 476 1 490 1 492 1 501 1 512 1 517 1 523 1 581 1 595 1 603 1 612 1 617 1 620 1 628 1 630 1 661 2 665 1 686 1 688 1 694 1 701 1 710 1 732 2 733 1 763 1 764 1 774 1 781 1 803 1 825 2 826 1 828 1 23 1 26 1 35 1 36 1 41 1 81 1 87 1 90 1 111 1 120 1 176 1 199 1 204 1 206 1 209 1 211 1 221 1 237 1 280 1 297 1 366 1 374 1 388 1 404 1 409 1 412 1 443 1 451 1 471 1 493 1 504 1 514 1 515 1 535 1 541 1 562 1 564 1 570 1 573 1 604 1 621 1 691 1 692 1 704 1 706 1 757 1 768 1 808 1 841 1 848 1 870 1 928 2 933 2 945 1 983 1 984 1 862 1 877 1 887 1 897 1 961 1 993 1 1014 1 
1 213 26 1 42 1 44 1 84 1 107 1 110 1 129 1 139 1 152 1 183 1 212 1 220 1 224 1 227 1 232 1 256 1 267 1 270 1 278 1 282 1 299 1 309 1 318 1 322 1 340 1 370 1 398 1 400 1 421 1 427 1 435 1 454 1 488 1 528 1 537 1 546 1 572 1 575 1 597 1 601 1 646 1 651 1 656 1 669 2 687 2 702 1 712 1 721 1 731 1 742 1 786 2 796 1 813 1 858 1 3 1 19 1 39 1 66 1 97 1 98 1 101 1 118 1 145 1 176 1 182 1 189 1 203 1 250 1 252 1 273 1 321 1 359 1 366 1 380 1 386 1 389 1 460 1 489 1 494 1 498 1 506 1 532 1 534 1 542 1 551 1 570 1 571 1 576 1 598 1 602 1 626 1 639 1 640 1 649 1 672 1 677 1 693 1 747 1 755 1 756 1 766 1 784 1 787 1 788 1 802 1 810 1 835 1 837 1 867 1 931 1 968 1 971 1 997 1 899 1 919 1 921 1 923 1 926 1 927 1 938 1 954 1 967 1 970 1 976 1 977 1 994 1 1002 1 1003 1 1008 1 1025 1 1026 1 
1 209 6 2 66 1 76 1 98 1 106 1 131 1 145 1 170 1 194 1 200 1 203 1 204 1 223 1 242 1 312 1 324 1 331 1 339 1 344 1 365 1 427 1 461 1 462 1 496 1 501 1 517 1 556 1 586 1 592 1 598 1 610 1 614 2 616 1 619 1 639 1 663 1 668 1 669 1 672 1 680 1 687 1 754 1 780 1 784 1 810 1 813 1 825 2 827 1 838 1 856 1 22 1 25 1 35 1 47 1 99 1 118 1 137 1 148 1 149 1 179 1 210 1 224 1 237 1 238 1 258 1 310 1 314 1 317 1 354 1 414 1 419 1 445 1 467 1 474 1 475 1 482 1 495 1 522 1 523 1 563 1 581 1 618 1 655 1 665 1 674 1 682 1 714 1 716 1 718 1 721 1 724 1 743 1 788 1 816 1 824 1 843 1 849 1 865 1 883 1 923 1 934 1 953 1 871 1 880 1 884 1 916 1 918 1 946 1 948 1 972 1 1021 1 1024 1 1026 1 1027 1 
1 210 22 1 30 1 84 1 112 1 119 1 128 1 135 1 137 1 177 1 183 1 188 1 190 1 217 1 246 1 261 1 277 1 290 1 332 2 334 1 349 1 359 1 367 1 375 1 420 1 439 1 445 1 449 1 469 2 470 1 479 1 497 1 506 1 516 1 520 2 522 1 526 1 536 1 544 1 562 1 581 1 591 1 601 1 626 1 634 1 643 2 649 1 668 1 680 1 692 1 714 1 738 1 750 1 756 1 816 1 817 1 5 1 20 1 41 1 43 1 47 1 53 1 57 1 61 1 63 1 87 1 116 1 152 1 158 1 159 1 196 1 206 1 298 1 301 1 374 1 381 1 397 1 403 1 421 1 430 1 434 1 491 1 560 1 599 1 608 1 617 1 720 1 774 1 779 1 780 1 818 1 824 1 834 1 836 1 839 1 857 1 859 1 872 1 900 1 916 1 939 1 944 1 976 1 868 1 870 1 889 1 913 1 920 1 922 1 930 1 954 1 964 1 968 1 993 1 1008 1 1012 1 1014 1 1019 1 
1 213 30 1 38 1 83 1 105 1 130 1 134 1 142 1 158 1 174 1 179 1 245 2 247 1 248 1 287 1 299 1 305 1 334 1 349 1 355 1 367 1 380 1 383 2 419 1 484 1 492 1 505 1 508 1 521 1 542 2 550 1 565 1 574 1 581 1 596 1 648 1 665 1 668 1 676 2 678 1 699 2 723 1 728 2 749 1 771 1 785 1 809 1 812 1 848 2 852 1 20 1 62 1 68 1 81 1 91 1 106 1 155 1 161 1 173 1 198 1 233 1 240 1 242 1 253 1 274 1 276 1 283 1 308 1 314 1 316 1 327 1 350 1 372 1 373 1 413 1 414 1 431 1 434 1 443 1 451 1 471 1 479 1 482 1 501 1 517 1 524 1 528 1 538 1 600 1 611 1 685 1 704 1 708 1 715 1 716 1 742 1 745 1 750 1 770 1 784 1 792 1 808 1 823 1 878 1 912 1 917 1 922 1 930 1 934 1 941 1 977 1 998 1 865 1 879 1 887 1 914 1 961 1 964 1 986 1 996 1 1000 1 1002 1 1004 1 1008 1 1009 1 1017 1 
1 211 4 1 21 2 72 1 73 2 88 1 102 1 105 1 123 1 128 1 136 1 145 1 167 1 169 1 176 1 186 1 191 1 213 1 225 1 235 1 241 1 247 1 307 1 316 1 351 1 355 1 375 1 385 1 462 1 463 1 480 1 509 1 531 1 541 1 548 1 571 1 572 1 591 1 601 1 607 1 651 1 654 1 725 1 737 1 759 1 779 2 796 1 797 1 798 1 811 1 818 1 852 1 5 1 25 1 33 1 35 1 36 1 55 1 74 1 84 1 100 1 138 1 146 1 262 1 292 1 341 1 389 1 405 1 418 1 424 1 425 1 439 1 448 1 473 1 478 1 484 1 491 1 524 1 528 1 544 1 556 1 564 1 573 1 604 1 609 1 613 1 669 1 703 1 714 1 741 1 743 1 790 1 791 1 792 1 804 1 810 1 814 1 825 1 840 1 855 1 870 1 872 1 878 1 891 1 932 2 938 1 940 1 962 1 988 1 868 1 874 1 876 1 896 1 930 1 960 1 1008 1 1017 1 1022 1 1027 1 
1 208 31 1 82 1 86 1 88 1 119 1 121 1 149 1 160 2 173 1 235 1 237 1 254 1 266 1 269 1 325 1 393 1 399 1 400 1 406 1 448 1 457 1 501 1 540 1 572 1 581 2 590 1 655 1 670 1 684 1 687 1 766 1 767 1 783 1 788 1 793 1 801 1 805 1 806 1 861 1 5 1 37 1 70 1 80 1 106 1 118 1 123 1 143 1 161 1 201 1 232 1 240 1 246 1 253 1 258 1 291 1 294 1 296 1 302 1 306 1 307 1 311 1 316 1 329 1 338 1 362 1 375 1 403 1 405 1 411 1 433 1 464 1 468 1 480 1 531 1 538 1 576 1 582 1 628 1 698 1 726 1 735 1 747 1 758 1 762 1 812 1 817 1 842 1 849 1 863 1 881 1 887 1 933 1 954 1 965 1 973 1 979 1 867 1 874 1 880 1 921 1 922 1 932 1 938 1 939 1 969 1 1005 1 1021 1 1023 1 1027 1 
1 209 36 1 46 1 55 1 68 1 81 2 87 1 97 1 115 1 157 1 158 1 161 1 178 1 180 1 238 2 250 1 295 1 298 1 300 2 322 1 347 1 351 1 369 1 393 1 406 1 443 1 448 1 463 2 490 1 504 1 555 1 564 1 594 1 608 1 652 1 655 1 660 1 678 1 679 2 729 1 735 1 739 1 744 2 780 1 813 1 823 2 825 1 826 2 833 1 841 1 21 1 28 1 29 1 93 1 117 1 122 1 137 1 139 1 166 1 187 1 206 1 213 1 236 1 246 1 345 1 356 1 374 1 385 1 414 1 444 1 457 1 467 1 478 1 480 1 502 1 537 1 546 1 550 1 565 1 580 1 600 1 627 1 640 1 653 1 670 1 698 1 704 1 732 1 748 1 758 1 773 1 781 1 788 1 831 1 836 1 877 1 894 2 909 1 931 1 937 1 995 1 873 1 876 1 880 1 925 1 941 1 987 1 1001 1 1023 1 
1 215 4 1 11 1 38 1 53 1 119 1 120 1 131 1 143 1 145 1 185 1 189 1 197 1 235 1 242 1 285 1 347 1 355 2 360 1 381 1 402 1 425 1 426 1 487 1 500 1 535 1 538 2 558 1 571 1 572 1 587 1 624 1 630 1 658 1 662 1 667 1 677 1 682 1 704 1 710 1 741 1 778 2 781 1 785 1 810 1 824 1 840 1 860 1 9 1 26 1 50 1 89 1 95 1 96 1 108 1 125 1 148 1 163 1 176 1 183 1 202 1 225 1 227 1 244 1 255 1 265 1 286 1 294 1 304 1 305 1 312 1 314 1 344 1 354 1 394 1 403 1 418 1 451 1 457 1 485 1 509 1 522 1 525 1 542 1 544 1 551 1 575 1 625 1 645 1 673 1 693 1 695 1 767 1 772 1 836 1 838 1 865 1 874 1 922 2 929 1 934 1 958 1 966 1 968 1 979 1 997 1 998 2 878 1 905 1 957 1 1001 1 1005 1 1010 1 1017 1 1020 1 1022 1 1025 1 
1 209 1 1 29 2 46 1 58 1 73 1 79 1 96 2 103 1 108 1 181 1 197 1 201 1 220 1 266 1 277 1 293 1 311 1 339 1 347 1 357 1 358 1 376 1 408 1 441 1 443 1 474 1 529 1 538 1 550 1 576 1 578 1 585 1 592 1 601 1 609 1 651 1 684 1 716 1 737 2 748 1 750 1 752 1 786 1 804 1 34 1 64 1 65 1 106 1 138 1 154 1 165 1 172 1 180 1 184 1 192 1 194 1 204 1 218 1 224 1 228 1 233 1 234 1 243 1 253 1 254 1 258 1 315 1 393 1 414 1 421 1 425 1 430 1 464 1 479 1 481 1 521 1 556 1 603 1 648 1 658 1 670 1 676 1 688 1 690 1 705 1 722 1 764 1 827 1 843 1 844 1 850 1 862 1 864 1 887 2 895 1 929 1 953 1 979 1 990 1 875 1 876 1 888 1 889 1 904 1 920 1 962 1 978 1 985 1 1008 1 
1 214 5 1 26 1 28 1 57 1 58 2 59 1 65 1 98 1 114 1 132 1 147 1 150 1 162 1 172 1 201 1 240 1 262 1 265 1 296 1 301 1 344 1 377 1 385 1 396 1 408 1 445 1 457 1 471 1 475 1 528 1 536 1 543 1 643 1 687 1 694 1 709 1 729 1 745 1 761 1 771 1 778 1 795 1 857 1 7 1 19 1 22 1 41 1 42 1 71 1 83 1 101 1 125 1 133 1 160 1 165 1 175 1 179 1 249 1 251 1 267 1 277 1 282 1 284 1 291 1 323 1 329 1 338 1 375 1 378 1 403 1 412 1 422 1 437 1 478 1 491 1 510 1 513 1 523 1 555 1 559 1 589 1 590 1 627 1 644 1 655 1 682 1 701 1 717 1 736 1 742 1 792 1 801 1 827 1 832 1 915 1 930 1 941 1 972 1 995 1 903 1 911 1 927 1 952 1 973 1 975 1 980 1 989 1 1000 1 1004 1 1007 1 1021 1 
1 210 48 1 67 1 78 1 144 1 172 1 189 1 194 1 198 1 203 1 228 1 242 1 253 1 269 1 276 1 285 1 315 1 384 1 387 1 439 1 441 1 466 2 475 1 513 1 514 1 522 1 527 1 528 1 531 1 555 1 577 1 585 1 609 1 615 1 662 1 680 1 681 1 724 1 730 1 750 1 760 1 810 1 839 1 859 1 864 1 20 1 30 1 79 1 88 1 113 1 132 1 178 1 188 1 212 1 260 1 270 1 282 1 299 1 300 1 311 1 317 1 322 1 339 1 347 1 385 1 396 1 405 1 407 1 460 1 523 1 534 1 540 1 549 1 576 1 587 1 619 1 626 1 653 1 687 1 696 1 713 1 715 1 725 1 747 1 778 1 796 1 848 1 862 1 899 1 932 1 947 1 962 1 972 1 985 1 998 1 891 1 902 1 912 1 937 1 946 1 948 1 952 1 955 1 1001 1 1008 1 1009 1 1015 1 1025 1 
1 213 19 1 22 1 57 1 96 1 110 1 129 1 138 2 147 1 152 1 192 1 199 1 246 1 253 1 256 1 257 1 265 1 266 1 269 1 290 1 295 1 299 1 346 1 355 1 359 1 416 1 438 1 448 1 485 1 493 2 539 1 553 1 574 1 592 2 598 1 614 1 686 1 745 1 795 1 824 1 13 1 23 1 62 1 70 1 107 1 111 1 125 1 132 1 139 1 183 1 210 1 215 1 241 1 272 1 286 1 293 1 353 1 399 1 412 1 478 1 502 1 577 1 584 1 586 1 629 1 631 1 651 1 668 1 691 1 697 1 703 1 739 1 753 1 787 1 790 1 798 1 806 1 807 1 828 1 832 1 850 1 861 1 883 1 892 1 894 1 913 2 921 1 928 1 934 2 946 1 891 1 920 1 933 1 936 1 964 1 977 1 1000 1 1001 1 1018 1 
1 209 25 1 32 2 36 1 60 1 65 1 71 1 77 1 95 1 148 1 150 1 164 1 168 1 180 1 181 1 189 1 190 1 219 1 232 1 234 1 251 1 260 1 272 1 330 1 364 1 398 1 451 1 483 1 490 1 511 1 515 1 540 1 545 1 554 1 561 1 622 1 624 1 628 1 629 1 637 1 640 1 662 1 677 1 695 1 709 1 714 1 726 1 734 1 775 1 777 1 781 1 782 1 797 1 799 1 842 1 852 1 862 1 864 1 17 1 23 1 28 1 56 1 67 1 82 1 84 1 87 1 88 1 97 1 114 1 126 1 171 1 174 1 201 1 215 1 227 1 279 1 301 1 305 1 314 1 339 1 340 1 342 1 368 1 370 1 376 1 384 1 396 1 438 1 443 1 444 1 463 1 487 1 504 1 505 1 525 1 528 1 530 1 596 1 598 1 614 1 649 1 659 1 663 1 670 1 706 1 712 1 753 1 769 1 783 1 829 1 836 1 878 1 883 1 899 1 923 1 935 1 976 1 997 1 998 1 890 1 919 1 946 1 947 1 974 1 981 1 988 1 1008 1 1012 1 
1 210 18 1 24 2 46 2 57 1 59 1 75 1 96 1 121 1 139 2 148 1 165 1 196 1 212 1 213 1 246 1 255 1 260 1 267 1 427 1 461 1 476 1 484 1 487 1 512 1 518 1 526 1 554 1 577 1 579 1 582 1 594 1 605 2 609 1 614 1 686 1 689 1 696 2 706 1 722 1 748 1 758 1 774 1 782 2 792 1 803 1 815 1 831 2 846 1 852 1 12 1 47 1 56 1 70 1 83 1 140 1 150 1 177 1 185 1 193 1 223 1 248 1 257 1 265 1 269 1 296 1 319 1 376 1 379 1 389 1 398 1 411 1 423 1 428 1 429 1 445 1 496 1 519 1 535 1 536 1 545 1 565 1 566 1 608 1 625 1 685 1 690 1 699 1 743 1 761 1 769 1 813 1 814 1 816 1 844 1 847 1 866 1 876 2 901 1 925 1 994 1 895 1 911 1 918 1 935 1 937 1 965 1 980 1 988 1 1000 1 1011 1 1015 1 1027 1 
1 209 5 1 8 1 11 1 52 2 65 1 96 1 114 1 137 1 175 1 182 1 216 1 257 1 278 1 306 1 311 1 321 1 371 1 397 1 404 2 418 1 421 1 431 1 434 1 443 1 453 1 481 1 492 1 548 1 556 1 574 1 613 1 635 1 640 1 653 1 658 1 665 1 670 1 674 1 680 1 689 1 695 1 716 1 723 1 741 1 747 1 764 1 770 1 772 1 791 1 819 1 826 1 856 1 867 1 17 1 36 1 37 1 43 1 60 1 73 1 77 1 89 1 139 1 146 1 159 1 168 1 171 1 174 1 192 1 273 1 287 1 293 1 336 1 337 1 344 1 364 1 380 1 382 1 386 1 396 1 409 1 416 1 486 1 487 1 510 1 530 1 543 1 576 1 582 1 584 1 599 1 626 1 651 1 686 1 691 1 736 1 756 1 789 1 795 1 864 1 865 1 876 1 898 1 902 1 927 1 928 1 950 1 955 1 971 1 981 1 986 1 893 1 934 1 978 1 984 1 1013 1 1015 1 
1 207 17 1 37 1 44 1 50 1 52 1 57 1 67 1 74 1 127 1 135 1 136 1 151 1 173 1 191 1 209 1 221 1 258 1 268 1 277 1 279 1 329 1 360 1 392 1 396 1 408 1 413 1 434 1 445 1 458 1 464 1 465 1 487 2 542 1 548 1 557 1 583 1 590 1 630 1 673 1 687 1 690 1 743 1 746 1 763 1 764 1 775 1 786 1 797 1 799 1 809 1 839 1 846 2 29 1 47 1 55 1 85 1 118 1 129 1 138 1 205 1 213 1 229 1 232 1 255 1 286 1 338 1 384 1 386 1 398 1 431 1 450 1 462 1 463 1 502 1 504 1 526 1 603 1 610 1 613 1 616 1 637 1 639 1 654 1 664 1 665 1 668 1 701 1 718 1 726 1 737 1 749 1 769 1 805 1 827 1 835 1 837 1 855 1 868 1 886 1 898 1 909 1 924 1 930 1 985 1 903 1 919 1 945 1 954 1 959 1 977 1 978 1 1007 1 1019 1 1022 1 1024 1 
1 212 1 1 10 1 36 1 60 1 65 1 80 1 89 1 92 1 104 1 114 1 122 1 125 1 166 1 167 1 169 1 177 1 180 1 189 1 193 1 207 1 208 1 225 1 234 1 254 1 260 1 263 1 272 1 273 1 299 1 311 1 348 1 383 1 435 1 437 1 446 1 450 1 506 1 508 1 512 1 539 1 555 1 560 1 561 1 565 1 574 1 601 1 610 1 619 1 625 1 685 1 699 1 716 1 722 1 726 1 753 1 767 1 807 1 822 1 830 1 843 1 873 2 874 1 25 1 32 1 34 1 42 1 45 1 50 1 61 1 73 1 78 1 85 1 102 1 132 1 137 1 143 1 158 1 194 1 220 1 226 1 231 1 236 1 255 1 293 1 295 1 349 1 375 1 439 1 490 1 525 1 537 1 577 1 583 1 591 1 597 1 602 1 617 1 646 1 664 1 692 1 702 1 718 1 736 1 760 1 764 1 777 1 801 1 855 1 864 1 866 1 868 1 885 1 888 1 908 1 936 1 968 1 879 1 899 1 913 1 927 1 962 1 972 1 974 1 1007 1 1019 1 1026 1 1027 1 
1 207 21 1 28 1 64 1 76 1 77 1 78 1 85 1 92 1 98 1 111 1 114 1 124 2 151 1 171 1 175 1 182 1 197 1 202 1 239 1 254 1 258 1 293 1 296 1 325 2 327 1 332 1 338 1 360 1 361 1 386 1 392 1 413 1 441 1 449 1 470 1 475 1 491 1 535 1 543 1 554 1 587 1 590 1 640 1 642 1 694 1 697 1 718 1 751 1 765 1 769 1 835 1 845 1 848 1 855 1 866 1 1 1 13 1 40 1 59 1 82 1 90 1 112 1 127 1 131 1 140 1 192 1 200 1 261 1 304 1 313 1 323 1 333 1 389 1 393 1 404 1 425 1 443 1 494 1 505 1 529 1 531 1 557 1 579 1 585 1 596 1 600 1 602 1 617 1 619 1 630 1 658 1 666 1 736 1 740 1 757 1 781 1 795 1 825 1 830 1 851 1 859 1 885 1 904 1 909 1 922 1 935 1 954 1 978 1 992 1 995 1 999 1 895 1 919 1 926 1 950 1 953 1 958 1 975 1 1005 1 1016 1 
1 209 8 1 72 1 73 1 95 2 100 1 122 1 183 1 186 1 209 1 210 1 222 1 233 1 238 1 254 1 301 1 306 1 316 1 317 1 319 1 349 1 351 1 358 1 359 1 361 1 366 1 379 1 380 1 381 1 390 1 397 1 407 1 422 1 441 1 460 1 492 1 497 1 502 1 527 1 553 1 583 1 603 1 613 1 621 1 625 1 670 1 692 1 694 1 713 1 734 1 736 1 738 1 761 1 794 1 810 1 843 1 863 1 864 1 872 1 1 1 6 1 29 1 30 1 38 1 56 1 60 1 62 1 109 1 130 1 148 1 173 1 194 1 201 1 267 1 272 1 325 1 350 1 360 1 400 1 402 1 465 1 494 1 517 1 529 1 536 1 541 1 581 1 590 1 598 1 607 1 615 1 638 1 642 1 643 1 645 1 709 1 731 1 743 1 773 1 777 1 790 1 801 1 805 1 819 1 823 1 833 1 855 1 867 1 900 1 913 1 918 1 936 1 943 1 945 1 981 1 880 1 882 1 883 1 914 1 933 1 974 1 982 1 1009 1 1019 1 1026 1 
1 211 14 1 23 1 34 1 35 1 44 1 47 1 50 1 51 1 73 1 108 1 136 1 142 1 150 1 158 1 163 2 172 1 189 1 215 1 231 2 246 1 250 1 255 1 262 1 278 1 279 1 288 1 304 1 311 1 312 1 366 1 394 1 396 1 404 1 407 1 408 1 409 1 414 1 446 1 459 1 462 1 487 1 492 1 507 1 542 1 548 2 579 1 595 1 617 1 643 1 688 2 745 1 771 1 785 1 791 2 809 1 827 1 837 1 846 1 4 1 42 1 56 1 67 1 96 1 105 1 151 1 152 1 154 1 167 1 186 1 194 1 202 1 209 1 325 1 351 1 363 1 382 1 405 1 417 1 422 1 449 1 454 1 476 1 514 1 522 1 549 1 551 1 552 1 559 1 570 1 573 1 574 1 616 1 634 1 647 1 660 1 665 1 673 1 685 1 722 1 733 1 736 1 738 1 766 1 800 1 840 1 841 1 855 1 863 1 876 1 879 1 879 1 898 1 911 1 916 1 940 1 958 1 881 1 906 1 921 1 936 1 949 1 969 1 1001 1 1005 1 1006 1 1015 1 1025 1 
1 210 3 1 38 1 45 1 57 1 92 2 100 2 105 1 131 2 182 1 185 1 214 1 217 1 244 1 257 1 265 1 277 1 290 1 313 1 319 1 321 1 361 1 362 1 367 1 391 1 394 1 410 1 426 1 432 1 465 1 466 1 472 1 479 1 489 1 561 1 574 1 578 1 586 1 591 1 596 1 600 1 703 2 718 1 719 1 735 1 743 1 749 1 759 1 767 1 786 1 810 1 825 2 837 1 13 1 25 1 27 1 37 1 97 1 160 1 216 1 218 1 219 1 228 1 269 1 297 1 309 1 324 1 337 1 388 1 401 1 429 1 461 1 486 1 487 1 502 1 525 1 539 1 542 1 559 1 565 1 590 1 604 1 605 1 606 1 620 1 630 1 638 1 644 1 710 1 768 1 771 1 775 1 846 1 852 1 861 1 865 1 866 1 878 1 886 1 890 1 893 1 900 1 903 1 921 1 926 1 937 1 962 1 968 1 977 1 884 1 887 1 895 1 931 1 934 1 957 1 975 1 988 1 1000 1 1018 1 1027 1 
1 205 5 1 9 1 12 1 23 1 29 1 40 1 45 1 49 1 51 1 59 1 77 1 102 1 113 1 117 1 170 1 177 1 179 1 183 1 229 1 235 1 242 1 271 1 283 1 301 1 317 1 329 1 339 1 364 1 379 1 389 1 395 1 416 2 438 1 484 1 500 1 532 1 535 1 539 1 544 1 548 1 584 1 602 1 607 1 618 1 652 1 667 1 681 1 690 1 757 1 769 1 770 1 772 1 783 2 805 2 843 1 857 2 865 1 18 1 22 1 34 1 36 1 48 1 85 1 108 1 109 1 118 1 137 1 145 1 184 1 226 1 243 1 279 1 280 1 304 1 338 1 341 1 351 1 357 1 380 1 401 1 410 1 430 1 433 1 452 1 515 1 533 1 536 1 562 1 573 1 608 1 617 1 636 1 662 1 683 1 706 1 707 1 719 1 767 1 825 1 879 1 904 1 939 1 977 1 882 1 900 1 915 1 953 1 956 1 1019 1 
1 206 24 1 40 1 59 1 79 1 98 2 109 1 129 2 139 1 146 1 168 1 172 1 176 1 195 1 231 1 259 1 266 1 275 1 291 1 300 1 348 1 373 1 418 1 427 1 431 2 438 1 467 1 471 1 484 1 536 1 541 1 542 1 553 1 579 1 595 2 598 1 603 1 615 1 627 1 671 2 673 1 716 1 745 1 750 1 754 1 768 1 784 1 792 2 848 1 4 1 14 1 23 1 30 1 42 1 43 1 77 1 88 1 123 1 124 1 126 1 154 1 166 1 169 1 177 1 188 1 200 1 218 1 241 1 279 1 290 1 396 1 412 1 423 1 434 1 482 1 486 1 497 1 522 1 532 1 559 1 578 1 605 1 721 1 723 1 744 1 808 1 878 1 881 1 913 1 916 1 925 1 943 1 953 1 978 1 899 1 926 1 969 1 976 1 981 1 996 1 1018 1 1022 1 1024 1 1026 1 
1 212 42 1 102 1 105 1 156 1 175 1 202 1 252 1 260 1 263 1 271 1 284 1 292 2 293 1 303 1 319 1 328 1 344 1 373 1 374 1 377 1 383 1 388 1 393 1 415 1 441 1 448 1 453 1 457 1 478 1 488 1 519 1 532 2 537 1 540 1 549 1 601 1 607 1 618 1 654 1 656 1 671 1 713 1 718 1 731 1 741 1 747 1 772 1 794 1 803 1 811 2 842 1 861 1 871 1 872 1 8 1 10 1 20 1 30 1 51 1 59 1 61 1 90 1 122 1 134 1 135 1 171 1 194 1 206 1 227 1 230 1 246 1 296 1 316 1 370 1 410 1 419 1 446 1 451 1 466 1 476 1 481 1 505 1 566 1 639 1 641 1 649 1 655 1 677 1 701 1 704 1 721 1 728 1 750 1 764 1 784 1 791 1 834 1 836 1 838 1 855 1 878 1 907 1 913 1 920 1 928 1 939 1 951 1 905 1 944 1 954 1 961 1 969 1 996 1 1007 1 1012 1 1014 1 1015 1 1023 1 
1 208 15 1 21 1 41 1 46 2 137 1 145 1 162 1 166 1 171 1 183 1 200 1 211 1 225 1 246 1 248 1 257 1 269 1 274 1 292 1 304 1 321 1 332 1 333 1 353 1 355 1 357 1 369 1 376 1 400 1 437 1 442 1 458 2 471 1 476 1 485 1 498 1 504 1 505 1 522 1 532 2 558 1 561 1 571 1 581 1 586 1 612 1 624 1 626 1 629 1 663 1 689 1 703 1 715 2 735 2 771 1 779 1 797 1 840 1 94 1 98 1 101 1 119 1 151 1 164 1 169 1 178 1 216 1 217 1 229 1 239 1 266 1 279 1 281 1 320 1 356 1 361 1 382 1 389 1 404 1 405 1 421 1 425 1 432 1 447 1 454 1 509 1 528 1 560 1 580 1 611 1 619 1 649 1 659 1 671 1 672 1 675 1 681 1 682 1 694 1 702 1 750 1 759 1 772 1 801 1 811 1 815 1 821 1 846 1 861 1 880 1 887 2 894 1 916 1 925 1 938 1 949 1 969 1 981 1 984 1 988 1 893 1 897 1 928 1 943 1 956 1 962 1 1004 1 1019 1 
1 213 8 1 20 2 40 1 54 1 74 1 84 1 86 1 148 1 188 1 215 1 225 1 233 1 237 2 269 1 301 1 314 1 357 1 366 1 374 1 395 1 410 2 418 2 419 1 424 1 425 1 496 1 567 1 586 1 691 1 724 1 742 1 745 1 767 1 798 1 800 1 807 1 811 1 817 1 836 1 876 1 877 1 29 1 36 1 96 1 101 1 134 1 168 1 224 1 235 1 242 1 256 1 266 1 273 1 280 1 290 1 292 1 305 1 308 1 348 1 363 1 387 1 390 1 396 1 421 1 427 1 436 1 461 1 464 1 468 1 483 1 523 1 528 1 535 1 536 1 540 1 545 1 563 1 572 1 608 1 624 1 636 1 640 1 734 1 759 1 763 1 776 1 889 1 929 1 934 1 949 2 955 1 967 1 887 1 891 1 894 1 897 1 912 1 938 1 952 1 969 1 973 1 992 1 1007 1 1010 1 1012 1 1018 1 
1 207 17 1 23 1 38 1 39 1 44 1 79 1 88 1 96 1 105 1 124 1 125 1 150 1 153 1 160 1 171 1 201 1 209 1 262 1 282 1 306 1 340 1 342 1 343 1 355 1 356 1 364 1 368 1 370 1 373 1 376 1 412 1 433 1 442 1 483 1 502 1 517 1 526 1 527 1 530 1 533 1 542 1 544 1 569 1 586 1 602 1 636 2 643 1 658 1 664 1 671 1 704 1 730 1 749 1 758 1 771 1 825 1 831 1 875 1 880 1 18 1 22 1 59 1 62 1 65 1 100 1 127 1 137 1 148 1 152 1 157 1 164 1 170 1 173 1 196 1 206 1 212 1 233 1 256 1 273 1 279 1 287 1 319 1 329 1 337 1 387 1 420 1 428 1 472 1 474 1 484 1 492 1 506 1 523 1 541 1 597 1 605 1 619 1 623 1 626 1 641 1 657 1 661 1 673 1 677 1 680 1 703 1 726 1 800 1 802 1 804 1 808 1 832 1 834 1 895 1 921 1 932 1 942 1 955 1 967 1 982 1 899 1 905 1 910 1 916 1 953 1 1001 1 1021 1 
1 213 16 1 27 1 85 1 91 1 121 1 130 1 142 1 182 1 195 1 201 1 206 1 210 1 222 1 231 1 233 1 237 1 241 1 265 1 274 1 294 1 309 1 334 1 340 1 349 1 379 1 396 1 411 1 435 1 459 1 468 1 470 1 510 1 599 1 601 1 623 1 626 1 669 1 692 1 696 1 709 1 725 1 728 1 758 1 785 1 786 1 788 1 825 1 848 1 857 1 865 1 868 2 884 2 4 1 17 1 23 1 31 1 43 1 69 1 127 1 162 1 174 1 185 1 196 1 221 1 227 1 245 1 269 1 295 1 359 1 367 1 373 1 375 1 377 1 408 1 451 1 472 1 515 1 557 1 562 1 563 1 596 1 610 1 614 1 627 1 632 1 640 1 654 1 656 1 664 1 713 1 731 1 739 1 769 1 778 1 806 1 809 1 811 1 835 1 840 1 841 1 859 1 863 1 880 1 885 1 954 1 982 1 983 1 998 1 892 1 896 1 898 1 933 1 936 1 939 1 965 1 975 1 977 1 995 1 1004 1 1016 1 1023 1 1026 1 
1 211 30 1 74 1 91 1 117 1 133 1 134 1 139 1 152 1 170 1 184 1 191 1 199 1 203 1 238 1 246 2 287 1 306 1 320 1 336 1 348 1 357 1 368 1 383 1 406 1 407 1 418 1 436 2 437 1 439 1 462 1 471 1 474 1 482 1 491 1 504 1 527 1 548 2 566 1 609 1 626 1 631 1 672 1 702 1 708 1 711 1 743 1 788 1 836 1 840 1 849 1 850 1 876 1 29 1 34 1 35 1 95 1 116 1 132 1 135 1 147 1 151 1 160 1 188 1 197 1 212 1 261 1 283 1 294 1 310 1 318 1 321 1 342 1 369 1 402 1 419 1 420 1 465 1 475 1 524 1 551 1 559 1 562 1 595 1 619 1 623 1 625 1 657 1 658 1 670 1 751 1 752 1 770 1 845 1 868 1 900 1 902 1 959 1 962 1 985 1 986 1 895 1 927 1 930 1 935 1 951 1 953 1 965 1 976 1 1008 1 1010 1 1024 1 1026 1 
1 209 6 1 9 1 21 2 31 2 46 1 89 1 114 1 157 1 200 1 204 1 212 1 233 1 249 1 253 1 302 1 313 1 381 1 383 1 384 2 385 1 395 1 396 2 405 1 448 1 457 1 466 1 480 1 501 1 518 1 558 1 580 1 582 1 586 1 600 1 611 1 632 1 648 1 655 1 658 1 667 2 668 1 698 1 704 1 714 1 722 1 741 1 756 1 769 1 771 1 797 1 804 1 832 1 840 1 885 1 13 1 43 1 44 1 67 1 69 1 85 1 94 1 140 1 144 1 146 1 149 1 166 1 174 1 197 1 221 1 228 1 242 1 247 1 273 1 305 1 307 1 337 1 339 1 354 1 402 1 453 1 482 1 531 1 559 1 561 1 564 1 574 1 588 1 613 1 636 1 662 1 705 1 719 1 720 1 746 1 753 1 783 1 787 1 791 1 843 1 852 1 854 1 862 1 868 1 899 1 905 1 928 1 929 1 963 1 975 1 890 1 892 1 897 1 901 1 915 1 972 1 1002 1 1007 1 1012 1 1018 1 1021 1 
1 210 27 1 40 1 48 1 87 1 135 1 167 1 169 1 186 1 187 1 190 1 191 1 232 1 250 1 260 1 271 1 274 1 347 1 350 1 412 1 442 1 458 1 463 1 480 1 485 1 493 1 512 1 525 1 573 1 579 1 601 1 610 1 636 1 651 1 653 1 682 1 685 1 702 1 724 1 748 1 773 1 823 1 833 1 842 1 851 1 880 1 6 1 7 1 26 1 34 1 49 1 112 1 117 1 145 1 157 1 182 1 192 1 204 1 217 1 222 1 241 1 251 1 257 1 258 1 284 1 309 1 318 1 327 1 328 1 384 1 419 1 423 1 425 1 431 1 434 1 449 1 520 1 538 1 544 1 596 1 613 1 641 1 652 1 688 1 697 1 703 1 708 1 715 1 744 1 753 1 800 1 832 1 858 1 872 1 889 1 917 1 923 1 924 1 952 1 956 1 987 1 893 1 912 1 916 1 944 1 962 1 966 1 969 1 973 1 981 1 998 1 1016 1 1022 1 1027 1 
1 209 22 1 26 1 54 1 75 1 81 1 84 1 100 1 108 1 123 1 130 1 154 1 176 1 189 2 233 1 245 2 263 1 268 1 272 1 278 1 285 1 288 1 290 1 291 1 315 1 340 1 348 1 364 1 372 1 373 1 376 1 402 1 414 1 423 1 459 1 468 1 479 1 496 1 523 1 548 2 549 1 553 2 573 1 578 1 634 1 643 1 646 1 654 1 676 1 684 1 738 1 740 1 745 1 781 1 836 1 841 1 847 2 854 1 864 1 24 1 38 1 96 1 159 1 182 1 202 1 205 1 281 1 286 1 300 1 318 1 374 1 378 1 379 1 390 1 394 1 405 1 408 1 426 1 477 1 492 1 494 1 513 1 585 1 604 1 624 1 640 1 663 1 669 1 673 1 674 1 734 1 737 1 739 1 814 1 853 1 870 1 871 1 885 1 950 1 994 2 899 1 903 1 908 1 912 1 945 1 946 1 983 1 989 1 1006 1 
1 211 21 1 24 1 72 1 84 1 87 1 114 1 122 1 140 1 150 1 167 1 177 1 185 1 194 1 199 1 212 1 234 1 251 1 253 1 266 1 283 1 293 1 350 1 363 1 367 1 369 1 373 1 386 1 387 1 399 1 405 1 430 1 444 1 446 1 456 1 528 1 543 1 552 1 611 1 612 1 625 1 653 1 695 1 711 1 745 1 754 1 762 1 796 1 802 1 829 2 839 1 842 1 856 1 871 1 19 1 35 1 70 1 82 1 86 1 91 1 92 1 93 1 127 1 141 1 146 1 152 1 153 1 157 1 162 1 183 1 289 1 300 1 307 1 318 1 332 1 336 1 381 1 401 1 410 1 411 1 485 1 517 1 521 1 544 1 546 1 557 1 561 1 586 1 603 1 613 1 634 1 641 1 642 1 660 1 661 1 665 1 702 1 705 1 719 1 758 1 781 1 782 1 783 1 818 1 824 1 852 1 887 1 889 1 894 1 895 1 896 1 898 1 917 2 921 1 931 1 942 1 967 2 945 1 947 1 952 1 1001 1 1014 1 1020 1 1022 1 1027 1 
1 213 3 1 13 1 18 1 32 1 36 1 43 1 46 1 59 1 68 1 92 1 113 1 149 1 166 1 173 1 248 1 253 2 260 2 313 1 326 1 350 1 371 1 386 1 388 1 399 1 409 1 418 1 429 1 458 1 487 1 489 1 516 1 517 1 556 1 600 1 602 1 614 1 616 1 619 1 633 1 639 1 649 1 653 1 655 1 665 2 674 2 715 1 720 1 750 1 761 1 772 1 818 1 826 1 880 1 86 1 97 1 127 1 146 1 156 1 182 1 195 1 216 1 227 1 235 1 311 1 343 1 374 1 397 1 430 1 454 1 465 1 490 1 509 1 539 1 543 1 564 1 568 1 571 1 577 1 622 1 636 1 698 1 738 1 767 1 770 1 774 1 790 1 813 1 827 1 836 1 839 1 853 1 874 1 884 1 890 1 935 1 941 1 974 2 978 1 918 1 922 1 926 1 931 1 939 1 940 1 945 1 997 1 1007 1 1019 1 1020 1 
1 209 4 1 24 1 43 1 61 1 65 1 70 1 76 1 81 1 84 1 94 1 115 1 194 1 220 1 222 1 226 1 238 1 248 1 297 1 348 2 349 1 357 1 381 1 405 1 412 1 421 1 424 1 426 1 471 1 553 1 556 2 565 1 568 1 574 1 588 1 603 1 624 1 628 1 637 1 665 1 698 1 709 1 723 1 746 1 758 1 759 2 784 1 788 1 801 1 803 1 808 1 813 1 817 1 829 1 832 1 851 1 866 2 871 1 884 1 892 1 2 1 17 1 29 1 39 1 45 1 99 1 127 1 141 1 155 1 170 1 177 1 188 1 205 1 206 1 266 1 291 1 328 1 331 1 342 1 350 1 356 1 360 1 361 1 367 1 368 1 402 1 411 1 416 1 450 1 456 1 493 1 503 1 514 1 515 1 529 1 552 1 562 1 566 1 592 1 597 1 615 1 644 1 663 1 691 1 702 1 713 1 714 1 771 1 777 1 781 1 783 1 800 1 818 1 844 1 885 1 905 1 983 1 989 1 995 1 898 1 928 1 947 1 997 1 1002 1 1024 1 
1 214 13 1 59 1 67 1 75 1 109 1 115 1 134 1 178 1 186 1 237 1 245 1 253 2 259 1 370 1 372 1 373 1 398 1 400 1 442 1 479 1 502 1 516 1 573 1 585 1 599 1 628 1 634 1 635 1 636 1 682 1 684 1 697 1 703 2 717 1 766 1 769 2 830 1 868 1 886 1 892 1 4 1 38 1 100 1 101 1 129 1 140 1 148 1 155 1 165 1 199 1 201 1 250 1 255 1 256 1 267 1 296 1 318 1 329 1 344 1 391 1 397 1 405 1 425 1 429 1 444 1 451 1 465 1 526 1 563 1 613 1 616 1 640 1 642 1 649 1 685 1 716 1 727 1 732 1 739 1 764 1 803 1 805 1 845 1 873 1 877 1 880 1 888 1 896 1 927 1 935 1 954 1 972 1 979 2 905 1 936 1 949 1 953 1 971 1 1001 1 1006 1 1011 1 1023 1 
1 204 18 1 26 1 28 1 40 1 52 1 54 1 55 2 57 1 63 1 81 1 97 1 113 1 195 1 206 1 234 1 269 1 281 1 302 1 307 1 309 1 374 1 382 1 386 1 396 1 415 1 417 1 420 1 442 1 480 1 556 1 566 1 568 1 632 1 647 1 655 1 656 1 659 1 668 2 675 1 695 1 719 1 733 1 828 1 835 1 853 2 856 1 892 1 895 1 2 1 11 1 39 1 87 1 157 1 166 1 171 1 193 1 242 1 245 1 252 1 356 1 361 1 391 1 398 1 414 1 429 1 464 1 499 1 520 1 524 1 570 1 584 1 591 1 612 1 619 1 637 1 638 1 648 1 673 1 678 1 679 1 681 1 689 1 710 1 711 1 715 1 716 1 724 1 749 1 759 1 840 1 864 1 887 1 925 1 926 2 946 1 952 1 982 1 984 1 985 1 998 1 920 1 928 1 938 1 942 1 944 1 954 1 968 1 1010 1 
1 208 44 1 50 1 51 1 57 1 87 1 94 2 150 1 157 1 161 1 165 1 171 1 182 1 184 1 195 1 207 1 239 1 247 1 248 1 265 1 275 1 286 1 350 1 387 1 418 1 422 1 445 1 479 1 481 1 486 1 498 1 508 1 560 1 586 1 598 1 602 1 614 1 619 1 656 2 670 1 682 1 696 1 709 1 719 1 758 1 768 1 780 1 796 1 811 1 825 1 11 1 17 1 27 1 30 1 37 1 53 1 89 1 90 1 93 1 102 1 149 1 152 1 156 1 180 1 196 1 203 1 209 1 230 1 236 1 276 1 294 1 344 1 372 1 405 1 417 1 464 1 495 1 537 1 546 1 548 1 573 1 578 1 595 1 603 1 618 1 621 1 634 1 642 1 643 1 667 1 685 1 686 1 707 1 714 1 760 1 783 1 794 1 795 1 810 1 852 1 854 1 859 1 884 1 885 1 889 1 931 1 932 1 901 1 902 1 915 1 945 1 983 1 1016 1 1019 1 1023 1 
1 209 17 1 30 1 32 1 49 1 78 1 81 1 97 1 110 1 111 1 116 1 131 1 142 1 148 1 158 1 187 1 190 1 205 1 217 1 228 1 233 1 239 1 245 1 296 1 299 1 303 1 327 1 328 1 359 1 414 2 456 1 519 1 538 2 582 1 583 1 587 1 603 1 623 1 646 1 656 1 672 1 694 1 700 1 719 1 725 1 832 2 844 2 849 1 853 1 874 1 875 1 879 1 892 1 7 1 12 1 13 1 51 1 63 1 77 1 121 1 122 1 144 1 211 1 225 1 279 1 292 1 300 1 304 1 310 1 322 1 329 1 335 1 361 1 379 1 387 1 452 1 454 1 473 1 487 1 529 1 550 1 597 1 609 1 619 1 645 1 721 1 731 1 733 1 734 1 741 1 751 1 752 1 807 1 842 1 845 1 887 1 894 1 919 1 923 1 927 1 937 2 943 1 973 1 982 1 925 1 962 1 970 1 981 1 995 1 1002 1 1008 1 1011 1 1019 1 
1 207 11 1 34 1 35 1 57 1 100 1 134 1 140 1 160 1 165 1 203 1 229 1 236 1 237 1 262 1 263 1 269 1 280 1 284 1 289 2 300 1 310 1 338 1 352 1 356 1 376 1 393 1 396 1 408 1 420 1 428 1 434 1 435 1 439 1 476 1 477 1 505 1 510 1 522 1 548 1 573 1 596 2 611 1 619 1 636 1 643 1 657 1 684 1 705 1 745 1 858 1 870 1 872 1 889 1 6 1 14 1 29 1 31 1 48 1 51 1 76 1 84 1 85 1 111 1 141 1 182 1 183 1 205 1 230 1 234 1 244 1 249 1 311 1 323 1 324 1 327 1 333 1 335 1 348 1 349 1 379 1 409 1 418 1 425 1 427 1 437 1 478 1 515 1 536 1 549 1 568 1 599 1 606 1 652 1 680 1 698 1 699 1 723 1 753 1 759 1 815 1 819 1 833 1 851 1 852 1 860 1 876 1 882 1 886 1 891 1 900 1 910 1 922 1 951 1 976 1 915 1 1022 1 
1 213 13 1 33 1 52 1 56 2 59 1 76 1 77 1 113 1 135 1 157 1 160 1 163 1 178 1 181 1 197 1 218 1 254 1 263 2 268 1 286 1 298 1 313 1 353 1 371 1 403 1 420 1 427 1 467 2 471 1 498 1 506 1 509 1 531 1 551 1 572 1 584 1 606 1 611 1 626 2 631 1 636 1 639 1 644 1 662 1 663 1 674 1 696 1 711 1 731 1 739 1 744 1 761 1 784 1 801 1 827 2 838 1 848 1 862 1 878 1 880 1 888 1 899 1 4 1 74 1 78 1 87 1 108 1 153 1 158 1 180 1 194 1 207 1 211 1 228 1 233 1 238 1 251 1 264 1 269 1 273 1 279 1 280 1 327 1 340 1 374 1 378 1 390 1 432 1 468 1 479 1 488 1 492 1 493 1 533 1 534 1 562 1 568 1 587 1 596 1 599 1 623 1 701 1 709 1 726 1 733 1 737 1 753 1 789 1 793 1 794 1 802 1 851 1 854 1 855 1 881 1 926 1 951 1 966 1 967 1 968 1 975 1 950 1 974 1 1005 1 1021 1 1023 1 1027 1 
1 213 17 1 22 1 27 1 28 1 46 1 72 1 119 1 122 1 149 1 160 1 163 1 169 1 187 1 191 1 203 1 222 1 241 1 246 1 265 1 274 1 284 1 289 1 300 1 305 1 360 1 364 1 371 1 379 1 418 1 432 1 473 1 485 2 515 1 539 1 545 1 587 1 605 1 611 1 614 1 625 1 656 1 662 1 717 1 741 2 745 1 749 1 769 1 785 1 794 2 824 1 843 1 852 1 856 1 873 1 7 1 44 1 136 1 144 1 156 1 174 1 179 1 185 1 210 1 232 1 254 1 262 1 299 1 328 1 350 1 367 1 397 1 422 1 439 1 456 1 459 1 492 1 507 1 513 1 517 1 521 1 532 1 535 1 546 1 569 1 575 1 589 1 594 1 618 1 629 1 631 1 668 1 693 1 713 1 751 1 801 1 805 1 809 1 814 1 850 1 889 1 897 1 970 1 987 1 996 1 905 1 907 1 915 1 940 1 955 1 956 1 969 1 1005 1 1007 1 1008 1 1012 1 1024 1 
1 212 6 1 7 1 9 1 28 1 46 1 76 1 81 1 101 1 185 1 200 1 246 1 251 1 270 1 280 1 282 1 323 1 329 1 346 2 379 2 385 1 408 1 428 1 439 1 493 1 495 1 531 1 551 1 558 1 562 1 594 2 609 1 611 1 624 1 661 1 668 2 674 1 740 1 757 1 783 1 784 1 802 2 807 1 810 1 815 1 839 1 841 1 842 1 874 1 888 1 24 1 31 1 45 1 53 1 66 1 110 1 141 1 199 1 250 1 263 1 265 1 268 1 312 1 397 1 401 1 404 1 417 1 443 1 457 1 507 1 513 1 518 1 536 1 549 1 566 1 606 1 614 1 617 1 620 1 684 1 696 1 701 1 704 1 711 1 732 1 736 1 772 1 804 1 831 1 834 1 870 1 897 1 936 1 940 1 947 1 983 1 923 1 935 1 955 1 960 1 961 1 996 1 1012 1 1018 1 
1 209 4 1 6 1 22 1 24 1 29 1 57 1 78 1 94 1 100 1 108 1 132 1 151 1 163 1 165 1 202 1 214 1 240 1 275 1 276 1 280 1 284 1 339 1 345 1 385 1 465 1 486 1 497 1 503 1 510 1 512 1 525 1 538 1 541 1 543 1 553 1 585 1 589 1 612 1 621 1 622 1 650 1 669 1 686 1 694 1 710 2 716 2 721 2 734 1 740 1 789 1 832 1 833 1 837 1 838 1 840 1 880 1 36 1 47 1 66 1 97 1 128 1 133 1 147 1 197 1 206 1 245 1 257 1 267 1 292 1 312 1 313 1 314 1 315 1 320 1 326 1 344 1 350 1 352 1 353 1 374 1 377 1 380 1 392 1 521 1 528 1 536 1 542 1 569 1 581 1 600 1 628 1 640 1 646 1 672 1 680 1 705 1 707 1 714 1 715 1 730 1 733 1 758 1 773 1 827 1 831 1 869 1 875 1 891 1 914 1 919 1 933 1 949 1 958 1 983 1 905 1 910 1 920 1 944 1 960 1 968 1 976 1 999 1 1002 1 1011 1 1016 1 1018 1 1023 1 
1 209 9 1 12 2 22 1 42 1 61 1 77 1 88 1 95 2 96 1 118 2 121 1 126 2 168 1 218 2 220 1 244 1 251 2 275 1 279 1 284 2 314 2 316 1 330 1 331 1 354 1 375 1 389 1 390 1 410 1 431 1 470 1 474 1 481 1 497 1 518 1 534 1 535 1 554 1 614 1 630 1 641 1 649 1 655 1 713 1 718 1 722 2 754 1 756 1 767 1 785 1 827 2 837 1 838 1 877 1 881 1 1 1 15 1 24 1 28 1 67 1 70 1 75 1 128 1 133 1 155 1 206 1 209 1 249 1 325 1 326 1 329 1 372 1 393 1 406 1 433 1 462 1 469 1 526 1 529 1 541 1 547 1 589 1 605 1 608 1 615 1 643 1 652 1 658 1 662 1 666 1 672 1 676 1 700 1 741 1 761 1 764 1 803 1 854 1 858 1 868 1 939 1 963 1 997 1 908 1 911 1 920 1 924 1 928 1 936 1 962 1 967 1 983 1 1006 1 1007 1 1013 1 
1 211 6 1 24 1 35 1 90 1 113 1 125 1 126 1 135 2 146 1 154 1 201 1 261 1 285 1 301 1 302 2 310 1 323 1 353 1 396 1 411 1 418 1 432 1 443 1 457 1 467 1 473 1 491 1 568 1 573 1 620 1 644 1 653 1 684 1 694 1 702 1 710 1 716 1 733 1 765 1 774 1 802 1 805 1 819 1 845 1 858 1 889 1 894 1 12 1 28 1 37 1 38 1 51 1 80 1 97 1 104 1 109 1 114 1 139 1 149 1 176 1 199 1 211 1 230 1 263 1 289 1 303 1 322 1 347 1 357 1 367 1 375 1 379 1 403 1 426 1 430 1 440 1 509 1 511 1 540 1 571 1 594 1 659 1 664 1 669 1 683 1 697 1 726 1 736 1 740 1 842 1 856 1 867 1 883 1 886 1 895 1 901 1 903 1 913 1 998 1 923 1 939 1 958 1 1008 1 1010 1 
1 212 9 1 24 1 33 1 37 2 41 1 53 1 65 1 67 1 106 1 108 1 111 2 180 1 194 1 195 1 204 1 207 1 217 1 218 1 234 1 249 1 258 1 277 1 322 1 343 1 344 1 384 1 401 1 409 1 421 1 423 1 453 1 501 1 507 1 508 1 527 1 531 1 540 1 543 1 575 1 587 2 595 2 601 1 609 1 633 1 636 1 672 1 686 1 750 2 770 1 772 2 808 1 833 1 15 1 34 1 55 1 63 1 70 1 103 1 122 1 129 1 164 1 243 1 244 1 278 1 283 1 296 1 307 1 318 1 324 1 408 1 429 1 445 1 459 1 463 1 474 1 517 1 528 1 542 1 569 1 591 1 599 1 631 1 674 1 680 1 685 1 725 1 727 1 734 1 742 1 762 1 879 1 910 1 927 1 943 1 948 1 965 1 970 1 971 1 977 1 912 1 918 1 924 1 933 1 952 1 956 1 958 1 966 1 1007 1 1021 1 1023 1 
1 211 3 1 14 1 25 1 34 1 75 2 86 1 93 1 117 1 142 1 150 1 207 1 236 1 246 1 247 1 254 1 274 1 277 1 281 1 314 1 343 1 345 1 354 1 368 1 380 1 381 1 406 1 408 1 440 1 457 1 465 2 467 1 482 1 498 1 510 1 513 1 536 1 543 1 552 1 562 1 568 1 575 1 596 1 600 1 656 1 664 1 671 1 675 1 689 1 712 1 716 1 746 1 772 1 784 1 803 1 827 1 829 1 836 1 843 1 854 1 883 1 11 1 21 1 23 1 33 1 43 1 50 1 62 1 85 1 99 1 103 1 121 1 123 1 133 1 144 1 146 1 151 1 152 1 158 1 160 1 182 1 189 1 191 1 205 1 206 1 225 1 240 1 253 1 327 1 336 1 337 1 388 1 400 1 421 1 427 1 432 1 437 1 447 1 448 1 475 1 476 1 501 1 507 1 529 1 539 1 546 1 550 1 556 1 565 1 569 1 571 1 576 1 589 1 601 1 609 1 631 1 654 1 686 1 715 1 728 1 747 1 781 1 783 1 792 1 801 1 810 1 831 1 901 1 932 1 910 1 912 1 928 1 964 1 990 1 1000 1 1011 1 1022 1 
1 210 6 2 26 1 35 1 42 1 60 1 80 1 83 1 88 2 95 1 124 1 130 1 136 1 144 2 154 1 156 1 162 1 166 1 167 1 182 1 192 1 216 1 220 1 226 1 231 1 235 1 246 1 274 1 299 1 308 1 311 1 366 1 370 1 432 1 433 1 461 1 475 1 501 1 511 1 548 1 569 1 571 2 581 1 592 1 654 2 717 1 718 1 737 1 744 1 755 1 776 1 785 1 787 1 808 1 810 1 833 1 847 1 856 1 876 1 62 1 194 1 228 1 236 1 242 1 285 1 293 1 294 1 309 1 326 1 349 1 423 1 490 1 496 1 504 1 514 1 515 1 526 1 537 1 558 1 561 1 656 1 729 1 811 1 816 1 891 1 904 1 908 1 908 1 910 1 946 1 919 1 968 1 985 1 986 1 996 1 1004 1 1006 1 1007 1 1008 1 1012 1 1019 1 
1 211 16 1 58 1 94 1 122 1 123 1 129 1 148 1 171 1 180 1 183 2 205 1 232 1 266 1 271 1 303 1 309 1 311 1 355 1 390 1 413 1 417 1 441 1 469 1 471 2 483 1 539 1 547 1 553 1 572 1 636 1 642 1 652 1 653 1 671 1 673 1 708 1 735 1 737 1 740 1 745 1 762 1 765 1 777 2 818 1 866 1 875 1 877 1 11 1 43 1 50 1 55 1 66 1 83 1 115 1 128 1 173 1 203 1 227 1 242 1 262 1 278 1 281 1 290 1 330 1 335 1 342 1 344 1 359 1 372 1 382 1 386 1 393 1 400 1 426 1 428 1 445 1 467 1 473 1 484 1 492 1 497 1 516 1 527 1 550 1 556 1 568 1 575 1 581 1 595 1 613 1 620 1 672 1 692 1 697 1 709 1 764 1 767 1 772 1 786 1 807 1 808 1 825 1 828 1 854 1 917 1 939 1 944 1 948 1 952 1 956 1 960 1 967 1 977 1 981 1 935 1 941 1 942 1 1005 1 1019 1 1022 1 1024 1 1026 1 
1 211 34 1 59 1 83 1 87 1 118 1 130 1 134 1 142 2 153 1 166 2 168 1 198 1 203 1 204 1 209 1 264 1 275 1 289 1 327 2 331 1 358 1 361 1 363 1 368 1 385 1 407 1 413 1 419 2 434 1 460 1 506 1 516 1 522 1 552 1 553 1 558 1 559 1 564 1 575 1 591 1 594 1 611 1 623 1 643 1 708 1 717 1 718 1 739 1 755 1 756 1 770 1 776 1 785 1 803 1 817 1 822 1 839 1 840 1 899 1 906 1 908 1 15 1 60 1 67 1 97 1 116 1 138 1 164 1 192 1 194 1 222 1 267 1 319 1 341 1 344 1 373 1 376 1 378 1 405 1 431 1 437 1 454 1 467 1 497 1 551 1 568 1 577 1 613 1 682 1 694 1 702 1 727 1 763 1 765 1 810 1 819 1 838 1 886 1 903 1 907 1 917 1 924 1 932 1 966 1 971 1 984 1 1016 1 1027 1 
1 211 2 1 23 2 139 1 162 1 184 1 185 1 215 1 236 1 251 1 252 1 256 1 309 2 334 1 345 1 361 1 366 1 368 1 376 1 434 1 440 1 451 1 458 1 459 1 461 1 484 1 501 1 538 1 539 1 552 1 575 1 588 1 609 1 637 1 652 1 678 1 692 1 693 1 703 1 723 1 728 1 741 1 757 1 772 1 778 1 810 1 825 1 826 1 830 1 831 1 879 1 42 1 53 1 65 1 88 1 96 1 105 1 106 1 127 1 134 1 163 1 171 1 188 1 193 1 194 1 204 1 221 1 229 1 274 1 291 1 295 1 303 1 313 1 321 1 324 1 379 1 380 1 381 1 390 1 442 1 450 1 468 1 474 1 483 1 506 1 529 1 541 1 549 1 604 1 606 1 642 1 665 1 679 1 682 1 683 1 684 1 697 1 735 1 755 1 756 1 767 1 779 1 796 1 799 1 833 1 839 1 857 1 869 1 873 1 904 1 937 2 969 1 973 1 980 1 986 1 921 1 936 1 974 1 993 1 1008 1 1021 1 1025 1 
1 206 85 1 98 1 102 1 111 1 123 1 129 1 137 1 139 1 150 1 153 1 164 1 188 1 195 1 204 1 253 1 314 1 319 1 345 1 351 2 366 2 371 1 374 1 400 1 401 1 413 1 429 1 437 1 446 1 454 1 465 1 479 1 482 1 488 1 502 1 519 1 522 1 525 1 559 1 573 1 601 1 621 1 623 1 627 1 636 1 659 1 663 1 695 1 699 2 778 1 786 1 793 1 829 1 863 1 3 1 21 1 24 1 39 1 40 1 60 1 68 1 117 1 122 1 142 1 146 1 196 1 201 1 205 1 208 1 216 1 239 1 279 1 295 1 302 1 304 1 356 1 365 1 438 1 440 1 467 1 491 1 500 1 516 1 539 1 545 1 567 1 577 1 600 1 605 1 608 1 620 1 641 1 642 1 662 1 665 1 669 1 677 1 683 1 686 1 704 1 730 1 795 1 797 1 809 1 812 1 818 1 833 1 853 1 856 1 870 1 885 1 890 1 891 1 906 1 907 1 912 1 912 1 949 1 974 1 991 1 928 1 992 1 997 1 1010 1 1022 1 
1 210 54 2 57 1 59 1 100 1 117 1 119 2 129 1 134 1 152 1 162 1 165 2 177 1 183 1 200 2 223 1 227 1 263 1 290 1 303 1 313 1 325 1 346 1 347 1 351 1 353 1 359 1 380 1 442 1 468 1 476 1 482 1 488 1 511 1 533 1 539 1 559 1 583 1 595 2 625 1 635 1 637 1 639 2 644 1 646 1 653 1 660 1 668 1 675 1 704 1 713 1 724 1 735 1 747 1 753 1 774 2 790 1 834 1 836 1 839 1 845 1 871 2 878 1 882 1 883 1 905 1 12 1 30 1 42 1 56 1 74 1 76 1 108 1 110 1 128 1 138 1 168 1 230 1 232 1 258 1 297 1 301 1 312 1 314 1 320 1 322 1 330 1 342 1 349 1 364 1 365 1 375 1 387 1 444 1 457 1 459 1 474 1 479 1 481 1 522 1 543 1 546 1 581 1 586 1 610 1 645 1 649 1 657 1 787 1 792 1 862 1 876 1 915 1 918 1 943 1 959 2 986 1 998 1 921 1 927 1 930 1 965 1 980 1 1005 1 1006 1 1008 1 1014 1 1019 1 1020 1 
1 205 4 1 10 1 21 1 23 1 49 1 63 1 81 1 100 1 107 1 125 1 136 1 147 1 163 2 192 1 202 1 210 1 211 1 321 1 323 1 351 1 383 1 384 1 400 1 421 1 456 1 462 1 472 1 477 1 488 1 490 1 501 1 509 1 539 1 547 1 561 1 588 1 592 1 594 1 598 1 636 1 679 1 709 1 742 1 748 1 753 1 762 2 771 1 772 1 778 1 780 1 782 1 790 1 804 1 808 1 828 1 833 1 849 1 903 1 54 1 60 1 89 1 93 1 94 1 112 1 146 1 171 1 183 1 195 1 205 1 214 1 229 1 283 1 316 1 365 1 374 1 386 1 393 1 410 1 424 1 426 1 438 1 439 1 447 1 476 1 481 1 492 1 499 1 518 1 558 1 609 1 628 1 644 1 648 1 650 1 670 1 675 1 683 1 696 1 705 1 713 1 722 1 739 1 745 1 770 1 798 1 863 1 878 1 924 1 937 1 951 1 955 1 985 1 998 1 928 1 939 1 950 1 965 1 971 1 993 1 1015 1 
1 207 6 1 11 1 20 1 25 1 64 1 92 1 93 1 100 1 113 1 116 1 118 1 136 1 175 1 195 1 199 1 227 1 239 1 244 1 254 1 266 1 284 1 285 1 289 1 299 1 300 1 308 1 322 1 356 2 391 1 399 1 420 1 441 1 446 1 452 2 473 1 474 1 513 1 552 1 553 1 560 1 608 2 624 1 657 1 660 1 672 1 718 1 720 1 740 1 753 1 774 1 798 1 799 1 805 1 842 1 869 1 913 1 73 1 76 1 99 1 103 1 119 1 160 1 189 1 196 1 226 1 235 1 303 1 338 1 363 1 404 1 436 1 448 1 472 1 482 1 489 1 492 1 498 1 507 1 534 1 594 1 602 1 622 1 661 1 729 1 786 1 843 1 853 1 881 1 889 1 897 1 899 1 901 1 925 1 941 1 964 1 988 1 917 1 935 1 938 1 944 1 955 1 965 1 984 1 1000 1 1012 1 
1 213 8 2 24 1 39 1 40 1 50 1 133 1 137 1 142 1 177 1 227 1 248 1 258 1 263 1 314 1 320 1 330 1 333 1 354 1 360 1 373 1 395 1 401 1 434 1 449 1 453 1 481 1 524 1 527 1 547 1 556 1 575 1 581 1 590 1 696 1 720 1 724 1 729 1 730 1 756 2 801 1 810 1 825 1 829 1 842 1 862 1 879 1 882 1 884 1 10 1 28 1 57 1 60 1 71 1 76 1 90 1 113 1 121 1 152 1 242 1 247 1 274 1 299 1 317 1 323 1 339 1 353 1 357 1 377 1 385 1 392 1 396 1 428 1 445 1 451 1 452 1 485 1 496 1 502 1 521 1 609 1 662 1 664 1 677 1 687 1 705 1 706 1 723 1 776 1 797 1 805 1 833 1 844 1 861 1 886 1 890 1 925 2 935 1 953 1 954 1 980 1 990 2 923 1 932 1 945 1 946 1 984 1 1006 1 1012 1 1013 1 1014 1 
1 209 15 1 19 1 35 1 40 1 53 1 58 1 61 1 114 1 144 2 168 1 183 1 196 1 201 2 209 1 250 1 276 1 294 1 296 1 312 1 324 1 340 1 342 1 389 1 390 1 405 2 409 1 443 1 482 1 541 1 553 1 556 1 569 1 582 1 587 1 601 1 616 1 620 1 669 1 677 1 705 1 712 1 746 1 764 1 766 1 771 1 790 1 797 1 803 1 848 1 850 1 863 1 890 1 892 2 909 1 910 1 10 1 56 1 59 1 73 1 92 1 97 1 123 1 124 1 128 1 129 1 200 1 212 1 235 1 267 1 297 1 337 1 351 1 372 1 380 1 417 1 426 1 450 1 464 1 477 1 481 1 497 1 510 1 603 1 605 1 624 1 629 1 653 1 694 1 695 1 698 1 700 1 706 1 737 1 740 1 749 1 761 1 792 1 799 1 807 1 821 1 822 1 823 1 915 1 930 1 931 1 946 1 947 1 956 2 964 1 974 1 926 1 939 1 948 1 958 1 969 1 980 1 1013 1 1024 1 
1 211 26 1 36 1 50 1 60 1 71 1 77 2 83 1 180 1 241 1 246 1 252 1 296 1 304 2 322 1 328 1 346 1 356 1 388 1 416 2 434 1 441 1 456 1 457 1 458 1 477 1 489 1 536 1 581 1 591 2 611 1 612 1 637 1 647 1 664 1 669 2 672 1 752 2 786 1 787 1 796 1 802 1 803 1 811 1 819 1 833 1 844 1 852 1 878 1 913 1 2 1 4 1 38 1 70 1 78 1 86 1 99 1 139 1 142 1 145 1 152 1 173 1 196 1 198 1 217 1 219 1 225 1 248 1 257 1 269 1 276 1 283 1 311 1 315 1 321 1 333 1 347 1 397 1 399 1 431 1 437 1 455 1 476 1 504 1 518 1 557 1 572 1 582 1 587 1 623 1 635 1 652 1 668 1 695 1 714 1 766 1 788 1 799 1 820 1 834 1 848 1 861 1 873 1 893 1 906 1 956 1 961 1 974 1 936 1 950 1 966 1 1003 1 1006 1 1017 1 
1 207 3 1 10 1 16 1 26 1 41 1 48 1 60 1 113 1 116 1 143 1 148 2 164 1 166 1 170 1 171 1 174 1 194 1 202 1 207 1 220 1 231 1 244 2 264 1 300 1 301 1 304 1 317 1 322 1 325 1 335 2 336 1 361 1 367 1 393 1 399 1 419 1 428 1 466 1 496 1 521 1 527 1 564 1 606 1 628 1 632 2 717 1 749 1 763 1 809 1 850 1 898 1 903 1 2 1 38 1 76 1 81 1 92 1 93 1 134 1 138 1 146 1 153 1 154 1 181 1 208 1 218 1 290 1 331 1 347 1 405 1 421 1 423 1 430 1 446 1 491 1 494 1 501 1 525 1 551 1 555 1 569 1 576 1 610 1 613 1 623 1 641 1 667 1 681 1 709 1 731 1 748 1 764 1 775 1 779 1 782 1 785 1 789 1 794 1 806 1 813 1 860 1 872 1 875 1 877 1 908 1 935 1 937 1 952 1 963 1 985 1 997 1 949 1 956 1 961 1 983 1 992 1 1002 1 1008 1 1013 1 1017 1 1018 1 
1 208 1 1 49 1 97 1 113 1 169 1 234 1 242 1 297 1 334 1 339 1 340 1 350 1 387 1 407 1 408 2 412 1 420 1 443 1 449 1 450 1 462 1 524 1 527 1 560 1 566 1 569 1 572 2 582 1 585 1 607 1 629 1 657 1 670 1 671 1 685 1 699 2 719 1 733 1 745 1 754 1 757 1 792 1 793 1 797 1 807 1 814 1 819 1 843 1 883 1 9 1 19 1 62 1 95 1 98 1 102 1 122 1 135 1 171 1 186 1 203 1 211 1 223 1 230 1 241 1 254 1 299 1 312 1 314 1 319 1 363 1 376 1 391 1 392 1 427 1 444 1 445 1 446 1 489 1 490 1 493 1 508 1 522 1 567 1 593 1 608 1 609 1 613 1 626 1 630 1 641 1 668 1 701 1 729 1 828 1 842 1 862 1 868 1 871 1 896 1 903 1 904 1 931 1 937 1 945 1 957 1 971 2 985 1 929 1 935 1 946 1 992 1 1001 1 1025 1 
1 207 9 1 12 1 26 1 105 2 114 2 119 2 141 1 151 1 168 2 196 1 220 1 246 1 248 1 250 1 259 1 273 1 338 1 366 1 373 1 383 1 391 1 400 1 432 1 443 1 462 1 483 1 526 1 537 1 551 1 576 1 593 1 618 1 620 1 651 1 654 1 658 1 665 1 674 1 679 1 683 1 685 1 706 1 732 1 740 1 761 2 798 1 810 1 833 1 835 1 855 1 871 1 880 1 886 1 892 1 35 1 36 1 58 1 68 1 72 1 79 1 90 1 129 1 135 1 138 1 144 1 207 1 215 1 266 1 278 1 285 1 321 1 350 1 379 1 382 1 398 1 425 1 433 1 459 1 465 1 488 1 490 1 491 1 496 1 536 1 579 1 613 1 615 1 635 1 649 1 692 1 713 1 723 1 753 1 760 1 794 1 860 1 865 1 879 1 911 1 913 1 921 1 921 1 927 2 928 1 938 1 976 1 997 1 999 1 922 1 936 1 947 1 1012 1 1027 1 
1 208 24 1 80 1 115 1 122 1 157 1 196 1 201 1 204 1 214 1 243 1 266 1 281 1 289 1 300 1 306 1 307 1 329 1 336 1 345 1 428 1 457 1 464 1 467 1 498 1 542 1 545 1 568 1 590 1 596 1 599 1 649 1 652 1 664 1 702 1 707 1 713 1 753 1 763 1 783 1 794 1 823 1 824 1 834 1 846 2 850 1 851 1 863 1 867 2 877 1 899 1 2 1 11 1 16 1 32 1 59 1 96 1 104 1 143 1 144 1 148 1 149 1 221 1 222 1 241 1 291 1 315 1 338 1 349 1 362 1 395 1 399 1 401 1 420 1 459 1 472 1 501 1 502 1 526 1 532 1 538 1 541 1 546 1 556 1 588 1 598 1 657 1 680 1 733 1 736 1 761 1 811 1 815 1 838 1 862 1 865 1 893 1 921 1 924 1 962 1 976 1 941 1 946 1 968 1 981 1 999 1 1005 1 1015 1 1016 1 1021 1 
1 207 12 2 22 1 33 1 94 1 112 1 161 1 172 1 221 1 227 1 240 1 288 1 302 1 305 1 314 1 318 1 359 1 379 1 405 1 407 1 412 1 462 1 522 1 527 1 528 1 573 1 590 1 646 1 650 1 687 1 694 1 697 1 708 1 709 1 721 1 738 2 774 1 777 1 780 1 799 1 810 1 818 1 831 1 857 1 861 1 872 1 890 1 898 1 5 1 8 1 54 1 56 1 74 1 83 1 110 1 125 1 150 1 154 1 163 1 168 1 181 1 183 1 186 1 189 1 230 1 233 1 242 1 249 1 284 1 300 1 310 1 324 1 344 1 356 1 384 1 388 1 402 1 448 1 484 1 503 1 568 1 571 1 577 1 593 1 608 1 610 1 640 1 641 1 648 1 717 1 734 1 744 1 762 1 837 1 850 1 854 1 860 1 902 1 905 1 916 1 927 1 933 1 937 2 953 1 957 1 959 1 973 1 976 1 985 1 945 1 947 1 956 1 963 1 972 1 1011 1 1026 1 
1 217 17 1 31 1 57 1 66 1 73 1 86 1 95 1 98 1 128 1 146 1 149 1 152 1 160 2 208 1 213 1 228 1 260 1 292 1 298 1 326 1 342 1 369 1 406 1 416 1 429 1 437 1 445 1 488 1 494 1 553 1 561 1 597 1 612 1 632 1 659 1 677 1 683 1 710 2 716 1 722 1 724 1 748 1 759 1 773 1 811 1 819 1 836 1 842 1 856 1 875 1 890 1 910 1 914 1 922 1 3 1 7 1 20 1 40 1 46 1 68 1 101 1 122 1 126 1 144 1 169 1 224 1 262 1 277 1 300 1 316 1 321 1 325 1 338 1 357 1 442 1 446 1 471 1 478 1 483 1 495 1 500 1 521 1 528 1 549 1 559 1 566 1 567 1 572 1 613 1 629 1 637 1 638 1 671 1 714 1 723 1 735 1 760 1 770 1 774 1 784 1 785 1 786 1 824 1 831 1 854 1 857 1 904 1 906 1 926 1 941 2 950 1 953 1 955 1 972 1 983 1 997 1 927 1 960 1 986 1 1002 1 1003 1 1010 1 1011 1 1012 1 1016 1 1018 1 1019 1 
1 214 7 1 20 1 28 1 49 1 50 1 72 1 102 1 118 1 131 1 136 1 159 1 181 1 182 2 184 1 186 1 195 1 213 1 239 1 295 1 304 1 310 1 332 1 336 1 342 1 364 1 395 1 448 1 451 1 452 1 473 1 507 1 523 1 538 1 554 1 569 1 617 1 618 1 656 2 678 1 686 1 690 1 696 1 697 1 714 1 722 1 727 1 735 1 736 1 740 1 762 1 783 1 811 1 816 1 873 1 882 1 884 1 896 1 915 1 916 2 10 1 63 1 85 1 124 1 135 1 137 1 172 1 202 1 237 1 242 1 268 1 284 1 287 1 292 1 337 1 353 1 354 1 355 1 439 1 465 1 509 1 556 1 563 1 587 1 612 1 624 1 628 1 631 1 649 1 670 1 707 1 755 1 756 1 760 1 773 1 781 1 787 1 832 1 852 1 858 1 866 1 898 1 964 1 974 1 982 1 997 1 953 1 963 1 979 1 989 1 1005 1 1027 1 
1 207 12 1 19 1 26 1 28 1 45 1 59 1 168 1 173 1 201 1 216 1 262 1 264 1 266 1 277 1 285 1 297 1 314 1 334 1 369 1 381 1 384 1 385 1 435 1 459 1 462 1 476 1 493 1 495 1 499 1 524 2 542 1 555 1 580 1 616 1 621 1 632 1 639 1 679 1 682 1 684 1 693 1 694 1 710 1 735 1 756 1 772 1 782 1 880 1 896 2 900 1 924 1 5 1 11 1 21 1 50 1 58 1 72 1 73 1 86 1 89 1 93 1 108 1 127 1 135 1 148 1 154 1 165 1 191 1 195 1 233 1 241 1 244 1 270 1 292 1 306 1 317 1 322 1 324 1 340 1 351 1 379 1 404 1 448 1 453 1 468 1 469 1 482 1 484 1 522 1 546 1 554 1 568 1 590 1 592 1 614 1 634 1 651 1 661 1 742 1 747 1 821 1 855 1 860 1 877 1 882 1 893 1 917 1 938 1 977 1 982 1 993 1 1011 1 
1 209 21 1 52 1 66 1 72 1 79 2 82 1 106 1 114 1 119 1 129 1 131 1 143 1 169 1 172 1 232 2 264 1 285 1 286 1 304 1 316 2 332 1 339 1 341 1 347 1 365 1 366 1 372 1 378 1 386 2 403 2 420 1 453 1 481 2 508 2 520 2 574 1 594 1 596 1 619 1 622 1 629 1 660 1 689 1 690 1 737 1 766 2 772 1 793 1 808 1 812 1 817 1 833 1 837 1 857 1 874 1 895 1 898 1 906 1 921 2 923 1 14 1 65 1 87 1 94 1 175 1 177 1 215 1 250 1 269 1 276 1 279 1 289 1 295 1 300 1 306 1 321 1 327 1 331 1 344 1 369 1 388 1 395 1 398 1 401 1 408 1 444 1 446 1 456 1 490 1 548 1 553 1 566 1 576 1 604 1 637 1 652 1 700 1 735 1 783 1 805 1 815 1 830 1 860 1 869 1 876 1 888 1 913 1 924 1 934 1 953 1 970 2 987 1 940 1 947 1 1005 1 1024 1 
1 210 4 1 94 1 95 1 133 1 151 1 170 1 185 1 191 1 245 1 252 1 286 1 298 1 306 1 314 1 338 1 355 1 373 1 391 1 399 1 450 1 458 1 461 1 480 1 530 1 536 1 579 1 593 1 598 1 641 1 657 2 664 1 671 1 679 1 686 1 693 2 702 1 704 1 730 1 731 1 749 1 759 1 763 1 771 1 787 2 827 1 831 1 842 1 847 2 859 2 871 1 874 1 883 1 889 1 921 1 18 1 112 1 125 1 126 1 187 1 195 1 229 1 240 1 248 1 271 1 330 1 334 1 365 1 371 1 400 1 425 1 432 1 465 1 486 1 488 1 499 1 509 1 560 1 571 1 575 1 599 1 606 1 630 1 651 1 658 1 666 1 667 1 675 1 688 1 700 1 724 1 728 1 751 1 802 1 817 1 884 1 894 1 896 1 904 1 907 1 912 1 914 1 929 1 938 1 942 1 944 1 959 1 975 1 984 1 991 2 969 1 1004 1 1016 1 1018 1 1021 1 1025 1 
1 211 13 1 42 1 51 1 70 1 110 1 120 1 163 1 172 1 239 1 247 1 289 1 297 2 314 1 324 1 338 1 392 1 398 1 436 2 454 1 486 1 541 1 566 1 581 1 583 1 604 1 622 1 637 1 640 1 668 1 673 1 678 1 694 1 696 1 718 1 734 1 738 1 744 1 765 1 782 1 786 1 804 1 829 1 850 1 858 1 867 1 868 1 885 1 889 1 928 1 1 1 16 1 27 1 56 1 64 1 128 1 140 1 148 1 157 1 160 1 175 1 186 1 216 1 255 1 271 1 277 1 280 1 291 1 328 1 366 1 379 1 401 1 403 1 412 1 414 1 458 1 477 1 491 1 514 1 565 1 584 1 616 1 621 1 703 1 705 1 736 1 745 1 767 1 773 1 781 1 791 1 837 1 852 1 853 1 854 1 920 1 962 1 971 1 973 1 967 1 978 1 984 1 1002 1 1007 1 1011 1 1014 1 1016 1 1021 1 
1 214 14 1 16 1 48 2 54 1 55 1 60 1 94 1 103 1 128 1 144 1 173 1 175 1 178 1 183 1 188 1 190 1 195 1 204 1 208 1 213 1 249 1 310 1 314 2 335 1 338 1 360 1 372 1 396 1 421 1 431 1 432 1 446 1 492 1 526 1 562 1 580 1 604 1 622 1 635 1 679 1 716 1 720 1 763 1 772 1 777 1 792 1 809 1 811 1 827 1 863 1 869 1 875 1 917 1 3 1 21 1 53 1 62 1 74 1 93 1 97 1 130 1 156 1 174 1 199 1 202 1 217 1 228 1 237 1 265 1 302 1 322 1 347 1 356 1 371 1 374 1 385 1 399 1 403 1 407 1 414 1 447 1 449 1 450 1 463 1 464 1 473 1 496 1 525 1 531 1 546 1 570 1 574 1 582 1 588 1 617 1 624 1 645 1 686 1 740 1 789 1 801 1 834 1 849 1 862 1 864 1 888 1 913 1 937 1 959 1 966 1 997 1 936 1 947 1 948 1 977 1 984 1 1015 1 1017 1 1026 1 
1 208 6 1 13 1 25 1 57 1 61 1 69 1 83 1 85 1 94 1 107 1 126 1 155 1 168 1 170 1 172 1 196 1 209 1 220 1 223 1 229 1 237 1 274 1 278 1 295 1 299 1 316 1 348 1 351 1 352 1 363 1 400 1 401 1 435 1 445 1 499 1 523 1 559 1 568 1 579 2 590 2 601 1 621 1 626 1 656 1 673 2 683 1 690 1 736 1 740 1 766 1 771 1 786 1 788 1 799 1 807 2 832 1 860 1 866 1 892 1 897 1 917 1 920 1 24 1 47 1 82 1 93 1 99 1 105 1 132 1 198 1 225 1 231 1 253 1 255 1 272 1 303 1 310 1 345 1 357 1 360 1 384 1 388 1 409 1 431 1 447 1 464 1 510 1 542 1 544 1 548 1 574 1 600 1 602 1 610 1 611 1 612 1 655 1 677 1 696 1 702 1 756 1 784 1 790 1 811 1 820 1 821 1 846 1 849 1 880 1 893 1 933 1 946 1 984 2 934 1 939 1 947 1 996 1 1008 1 1022 1 
1 209 8 1 14 1 37 1 57 1 70 1 74 1 78 1 80 1 107 1 109 1 123 1 158 1 161 1 176 1 238 1 266 1 280 1 281 1 292 1 312 1 343 1 344 1 366 1 375 1 386 1 387 1 415 1 435 1 452 1 468 1 484 1 486 1 488 1 495 2 509 1 552 1 562 1 570 1 571 1 572 1 615 1 622 1 664 1 670 1 684 1 716 1 723 1 729 2 730 1 745 2 747 1 795 1 812 1 819 1 833 1 845 1 864 2 870 1 886 1 897 1 907 1 31 1 32 1 36 1 49 1 54 1 119 1 141 1 153 1 160 1 169 1 171 1 179 1 210 1 220 1 221 1 253 1 282 1 319 1 325 1 370 1 392 1 418 1 431 1 437 1 448 1 456 1 473 1 520 1 566 1 585 1 604 1 625 1 648 1 680 1 681 1 689 1 693 1 706 1 715 1 724 1 739 1 764 1 765 1 781 1 808 1 824 1 828 1 838 1 865 1 910 1 916 1 941 1 948 1 959 2 965 1 970 1 980 1 981 2 
1 211 39 1 41 1 43 1 55 1 58 1 69 1 93 1 102 1 118 1 119 1 128 1 130 1 147 1 178 1 187 1 268 2 272 1 276 1 295 1 351 1 355 1 360 1 413 1 426 1 440 1 448 1 471 1 483 1 492 2 507 1 513 1 517 1 518 1 523 1 524 1 528 1 537 1 566 1 611 1 641 1 678 1 690 1 758 1 788 1 790 1 803 1 812 1 834 2 859 2 865 1 903 1 923 1 931 1 3 1 61 1 73 1 79 1 84 1 107 1 110 1 177 1 207 1 251 1 261 1 296 1 307 1 338 1 367 1 368 1 389 1 394 1 469 1 473 1 476 1 494 1 497 1 534 1 540 1 543 1 570 1 577 1 588 1 593 1 616 1 617 1 618 1 632 1 654 1 677 1 693 1 700 1 711 1 719 1 724 1 755 1 802 1 823 1 851 1 855 1 871 1 878 1 887 1 906 1 947 1 949 1 966 1 991 1 964 1 968 1 979 1 983 1 992 1 996 1 999 1 1008 1 1010 1 1019 1 
1 211 13 1 21 1 29 1 41 1 60 1 67 1 91 1 119 1 127 1 145 1 162 1 165 1 174 2 189 1 202 1 210 1 217 1 229 1 232 1 289 1 290 1 303 1 323 1 327 1 355 1 363 1 374 1 381 1 395 1 401 1 416 1 421 1 485 1 489 1 517 1 533 1 537 2 540 1 544 1 554 1 588 1 593 1 595 1 596 1 627 1 662 1 707 1 719 1 753 1 775 1 800 1 806 1 812 1 815 1 846 1 861 1 863 1 867 1 871 2 885 1 927 1 62 1 66 1 104 1 118 1 128 1 201 1 239 1 267 1 269 1 318 1 319 1 330 1 366 1 387 1 404 1 415 1 436 1 453 1 459 1 460 1 467 1 476 1 518 1 560 1 571 1 603 1 630 1 659 1 660 1 682 1 690 1 692 1 693 1 694 1 730 1 732 1 751 1 779 1 819 1 841 1 874 1 880 1 931 1 956 1 975 1 985 1 992 1 993 1 995 1 935 1 942 1 950 1 965 1 1002 1 1025 1 1026 1 
1 215 76 2 122 1 127 1 137 1 148 1 173 1 242 1 248 1 251 1 259 1 260 1 269 1 273 1 279 1 281 1 300 1 302 1 303 1 318 1 325 1 337 1 393 1 404 2 418 1 431 1 434 1 462 1 463 1 501 1 524 1 532 1 587 1 588 1 609 1 610 1 617 1 637 2 662 1 707 1 736 1 796 1 801 1 805 1 807 1 809 1 825 1 872 1 877 1 893 1 895 1 916 1 919 1 9 1 10 1 38 1 46 1 61 1 68 1 83 1 90 1 92 1 130 1 131 1 133 1 153 1 196 1 218 1 237 1 268 1 277 1 282 1 283 1 285 1 301 1 339 1 362 1 367 1 376 1 392 1 402 1 436 1 456 1 457 1 467 1 471 1 474 1 511 1 531 1 547 1 552 1 647 1 675 1 676 1 683 1 716 1 718 1 744 1 747 1 753 1 774 1 781 1 782 1 806 1 821 1 873 1 888 1 902 1 909 1 915 1 920 1 934 1 975 1 954 1 967 1 973 1 976 1 1010 1 1020 1 
1 209 34 1 41 1 57 1 101 1 116 1 143 1 148 1 166 1 180 1 188 1 193 1 203 1 211 1 229 2 253 1 262 1 325 1 326 1 332 1 337 1 356 1 358 1 359 1 363 1 375 1 395 1 396 2 460 1 486 1 488 1 508 1 510 1 534 1 545 1 573 1 594 1 618 1 631 1 635 1 689 1 700 1 728 1 744 1 787 1 813 1 814 1 830 1 849 1 876 1 878 1 902 1 7 1 70 1 87 1 136 1 154 1 157 1 167 1 171 1 234 1 239 1 252 1 265 1 296 1 333 1 338 1 346 1 367 1 377 1 421 1 436 1 525 1 529 1 541 1 564 1 585 1 590 1 593 1 624 1 640 1 662 1 663 1 719 1 722 1 726 1 746 1 752 1 794 1 800 1 871 1 879 1 887 1 895 1 904 1 911 1 918 1 921 1 930 1 936 1 936 1 940 2 960 1 990 1 992 1 937 1 943 1 944 1 948 1 952 1 966 1 968 1 976 1 977 1 999 1 
1 205 4 1 27 1 36 1 61 1 67 1 80 2 104 1 122 1 140 1 176 1 178 2 189 2 209 1 218 1 232 1 250 1 252 1 279 1 291 1 305 1 306 1 325 1 344 1 360 1 365 1 373 1 400 1 409 1 414 1 420 1 433 1 475 1 486 1 508 1 537 1 549 1 574 1 615 1 644 1 649 2 653 1 654 1 664 1 670 1 696 1 699 1 709 1 715 1 719 1 743 1 760 1 766 1 780 1 782 1 825 1 833 1 838 1 866 1 880 1 898 2 911 2 914 1 919 1 920 1 923 2 930 1 62 1 132 1 153 1 164 1 182 1 188 1 215 1 224 1 226 1 259 1 266 1 268 1 274 1 327 1 346 1 364 1 407 1 415 1 428 1 431 1 459 1 481 1 514 1 545 1 554 1 572 1 600 1 625 1 631 1 648 1 660 1 661 1 662 1 666 1 690 1 718 1 731 1 741 1 767 1 828 1 842 1 870 1 873 1 936 1 940 1 942 1 946 1 943 1 945 1 963 1 979 1 1025 1 1026 1 
1 217 11 2 48 1 58 1 66 1 71 1 101 1 157 1 162 1 178 1 186 1 229 1 260 1 285 1 298 1 308 1 326 1 348 1 350 1 355 1 356 1 374 1 380 1 393 1 407 1 408 1 446 1 447 1 463 1 469 1 472 1 499 2 508 2 521 1 527 1 536 2 539 1 564 1 566 1 577 1 595 1 612 1 620 1 629 1 678 1 691 1 694 1 698 1 705 1 720 1 730 1 734 1 747 1 793 1 797 1 809 1 838 1 852 1 864 1 884 1 921 1 926 1 928 1 19 1 33 1 34 1 41 1 69 1 98 1 104 1 105 1 167 1 181 1 197 1 224 1 225 1 256 1 264 1 276 1 317 1 323 1 398 1 403 1 406 1 444 1 448 1 459 1 465 1 483 1 485 1 523 1 555 1 560 1 563 1 607 1 608 1 611 1 613 1 616 1 621 1 627 1 632 1 643 1 663 1 670 1 672 1 700 1 711 1 723 1 737 1 754 1 761 1 799 1 830 1 836 1 841 1 860 1 865 1 885 1 896 1 915 1 972 1 984 1 1006 1 1023 1 
1 214 17 1 23 1 31 1 33 1 37 1 39 1 40 1 49 1 68 1 71 1 82 1 94 1 100 1 115 1 136 1 150 1 155 1 195 1 202 1 206 1 209 1 234 1 245 1 255 1 264 1 266 1 273 1 344 1 346 1 382 1 387 1 396 1 406 1 440 1 458 1 498 1 514 1 521 1 544 1 555 1 594 1 603 1 616 1 627 1 633 1 643 1 649 1 652 1 671 1 709 1 727 1 768 1 798 1 801 1 843 1 862 1 881 1 883 1 904 1 909 1 1 1 5 1 36 1 61 1 62 1 98 1 101 1 124 1 156 1 183 1 194 1 213 1 241 1 263 1 307 1 324 1 345 1 358 1 364 1 377 1 392 1 418 1 419 1 430 1 469 1 472 1 478 1 507 1 512 1 538 1 587 1 592 1 622 1 639 1 642 1 655 1 663 1 731 1 749 1 759 1 789 1 815 1 832 1 851 1 865 1 887 1 893 1 905 1 914 1 917 1 931 1 945 1 950 1 961 1 968 2 990 1 993 1 994 1 940 1 956 1 962 1 1002 1 1008 1 1011 1 1020 1 1021 1 
1 215 12 1 57 1 73 1 80 1 114 1 124 1 125 2 136 1 138 1 157 1 171 1 209 1 218 1 219 1 225 1 233 1 255 1 303 2 319 1 336 1 377 1 419 1 426 1 436 1 447 2 450 1 457 1 476 1 497 1 525 1 540 1 541 1 556 1 559 1 574 1 598 1 601 1 631 1 633 1 640 1 643 1 657 1 720 1 750 1 757 1 769 1 783 1 801 1 848 1 864 1 879 1 902 1 936 2 937 1 14 1 20 1 33 1 116 1 132 1 135 1 137 1 145 1 148 1 158 1 195 1 264 1 276 1 288 1 292 1 305 1 309 1 322 1 328 1 341 1 357 1 374 1 387 1 395 1 474 1 490 1 496 1 507 1 547 1 586 1 610 1 672 1 688 1 699 1 730 1 755 1 808 1 821 1 846 1 893 1 901 1 927 1 939 1 943 1 944 1 955 1 948 1 967 1 994 1 1006 1 
1 209 62 1 63 1 65 1 72 1 76 1 89 1 99 1 105 1 120 2 132 1 150 1 165 1 196 1 206 1 238 1 240 1 256 1 263 1 291 1 340 1 358 1 364 1 387 1 423 1 431 1 436 1 439 1 493 1 515 1 526 1 549 1 559 1 582 1 597 1 602 1 608 1 628 1 681 1 686 1 695 1 703 1 772 1 830 1 845 1 863 1 869 1 893 1 915 1 924 2 932 1 1 1 45 1 107 1 117 1 157 1 158 1 162 1 167 1 183 1 223 1 249 1 260 1 279 1 348 1 357 1 379 1 396 1 412 1 432 1 459 1 469 1 487 1 552 1 558 1 566 1 575 1 592 1 593 1 636 1 638 1 641 1 669 1 679 1 680 1 740 1 759 1 764 1 813 1 825 1 827 1 834 1 837 1 851 1 857 1 866 1 909 1 922 1 948 1 951 1 957 1 962 1 984 1 985 1 999 1 955 1 1016 1 1019 1 
1 207 7 1 70 1 91 1 119 1 135 2 137 1 191 1 193 1 194 1 234 1 249 1 303 2 326 1 356 1 384 1 412 1 413 1 415 1 422 1 424 1 439 1 450 1 467 1 505 1 511 1 515 1 589 1 605 1 690 1 712 1 740 1 741 1 754 2 761 1 795 1 797 1 803 1 815 2 821 1 845 1 855 1 886 1 892 1 928 1 937 1 23 1 42 1 47 1 55 1 56 1 67 1 80 1 83 1 113 1 133 1 138 1 156 1 163 1 173 1 190 1 200 1 204 1 224 1 246 1 278 1 309 1 313 1 314 1 350 1 354 1 364 1 374 1 383 1 385 1 389 1 448 1 466 1 512 1 538 1 565 1 570 1 575 1 577 1 578 1 581 1 619 1 629 1 633 1 646 1 660 1 668 1 691 1 721 1 735 1 744 1 764 1 793 1 806 1 809 1 814 1 818 1 858 1 896 1 909 1 934 1 991 1 968 1 987 1 988 1 990 1 993 1 999 1 1000 1 1022 1 
1 215 11 1 38 1 74 1 77 1 81 2 94 1 131 1 147 1 152 1 190 1 192 1 234 1 246 1 258 1 269 1 281 1 302 1 321 1 329 1 330 1 333 1 334 1 344 1 345 1 346 1 351 1 374 1 408 1 412 1 416 1 427 1 433 1 447 1 535 1 539 1 552 2 562 1 587 1 701 1 709 1 749 1 754 1 755 1 759 1 781 1 782 1 831 1 878 1 882 1 898 1 906 1 913 1 940 1 1 1 6 1 13 1 16 1 31 1 69 1 109 1 114 1 135 1 155 1 160 1 170 1 175 1 181 1 187 1 203 1 226 1 237 1 259 1 284 1 310 1 320 1 446 1 495 1 507 1 518 1 532 1 544 1 554 1 569 1 574 1 586 1 597 1 661 1 761 1 762 1 816 1 819 1 828 1 884 1 936 1 937 1 957 1 954 1 1000 1 1001 1 1004 1 1011 1 1021 1 1022 1 
1 207 10 1 15 1 21 1 44 1 46 1 58 1 64 1 67 1 70 1 76 1 85 1 104 1 106 1 133 1 170 1 240 1 250 1 269 1 299 2 310 1 316 1 317 1 318 1 409 1 426 1 443 1 446 1 451 1 494 1 498 1 501 1 503 1 539 1 564 1 565 1 572 1 579 2 621 1 627 1 639 1 680 1 682 1 717 1 730 1 740 1 743 1 755 1 762 1 773 1 799 1 826 1 839 1 850 1 855 1 856 1 862 1 909 1 928 1 940 1 25 1 40 1 60 1 68 1 74 1 77 1 80 1 83 1 135 1 140 1 183 1 185 1 191 1 203 1 217 1 218 1 219 1 275 1 301 1 307 1 321 1 346 1 352 1 356 1 361 1 377 1 384 1 389 1 402 1 410 1 472 1 497 1 518 1 541 1 575 1 588 1 598 1 628 1 634 1 666 1 670 1 672 1 699 1 727 1 734 1 737 1 795 1 800 1 828 1 845 1 883 1 890 1 896 1 903 1 915 1 936 1 969 1 983 1 984 1 988 1 956 1 960 1 1003 1 1026 1 
1 206 13 1 33 1 48 1 56 1 60 1 88 1 110 1 121 1 134 1 146 1 147 1 148 1 168 1 194 1 198 1 208 1 209 1 215 1 225 1 228 1 296 1 354 1 376 1 391 1 418 1 431 1 433 1 435 1 449 1 466 1 467 1 478 1 497 1 501 1 512 1 516 1 539 1 552 1 582 1 607 1 638 1 639 1 641 1 657 1 676 1 718 1 730 1 735 1 745 1 757 1 777 1 811 1 813 1 814 1 830 1 847 1 859 1 878 1 920 1 939 1 5 1 40 1 42 1 47 1 57 1 59 1 130 1 133 1 149 1 186 1 193 1 206 1 212 1 230 1 276 1 282 1 292 1 299 1 333 1 343 1 364 1 378 1 502 1 563 1 574 1 599 1 620 1 621 1 652 1 666 1 719 1 720 1 736 1 795 1 875 1 891 1 892 1 893 1 897 1 916 1 923 1 937 1 954 1 980 1 986 1 990 1 962 1 973 1 988 1 989 1 1003 1 1023 1 
1 207 12 1 24 1 51 1 72 1 88 1 89 1 152 1 171 1 188 1 211 1 214 1 224 1 225 1 275 1 287 1 297 1 301 1 337 1 385 1 402 1 403 1 413 1 414 1 416 1 428 1 437 1 447 1 449 1 470 1 529 2 540 2 563 1 569 1 627 1 661 1 716 1 745 1 748 1 772 1 773 2 786 1 840 1 871 1 896 1 908 1 917 1 931 1 937 1 23 1 25 1 26 1 39 1 42 1 84 1 93 1 137 1 140 1 144 1 165 1 181 1 199 1 220 1 231 1 243 1 245 1 247 1 259 1 309 1 324 1 350 1 375 1 390 1 417 1 461 1 509 1 515 1 531 1 547 1 558 1 580 1 597 1 601 1 684 1 691 1 708 1 727 1 749 1 824 1 846 1 861 1 870 1 872 1 891 1 916 1 920 1 922 1 947 1 966 1 986 1 950 1 963 1 967 1 968 1 981 1 1002 1 1003 1 1011 1 1025 1 
1 207 19 1 68 2 74 1 76 1 85 1 94 1 99 1 105 1 151 1 166 1 194 1 195 1 225 1 244 1 253 1 288 1 292 1 333 1 338 1 354 1 363 1 398 1 420 2 431 1 432 1 444 1 451 1 454 1 501 1 547 1 563 1 596 1 628 1 641 1 650 1 677 1 721 1 758 1 778 1 787 2 788 1 822 1 824 1 825 1 843 1 870 1 902 1 917 1 933 1 946 1 18 1 48 1 63 1 69 1 79 1 89 1 95 1 97 1 110 1 175 1 219 1 256 1 298 1 306 1 311 1 326 1 341 1 348 1 359 1 373 1 375 1 378 1 419 1 423 1 428 1 459 1 519 1 532 1 533 1 555 1 564 1 568 1 578 1 588 1 595 1 612 1 616 1 644 1 654 1 655 1 663 1 668 1 686 1 728 1 729 1 732 1 752 1 777 1 781 1 786 1 809 1 833 1 839 1 853 1 857 1 872 1 892 1 894 1 921 1 923 1 927 1 930 1 931 1 991 1 971 1 979 1 983 1 998 1 1000 1 1002 1 1008 1 1024 1 
1 205 3 1 8 1 21 1 23 1 38 1 42 1 60 2 65 1 67 1 101 1 123 1 145 1 158 1 197 1 213 1 240 1 241 1 261 1 270 1 296 1 301 1 316 1 320 1 333 1 338 1 367 2 370 1 377 1 380 1 382 1 385 1 394 1 402 1 417 1 448 1 518 1 520 1 527 1 542 1 545 1 556 1 600 1 602 1 603 1 617 1 701 1 718 1 751 1 753 1 759 1 799 1 802 1 806 1 839 1 847 1 852 1 853 1 857 1 906 1 909 1 932 1 941 1 6 1 12 1 78 1 110 1 117 1 173 1 204 1 238 1 260 1 262 1 268 1 273 1 307 1 343 1 351 1 373 1 381 1 392 1 410 1 439 1 440 1 451 1 460 1 471 1 472 1 543 1 561 1 648 1 670 1 675 1 705 1 719 1 723 1 727 1 748 1 776 1 778 1 795 1 817 1 861 1 870 1 917 1 930 1 936 1 940 1 955 1 963 1 976 1 986 1 993 1 994 1 1014 1 
1 207 7 2 12 1 23 1 26 2 35 1 51 1 110 1 114 1 116 1 133 1 141 1 150 1 163 1 172 1 173 2 188 1 205 1 207 2 210 1 213 1 216 1 217 1 219 1 254 1 255 1 256 1 261 1 275 1 299 1 324 1 332 1 346 1 350 1 365 1 410 1 411 1 431 1 466 1 494 1 495 1 502 1 613 1 617 1 642 1 661 1 668 1 708 1 721 1 784 1 790 1 821 1 835 1 839 1 884 1 885 2 903 1 912 1 933 1 8 1 25 1 40 1 73 1 78 1 96 1 142 1 151 1 156 1 179 1 229 1 244 1 251 1 263 1 267 1 283 1 333 1 340 1 353 1 366 1 372 1 391 1 417 1 425 1 435 1 447 1 542 1 552 1 565 1 575 1 587 1 601 1 610 1 627 1 633 1 673 1 707 1 715 1 732 1 763 1 769 1 773 1 780 1 785 1 792 1 852 1 879 1 895 1 919 1 956 1 964 1 990 1 957 1 967 1 983 1 992 1 1008 1 1018 1 
1 212 28 1 63 1 87 1 91 1 109 1 121 1 129 1 181 1 195 1 217 1 260 1 289 1 301 1 316 1 326 1 355 1 379 1 380 1 393 1 437 2 438 1 444 1 468 1 510 1 548 1 584 1 586 1 600 1 624 1 629 1 661 1 664 1 665 1 699 1 713 1 716 2 761 1 793 1 804 1 831 1 843 2 856 1 874 1 891 1 924 1 939 1 33 1 34 1 40 1 46 1 61 1 62 1 79 1 123 1 136 1 150 1 177 1 185 1 225 1 233 1 236 1 307 1 318 1 320 1 340 1 352 1 367 1 378 1 384 1 406 1 467 1 491 1 497 1 501 1 511 1 521 1 528 1 546 1 570 1 574 1 592 1 594 1 615 1 631 1 634 1 691 1 694 1 707 1 708 1 723 1 729 1 738 1 745 1 746 1 753 1 776 1 783 1 800 1 816 1 823 1 828 1 851 1 877 1 900 1 914 1 918 1 934 1 946 1 952 1 970 1 982 1 992 1 993 2 957 1 967 1 988 1 1013 1 1018 1 
1 210 13 1 18 1 19 1 36 1 99 1 106 1 134 1 147 1 202 1 216 1 243 1 244 1 258 1 270 1 335 1 359 1 375 1 381 1 386 1 392 2 408 1 427 2 433 1 466 1 513 1 530 1 555 1 556 1 578 1 584 1 608 1 612 1 614 1 617 1 652 1 660 1 676 1 679 1 712 1 734 1 751 1 759 1 771 1 772 1 796 1 839 1 841 1 853 2 883 1 899 1 900 1 914 1 941 1 5 1 17 1 60 1 63 1 83 1 86 1 92 1 96 1 118 1 130 1 131 1 169 1 176 1 186 1 198 1 221 1 249 1 271 1 287 1 299 1 307 1 313 1 314 1 324 1 330 1 332 1 333 1 347 1 387 1 388 1 405 1 438 1 452 1 455 1 489 1 494 1 498 1 505 1 512 1 540 1 541 1 573 1 579 1 581 1 589 1 594 1 615 1 618 1 628 1 634 1 639 1 640 1 651 1 675 1 688 1 706 1 733 1 735 1 748 1 750 1 758 1 760 1 761 1 779 1 816 1 888 1 977 1 957 1 979 1 983 1 1012 1 1019 1 1026 1 
1 210 3 2 46 1 54 2 65 1 75 1 77 2 82 1 102 1 128 1 138 2 146 1 173 1 183 1 191 1 198 1 199 1 210 1 219 1 230 1 252 1 284 1 302 1 319 1 335 1 362 1 378 1 382 1 391 1 408 2 420 1 441 1 468 1 488 1 489 1 494 1 529 1 577 1 583 1 603 1 605 1 608 1 633 1 642 1 676 1 696 1 697 1 714 1 747 1 751 2 775 1 793 1 804 1 808 1 815 1 890 1 896 1 909 1 919 1 950 1 28 1 52 1 63 1 81 1 92 1 114 1 126 1 143 1 157 1 214 1 226 1 234 1 255 1 263 1 283 1 296 1 308 1 328 1 337 1 342 1 473 1 478 1 501 1 544 1 551 1 579 1 588 1 611 1 626 1 630 1 637 1 670 1 677 1 684 1 709 1 711 1 756 1 787 1 796 1 820 1 855 1 869 1 870 1 885 1 892 1 906 1 936 1 964 1 970 1 983 1 985 1 960 1 967 1 975 1 981 1 1011 1 1012 1 1014 1 1021 1 1026 1 
1 209 6 1 48 1 55 1 105 1 124 1 126 1 188 1 189 1 223 1 226 1 229 1 232 1 236 1 242 1 246 1 251 1 252 1 258 1 292 1 299 1 308 1 315 1 325 2 333 1 364 1 390 1 441 2 442 1 444 1 450 1 480 1 485 1 515 1 539 1 571 1 587 1 591 1 638 1 651 1 657 1 676 1 678 2 694 1 729 1 739 1 745 1 754 2 767 1 818 1 836 1 844 1 861 1 868 1 882 1 916 1 923 1 924 1 927 1 21 1 27 1 56 1 57 1 72 1 77 1 90 1 100 1 107 1 118 1 125 1 162 1 163 1 180 1 182 1 198 1 202 1 206 1 213 1 235 1 249 1 272 1 279 1 302 1 304 1 307 1 312 1 327 1 342 1 346 1 355 1 361 1 385 1 387 1 432 1 458 1 462 1 471 1 482 1 505 1 550 1 575 1 581 1 593 1 617 1 628 1 639 1 645 1 683 1 685 1 688 1 820 1 822 1 857 1 877 1 881 1 886 1 888 1 895 1 925 1 976 1 965 1 966 1 971 1 993 1 1009 1 1015 1 1027 1 
1 212 3 1 12 2 15 1 22 1 28 1 69 1 91 1 104 1 109 1 132 1 221 1 229 1 240 1 248 1 260 1 263 1 270 1 274 1 296 1 355 1 374 1 379 1 381 1 413 1 443 1 490 1 525 2 571 1 576 2 577 1 578 1 607 1 623 2 624 2 625 1 639 1 645 1 649 1 663 1 689 1 695 1 715 1 721 1 735 1 764 2 843 1 847 1 853 1 865 1 877 1 887 1 895 1 916 1 945 1 13 1 14 1 20 1 26 1 36 1 42 1 92 1 162 1 213 1 262 1 284 1 328 1 339 1 365 1 370 1 372 1 384 1 387 1 396 1 440 1 486 1 535 1 549 1 567 1 573 1 579 1 584 1 631 1 659 1 662 1 665 1 684 1 698 1 711 1 725 1 759 1 770 1 804 1 815 1 831 1 860 1 862 1 875 1 883 1 896 1 935 1 943 1 954 1 954 1 961 1 963 1 978 2 977 1 992 1 1003 1 1007 1 1021 1 1025 1 
1 216 14 1 19 1 34 1 72 1 103 1 114 1 118 1 155 1 158 1 159 1 182 1 183 2 197 1 227 1 247 1 271 1 279 1 310 1 317 1 329 1 405 1 423 1 429 1 440 1 461 1 475 1 507 1 512 1 533 1 547 1 558 1 566 1 571 1 601 1 606 1 626 1 668 1 676 1 682 1 683 1 696 1 725 1 774 1 792 1 795 1 805 1 833 1 874 1 885 1 886 1 914 1 924 1 940 1 74 1 75 1 88 1 104 1 144 1 161 1 162 1 219 1 245 1 282 1 283 1 289 1 348 1 371 1 381 1 385 1 407 1 418 1 426 1 450 1 462 1 471 1 476 1 505 1 515 1 524 1 525 1 530 1 539 1 575 1 578 1 580 1 594 1 607 1 638 1 665 1 669 1 671 1 685 1 701 1 718 1 777 1 820 1 846 1 848 1 870 1 901 1 902 1 915 1 941 1 948 1 958 1 984 1 987 1 967 1 979 1 981 1 998 1 1000 1 1002 1 1011 1 1026 1 
1 208 23 1 55 1 60 1 71 1 73 1 120 1 121 1 123 1 124 1 135 2 140 1 149 1 164 1 171 1 173 1 181 1 286 1 317 1 361 1 371 2 400 1 404 1 430 1 445 1 506 2 513 1 518 1 524 1 533 1 559 1 572 1 573 1 666 1 681 1 715 1 723 1 776 1 789 1 795 1 797 1 804 1 813 1 816 1 890 1 909 1 917 2 918 1 934 1 949 1 36 1 44 1 51 1 113 1 153 1 154 1 169 1 206 1 208 1 229 1 230 1 247 1 249 1 277 1 372 1 373 1 387 1 389 1 415 1 429 1 456 1 461 1 464 1 465 1 499 1 515 1 517 1 519 1 555 1 565 1 592 1 594 1 603 1 606 1 607 1 636 1 645 1 670 1 678 1 687 1 752 1 753 1 784 1 817 1 818 1 834 1 849 1 858 1 881 1 884 1 901 1 906 1 919 1 923 1 939 1 944 1 958 1 962 1 982 1 987 1 994 1 1012 1 1015 1 
1 210 8 1 14 1 43 1 50 1 52 1 55 1 75 1 97 1 98 2 132 1 139 1 178 1 185 1 195 1 198 1 217 1 263 1 275 1 312 1 381 1 395 1 415 2 429 1 434 1 490 1 497 1 513 1 527 1 543 1 553 1 557 1 585 1 591 1 594 1 605 1 619 1 634 1 645 1 667 1 675 1 684 2 688 1 696 1 699 1 711 1 805 1 807 1 810 1 812 1 826 1 842 1 920 1 923 1 941 1 943 1 2 1 26 1 61 1 64 1 65 1 87 1 114 1 116 1 176 1 189 1 239 1 244 1 250 1 257 1 302 1 355 1 380 1 384 1 401 1 418 1 425 1 467 1 494 1 510 1 519 1 535 1 561 1 564 1 583 1 593 1 595 1 652 1 664 1 683 1 685 1 714 1 730 1 787 1 788 1 794 1 801 1 820 1 823 1 827 1 838 1 867 1 880 1 949 1 950 1 951 1 962 1 972 1 999 1 986 1 989 1 995 1 1008 1 1016 1 
1 210 30 1 37 1 45 1 52 1 82 1 85 1 105 1 125 1 154 1 174 1 216 1 234 1 291 1 298 1 306 1 314 2 323 1 328 1 346 1 355 1 395 1 397 1 414 1 430 2 433 1 439 1 446 1 448 1 455 1 462 1 466 1 509 1 511 1 534 1 564 1 572 2 586 1 590 1 597 1 611 2 643 1 652 1 660 1 668 1 689 1 700 1 703 1 721 1 730 1 739 2 787 1 822 2 840 1 858 1 867 1 879 1 903 1 955 1 956 1 13 1 15 1 29 1 46 1 80 1 92 1 96 1 98 1 124 1 136 1 141 1 151 1 159 1 172 1 173 1 188 1 212 1 230 1 242 1 290 1 292 1 300 1 318 1 325 1 364 1 385 1 387 1 399 1 415 1 432 1 441 1 444 1 469 1 483 1 512 1 525 1 553 1 578 1 603 1 645 1 647 1 658 1 659 1 670 1 712 1 723 1 725 1 731 1 734 1 759 1 765 1 770 1 820 1 877 1 905 1 906 1 917 1 963 1 977 1 1016 1 1022 1 
1 210 7 1 9 1 50 1 100 1 111 1 115 1 143 1 145 1 182 1 188 1 201 1 226 1 250 1 270 1 276 1 289 1 294 1 305 1 309 1 319 1 326 1 327 1 328 1 341 1 348 1 352 2 371 1 395 1 422 2 424 1 425 1 439 1 449 1 476 1 514 1 544 1 564 1 569 1 627 1 633 1 690 1 727 1 730 1 772 1 779 1 791 1 809 1 821 1 850 1 851 1 854 1 888 1 913 2 923 1 928 1 930 1 932 2 18 1 33 1 47 1 51 1 64 1 69 1 75 1 78 1 82 1 99 1 127 1 129 1 146 1 171 1 185 1 202 1 204 1 210 1 244 1 257 1 307 1 316 1 324 1 344 1 365 1 372 1 391 1 397 1 435 1 438 1 450 1 479 1 488 1 505 1 510 1 527 1 533 1 540 1 559 1 577 1 591 1 648 1 692 1 705 1 710 1 711 1 756 1 764 1 789 1 799 1 858 1 875 1 966 1 977 1 964 1 968 1 983 1 1009 1 1012 1 1027 1 
1 210 22 1 52 1 62 1 73 1 85 1 99 1 109 1 112 1 113 1 129 1 136 1 163 1 176 1 222 1 223 2 242 1 243 1 299 1 349 1 359 1 485 1 486 1 489 1 518 1 524 1 530 1 538 1 578 1 591 1 638 1 641 1 662 1 686 1 689 1 707 1 708 1 714 1 722 1 740 1 756 2 791 1 800 1 808 1 814 1 841 1 846 1 856 1 909 1 936 1 7 1 30 1 50 1 59 1 70 1 84 1 95 1 122 1 131 1 143 1 180 1 181 1 217 1 219 1 248 1 255 1 300 1 312 1 332 1 339 1 390 1 407 1 419 1 427 1 450 1 451 1 479 1 491 1 501 1 513 1 517 1 537 1 582 1 602 1 607 1 622 1 657 1 681 1 726 1 733 1 744 1 747 1 768 1 777 1 795 1 798 1 807 1 809 1 817 1 842 1 864 1 902 1 903 1 924 1 944 1 952 1 970 1 976 1 988 1 969 1 982 1 1007 1 1021 1 
1 210 17 2 59 1 62 1 91 1 106 1 116 1 124 1 132 1 134 1 138 1 142 1 158 1 162 1 180 1 187 1 198 1 296 1 297 1 308 1 310 1 378 1 399 1 400 2 418 1 443 1 445 1 447 1 470 1 481 1 500 1 504 1 505 1 515 1 529 1 546 1 561 1 573 1 575 2 579 1 581 1 595 1 611 1 627 1 633 1 687 1 695 1 733 1 766 1 782 1 811 2 849 1 857 1 918 1 939 1 954 1 20 1 37 1 41 1 53 1 66 1 107 1 114 1 117 1 150 1 171 1 226 1 229 1 278 1 280 1 305 1 352 1 376 1 396 1 453 1 474 1 508 1 527 1 534 1 585 1 587 1 590 1 594 1 618 1 620 1 635 1 648 1 701 1 713 1 745 1 769 1 786 1 793 1 859 1 863 1 883 1 902 1 919 1 961 1 961 1 978 1 981 1 987 1 992 1 997 1 1012 1 1014 1 1018 1 
1 209 84 1 89 1 162 1 172 1 180 1 183 1 184 1 245 1 292 1 340 1 354 1 366 1 372 1 387 1 395 1 399 1 419 1 423 1 434 2 466 1 468 1 475 2 498 1 522 1 527 1 533 1 577 1 588 1 623 1 675 1 681 1 687 1 716 1 720 1 735 1 745 1 749 2 753 2 765 1 769 1 772 1 776 1 809 1 811 1 825 1 864 1 870 1 880 1 888 1 922 1 929 1 941 1 957 1 22 1 30 1 35 1 39 1 46 1 92 1 153 1 190 1 202 1 231 1 272 1 289 1 328 1 334 1 335 1 402 1 422 1 448 1 455 1 458 1 461 1 484 1 490 1 530 1 568 1 585 1 646 1 688 1 690 1 696 1 702 1 710 1 742 1 750 1 759 1 807 1 814 1 846 1 868 1 876 1 884 1 890 1 898 1 904 1 939 1 945 1 956 1 978 1 972 1 979 1 989 1 1009 1 1022 1 1027 1 
1 211 16 1 34 1 56 1 58 1 65 1 87 2 94 1 150 1 155 1 223 1 225 1 240 1 300 1 306 1 317 1 351 1 381 1 403 1 416 1 453 1 462 1 466 1 469 1 491 1 498 1 500 1 515 1 525 1 532 1 547 1 555 2 573 1 580 1 618 1 658 1 662 1 666 1 686 1 690 1 729 1 744 1 766 1 775 1 776 1 782 1 795 1 830 1 839 1 841 1 842 1 889 1 904 1 919 1 954 1 958 1 4 1 6 1 22 1 57 1 79 1 80 1 84 1 92 1 99 1 102 1 137 1 161 1 167 1 220 1 299 1 305 1 307 1 390 1 393 1 425 1 435 1 436 1 460 1 461 1 507 1 530 1 548 1 550 1 556 1 560 1 567 1 578 1 596 1 601 1 631 1 643 1 646 1 667 1 706 1 712 1 732 1 748 1 762 1 767 1 783 1 801 1 856 1 923 1 925 1 937 1 946 1 948 1 989 1 983 1 991 1 992 1 1014 1 1018 1 1027 1 
1 214 1 1 3 1 11 1 23 1 93 1 109 1 124 1 127 1 130 1 140 1 200 1 217 1 224 2 236 1 252 1 255 1 265 1 272 1 293 1 319 1 332 1 338 1 398 2 457 1 459 1 520 1 524 2 550 2 556 1 558 1 559 1 600 1 604 1 615 1 638 1 648 1 684 1 704 1 709 1 710 1 718 1 721 1 766 1 816 1 819 1 827 1 838 1 839 1 840 1 844 1 915 1 917 1 925 1 949 1 952 1 37 1 47 1 102 1 125 1 146 1 180 1 196 1 198 1 209 1 239 1 259 1 269 1 300 1 306 1 329 1 334 1 343 1 361 1 369 1 392 1 406 1 455 1 462 1 480 1 494 1 508 1 513 1 565 1 578 1 588 1 597 1 619 1 644 1 654 1 677 1 689 1 698 1 712 1 738 1 771 1 778 1 799 1 824 1 829 1 832 1 847 1 854 1 856 1 862 1 863 1 871 1 907 1 933 1 959 1 966 1 969 1 975 1 995 1 1007 1 1008 1 1021 1 1025 1 1027 1 
1 211 50 1 52 1 73 1 78 1 85 2 120 1 163 1 170 1 177 1 179 1 191 1 222 1 231 1 239 1 241 2 256 1 275 1 283 1 310 1 344 1 355 1 405 1 413 1 423 1 427 1 453 1 545 1 565 1 605 1 617 1 620 1 640 1 669 2 672 1 677 1 685 1 714 1 717 1 718 1 729 2 742 1 744 1 746 1 750 1 751 1 762 1 773 1 789 1 800 1 832 1 857 1 865 1 906 1 932 1 18 1 34 1 42 1 54 1 90 1 112 1 121 1 149 1 190 1 192 1 203 1 205 1 211 1 215 1 229 1 247 1 257 1 331 1 335 1 345 1 393 1 406 1 446 1 460 1 465 1 481 1 554 1 562 1 583 1 589 1 600 1 602 1 636 1 645 1 667 1 683 1 709 1 737 1 754 1 811 1 822 1 827 1 834 1 854 1 873 1 887 1 888 1 913 1 914 1 915 1 934 1 953 1 972 1 993 1 995 1 1009 1 1021 1 1022 1 1024 1 
1 207 1 1 25 1 51 2 96 2 145 1 154 1 158 1 206 1 225 1 267 1 277 1 278 1 286 1 309 1 313 1 317 1 372 1 374 1 377 1 406 1 419 1 424 1 430 1 447 1 470 1 507 1 525 1 565 1 590 1 596 1 605 2 607 1 645 1 668 1 674 1 675 1 681 1 697 1 706 1 725 1 764 1 775 1 813 1 823 1 827 1 847 1 867 1 900 1 930 1 933 1 946 1 959 1 964 1 8 1 17 1 41 1 42 1 56 1 61 1 90 1 105 1 123 1 135 1 143 1 165 1 169 1 182 1 202 1 208 1 254 1 258 1 288 1 292 1 299 1 336 1 340 1 380 1 454 1 457 1 463 1 489 1 495 1 530 1 541 1 543 1 546 1 575 1 597 1 630 1 652 1 678 1 692 1 698 1 705 1 723 1 738 1 777 1 792 1 793 1 811 1 821 1 841 1 843 1 848 1 890 1 906 1 910 1 918 1 936 1 953 1 976 1 989 1 990 1 1026 1 
1 211 9 1 39 1 56 1 67 1 88 1 92 1 112 1 115 1 144 1 149 2 161 1 199 1 222 2 223 2 236 1 237 1 294 2 301 1 324 1 356 1 359 1 366 1 423 1 427 1 444 1 445 1 449 1 466 1 481 1 494 1 503 1 511 1 528 1 529 1 561 1 569 1 604 1 638 1 640 1 642 1 662 1 681 1 687 1 711 1 714 1 725 1 749 1 752 1 776 1 785 1 805 1 813 1 817 1 833 1 835 2 847 1 885 1 886 1 892 2 900 1 909 1 16 1 38 1 40 1 44 1 77 1 82 1 98 1 126 1 127 1 134 1 138 1 146 1 150 1 159 1 164 1 165 1 179 1 183 1 211 1 247 1 299 1 309 1 333 1 339 1 350 1 372 1 398 1 404 1 405 1 411 1 429 1 432 1 442 1 448 1 463 1 476 1 484 1 502 1 566 1 596 1 613 1 707 1 739 1 761 1 777 1 786 1 790 1 795 1 811 1 829 1 860 1 904 1 929 1 935 1 940 1 946 1 949 1 950 1 952 1 955 1 970 1 988 1 999 1 1002 1 1003 1 1011 1 1014 1 
1 210 92 1 111 1 149 1 163 1 171 1 207 1 220 1 224 2 251 2 265 1 283 1 287 1 300 1 304 1 309 1 318 1 368 1 369 1 374 1 381 1 429 1 448 1 466 1 476 1 478 1 488 1 510 1 517 1 526 2 547 1 570 1 585 1 641 1 647 1 661 1 672 1 674 1 684 1 687 1 694 1 739 1 750 1 782 1 796 1 803 1 812 1 860 1 867 1 876 1 880 1 900 1 939 2 21 1 26 1 38 1 41 1 70 1 107 1 116 1 130 1 156 1 192 1 200 1 227 1 228 1 235 1 239 1 261 1 272 1 324 1 336 1 352 1 363 1 380 1 382 1 396 1 398 1 413 1 422 1 438 1 449 1 483 1 498 1 503 1 552 1 577 1 600 1 601 1 631 1 660 1 671 1 705 1 711 1 742 1 751 1 768 1 772 1 793 1 798 1 862 1 896 1 903 1 908 1 922 1 933 1 936 1 942 1 946 1 959 1 972 1 1005 1 1016 1 1022 1 1023 1 1025 1 
1 216 32 1 73 1 90 1 107 1 157 2 158 1 161 1 165 1 212 1 260 1 330 1 351 1 353 1 367 1 382 1 384 2 387 1 395 1 397 1 414 1 419 1 420 1 425 1 444 1 448 1 459 1 466 1 472 1 474 1 476 1 484 1 492 1 502 1 588 1 604 1 610 1 641 1 646 1 647 1 651 1 658 1 669 1 690 1 718 1 728 1 736 2 737 1 740 1 741 1 749 1 758 1 776 1 786 1 793 1 795 1 832 1 834 1 848 1 884 1 911 1 944 1 964 1 3 1 39 1 70 1 75 1 113 1 115 1 116 1 179 1 195 1 234 1 241 1 261 1 270 1 289 1 290 1 298 1 327 1 329 1 349 1 366 1 374 1 386 1 488 1 498 1 520 1 579 1 585 1 594 1 629 1 632 1 662 1 681 1 706 1 720 1 721 1 731 1 772 1 775 1 797 1 826 1 844 1 850 1 858 1 865 1 879 1 882 1 883 1 885 1 890 1 901 1 917 1 928 1 960 1 971 1 980 1 999 1 973 1 1001 1 1016 1 1021 1 1024 1 
1 216 12 1 35 1 61 1 64 1 80 1 132 1 141 1 166 1 170 1 180 1 190 2 211 1 220 1 229 1 249 1 250 1 252 1 270 1 295 1 326 1 366 1 379 1 390 1 391 1 404 1 425 1 454 1 517 1 528 1 529 1 536 1 551 1 564 1 568 1 570 1 580 1 608 2 623 1 624 1 645 1 660 1 665 1 667 1 675 1 688 1 707 1 714 2 746 1 807 1 808 1 819 1 826 1 844 1 901 1 906 1 927 2 932 1 950 1 952 1 960 1 3 1 20 1 31 1 33 1 37 1 45 1 75 1 76 1 125 1 221 1 240 1 256 1 269 1 275 1 276 1 323 1 325 1 336 1 337 1 383 1 412 1 421 1 423 1 481 1 511 1 519 1 520 1 540 1 572 1 579 1 644 1 653 1 658 1 718 1 750 1 756 1 758 1 792 1 820 1 846 1 854 1 857 1 860 1 898 1 967 1 972 1 980 1 978 1 979 1 988 1 1013 1 1015 1 1016 1 1017 1 1020 1 1025 1 1026 1 
1 212 9 1 20 1 29 1 36 1 42 1 62 1 73 1 78 1 87 1 148 1 156 1 162 1 165 1 178 1 184 1 193 1 213 1 226 1 231 1 290 1 307 1 309 1 312 1 315 1 321 1 332 1 338 1 354 2 370 1 449 1 479 1 516 1 528 1 554 1 568 1 602 1 648 1 651 1 670 1 680 1 682 1 713 1 742 1 792 2 840 1 860 1 874 1 906 1 920 2 929 1 969 1 32 1 53 1 77 1 79 1 90 1 108 1 170 1 173 1 181 1 233 1 252 1 292 1 316 1 317 1 360 1 369 1 400 1 407 1 457 1 484 1 499 1 513 1 520 1 522 1 535 1 536 1 540 1 550 1 562 1 563 1 591 1 599 1 610 1 644 1 647 1 654 1 696 1 773 1 803 1 804 1 822 1 831 1 845 1 852 1 895 1 910 1 914 1 947 1 953 1 985 1 976 1 992 1 1003 1 1009 1 1019 1 1026 1 
1 209 20 1 31 1 33 1 36 1 63 1 141 1 149 1 171 1 191 1 212 1 238 1 271 1 287 1 292 1 305 1 315 1 321 1 327 1 334 1 352 1 370 2 373 1 374 1 385 1 386 1 401 1 411 1 413 1 415 1 444 1 453 1 455 1 494 1 521 2 527 1 531 1 537 1 539 1 547 1 576 1 586 1 628 2 635 1 664 1 722 1 725 1 728 1 761 1 770 1 775 1 782 1 787 1 817 1 837 1 846 1 847 1 850 1 852 1 869 1 870 1 895 1 924 1 957 1 965 1 970 1 12 1 60 1 97 1 115 1 118 1 125 1 155 1 182 1 200 1 209 1 219 1 223 1 228 1 280 1 311 1 329 1 345 1 361 1 364 1 366 1 384 1 397 1 432 1 481 1 500 1 508 1 524 1 545 1 600 1 630 1 639 1 646 1 672 1 699 1 707 1 755 1 762 1 772 1 773 1 821 1 861 1 876 1 889 1 923 1 938 1 962 1 968 1 973 1 974 1 980 1 979 1 1017 1 
1 211 7 1 30 1 60 1 61 1 93 1 102 1 105 1 126 1 127 1 150 1 159 1 162 2 163 1 195 1 205 1 214 1 267 1 270 1 281 1 285 1 287 1 292 1 304 1 313 1 350 1 362 1 367 1 372 1 390 1 434 1 462 1 464 1 547 1 548 1 563 1 585 1 614 1 638 1 666 1 700 1 702 1 712 1 720 1 740 1 786 1 811 1 814 1 837 1 856 1 865 1 898 1 911 1 923 1 929 1 972 1 18 1 27 1 44 1 54 1 87 1 88 1 118 1 129 1 142 1 160 1 184 1 188 1 199 1 226 1 233 1 239 1 249 1 251 1 252 1 305 1 331 1 341 1 349 1 392 1 433 1 453 1 505 1 554 1 578 1 610 1 622 1 623 1 624 1 628 1 659 1 663 1 677 1 715 1 721 1 772 1 775 1 784 1 794 1 797 1 829 1 831 1 869 1 885 1 890 1 935 1 945 1 969 1 980 1 990 1 979 1 1012 1 1016 1 1025 1 
1 214 11 1 23 2 29 1 33 1 37 1 49 1 52 1 78 1 94 1 120 1 133 1 135 1 147 1 150 1 165 1 181 1 297 1 336 1 373 1 387 1 390 1 401 1 414 1 432 1 441 1 450 1 474 1 488 1 531 2 591 1 600 1 631 1 633 1 638 1 667 1 687 1 693 1 698 1 701 1 710 1 752 1 764 1 787 1 893 2 912 1 917 1 918 1 925 1 972 1 6 1 24 1 43 1 69 1 84 1 97 1 106 1 109 1 115 1 124 1 141 1 151 1 185 1 195 1 203 1 212 1 214 1 219 1 225 1 228 1 230 1 232 1 309 1 310 1 328 1 361 1 367 1 375 1 400 1 413 1 428 1 434 1 435 1 439 1 478 1 482 1 486 1 506 1 514 1 556 1 563 1 587 1 602 1 621 1 671 1 681 1 703 1 757 1 778 1 793 1 814 1 819 1 872 1 876 1 878 1 900 1 911 1 997 1 980 1 981 1 990 1 1004 1 1010 1 1012 1 1016 1 1018 1 1019 1 
1 211 21 1 29 1 33 1 59 1 70 2 77 1 143 1 182 1 189 1 209 1 214 1 238 1 242 1 300 1 335 1 343 1 351 1 372 1 389 1 404 1 408 1 416 1 447 1 461 1 464 2 470 1 481 1 507 1 510 1 517 1 520 1 559 1 588 1 615 1 617 1 622 1 634 2 647 1 652 1 653 1 686 1 694 1 726 1 740 1 758 1 800 1 809 1 823 1 847 1 889 1 900 1 928 1 934 1 935 1 964 1 11 1 26 1 37 1 42 1 128 1 137 1 174 1 175 1 178 1 184 1 195 1 198 1 199 1 200 1 219 1 222 1 225 1 243 1 271 1 315 1 361 1 431 1 442 1 448 1 449 1 458 1 475 1 504 1 524 1 529 1 546 1 619 1 630 1 637 1 720 1 724 1 725 1 731 1 741 1 783 1 785 1 822 1 825 1 833 1 838 1 839 1 869 1 877 1 880 1 887 1 952 1 981 1 983 1 1001 1 1012 1 1016 1 1018 1 1019 1 1027 1 
1 212 24 1 34 1 60 1 77 2 109 1 130 1 143 1 146 1 174 1 185 1 231 1 239 1 240 1 242 1 279 2 335 1 337 1 342 1 374 1 406 1 423 1 451 1 452 1 457 1 490 1 493 2 497 1 504 1 527 1 533 1 538 1 571 1 613 1 617 1 625 1 627 1 685 1 697 1 705 1 711 1 756 1 758 1 766 1 786 1 812 1 829 1 845 1 862 1 872 1 899 1 921 1 922 1 923 1 953 1 960 1 966 1 6 1 25 1 31 1 49 1 78 1 80 1 105 1 126 1 165 1 198 1 211 1 213 1 232 1 271 1 289 1 293 1 298 1 319 1 339 1 349 1 355 1 370 1 444 1 472 1 500 1 505 1 526 1 534 1 575 1 580 1 594 1 596 1 602 1 604 1 618 1 631 1 650 1 668 1 706 1 729 1 750 1 784 1 788 1 808 1 823 1 841 1 860 1 882 1 888 1 903 1 935 1 936 1 948 1 971 1 978 1 993 1 977 1 1000 1 1001 1 1019 1 1024 1 
1 212 11 1 22 1 23 1 28 1 30 1 68 1 78 1 88 1 98 1 120 1 147 1 156 1 157 1 159 1 180 1 200 1 227 1 298 1 317 1 319 1 365 1 374 1 379 1 387 1 395 1 455 1 459 1 473 1 527 1 545 1 555 1 573 1 582 1 593 1 599 2 627 1 641 1 662 1 685 1 697 1 707 1 728 1 738 1 787 1 809 1 811 1 817 2 824 1 825 1 836 1 863 1 880 1 881 1 906 1 909 1 951 1 958 1 959 1 5 1 20 1 45 1 50 1 66 1 97 1 108 1 116 1 144 1 145 1 148 1 187 1 190 1 194 1 208 1 239 1 282 1 297 1 331 1 334 1 336 1 377 1 388 1 389 1 400 1 402 1 421 1 427 1 440 1 497 1 503 1 519 1 539 1 595 1 608 1 646 1 651 1 654 1 657 1 667 1 690 1 746 1 749 1 802 1 803 1 826 1 837 1 838 1 855 1 860 1 871 1 875 1 887 1 926 1 930 1 936 1 954 1 976 1 978 1 992 1 996 1 994 1 1005 1 1021 1 1026 1 
1 211 28 1 33 1 118 1 134 1 140 1 149 1 155 1 156 1 173 1 193 1 195 1 247 1 254 1 287 1 308 1 311 1 314 1 331 1 344 1 363 1 385 1 388 1 422 1 425 1 452 1 462 1 473 1 500 1 507 1 543 1 553 1 559 1 563 1 588 1 607 1 624 1 695 1 702 1 781 1 820 1 823 1 826 1 877 1 882 1 893 1 954 2 961 1 962 1 976 1 977 1 4 1 14 1 29 1 40 1 47 1 74 1 88 1 93 1 108 1 121 1 139 1 141 1 153 1 208 1 266 1 306 1 322 1 339 1 346 1 359 1 391 1 397 1 407 1 439 1 468 1 521 1 532 1 533 1 545 1 557 1 565 1 573 1 613 1 626 1 639 1 645 1 700 1 710 1 716 1 717 1 718 1 721 1 732 1 763 1 839 1 855 1 868 1 874 1 875 1 929 1 970 1 999 1 1008 1 1011 1 1014 1 1017 1 1025 1 1026 1 
1 208 12 1 55 1 73 1 75 1 80 1 87 1 114 1 118 1 126 1 142 1 157 1 171 1 174 1 203 1 204 1 226 1 262 1 278 1 294 1 305 1 318 1 321 1 322 1 327 1 328 1 338 1 370 1 388 1 394 1 423 1 429 1 443 1 454 1 465 1 473 1 479 1 481 2 494 1 504 1 562 1 581 2 587 1 588 1 591 2 610 1 621 1 650 1 653 1 655 1 656 1 664 1 744 1 769 1 777 1 794 1 802 1 809 1 816 1 824 1 832 1 865 1 867 1 868 1 895 2 39 1 104 1 105 1 120 1 150 1 165 1 175 1 191 1 211 1 217 1 245 1 290 1 301 1 308 1 325 1 343 1 345 1 354 1 364 1 377 1 383 1 509 1 531 1 539 1 557 1 575 1 597 1 626 1 658 1 690 1 701 1 709 1 746 1 773 1 788 1 792 1 793 1 797 1 813 1 817 1 822 1 830 1 925 1 933 1 937 1 947 1 951 1 955 1 962 1 970 1 972 1 973 1 999 1 993 1 994 1 996 1 1000 1 1017 1 
1 214 8 1 30 1 39 1 87 1 105 1 107 1 118 1 141 1 198 1 204 1 213 1 221 1 231 1 236 1 277 1 322 1 348 1 356 1 390 1 395 1 412 1 414 1 458 1 466 1 468 1 502 1 513 1 522 1 523 1 531 1 549 1 563 2 592 1 594 1 621 1 627 1 634 1 674 1 678 1 680 1 683 1 702 1 727 1 734 1 742 1 743 1 750 1 758 1 765 1 777 1 836 1 846 1 911 1 916 1 932 1 945 1 969 1 970 1 972 1 973 1 6 1 12 1 22 1 52 1 54 1 97 1 123 1 129 1 171 1 175 1 185 1 191 1 230 1 237 1 281 1 298 1 309 1 317 1 330 1 332 1 340 1 361 1 391 1 392 1 405 1 411 1 428 1 457 1 460 1 504 1 509 1 533 1 565 1 566 1 571 1 661 1 686 1 691 1 697 1 705 1 708 1 745 1 784 1 806 1 816 1 830 1 869 1 873 1 913 1 917 1 974 1 984 1 998 1 981 1 1011 1 1016 1 1020 1 1022 1 
1 207 19 1 28 1 34 1 44 1 48 1 73 1 86 2 135 1 179 1 193 1 194 1 215 1 232 1 239 1 254 1 255 1 289 1 320 2 345 1 350 1 352 1 395 1 409 1 410 1 465 1 488 1 510 1 521 1 522 1 523 1 533 1 534 1 544 1 563 1 564 1 579 1 598 1 603 1 607 1 618 1 620 1 621 1 632 1 660 1 687 1 710 1 840 1 845 1 857 1 874 1 878 1 884 1 909 1 932 2 961 1 6 1 32 1 61 1 71 1 75 1 119 1 134 1 173 1 221 1 222 1 233 1 273 1 325 1 372 1 381 1 390 1 407 1 426 1 441 1 443 1 466 1 483 1 487 1 496 1 498 1 512 1 517 1 524 1 546 1 549 1 566 1 581 1 623 1 640 1 666 1 682 1 701 1 706 1 728 1 731 1 766 1 776 1 794 1 814 1 838 1 846 1 848 1 872 1 882 1 890 1 898 1 922 1 946 1 952 1 955 1 974 1 975 1 980 1 1002 1 1010 1 
1 208 20 1 23 1 30 1 38 1 89 1 94 1 121 2 131 1 138 1 139 1 147 1 190 1 192 1 254 1 283 1 288 1 292 1 317 2 330 1 350 1 358 1 370 1 376 1 419 1 433 1 444 1 456 1 507 1 516 1 519 1 529 1 545 1 567 1 587 1 603 1 631 1 647 1 654 1 658 1 663 1 700 1 728 1 735 1 736 2 738 1 740 1 742 2 759 1 799 2 816 1 825 1 829 1 846 1 886 1 887 1 896 1 898 1 925 1 950 1 9 1 54 1 63 1 71 1 74 1 91 1 126 1 165 1 187 1 205 1 212 1 223 1 269 1 297 1 299 1 353 1 377 1 388 1 407 1 417 1 471 1 472 1 500 1 502 1 532 1 541 1 547 1 549 1 558 1 562 1 579 1 657 1 676 1 680 1 708 1 724 1 749 1 821 1 832 1 833 1 838 1 843 1 852 1 878 1 926 1 956 1 960 1 984 1 1010 1 1024 1 
1 208 12 1 23 1 50 1 58 2 101 1 106 1 149 1 167 1 171 1 178 1 180 1 214 1 216 1 218 1 226 1 236 1 303 1 309 1 315 1 316 1 317 1 319 1 324 2 335 1 357 1 398 1 421 1 435 1 486 1 510 1 516 1 564 1 585 1 606 1 610 1 630 1 638 1 645 1 649 1 662 1 676 1 685 1 725 1 726 1 790 1 800 1 801 1 811 1 827 1 855 1 856 2 859 1 887 1 894 1 902 1 903 1 924 1 944 1 952 1 10 1 16 1 42 1 75 1 99 1 103 1 113 1 147 1 172 1 174 1 182 1 194 1 217 1 222 1 238 1 286 1 298 1 313 1 327 1 360 1 414 1 426 1 504 1 506 1 514 1 536 1 552 1 561 1 620 1 621 1 635 1 640 1 672 1 693 1 706 1 714 1 738 1 755 1 784 1 795 1 816 1 818 1 819 1 825 1 828 1 847 1 891 1 897 1 904 1 919 1 933 1 947 1 949 1 951 1 959 1 963 1 975 1 986 1 985 1 1016 1 1022 1 
1 207 52 1 71 1 79 1 84 1 87 1 94 2 97 1 100 1 126 2 128 1 151 1 171 1 181 1 185 1 205 2 223 1 240 1 245 1 246 1 247 1 275 1 287 1 288 1 317 1 329 1 335 1 391 1 422 1 426 1 446 2 493 1 549 1 566 1 580 1 582 1 586 1 600 1 609 1 620 1 621 1 630 1 631 1 635 1 637 1 671 1 675 1 695 1 710 1 712 1 724 2 727 1 740 1 747 1 798 1 799 2 819 2 820 1 826 1 840 1 854 1 859 1 884 1 896 1 928 1 931 2 941 1 944 1 955 1 980 1 982 1 16 1 35 1 39 1 41 1 108 1 114 1 118 1 120 1 150 1 174 1 188 1 213 1 220 1 254 1 257 1 259 1 271 1 272 1 282 1 337 1 348 1 356 1 360 1 370 1 377 1 384 1 404 1 514 1 548 1 553 1 569 1 573 1 590 1 601 1 648 1 667 1 673 1 698 1 715 1 717 1 745 1 748 1 781 1 794 1 816 1 829 1 844 1 847 1 874 1 910 1 915 1 916 1 929 1 930 1 938 1 986 1 987 2 990 1 994 1 1001 1 1024 1 1026 1 
1 214 23 1 29 1 32 1 38 1 48 1 53 1 62 1 66 1 67 1 97 1 131 1 150 1 171 1 176 2 194 1 195 2 232 1 239 1 279 1 285 1 298 1 310 1 369 1 375 1 383 1 386 1 418 1 430 1 496 1 510 1 558 1 570 1 584 1 586 1 589 1 603 1 605 1 607 1 643 1 657 1 661 1 662 1 680 1 685 1 697 1 706 1 731 1 733 1 750 1 767 1 797 1 818 1 870 1 875 1 888 1 896 1 914 1 919 1 920 1 923 1 934 1 941 1 952 1 971 1 8 1 11 1 44 1 93 1 100 1 123 1 128 1 139 1 142 1 202 1 226 1 248 1 251 1 259 1 261 1 283 1 286 1 309 1 331 1 336 1 341 1 357 1 358 1 362 1 397 1 419 1 432 1 448 1 449 1 468 1 479 1 511 1 518 1 524 1 578 1 585 1 588 1 613 1 653 1 679 1 690 1 692 1 728 1 739 1 744 1 757 1 791 1 868 1 908 1 983 1 988 1 993 1 1011 1 1014 1 1015 1 1026 1 
1 206 4 1 5 1 9 1 22 1 34 1 48 1 54 1 57 1 88 1 167 1 169 1 202 1 203 1 209 1 235 1 240 1 241 1 248 1 262 1 290 1 307 1 312 2 333 1 362 1 371 2 416 1 420 1 427 1 431 1 436 1 443 1 478 1 505 1 519 1 523 2 525 1 531 1 570 1 609 1 622 2 639 1 660 1 662 1 670 1 675 1 705 1 710 1 741 1 765 1 778 1 779 1 788 2 804 1 805 1 823 1 835 1 846 1 847 1 855 1 858 1 874 1 888 1 911 1 913 1 945 1 946 1 983 1 984 1 1 1 3 1 11 1 25 1 64 1 80 1 98 1 113 1 122 1 131 1 139 1 148 1 160 1 178 1 182 1 191 1 228 1 237 1 246 1 281 1 288 1 297 1 317 1 356 1 381 1 387 1 404 1 432 1 464 1 474 1 545 1 572 1 589 1 613 1 620 1 640 1 648 1 656 1 694 1 698 1 735 1 817 1 822 1 827 1 863 1 908 1 924 1 948 1 957 1 1001 1 1009 1 1012 1 
1 213 3 1 29 1 37 1 42 1 50 1 62 1 65 1 72 1 73 1 93 1 94 1 101 1 130 1 162 1 235 1 251 1 274 1 303 1 319 1 337 1 342 1 362 1 393 1 402 1 430 1 449 1 456 1 459 1 464 1 530 1 531 1 567 1 576 1 585 1 586 2 587 1 593 1 594 1 622 1 655 1 671 1 710 1 723 1 776 1 778 1 789 1 796 1 801 1 804 1 805 1 809 1 810 1 814 1 850 1 890 1 901 1 927 1 955 1 961 1 984 2 10 1 20 1 32 1 58 1 78 1 164 1 197 1 200 1 210 1 214 1 262 1 276 1 305 1 317 1 346 1 368 1 389 1 399 1 415 1 420 1 445 1 471 1 483 1 490 1 491 1 506 1 525 1 526 1 534 1 572 1 579 1 581 1 626 1 647 1 669 1 693 1 701 1 722 1 734 1 757 1 759 1 772 1 780 1 785 1 797 1 823 1 831 1 866 1 942 1 956 1 994 1 999 1 1003 1 1008 1 1015 1 
1 207 11 1 40 1 48 1 56 1 88 1 90 1 115 1 123 1 130 1 141 1 173 1 176 1 190 1 203 1 227 1 266 1 283 1 315 1 325 1 330 1 345 1 357 1 370 1 375 1 380 1 403 1 405 1 408 1 413 1 429 1 461 1 555 1 564 1 609 1 620 1 628 1 630 1 634 1 644 1 647 1 672 2 697 1 710 1 750 1 765 1 779 1 787 1 792 1 811 1 813 1 815 1 824 2 843 1 864 1 884 1 915 1 944 1 960 1 985 1 3 1 17 1 23 1 38 1 45 1 50 1 75 1 84 1 89 1 107 1 117 1 120 1 147 1 183 1 189 1 192 1 197 1 231 1 238 1 263 1 265 1 281 1 297 1 304 1 318 1 337 1 366 1 409 1 412 1 425 1 449 1 462 1 485 1 498 1 503 1 510 1 535 1 538 1 547 1 562 1 627 1 665 1 699 1 717 1 737 1 740 1 742 1 836 1 839 1 848 1 850 1 858 1 872 1 873 1 880 1 942 1 945 1 950 1 967 1 970 1 992 1 999 1 1008 1 1010 1 1011 1 1015 1 
1 211 1 1 17 1 22 1 27 1 35 1 39 1 46 1 55 2 56 1 71 1 74 1 124 1 146 1 153 1 155 1 166 1 176 1 179 1 202 1 229 1 235 2 268 2 284 1 291 1 307 1 313 1 339 1 370 1 434 1 455 1 472 1 484 1 498 1 508 1 515 1 516 1 519 1 525 2 533 1 536 1 548 1 595 1 609 1 623 1 624 1 634 1 647 1 691 1 704 1 713 2 734 1 754 1 771 1 798 1 800 1 833 1 840 1 843 1 847 1 848 1 894 1 963 1 8 1 33 1 64 1 67 1 76 1 127 1 161 1 178 1 233 1 310 1 325 1 330 1 337 1 343 1 366 1 374 1 379 1 389 1 406 1 414 1 424 1 428 1 430 1 437 1 486 1 496 1 521 1 527 1 551 1 559 1 563 1 581 1 603 1 631 1 663 1 672 1 739 1 764 1 826 1 841 1 844 1 856 1 869 1 891 1 925 1 945 1 957 1 962 1 966 1 993 1 1012 1 
1 212 38 1 47 1 57 1 58 1 66 1 103 1 145 1 158 1 190 1 203 1 207 2 213 1 216 2 240 1 261 1 273 1 275 1 288 1 290 1 311 1 312 1 324 1 336 1 347 1 368 1 378 1 430 1 433 1 443 1 446 1 459 1 480 1 527 2 554 1 556 1 571 2 588 1 623 1 624 1 632 1 684 1 713 1 730 1 769 1 774 1 785 1 786 1 790 1 799 1 868 1 916 2 936 1 939 1 945 1 949 1 973 1 2 1 9 1 52 1 72 1 74 1 81 1 112 1 123 1 153 1 157 1 174 1 204 1 246 1 268 1 276 1 293 1 296 1 308 1 310 1 314 1 318 1 327 1 370 1 409 1 442 1 444 1 468 1 539 1 542 1 548 1 549 1 569 1 575 1 576 1 601 1 603 1 613 1 625 1 635 1 636 1 654 1 670 1 691 1 695 1 706 1 734 1 747 1 762 1 765 1 771 1 789 1 796 1 855 1 907 1 942 1 966 1 974 1 984 1 991 1 1008 1 1012 1 
1 209 5 1 11 1 12 1 42 1 83 1 85 1 88 1 90 1 115 1 121 1 122 1 166 1 170 1 176 1 182 1 236 1 246 1 281 2 293 1 312 1 341 1 352 2 369 1 386 1 391 1 407 1 413 1 431 1 436 1 467 1 470 1 475 1 477 1 494 1 516 1 528 2 532 1 543 1 550 1 574 2 586 1 595 1 615 1 622 1 645 1 647 1 678 1 692 1 696 1 711 1 733 1 739 1 749 1 798 1 813 1 912 1 928 2 933 1 942 1 947 1 19 1 73 1 104 1 110 1 125 1 131 1 135 1 137 1 140 1 162 1 169 1 220 1 251 1 258 1 270 1 278 1 306 1 307 1 345 1 458 1 479 1 553 1 557 1 581 1 600 1 640 1 662 1 663 1 699 1 705 1 722 1 732 1 762 1 774 1 779 1 789 1 808 1 818 1 820 1 845 1 963 1 990 1 993 1 995 1 1005 1 1020 1 
1 208 19 1 70 1 87 1 115 1 141 1 155 2 168 2 183 2 214 1 217 1 230 1 233 2 239 1 242 1 259 1 297 1 365 1 409 1 412 1 422 1 425 1 426 2 444 1 452 1 455 1 503 1 528 1 536 1 598 1 604 1 607 1 612 1 642 1 645 1 650 1 677 1 680 1 687 1 697 1 701 1 705 1 713 1 726 1 730 1 747 1 843 1 877 1 934 1 936 1 950 1 961 1 977 1 988 1 6 1 20 1 27 1 64 1 89 1 116 1 125 1 133 1 159 1 167 1 175 1 190 1 205 1 209 1 210 1 213 1 227 1 237 1 245 1 308 1 314 1 318 1 339 1 346 1 348 1 357 1 363 1 423 1 478 1 497 1 500 1 509 1 510 1 520 1 529 1 532 1 559 1 583 1 608 1 622 1 636 1 762 1 805 1 832 1 838 1 855 1 885 1 912 1 919 1 920 1 933 1 949 1 954 1 963 1 971 1 995 1 1001 1 
1 209 15 1 17 1 23 1 90 1 127 1 177 1 178 2 202 1 219 2 241 1 290 1 312 1 338 1 367 1 368 1 369 1 378 1 394 1 402 1 445 1 454 1 456 1 483 1 491 1 502 1 526 1 533 1 538 1 539 1 578 1 617 1 623 1 651 1 657 1 688 1 696 1 709 1 718 1 731 1 736 1 750 1 767 1 779 1 788 1 793 1 808 1 934 1 939 1 950 2 965 1 976 1 989 1 25 1 31 1 50 1 63 1 71 1 72 1 103 1 112 1 123 1 165 1 171 1 197 1 201 1 204 1 239 1 266 1 287 1 326 1 334 1 342 1 343 1 357 1 374 1 381 1 390 1 406 1 409 1 411 1 414 1 420 1 461 1 465 1 479 1 503 1 511 1 544 1 550 1 582 1 591 1 604 1 624 1 634 1 635 1 662 1 674 1 705 1 720 1 741 1 777 1 789 1 816 1 828 1 840 1 851 1 854 1 859 1 862 1 911 1 914 1 926 1 942 1 948 1 953 1 979 1 985 1 991 1 1021 1 
1 210 7 1 39 1 74 1 89 1 93 1 96 1 107 1 139 1 142 1 170 1 220 2 225 1 292 2 296 2 306 1 355 1 372 1 374 1 381 1 382 1 385 1 390 1 403 1 413 2 464 1 475 1 482 1 515 1 529 1 560 1 584 1 600 1 603 2 625 1 658 1 666 1 715 1 738 1 772 1 774 1 779 1 794 1 810 1 813 1 814 1 825 1 828 1 840 2 843 1 855 1 873 1 891 2 939 1 987 1 18 1 49 1 53 1 83 1 106 1 118 1 128 1 134 1 137 1 154 1 158 1 172 1 196 1 241 1 242 1 272 1 278 1 323 1 356 1 369 1 383 1 460 1 465 1 490 1 501 1 569 1 649 1 652 1 665 1 680 1 683 1 705 1 710 1 727 1 752 1 768 1 805 1 831 1 837 1 860 1 940 1 948 1 956 1 977 1 979 1 984 1 1001 1 1007 1 1017 1 1026 1 
1 212 1 1 5 1 14 2 76 1 83 1 89 1 101 1 150 1 177 1 179 1 197 1 198 1 212 1 238 1 260 1 276 1 291 2 292 1 309 1 326 1 328 1 335 1 365 1 367 1 419 1 449 1 453 1 499 1 513 1 540 1 557 1 574 1 589 1 603 1 607 1 614 1 634 1 643 1 652 1 655 1 681 2 684 1 690 1 726 1 730 1 760 1 810 1 818 1 826 1 828 1 850 1 852 1 853 1 866 1 869 1 877 1 894 1 934 1 965 1 20 1 27 1 41 1 48 1 88 1 91 1 163 1 196 1 208 1 218 1 224 1 249 1 298 1 307 1 316 1 320 1 348 1 354 1 394 1 448 1 455 1 458 1 470 1 479 1 483 1 496 1 506 1 507 1 534 1 553 1 554 1 556 1 587 1 588 1 640 1 645 1 657 1 663 1 674 1 680 1 712 1 777 1 837 1 887 1 898 1 957 1 964 1 991 1 992 1 1009 1 1019 1 1026 1 
1 216 1 1 35 1 61 1 104 1 116 1 125 1 133 1 148 1 150 1 151 1 158 1 191 1 199 1 208 1 238 1 277 1 291 1 295 1 318 1 352 1 366 1 375 1 381 2 384 1 393 1 416 1 425 1 429 1 442 1 455 1 458 1 512 1 527 1 531 1 537 1 567 1 590 1 593 1 631 1 678 1 731 2 749 1 765 2 798 1 801 1 804 1 814 1 818 1 832 1 839 1 901 1 977 1 7 1 12 1 19 1 37 1 58 1 59 1 68 1 79 1 105 1 111 1 149 1 178 1 186 1 219 1 243 1 249 1 270 1 307 1 316 1 321 1 349 1 357 1 482 1 488 1 493 1 505 1 545 1 550 1 579 1 586 1 587 1 605 1 625 1 636 1 644 1 651 1 684 1 685 1 689 1 710 1 725 1 780 1 781 1 794 1 799 1 805 1 812 1 813 1 817 1 825 1 829 1 847 1 848 1 863 1 882 1 883 1 902 1 908 1 931 1 933 1 979 1 1009 1 1011 1 1015 1 1021 1 
1 203 8 1 19 1 52 1 69 1 94 1 154 1 164 1 171 1 186 1 190 1 207 1 284 1 286 1 287 1 295 1 330 1 342 1 364 1 371 1 406 1 408 1 410 1 456 1 496 1 502 1 517 1 519 1 521 1 552 1 558 1 580 1 583 1 601 1 625 1 632 1 640 1 645 1 664 1 692 2 695 1 710 1 747 1 755 1 756 1 821 1 843 1 860 1 867 1 872 1 904 1 919 1 921 1 924 1 925 1 930 1 974 1 106 1 108 1 165 1 167 1 202 1 221 1 237 1 258 1 276 1 302 1 310 1 311 1 379 1 393 1 394 1 411 1 413 1 415 1 426 1 441 1 469 1 480 1 501 1 514 1 548 1 624 1 633 1 651 1 654 1 669 1 671 1 688 1 737 1 745 1 760 1 785 1 795 1 813 1 831 1 846 1 893 1 894 1 912 1 961 1 1021 1 
1 215 12 1 15 1 71 1 79 1 93 1 155 2 165 1 172 1 250 1 255 1 269 1 285 1 294 1 307 1 336 1 346 1 354 1 408 1 412 1 415 1 468 1 474 1 482 1 483 1 522 1 541 1 553 1 563 1 568 1 571 1 596 1 599 1 612 1 647 1 661 1 665 1 666 1 683 1 693 1 720 1 732 1 751 1 756 1 759 1 796 1 812 1 850 1 858 1 863 1 867 2 870 1 872 1 887 1 896 1 905 1 913 1 914 1 980 1 1 1 18 1 49 1 75 1 105 1 139 1 142 1 170 1 178 1 189 1 198 1 240 1 258 1 295 1 318 1 360 1 383 1 398 1 447 1 454 1 465 1 478 1 480 1 520 1 543 1 547 1 605 1 640 1 642 1 658 1 679 1 702 1 707 1 708 1 715 1 721 1 726 1 748 1 762 1 775 1 797 1 800 1 801 1 852 1 853 1 856 1 890 1 947 1 955 1 1000 1 1009 1 1013 1 1015 1 1022 1 
1 212 3 1 9 1 67 1 106 1 129 1 136 1 138 1 146 1 152 1 178 1 179 1 219 1 226 1 263 1 266 1 286 1 298 1 336 1 361 1 378 1 412 1 426 1 433 1 458 1 477 1 485 1 505 1 522 1 542 1 545 1 552 1 557 1 563 2 579 1 603 1 620 1 706 1 717 1 725 1 726 1 741 1 751 1 753 1 755 1 761 1 778 2 788 1 818 1 819 1 877 1 921 1 941 1 957 1 969 1 978 1 979 1 987 1 988 1 13 1 33 1 46 1 53 1 56 1 95 1 120 1 144 1 165 1 172 1 174 1 177 1 204 1 233 1 234 1 239 1 243 1 257 1 268 1 287 1 304 1 327 1 356 1 367 1 385 1 443 1 465 1 467 1 472 1 483 1 487 1 490 1 517 1 518 1 548 1 573 1 607 1 625 1 686 1 692 1 720 1 763 1 765 1 771 1 779 1 804 1 822 1 835 1 841 1 844 1 857 1 903 1 922 1 933 1 936 1 942 1 967 1 1008 1 1011 1 1027 1 
1 0 193 1 428 1 576 1 144 1 83 1 93 1 82 1 187 1 811 1 71 1 847 1 650 1 96 1 609 1 728 1 707 1 764 1 595 1 134 1 834 1 67 1 863 1 869 1 677 1 723 1 733 1 856 1 203 1 674 1 374 1 619 1 120 1 280 1 813 1 484 1 300 1 849 1 947 1 178 1 915 1 31 1 101 1 976 1 216 1 90 1 402 1 575 1 407 1 711 1 873 1 373 1 523 1 175 1 526 1 95 1 201 1 644 1 797 1 678 1 69 1 142 1 268 1 751 1 662 1 685 1 532 1 322 1 737 1 550 1 372 1 33 1 403 1 716 1 7 1 285 1 705 1 513 1 747 1 955 1 998 1 907 1 663 1 353 1 341 1 164 1 578 1 174 1 546 1 94 1 656 1 447 1 458 1 598 1 943 1 110 1 871 1 841 1 979 1 724 1 301 1 710 1 880 1 427 1 531 1 942 1 130 1 791 1 844 1 840 1 689 1 308 1 395 1 345 1 360 1 599 1 
1 0 619 1 780 1 535 1 164 1 245 1 835 1 113 1 288 1 472 1 603 1 994 1 867 1 99 1 1 1 871 1 531 1 298 1 773 1 593 1 786 1 992 1 29 1 190 1 235 1 558 1 512 1 416 1 520 1 501 1 49 1 787 1 975 1 612 1 171 1 34 1 440 1 770 1 866 1 347 1 340 1 323 1 808 1 131 1 143 1 24 1 870 1 500 1 488 1 344 1 125 1 451 1 886 1 892 1 920 1 286 1 560 1 273 1 879 1 359 1 207 1 157 1 654 1 774 1 282 1 618 1 642 1 460 1 976 1 587 1 402 1 442 1 437 1 750 1 567 1 986 1 838 1 648 1 649 1 166 1 201 1 895 1 296 1 984 1 229 1 246 1 600 1 432 1 802 1 224 1 598 1 805 1 93 1 498 1 828 1 641 1 515 1 855 1 184 1 718 1 656 1 775 1 768 1 297 1 62 1 242 1 742 1 122 1 302 1 969 1 114 1 123 1 764 1 943 1 45 1 
1 0 489 1 530 1 164 1 464 1 764 1 2 1 50 1 633 1 593 1 805 1 155 1 49 1 762 1 35 1 946 1 846 1 786 1 317 1 514 1 206 1 198 1 181 1 69 1 554 1 839 1 92 1 552 1 215 1 377 1 621 1 235 1 981 1 304 1 271 1 332 1 436 1 955 1 480 1 498 1 812 1 260 1 763 1 939 1 365 1 95 1 90 1 793 1 316 1 849 1 130 1 405 1 373 1 860 1 193 1 375 1 387 1 9 1 89 1 178 1 929 1 863 1 586 1 478 1 268 1 919 1 245 1 244 1 536 1 265 1 463 1 798 1 853 1 967 1 250 1 406 1 53 1 167 1 894 1 494 1 738 1 274 1 924 1 898 1 728 1 382 1 903 1 45 1 80 1 277 1 562 1 768 1 947 1 663 1 613 1 367 1 934 1 240 1 783 1 889 1 789 1 26 1 442 1 372 1 462 1 810 1 485 1 12 1 318 1 677 1 820 1 526 1 
1 0 691 1 549 1 201 1 94 1 258 1 122 1 460 1 401 1 954 1 340 1 305 1 670 1 321 1 678 1 750 1 707 1 918 1 373 1 743 1 448 1 211 1 367 1 91 1 447 1 627 1 346 1 605 1 761 1 734 1 253 1 823 1 422 1 384 1 924 1 442 1 967 1 454 1 464 1 195 1 241 1 440 1 701 1 748 1 499 1 126 1 836 1 114 1 648 1 279 1 860 1 675 1 800 1 987 1 61 1 314 1 52 1 810 1 452 1 765 1 494 1 295 1 428 1 165 1 728 1 26 1 62 1 328 1 640 1 19 1 527 1 843 1 70 1 604 1 234 1 508 1 946 1 511 1 324 1 249 1 33 1 586 1 221 1 704 1 335 1 813 1 737 1 230 1 111 1 163 1 797 1 944 1 945 1 603 1 746 1 971 1 357 1 542 1 486 1 479 1 108 1 286 1 430 1 858 1 493 1 375 1 226 1 
1 0 24 1 376 1 179 1 651 1 129 1 587 1 430 1 517 1 255 1 863 1 398 1 825 1 387 1 657 1 366 1 661 1 943 1 40 1 489 1 391 1 353 1 166 1 836 1 304 1 270 1 433 1 758 1 228 1 928 1 715 1 819 1 284 1 644 1 593 1 112 1 869 1 550 1 577 1 384 1 555 1 56 1 850 1 778 1 418 1 111 1 388 1 589 1 492 1 443 1 171 1 186 1 908 1 473 1 521 1 403 1 807 1 815 1 423 1 669 1 535 1 334 1 887 1 239 1 173 1 14 1 282 1 28 1 974 1 20 1 399 1 884 1 538 1 720 1 13 1 724 1 791 1 487 1 195 1 505 1 851 1 36 1 460 1 797 1 232 1 826 1 368 1 47 1 286 1 445 1 7 1 289 1 523 1 250 1 226 1 175 1 303 1 488 1 495 1 93 1 499 1 74 1 306 1 229 1 103 1 404 1 655 1 652 1 19 1 359 1 478 1 313 1 
1 0 444 1 405 1 173 1 718 1 154 1 425 1 538 1 291 1 479 1 115 1 137 1 67 1 909 1 180 1 585 1 781 1 977 1 731 1 602 1 106 1 42 1 901 1 617 1 802 1 774 1 242 1 702 1 837 1 383 1 451 1 601 1 341 1 991 1 677 1 469 1 186 1 174 1 865 1 510 1 199 1 540 1 639 1 530 1 783 1 363 1 201 1 70 1 275 1 758 1 14 1 520 1 709 1 637 1 134 1 683 1 769 1 968 1 443 1 922 1 840 1 28 1 402 1 159 1 547 1 712 1 157 1 599 1 434 1 659 1 376 1 815 1 466 1 310 1 867 1 877 1 900 1 598 1 54 1 760 1 605 1 913 1 416 1 166 1 60 1 925 1 219 1 623 1 420 1 17 1 102 1 578 1 283 1 489 1 167 1 334 1 83 1 89 1 651 1 449 1 34 1 218 1 430 1 436 1 658 1 274 1 607 1 370 1 780 1 644 1 377 1 385 1 744 1 407 1 927 1 879 1 86 1 620 1 452 1 
1 0 110 1 720 1 455 1 837 1 178 1 169 1 233 1 913 1 652 1 41 1 644 1 629 1 879 1 171 1 336 1 139 1 841 1 729 1 891 1 674 1 608 1 595 1 739 1 727 1 156 1 492 1 916 1 811 1 545 1 632 1 416 1 813 1 323 1 450 1 530 1 805 1 26 1 681 1 815 1 780 1 477 1 57 1 81 1 213 1 421 1 345 1 356 1 806 1 314 1 786 1 28 1 732 1 383 1 104 1 610 1 904 1 247 1 467 1 783 1 403 1 654 1 337 1 301 1 725 1 377 1 279 1 152 1 219 1 618 1 179 1 470 1 177 1 217 1 513 1 851 1 261 1 282 1 390 1 918 1 750 1 474 1 908 1 688 1 753 1 831 1 940 1 524 1 251 1 372 1 476 1 594 1 436 1 844 1 611 1 352 1 787 1 481 1 8 1 79 1 309 1 471 1 938 1 895 1 319 1 290 1 194 1 277 1 730 1 833 1 90 1 414 1 222 1 429 1 685 1 559 1 648 1 653 1 568 1 495 1 294 1 430 1 
1 0 906 1 691 1 614 1 677 1 212 1 744 1 634 1 717 1 187 1 639 1 994 1 723 1 616 1 589 1 443 1 411 1 848 1 599 1 468 1 718 1 908 1 113 1 889 1 277 1 565 1 191 1 86 1 559 1 204 1 196 1 812 1 708 1 831 1 486 1 758 1 218 1 365 1 755 1 453 1 707 1 303 1 788 1 829 1 268 1 27 1 710 1 65 1 41 1 904 1 484 1 419 1 869 1 502 1 300 1 106 1 929 1 445 1 603 1 694 1 247 1 127 1 893 1 601 1 666 1 581 1 964 1 324 1 305 1 507 1 57 1 538 1 500 1 960 1 230 1 256 1 495 1 15 1 629 1 245 1 767 1 791 1 19 1 598 1 827 1 368 1 14 1 83 1 286 1 596 1 267 1 557 1 901 1 875 1 883 1 73 1 348 1 662 1 549 1 738 1 479 1 58 1 814 1 876 1 804 1 830 1 617 1 954 1 92 1 165 1 202 1 398 1 312 1 779 1 518 1 823 1 424 1 885 1 858 1 
1 0 227 1 870 1 655 1 360 1 570 1 296 1 690 1 933 1 852 1 421 1 862 1 398 1 860 1 784 1 908 1 20 1 836 1 656 1 335 1 864 1 705 1 94 1 381 1 568 1 990 1 863 1 190 1 14 1 569 1 74 1 93 1 647 1 746 1 957 1 679 1 72 1 797 1 843 1 612 1 751 1 905 1 393 1 256 1 988 1 152 1 321 1 911 1 204 1 514 1 481 1 693 1 276 1 528 1 614 1 210 1 596 1 868 1 810 1 437 1 913 1 448 1 533 1 106 1 657 1 169 1 29 1 760 1 57 1 699 1 144 1 68 1 931 1 578 1 803 1 697 1 54 1 978 1 538 1 224 1 947 1 180 1 888 1 10 1 778 1 718 1 117 1 465 1 838 1 183 1 567 1 949 1 270 1 713 1 733 1 479 1 228 1 999 1 267 1 574 1 939 1 872 1 280 1 898 1 770 1 108 1 456 1 391 1 964 1 496 1 606 1 184 1 987 1 384 1 754 1 510 1 284 1 545 1 262 1 919 1 723 1 31 1 110 1 901 1 525 1 189 1 788 1 
1 0 554 1 802 1 878 1 460 1 185 1 613 1 430 1 441 1 998 1 156 1 76 1 45 1 202 1 314 1 646 1 227 1 12 1 109 1 758 1 597 1 296 1 112 1 454 1 209 1 520 1 778 1 658 1 302 1 605 1 56 1 962 1 153 1 2 1 79 1 258 1 256 1 143 1 689 1 81 1 186 1 300 1 170 1 754 1 986 1 372 1 152 1 848 1 120 1 959 1 67 1 310 1 204 1 322 1 863 1 470 1 631 1 168 1 19 1 93 1 820 1 736 1 102 1 48 1 387 1 447 1 995 1 392 1 831 1 996 1 368 1 337 1 788 1 870 1 426 1 787 1 795 1 741 1 436 1 624 1 717 1 208 1 724 1 330 1 655 1 838 1 843 1 338 1 745 1 559 1 137 1 89 1 511 1 41 1 43 1 428 1 965 1 971 1 262 1 280 1 671 1 463 1 739 1 30 1 731 1 953 1 250 1 229 1 281 1 751 1 606 1 311 1 628 1 254 1 289 1 
1 0 541 1 41 1 181 1 432 1 622 1 490 1 22 1 231 1 523 1 69 1 436 1 297 1 268 1 210 1 885 1 773 1 517 1 639 1 479 1 425 1 924 1 109 1 2 1 427 1 608 1 643 1 311 1 974 1 695 1 62 1 704 1 776 1 794 1 896 1 649 1 888 1 532 1 820 1 722 1 108 1 717 1 145 1 933 1 347 1 579 1 867 1 197 1 225 1 195 1 115 1 295 1 814 1 912 1 657 1 981 1 905 1 154 1 334 1 155 1 988 1 615 1 150 1 191 1 65 1 164 1 710 1 637 1 668 1 713 1 395 1 595 1 533 1 354 1 787 1 660 1 813 1 489 1 92 1 788 1 3 1 982 1 458 1 290 1 437 1 183 1 410 1 255 1 584 1 515 1 296 1 21 1 299 1 331 1 746 1 424 1 33 1 935 1 846 1 193 1 576 1 798 1 409 1 441 1 119 1 586 1 307 1 373 1 25 1 638 1 623 1 161 1 739 1 174 1 603 1 66 1 797 1 495 1 
1 0 436 1 77 1 214 1 123 1 926 1 802 1 78 1 609 1 32 1 795 1 895 1 967 1 87 1 790 1 513 1 317 1 717 1 978 1 51 1 755 1 985 1 873 1 205 1 624 1 327 1 325 1 617 1 19 1 416 1 179 1 786 1 443 1 939 1 907 1 495 1 502 1 60 1 107 1 553 1 923 1 419 1 689 1 488 1 565 1 111 1 127 1 70 1 446 1 988 1 562 1 699 1 165 1 604 1 999 1 11 1 554 1 723 1 675 1 633 1 405 1 387 1 566 1 846 1 202 1 124 1 585 1 71 1 389 1 218 1 610 1 182 1 354 1 95 1 769 1 603 1 492 1 10 1 589 1 456 1 171 1 704 1 605 1 952 1 547 1 377 1 996 1 625 1 666 1 654 1 929 1 499 1 946 1 784 1 827 1 980 1 770 1 290 1 943 1 586 1 177 1 955 1 55 1 903 1 207 1 500 1 30 1 898 1 134 1 494 1 203 1 367 1 68 1 450 1 924 1 249 1 832 1 109 1 
1 0 921 1 516 1 793 1 515 1 202 1 694 1 28 1 394 1 114 1 974 1 840 1 97 1 232 1 831 1 273 1 737 1 548 1 552 1 731 1 951 1 990 1 398 1 780 1 371 1 417 1 112 1 357 1 420 1 605 1 160 1 821 1 596 1 902 1 197 1 617 1 382 1 807 1 261 1 787 1 752 1 959 1 763 1 444 1 402 1 975 1 217 1 781 1 22 1 686 1 827 1 924 1 916 1 956 1 407 1 973 1 532 1 889 1 638 1 348 1 695 1 130 1 288 1 883 1 429 1 989 1 246 1 262 1 986 1 582 1 218 1 221 1 595 1 168 1 484 1 185 1 862 1 267 1 901 1 40 1 730 1 908 1 103 1 630 1 62 1 628 1 352 1 776 1 104 1 961 1 885 1 703 1 498 1 697 1 492 1 83 1 205 1 327 1 728 1 145 1 707 1 785 1 709 1 152 1 762 1 499 1 497 1 647 1 87 1 153 1 575 1 227 1 583 1 915 1 845 1 872 1 215 1 330 1 698 1 579 1 41 1 952 1 
1 0 193 1 21 1 477 1 209 1 950 1 409 1 735 1 64 1 970 1 283 1 476 1 129 1 164 1 453 1 856 1 573 1 771 1 225 1 246 1 645 1 552 1 92 1 26 1 393 1 445 1 525 1 632 1 818 1 594 1 436 1 438 1 107 1 919 1 231 1 120 1 470 1 376 1 192 1 189 1 610 1 917 1 427 1 262 1 337 1 179 1 80 1 509 1 364 1 15 1 624 1 600 1 380 1 631 1 634 1 623 1 55 1 798 1 916 1 462 1 78 1 8 1 847 1 553 1 522 1 418 1 444 1 635 1 747 1 502 1 219 1 705 1 691 1 737 1 904 1 786 1 807 1 769 1 773 1 222 1 472 1 764 1 615 1 567 1 720 1 31 1 435 1 401 1 53 1 685 1 662 1 440 1 384 1 119 1 741 1 62 1 489 1 204 1 854 1 566 1 359 1 30 1 473 1 498 1 596 1 837 1 998 1 775 1 482 1 483 1 709 1 326 1 373 1 790 1 874 1 
1 0 435 1 409 1 622 1 379 1 541 1 851 1 963 1 515 1 465 1 289 1 929 1 461 1 789 1 16 1 672 1 952 1 667 1 292 1 511 1 569 1 29 1 961 1 169 1 141 1 543 1 729 1 480 1 406 1 156 1 197 1 482 1 227 1 161 1 837 1 862 1 300 1 814 1 677 1 176 1 347 1 650 1 813 1 948 1 557 1 818 1 321 1 638 1 633 1 153 1 455 1 614 1 124 1 416 1 722 1 230 1 555 1 916 1 774 1 476 1 708 1 239 1 731 1 24 1 718 1 488 1 130 1 542 1 855 1 287 1 314 1 484 1 335 1 554 1 245 1 656 1 512 1 579 1 187 1 412 1 196 1 833 1 913 1 146 1 149 1 524 1 395 1 710 1 799 1 192 1 131 1 573 1 978 1 12 1 70 1 597 1 453 1 859 1 445 1 568 1 744 1 438 1 635 1 526 1 507 1 212 1 423 1 473 1 551 1 337 1 892 1 151 1 883 1 274 1 537 1 177 1 692 1 985 1 112 1 967 1 
1 0 461 1 616 1 643 1 182 1 354 1 398 1 195 1 843 1 750 1 125 1 39 1 723 1 482 1 98 1 336 1 107 1 530 1 606 1 19 1 565 1 567 1 953 1 985 1 930 1 879 1 754 1 870 1 214 1 32 1 988 1 635 1 598 1 671 1 373 1 367 1 66 1 337 1 956 1 534 1 219 1 540 1 873 1 259 1 706 1 273 1 358 1 673 1 178 1 517 1 155 1 60 1 735 1 922 1 883 1 790 1 664 1 241 1 238 1 745 1 839 1 504 1 612 1 667 1 486 1 117 1 215 1 811 1 856 1 290 1 222 1 483 1 88 1 805 1 836 1 472 1 106 1 637 1 874 1 487 1 694 1 349 1 489 1 665 1 581 1 242 1 998 1 587 1 252 1 205 1 356 1 582 1 445 1 535 1 970 1 96 1 829 1 264 1 380 1 393 1 73 1 288 1 34 1 121 1 279 1 207 1 199 1 43 1 758 1 987 1 996 1 352 1 464 1 712 1 167 1 572 1 27 1 3 1 914 1 
1 0 980 1 802 1 550 1 910 1 431 1 348 1 826 1 617 1 198 1 394 1 10 1 629 1 724 1 463 1 941 1 563 1 517 1 707 1 103 1 371 1 26 1 834 1 305 1 777 1 821 1 922 1 705 1 368 1 289 1 849 1 815 1 975 1 561 1 426 1 246 1 928 1 983 1 725 1 612 1 957 1 288 1 790 1 855 1 527 1 260 1 23 1 586 1 329 1 897 1 784 1 126 1 142 1 4 1 222 1 244 1 321 1 387 1 709 1 924 1 149 1 352 1 747 1 477 1 207 1 838 1 369 1 271 1 295 1 374 1 89 1 887 1 20 1 970 1 226 1 461 1 890 1 819 1 415 1 435 1 86 1 489 1 776 1 344 1 929 1 640 1 254 1 973 1 299 1 613 1 808 1 44 1 51 1 903 1 483 1 76 1 699 1 216 1 17 1 408 1 265 1 513 1 969 1 593 1 303 1 491 1 706 1 469 1 417 1 639 1 958 1 968 1 228 1 595 1 427 1 296 1 974 1 877 1 611 1 568 1 787 1 66 1 549 1 754 1 361 1 163 1 547 1 
1 0 8 1 374 1 59 1 200 1 972 1 363 1 106 1 524 1 602 1 482 1 353 1 663 1 769 1 316 1 456 1 239 1 978 1 318 1 386 1 863 1 376 1 864 1 254 1 243 1 86 1 495 1 107 1 77 1 491 1 791 1 970 1 340 1 120 1 76 1 325 1 759 1 599 1 226 1 822 1 219 1 186 1 78 1 750 1 815 1 72 1 169 1 573 1 979 1 193 1 220 1 845 1 320 1 730 1 462 1 801 1 514 1 656 1 129 1 703 1 319 1 793 1 143 1 64 1 301 1 510 1 302 1 867 1 449 1 347 1 685 1 643 1 472 1 36 1 285 1 473 1 113 1 530 1 567 1 278 1 607 1 222 1 450 1 594 1 455 1 918 1 796 1 804 1 919 1 520 1 825 1 930 1 12 1 727 1 457 1 994 1 500 1 248 1 90 1 692 1 498 1 196 1 306 1 426 1 712 1 230 1 55 1 257 1 780 1 267 1 
1 0 542 1 103 1 515 1 260 1 418 1 164 1 52 1 458 1 928 1 680 1 485 1 95 1 570 1 390 1 37 1 903 1 758 1 588 1 527 1 708 1 249 1 662 1 885 1 889 1 963 1 714 1 672 1 21 1 14 1 543 1 318 1 9 1 740 1 460 1 278 1 709 1 626 1 160 1 950 1 309 1 589 1 504 1 79 1 203 1 172 1 595 1 493 1 177 1 165 1 429 1 871 1 190 1 104 1 725 1 748 1 120 1 734 1 792 1 56 1 882 1 5 1 272 1 799 1 342 1 573 1 392 1 264 1 6 1 340 1 90 1 517 1 679 1 85 1 902 1 961 1 707 1 949 1 162 1 43 1 801 1 128 1 324 1 736 1 415 1 367 1 101 1 520 1 880 1 381 1 974 1 832 1 633 1 355 1 924 1 975 1 229 1 152 1 417 1 550 1 359 1 763 1 697 1 817 1 536 1 919 1 428 1 673 1 357 1 105 1 577 1 744 1 754 1 219 1 775 1 806 1 
1 0 407 1 86 1 687 1 897 1 799 1 862 1 769 1 808 1 638 1 843 1 199 1 486 1 161 1 478 1 975 1 578 1 648 1 971 1 908 1 108 1 802 1 416 1 2 1 933 1 755 1 481 1 24 1 881 1 500 1 684 1 238 1 637 1 461 1 759 1 974 1 620 1 444 1 951 1 213 1 492 1 610 1 78 1 428 1 976 1 143 1 672 1 159 1 217 1 343 1 386 1 884 1 98 1 107 1 157 1 11 1 260 1 315 1 619 1 74 1 534 1 909 1 558 1 97 1 162 1 104 1 829 1 878 1 247 1 415 1 307 1 21 1 995 1 358 1 451 1 502 1 269 1 426 1 941 1 658 1 803 1 714 1 226 1 330 1 337 1 510 1 115 1 898 1 70 1 842 1 893 1 924 1 427 1 64 1 770 1 875 1 22 1 876 1 913 1 234 1 101 1 443 1 345 1 285 1 732 1 552 1 404 1 188 1 382 1 306 1 222 1 671 1 538 1 16 1 554 1 783 1 102 1 471 1 743 1 805 1 
1 0 707 1 155 1 699 1 970 1 240 1 836 1 980 1 498 1 991 1 634 1 349 1 25 1 590 1 187 1 421 1 540 1 150 1 265 1 825 1 38 1 338 1 261 1 532 1 531 1 360 1 892 1 799 1 694 1 821 1 79 1 596 1 97 1 472 1 724 1 389 1 209 1 661 1 939 1 184 1 867 1 589 1 204 1 659 1 46 1 340 1 714 1 850 1 183 1 935 1 491 1 656 1 441 1 218 1 115 1 573 1 288 1 385 1 258 1 637 1 585 1 172 1 593 1 693 1 563 1 249 1 275 1 527 1 420 1 487 1 738 1 393 1 142 1 361 1 522 1 188 1 447 1 893 1 611 1 810 1 216 1 294 1 364 1 623 1 575 1 600 1 459 1 15 1 163 1 568 1 722 1 770 1 753 1 913 1 709 1 394 1 560 1 567 1 16 1 503 1 811 1 760 1 31 1 626 1 511 1 285 1 63 1 319 1 556 1 365 1 663 1 755 1 159 1 239 1 330 1 814 1 
1 0 507 1 437 1 561 1 256 1 928 1 535 1 271 1 519 1 865 1 216 1 240 1 268 1 869 1 886 1 127 1 711 1 348 1 89 1 625 1 351 1 889 1 783 1 729 1 964 1 831 1 368 1 289 1 499 1 611 1 969 1 199 1 233 1 977 1 698 1 997 1 835 1 704 1 149 1 795 1 262 1 623 1 794 1 965 1 466 1 197 1 25 1 20 1 399 1 453 1 577 1 601 1 651 1 110 1 520 1 422 1 357 1 922 1 728 1 900 1 223 1 763 1 906 1 475 1 960 1 252 1 708 1 596 1 620 1 530 1 578 1 427 1 477 1 929 1 615 1 191 1 846 1 5 1 85 1 778 1 459 1 123 1 192 1 952 1 532 1 954 1 158 1 605 1 336 1 597 1 939 1 515 1 386 1 162 1 565 1 943 1 803 1 585 1 679 1 471 1 301 1 395 1 993 1 70 1 718 1 47 1 861 1 996 1 622 1 713 1 498 1 334 1 574 1 219 1 439 1 617 1 911 1 344 1 
1 0 489 1 496 1 419 1 245 1 672 1 500 1 584 1 563 1 540 1 105 1 912 1 490 1 251 1 97 1 306 1 281 1 142 1 582 1 93 1 178 1 268 1 248 1 965 1 447 1 201 1 640 1 788 1 208 1 816 1 567 1 931 1 437 1 942 1 74 1 907 1 775 1 354 1 149 1 205 1 551 1 253 1 108 1 263 1 760 1 337 1 277 1 106 1 262 1 411 1 560 1 453 1 410 1 101 1 867 1 719 1 543 1 475 1 845 1 190 1 532 1 616 1 892 1 444 1 829 1 510 1 409 1 548 1 531 1 686 1 44 1 669 1 980 1 778 1 882 1 655 1 440 1 710 1 998 1 393 1 303 1 305 1 770 1 289 1 899 1 290 1 242 1 642 1 943 1 962 1 104 1 431 1 958 1 482 1 2 1 600 1 726 1 890 1 270 1 461 1 227 1 129 1 968 1 663 1 576 1 691 1 661 1 284 1 79 1 568 1 38 1 56 1 909 1 864 1 825 1 983 1 379 1 771 1 875 1 
1 0 260 1 696 1 660 1 74 1 903 1 482 1 751 1 86 1 280 1 379 1 897 1 180 1 801 1 468 1 852 1 307 1 478 1 297 1 341 1 672 1 606 1 288 1 286 1 554 1 278 1 101 1 757 1 85 1 856 1 404 1 544 1 887 1 938 1 214 1 766 1 707 1 767 1 365 1 500 1 833 1 489 1 817 1 304 1 587 1 4 1 70 1 153 1 428 1 104 1 170 1 1 1 661 1 792 1 866 1 813 1 355 1 433 1 162 1 168 1 703 1 513 1 328 1 906 1 526 1 510 1 668 1 968 1 237 1 517 1 945 1 753 1 473 1 55 1 450 1 895 1 678 1 883 1 254 1 495 1 900 1 296 1 865 1 769 1 269 1 550 1 577 1 196 1 68 1 11 1 93 1 802 1 239 1 359 1 148 1 639 1 804 1 164 1 211 1 588 1 689 1 391 1 410 1 615 1 313 1 748 1 673 1 59 1 730 1 329 1 734 1 547 1 283 1 
1 0 286 1 201 1 376 1 796 1 438 1 927 1 901 1 454 1 205 1 582 1 191 1 429 1 743 1 129 1 165 1 66 1 296 1 443 1 22 1 845 1 46 1 311 1 133 1 894 1 612 1 568 1 770 1 602 1 606 1 26 1 609 1 551 1 186 1 820 1 431 1 567 1 575 1 781 1 976 1 909 1 653 1 752 1 853 1 565 1 10 1 193 1 830 1 13 1 713 1 139 1 458 1 947 1 795 1 5 1 695 1 224 1 655 1 527 1 256 1 228 1 856 1 294 1 855 1 645 1 597 1 861 1 352 1 984 1 547 1 354 1 524 1 48 1 674 1 965 1 55 1 250 1 969 1 152 1 702 1 471 1 122 1 685 1 450 1 15 1 110 1 496 1 917 1 679 1 835 1 324 1 673 1 534 1 303 1 392 1 383 1 718 1 875 1 882 1 731 1 661 1 161 1 182 1 148 1 888 1 6 1 281 1 395 1 750 1 280 1 982 1 357 1 77 1 595 1 
1 0 860 1 495 1 608 1 158 1 847 1 357 1 600 1 163 1 464 1 569 1 88 1 394 1 204 1 205 1 432 1 475 1 408 1 171 1 111 1 934 1 849 1 964 1 131 1 911 1 834 1 391 1 867 1 660 1 183 1 174 1 74 1 359 1 973 1 350 1 181 1 195 1 833 1 946 1 257 1 662 1 527 1 307 1 586 1 383 1 970 1 678 1 655 1 937 1 295 1 406 1 42 1 816 1 386 1 446 1 159 1 928 1 494 1 179 1 920 1 968 1 285 1 978 1 765 1 745 1 734 1 481 1 530 1 676 1 241 1 489 1 555 1 275 1 824 1 324 1 332 1 760 1 233 1 396 1 47 1 172 1 535 1 279 1 133 1 415 1 291 1 657 1 811 1 314 1 870 1 838 1 499 1 48 1 231 1 375 1 623 1 377 1 754 1 479 1 467 1 767 1 289 1 211 1 684 1 736 1 879 1 768 1 85 1 954 1 149 1 309 1 688 1 
1 0 75 1 378 1 132 1 304 1 923 1 984 1 437 1 876 1 240 1 367 1 663 1 102 1 930 1 994 1 119 1 162 1 711 1 971 1 735 1 614 1 719 1 888 1 220 1 909 1 985 1 944 1 637 1 800 1 405 1 887 1 730 1 580 1 18 1 952 1 310 1 995 1 951 1 34 1 392 1 260 1 572 1 934 1 822 1 364 1 791 1 109 1 625 1 403 1 763 1 302 1 66 1 431 1 977 1 878 1 970 1 427 1 72 1 529 1 978 1 715 1 369 1 425 1 828 1 370 1 966 1 82 1 391 1 408 1 200 1 51 1 709 1 180 1 635 1 124 1 336 1 666 1 675 1 569 1 681 1 860 1 638 1 316 1 234 1 596 1 684 1 487 1 861 1 760 1 418 1 453 1 283 1 882 1 186 1 937 1 651 1 253 1 393 1 721 1 116 1 401 1 430 1 446 1 108 1 701 1 421 1 955 1 252 1 694 1 55 1 
1 0 550 1 157 1 503 1 604 1 754 1 734 1 925 1 34 1 583 1 35 1 535 1 201 1 148 1 44 1 791 1 963 1 165 1 385 1 171 1 315 1 307 1 297 1 999 1 124 1 92 1 214 1 2 1 568 1 796 1 521 1 240 1 4 1 347 1 491 1 632 1 573 1 37 1 299 1 281 1 278 1 810 1 773 1 329 1 6 1 371 1 610 1 485 1 921 1 680 1 465 1 129 1 131 1 383 1 959 1 248 1 587 1 168 1 858 1 962 1 232 1 301 1 136 1 768 1 640 1 439 1 865 1 38 1 892 1 880 1 11 1 446 1 802 1 123 1 149 1 54 1 876 1 156 1 910 1 462 1 312 1 255 1 964 1 547 1 618 1 953 1 125 1 900 1 442 1 601 1 188 1 28 1 611 1 782 1 748 1 674 1 303 1 890 1 30 1 3 1 160 1 182 1 975 1 482 1 382 1 721 1 310 1 873 1 705 1 622 1 864 1 861 1 65 1 354 1 234 1 847 1 467 1 767 1 634 1 
