1027 59715 011 2
1 210 5 1 30 1 36 1 43 1 69 1 90 1 120 1 124 1 159 2 171 1 178 1 192 1 208 1 235 1 240 1 250 1 262 1 264 1 280 1 283 1 289 1 299 1 327 1 330 1 352 1 375 1 399 1 404 1 411 2 441 1 442 1 447 1 448 1 474 1 488 2 539 1 581 1 632 1 642 1 653 1 668 1 672 1 707 1 726 1 736 1 806 1 848 1 865 1 869 1 880 1 889 1 915 1 924 1 938 1 957 1 962 1 968 1 985 1 33 1 55 1 59 1 62 1 71 1 72 1 106 1 128 1 145 1 172 1 197 1 202 1 244 1 284 1 286 1 358 1 370 1 374 1 416 1 444 1 451 1 500 1 509 1 510 1 544 1 584 1 586 1 593 1 624 1 638 1 649 1 694 1 718 1 735 1 738 1 762 1 768 1 788 1 793 1 796 1 832 1 862 1 976 1 983 1 1011 1 1020 1 1026 1 
1 207 8 1 11 1 17 1 21 1 34 1 39 1 51 1 53 2 55 1 64 1 70 1 100 2 116 1 119 1 123 1 124 1 125 1 152 1 191 1 243 1 266 1 268 1 271 1 272 1 284 1 301 1 335 1 337 1 339 1 380 1 413 1 447 1 455 1 489 1 494 1 506 1 513 1 524 1 527 1 537 1 545 1 599 1 603 1 607 1 641 1 651 2 662 1 687 1 693 1 732 1 737 1 740 1 760 1 763 1 785 1 796 1 806 1 822 1 828 1 845 1 853 1 881 1 883 1 888 1 896 1 909 1 914 1 976 1 977 1 982 1 9 1 15 1 42 1 65 1 103 1 108 1 160 1 161 1 180 1 201 1 256 1 260 1 305 1 310 1 324 1 345 1 381 1 422 1 425 1 428 1 440 1 456 1 481 1 484 1 487 1 491 1 519 1 530 1 591 1 611 1 612 1 613 1 648 1 667 1 683 1 692 1 703 1 711 1 733 1 810 1 816 1 864 1 865 1 871 1 880 1 901 1 904 1 907 1 920 1 929 1 948 1 972 1 998 1 1013 1 
1 215 16 1 42 1 65 1 100 1 140 1 143 1 147 1 148 1 149 1 151 1 157 1 163 1 169 1 173 1 206 1 220 1 224 1 266 1 287 1 300 1 305 1 316 1 338 1 348 2 358 1 382 1 455 1 486 1 511 1 523 1 528 1 534 1 550 1 562 1 564 1 620 1 643 1 657 1 668 1 675 1 680 1 743 1 752 1 762 1 775 1 867 1 868 1 873 1 874 1 875 1 880 1 894 1 896 1 903 1 905 1 934 1 946 2 45 1 50 1 62 1 66 1 68 1 94 1 95 1 105 1 132 1 145 1 166 1 168 1 216 1 229 1 250 1 289 1 380 1 394 1 409 1 411 1 429 1 437 1 445 1 463 1 501 1 519 1 531 1 557 1 566 1 588 1 591 1 606 1 633 1 658 1 676 1 692 1 707 1 742 1 745 1 758 1 759 1 781 1 813 1 848 1 879 1 916 1 925 1 937 1 941 1 944 1 959 1 1013 1 1016 1 1018 1 1022 1 1023 1 
1 211 16 1 34 1 64 1 72 2 82 1 85 1 86 1 87 1 88 1 101 1 106 1 114 1 142 1 147 1 156 1 191 1 193 1 236 1 263 1 268 1 270 1 309 1 311 1 330 1 345 1 386 1 394 1 403 1 418 1 421 1 435 1 458 1 481 1 496 1 514 1 521 1 526 1 555 1 559 1 562 1 566 1 571 1 576 1 583 1 633 1 637 1 640 2 646 1 647 1 654 1 690 1 757 1 779 1 792 1 803 1 814 1 852 1 869 1 917 1 934 2 961 2 966 1 984 1 989 1 11 1 21 1 41 1 45 1 47 1 56 1 81 1 127 1 129 1 134 1 140 1 141 1 149 1 151 1 180 1 205 1 210 1 218 1 231 1 275 1 292 1 347 1 362 1 363 1 378 1 382 1 450 1 467 1 469 1 504 1 543 1 575 1 585 1 664 1 689 1 697 1 710 1 719 1 725 1 729 1 735 1 737 1 739 1 742 1 746 1 758 1 768 1 804 1 824 1 825 1 829 1 831 1 835 1 855 1 881 1 900 1 916 1 945 1 986 1 992 1 1008 1 1009 1 1017 1 1027 1 
1 211 1 1 27 1 39 1 53 1 64 1 65 1 92 1 156 1 164 1 172 1 191 2 221 1 231 1 238 1 244 1 277 1 310 1 358 1 373 1 376 1 379 1 388 1 390 1 397 1 492 1 507 1 511 1 516 1 545 1 574 1 588 1 616 1 618 1 665 1 715 1 725 1 747 1 761 1 769 1 771 1 783 1 785 1 792 1 797 1 879 1 885 1 970 1 983 1 988 2 15 1 22 1 36 1 124 1 141 1 145 1 146 1 155 1 163 1 165 1 176 1 186 1 188 1 227 1 230 1 234 1 236 1 237 1 252 1 298 1 307 1 325 1 365 1 366 1 372 1 383 1 386 1 395 1 396 1 410 1 424 1 431 1 448 1 472 1 498 1 561 1 583 1 648 1 660 1 689 1 719 1 722 1 724 1 754 1 777 1 786 1 790 1 816 1 824 1 828 1 836 1 841 1 894 1 896 1 903 1 904 1 911 1 913 1 935 1 941 1 944 1 962 1 993 1 1010 1 1024 1 
1 209 12 1 33 1 41 1 102 1 112 1 150 2 174 1 182 1 211 1 246 1 248 1 280 1 286 1 304 1 310 1 327 1 348 1 361 1 375 2 377 1 386 1 433 1 444 1 457 1 493 1 520 1 544 1 559 1 639 1 654 1 682 1 697 1 700 1 752 1 775 2 785 1 789 1 811 1 812 1 819 1 830 1 839 1 845 1 853 1 854 1 872 1 901 1 916 1 918 1 945 1 958 2 983 1 994 1 32 1 70 1 76 1 87 1 108 1 114 1 116 1 131 1 135 1 159 1 191 1 267 1 289 1 293 1 298 1 356 1 367 1 374 1 383 1 384 1 388 1 396 1 397 1 454 1 474 1 484 1 497 1 506 1 528 1 535 1 560 1 572 1 601 1 605 1 621 1 632 1 655 1 658 1 721 1 760 1 803 1 902 1 917 1 970 1 988 1 1003 1 1007 1 1016 1 1018 1 1021 1 
1 209 11 1 39 1 56 1 75 1 81 1 84 1 129 1 136 1 141 1 149 1 161 1 164 1 193 1 197 1 233 1 270 1 291 1 294 1 296 1 310 1 313 1 378 1 407 1 437 1 452 1 463 1 498 1 506 1 511 1 514 1 537 1 555 1 565 1 575 1 578 1 602 1 628 1 630 1 638 1 656 1 665 1 692 1 695 2 723 1 740 1 801 1 803 1 809 1 827 1 865 1 867 2 871 1 902 1 911 1 921 1 928 1 931 1 990 1 16 1 24 1 28 1 79 1 92 1 158 1 180 1 183 1 198 1 213 1 217 1 222 1 241 1 244 1 245 1 300 1 325 1 328 1 332 1 353 1 375 1 383 1 417 1 440 1 444 1 446 1 453 1 458 1 492 1 518 1 566 1 567 1 586 1 588 1 594 1 597 1 612 1 643 1 650 1 732 1 739 1 759 1 797 1 817 1 831 1 832 1 869 1 873 1 874 1 904 1 910 1 918 1 940 1 943 1 976 1 994 1 997 1 1010 1 
1 210 2 1 11 1 14 1 18 1 24 1 31 1 80 1 84 1 88 1 117 1 197 1 200 1 213 1 224 1 258 1 268 1 329 2 340 1 363 1 370 1 439 1 448 1 456 1 464 1 466 1 471 1 476 1 513 1 537 1 553 1 556 1 571 1 573 1 578 1 617 1 642 1 644 1 653 1 669 1 670 1 672 1 673 1 699 1 721 1 733 1 735 1 758 1 776 1 778 1 783 1 799 1 809 1 828 1 833 1 837 1 885 1 886 1 917 1 943 1 956 1 958 1 961 1 969 1 971 1 982 1 988 1 20 1 25 1 43 1 48 1 58 1 73 1 79 1 122 1 132 1 148 1 165 1 194 1 195 1 201 1 220 1 239 1 242 1 247 1 252 1 307 1 322 1 324 1 330 1 358 1 360 1 392 1 408 1 412 1 423 1 460 1 540 1 546 1 565 1 592 1 596 1 600 1 607 1 646 1 675 1 688 1 701 1 702 1 708 1 718 1 727 1 743 1 769 1 780 1 785 1 836 1 853 1 887 1 897 1 906 1 907 1 948 1 990 1 1013 1 
1 206 2 1 51 1 52 1 74 1 98 1 122 1 128 1 133 1 181 1 188 1 189 1 239 1 282 1 289 1 294 1 320 1 331 1 390 1 393 1 394 1 395 1 410 1 416 1 431 1 484 1 503 1 519 1 527 1 559 1 572 1 585 1 586 1 587 1 589 1 635 1 669 1 674 1 675 1 678 1 695 1 709 1 727 1 747 1 787 1 795 1 808 1 821 1 822 1 827 1 830 1 846 1 859 1 889 1 918 1 924 1 938 1 969 1 978 1 979 1 23 1 32 1 43 1 61 1 73 1 165 1 177 1 186 1 187 1 200 1 208 1 226 1 261 1 276 1 303 1 304 1 312 1 343 1 361 1 378 1 379 1 400 1 432 1 469 1 492 1 577 1 617 1 627 1 638 1 645 1 660 1 685 1 697 1 707 1 713 1 724 1 733 1 740 1 751 1 752 1 759 1 777 1 784 1 785 1 786 1 850 1 851 1 927 1 935 1 985 1 1002 1 1011 1 1026 1 
1 210 26 2 28 1 60 1 71 1 138 1 145 1 147 1 157 2 167 1 175 1 178 1 195 1 272 1 279 1 312 1 314 1 321 1 353 1 386 1 390 1 394 1 433 1 452 1 473 1 503 1 506 1 510 1 513 1 537 1 563 1 572 1 589 1 592 1 598 1 607 1 637 2 719 1 748 1 758 1 767 1 811 1 832 1 834 1 835 1 863 2 888 1 891 1 909 1 914 1 920 1 976 1 18 1 41 1 45 1 59 1 92 1 93 1 116 1 128 1 133 1 159 1 208 1 211 1 259 1 290 1 301 1 344 1 365 1 373 1 409 1 424 1 465 1 470 1 471 1 479 1 484 1 519 1 522 1 527 1 532 1 566 1 581 1 586 1 594 1 614 1 635 1 644 1 687 1 688 1 696 1 744 1 808 1 838 1 851 1 856 1 858 1 861 1 882 1 900 1 916 1 928 1 977 1 998 1 1009 1 1023 1 
1 209 2 1 7 1 8 1 4 1 29 1 33 1 38 1 42 1 56 2 64 1 71 1 73 1 80 1 96 1 114 1 127 1 179 1 180 1 190 1 204 1 235 1 246 1 254 2 260 1 320 1 326 1 347 1 361 1 367 1 376 1 387 2 450 1 451 1 460 1 474 1 540 1 544 1 545 1 552 1 568 1 582 1 641 1 668 1 679 1 691 1 703 1 748 1 752 1 756 1 785 1 795 1 831 1 837 1 838 1 845 1 851 1 862 1 863 1 870 1 883 1 887 1 896 1 900 1 924 2 945 1 956 1 979 1 36 1 51 1 55 1 72 1 105 1 110 1 113 1 140 1 148 1 157 1 174 1 192 1 227 1 234 1 236 1 244 1 316 1 321 1 328 1 331 1 340 1 346 1 377 1 378 1 394 1 422 1 455 1 461 1 535 1 539 1 548 1 594 1 632 1 711 1 714 1 716 1 729 1 731 1 733 1 742 1 758 1 802 1 809 1 820 1 843 1 875 1 895 1 905 1 977 1 980 1 989 1 995 1 1004 1 
1 208 6 1 33 1 68 1 77 1 93 1 98 2 115 2 120 1 144 1 183 1 200 1 201 1 206 1 221 1 222 1 234 1 267 1 277 1 281 1 283 1 333 1 334 1 336 1 352 2 377 1 388 1 400 1 402 1 411 1 451 1 459 1 492 1 496 1 526 1 530 1 543 1 545 1 548 1 550 1 563 1 564 1 568 1 603 1 612 1 616 1 631 1 654 1 666 1 675 2 708 1 726 2 745 1 776 1 785 1 803 1 814 1 823 1 850 2 870 1 872 1 924 1 934 1 980 1 982 1 988 1 994 1 23 1 37 1 58 1 62 1 150 1 160 1 165 1 214 1 219 1 223 1 235 1 236 1 243 1 256 1 276 1 278 1 291 1 330 1 344 1 347 1 350 1 368 1 406 1 417 1 442 1 495 1 503 1 522 1 571 1 586 1 592 1 623 1 640 1 696 1 715 1 724 1 796 1 799 1 811 1 815 1 822 1 825 1 853 1 854 1 894 1 900 1 916 1 932 1 935 1 955 1 958 1 962 1 998 1 1006 1 1021 1 1024 1 
1 213 62 1 84 1 86 1 90 1 91 1 137 1 153 1 154 1 168 1 171 1 177 1 180 1 199 1 212 1 214 1 215 1 219 1 245 1 269 1 307 1 314 1 320 1 360 1 362 1 371 1 378 1 414 1 415 2 420 1 431 1 434 1 471 1 473 1 476 1 502 1 542 1 548 1 563 1 570 1 594 1 614 1 676 1 688 1 695 1 721 2 752 1 762 1 766 1 773 1 788 1 793 1 794 1 796 1 808 1 830 1 847 1 853 1 858 2 937 1 945 1 948 1 952 1 963 1 965 1 982 1 994 1 32 1 131 1 141 1 150 1 156 1 166 1 172 1 194 1 203 1 223 1 225 1 232 1 250 1 261 1 266 1 274 1 349 1 379 1 404 1 445 1 446 1 448 1 486 1 488 1 495 1 497 1 509 1 524 1 533 1 537 1 581 1 669 1 670 1 671 1 673 1 680 1 716 1 789 1 880 1 895 1 902 1 904 1 910 1 935 1 967 1 997 1 1003 1 1019 1 1020 1 1022 1 1025 1 
1 213 8 1 33 1 36 1 48 1 51 1 53 1 54 1 79 1 151 1 191 1 230 1 240 1 272 1 275 1 279 1 280 1 284 1 320 1 330 1 334 1 348 1 350 1 374 1 379 1 392 1 424 1 432 1 436 1 445 1 460 1 471 1 482 1 491 1 520 1 524 1 536 2 549 1 615 1 639 1 644 1 691 1 697 1 743 1 753 1 774 1 787 2 850 1 870 1 892 1 917 1 948 1 950 1 961 2 972 2 993 1 994 1 995 1 998 1 999 1 38 1 61 1 64 1 74 1 87 1 88 1 93 1 126 1 128 1 135 1 182 1 255 1 265 1 274 1 303 1 314 1 317 1 368 1 394 1 411 1 415 1 459 1 500 1 537 1 556 1 562 1 604 1 614 1 635 1 647 1 652 1 730 1 731 1 740 1 756 1 773 1 786 1 790 1 796 1 816 1 819 1 833 1 882 1 885 1 898 1 907 1 908 1 909 1 969 1 990 1 1000 1 1008 1 1011 1 1016 1 1019 1 1020 1 
1 212 2 1 5 1 16 1 32 1 60 1 69 1 76 1 85 1 87 1 114 1 116 1 117 1 132 1 146 1 151 2 252 1 281 1 324 1 336 1 341 1 367 1 369 1 399 1 403 1 429 2 448 1 456 1 463 1 483 1 507 1 510 1 573 1 601 1 614 1 618 1 629 1 633 1 652 1 659 1 700 2 711 1 721 1 725 1 736 2 738 1 780 1 781 1 782 1 793 1 826 1 833 1 852 1 874 1 878 1 880 1 886 2 905 1 917 1 920 1 944 1 959 1 982 1 63 1 89 1 102 1 106 1 120 1 147 1 155 1 174 1 177 1 192 1 246 1 253 1 273 1 276 1 286 1 323 1 344 1 346 1 355 1 359 1 374 1 376 1 453 1 459 1 473 1 485 1 491 1 504 1 511 1 514 1 549 1 551 1 554 1 555 1 617 1 625 1 640 1 672 1 728 1 741 1 768 1 774 1 777 1 790 1 818 1 898 1 906 1 916 1 919 1 941 1 956 1 957 1 960 1 997 1 1019 1 1022 1 1023 1 1027 1 
1 207 3 1 4 1 15 1 7 1 23 1 57 1 73 1 82 1 119 1 126 1 129 1 165 2 175 1 200 1 203 1 251 1 266 1 284 1 314 1 325 1 329 1 333 1 361 1 362 1 381 1 393 1 402 1 414 1 428 1 442 1 448 1 456 1 469 1 479 1 508 1 547 1 572 2 610 1 627 1 631 1 634 1 636 2 639 1 648 1 655 1 668 1 680 1 729 2 732 1 752 1 779 1 786 1 794 1 797 1 798 1 809 1 838 1 855 1 867 1 877 1 947 1 28 1 61 1 68 1 132 1 133 1 163 1 187 1 191 1 198 1 223 1 228 1 255 1 259 1 272 1 312 1 336 1 337 1 384 1 390 1 399 1 425 1 426 1 427 1 454 1 457 1 463 1 483 1 491 1 512 1 517 1 558 1 570 1 591 1 609 1 613 1 620 1 622 1 663 1 725 1 730 1 735 1 754 1 766 1 788 1 811 1 819 1 840 1 844 1 854 1 893 1 903 1 972 1 995 1 1017 1 
1 214 2 1 19 1 64 1 90 1 94 1 106 1 169 1 184 1 194 1 222 1 233 1 257 1 259 1 271 1 288 2 303 2 305 1 306 1 358 1 364 1 397 1 456 1 457 1 458 1 469 1 475 1 481 1 492 1 493 1 507 1 528 1 547 1 574 1 584 1 597 1 599 1 644 1 651 1 667 1 671 1 676 2 679 2 712 1 721 1 753 1 755 1 770 1 780 1 795 1 809 1 821 1 900 2 903 1 930 1 962 1 968 1 995 1 996 1 997 1 999 1 35 1 37 1 38 1 44 1 86 1 126 1 153 1 179 1 195 1 240 1 373 1 374 1 391 1 415 1 439 1 445 1 453 1 477 1 497 1 499 1 532 1 560 1 583 1 604 1 662 1 664 1 705 1 711 1 725 1 749 1 810 1 926 1 928 1 944 1 961 1 973 1 976 1 981 1 1001 1 1015 1 1019 1 1020 1 1023 1 
1 217 8 1 10 1 24 1 30 1 31 1 41 1 62 1 75 1 102 1 112 1 147 1 155 1 202 1 220 1 233 2 235 1 240 1 254 1 264 1 337 1 340 1 343 1 380 1 415 1 454 1 468 1 501 1 510 1 552 1 559 1 561 1 582 1 595 1 607 1 659 1 665 1 670 1 680 1 695 1 711 1 738 1 765 1 778 1 779 1 819 1 821 1 828 1 833 1 834 2 865 1 880 1 889 1 894 1 918 1 931 1 951 1 972 1 984 1 26 1 55 1 87 1 89 1 97 1 106 1 130 1 137 1 164 1 186 1 191 1 208 1 213 1 221 1 237 1 259 1 268 1 279 1 281 1 287 1 291 1 300 1 306 1 329 1 332 1 346 1 362 1 411 1 419 1 448 1 460 1 475 1 496 1 519 1 523 1 558 1 601 1 608 1 617 1 632 1 651 1 679 1 689 1 749 1 770 1 811 1 817 1 823 1 827 1 830 1 837 1 848 1 861 1 886 1 907 1 917 1 943 1 956 1 960 1 977 1 994 1 1011 1 1013 1 1014 1 1017 1 1023 1 
1 206 17 1 53 1 82 1 101 1 106 1 123 1 129 1 148 1 172 1 175 1 180 1 187 2 193 2 201 1 211 1 212 1 223 1 250 1 254 1 293 1 306 1 327 1 388 1 407 1 433 1 439 1 479 1 495 1 500 1 551 1 570 1 594 2 595 1 625 2 627 1 651 1 682 1 685 1 689 1 701 1 718 1 723 1 773 1 779 1 796 1 805 1 823 1 825 1 830 1 863 1 879 1 901 2 903 1 920 1 948 1 968 1 971 1 994 1 85 1 87 1 113 1 147 1 156 1 177 1 186 1 200 1 206 1 227 1 275 1 281 1 297 1 302 1 317 1 319 1 335 1 336 1 337 1 339 1 354 1 371 1 381 1 414 1 418 1 434 1 455 1 477 1 507 1 522 1 539 1 543 1 583 1 589 1 623 1 628 1 642 1 656 1 674 1 698 1 787 1 797 1 815 1 843 1 856 1 859 1 902 1 910 1 930 1 1011 1 1019 1 
1 211 8 1 24 1 40 1 41 1 50 1 54 1 57 1 58 1 66 1 103 1 143 1 146 1 148 1 174 1 199 1 204 1 205 1 206 1 210 1 218 1 274 2 285 1 301 1 369 1 371 1 383 1 389 1 391 1 411 2 424 1 432 1 465 1 473 1 477 1 481 2 488 1 497 1 518 1 522 1 525 1 529 1 540 1 582 1 589 1 618 1 623 1 625 1 633 1 646 1 658 1 718 1 742 1 752 1 756 1 775 1 814 1 828 1 869 1 882 1 897 1 901 1 930 1 934 1 941 1 968 1 974 1 982 1 985 1 997 1 21 1 26 1 39 1 48 1 68 1 69 1 88 1 91 1 121 1 147 1 160 1 166 1 176 1 186 1 264 1 306 1 335 1 348 1 367 1 374 1 387 1 397 1 407 1 415 1 429 1 470 1 486 1 514 1 556 1 591 1 645 1 686 1 701 1 716 1 736 1 766 1 770 1 773 1 779 1 782 1 802 1 823 1 872 1 874 1 910 1 957 1 971 1 973 1 979 1 1013 1 1022 1 1023 1 1025 1 
1 212 2 1 4 1 20 1 73 1 91 1 102 1 127 1 131 1 146 1 155 1 165 1 211 1 221 1 244 1 253 1 267 1 268 1 281 1 284 1 352 1 428 1 437 1 445 1 458 1 461 1 466 1 485 1 500 1 521 1 523 1 552 1 554 1 587 1 594 1 606 1 623 1 654 1 670 1 686 1 717 1 735 1 778 1 789 1 824 1 828 1 857 2 864 1 878 1 884 1 893 1 918 1 932 1 935 1 939 1 944 1 945 1 953 1 955 1 974 1 975 1 990 1 995 1 30 1 36 1 48 1 87 1 103 1 114 1 118 1 166 1 169 1 175 1 188 1 200 1 216 1 232 1 254 1 347 1 349 1 361 1 368 1 373 1 389 1 400 1 424 1 431 1 470 1 481 1 486 1 493 1 513 1 524 1 530 1 535 1 557 1 583 1 632 1 664 1 669 1 688 1 708 1 715 1 748 1 780 1 811 1 821 1 832 1 844 1 862 1 872 1 890 1 897 1 900 1 983 1 986 1 1003 1 1015 1 1016 1 1017 1 
1 209 5 1 43 2 104 1 148 1 177 1 187 1 191 1 220 1 222 1 276 1 285 1 305 1 327 1 329 1 346 1 351 1 360 1 377 1 405 1 407 1 409 1 436 1 470 2 483 1 490 1 495 1 529 1 549 1 558 1 577 1 610 1 626 2 636 1 664 1 667 1 682 1 726 2 765 1 771 1 782 1 794 1 803 1 819 1 893 1 911 1 920 2 923 1 925 1 927 1 965 1 974 1 977 1 981 1 1002 1 70 1 158 1 185 1 190 1 192 1 200 1 212 1 230 1 248 1 303 1 319 1 347 1 355 1 378 1 380 1 385 1 421 1 423 1 425 1 452 1 456 1 503 1 534 1 536 1 537 1 552 1 560 1 565 1 568 1 578 1 591 1 601 1 602 1 615 1 644 1 679 1 694 1 697 1 700 1 734 1 745 1 777 1 802 1 832 1 835 1 852 1 860 1 877 1 889 1 891 1 908 1 929 1 954 1 957 1 968 1 986 1 996 1 
1 211 16 1 9 1 12 1 23 1 23 1 34 1 37 1 48 1 117 1 127 1 130 1 186 1 194 1 203 1 275 1 287 1 294 1 312 1 343 1 347 1 350 1 360 1 403 1 438 1 441 1 455 1 467 1 477 1 498 1 524 1 561 1 564 1 570 1 586 1 623 1 652 1 663 1 672 2 695 1 704 1 714 1 718 1 732 1 745 1 754 1 779 1 787 1 804 1 806 1 844 1 858 1 861 1 905 1 945 2 949 1 953 1 959 1 970 1 979 1 30 1 73 1 83 1 87 1 90 1 95 1 108 1 120 1 123 1 132 1 134 1 135 1 157 1 179 1 199 1 209 1 227 1 228 1 248 1 259 1 264 1 286 1 328 1 366 1 368 1 389 1 446 1 461 1 489 1 494 1 512 1 513 1 515 1 519 1 522 1 569 1 578 1 581 1 599 1 610 1 629 1 655 1 656 1 669 1 708 1 711 1 729 1 733 1 735 1 740 1 741 1 782 1 833 1 840 1 846 1 857 1 868 1 869 1 872 1 892 1 907 1 908 1 927 1 943 1 948 1 957 1 1016 1 1024 1 1026 1 
1 211 8 1 18 1 20 1 7 1 28 1 54 1 79 1 80 1 85 1 106 1 135 1 136 1 165 1 173 1 204 2 218 2 220 1 223 1 227 1 240 1 246 1 249 1 252 1 278 1 285 1 289 1 312 1 341 1 355 1 377 1 396 1 397 1 451 1 461 1 471 1 474 1 482 1 510 1 512 1 527 1 529 1 539 1 564 1 582 1 592 1 615 1 633 1 636 1 641 1 654 1 656 1 705 1 728 1 753 1 778 1 783 1 818 1 826 1 850 1 934 2 935 1 963 1 977 1 981 1 987 1 71 1 83 1 97 1 112 1 118 1 122 1 124 1 125 1 143 1 151 1 159 1 194 1 229 1 248 1 267 1 268 1 275 1 288 1 314 1 320 1 372 1 428 1 432 1 438 1 492 1 501 1 502 1 523 1 531 1 593 1 598 1 611 1 626 1 660 1 688 1 703 1 721 1 724 1 735 1 746 1 756 1 801 1 817 1 820 1 822 1 841 1 853 1 867 1 868 1 877 1 960 1 979 1 990 1 1007 1 1011 1 1012 1 1014 1 1021 1 1026 1 
1 211 8 1 25 1 25 1 30 1 46 1 62 1 67 1 69 1 103 1 107 1 113 1 173 1 223 1 226 1 238 1 308 1 325 1 328 1 337 1 342 1 345 1 400 2 414 1 417 1 418 1 467 1 471 1 477 1 485 1 507 1 534 1 536 1 540 1 581 1 649 1 661 1 683 1 703 1 716 1 747 2 764 1 809 1 826 1 843 1 871 1 879 1 904 1 919 1 921 1 948 1 984 1 991 1 39 1 47 1 57 1 60 1 63 1 112 1 122 1 123 1 144 1 151 1 168 1 191 1 193 1 198 1 219 1 266 1 309 1 320 1 341 1 354 1 387 1 436 1 439 1 454 1 458 1 472 1 500 1 516 1 529 1 545 1 562 1 563 1 569 1 579 1 607 1 613 1 615 1 626 1 633 1 655 1 667 1 669 1 749 1 784 1 801 1 825 1 844 1 867 1 897 1 908 1 936 1 963 1 965 1 976 1 982 1 1006 1 1017 1 1018 1 1024 1 1027 1 
1 214 10 2 18 1 20 1 53 1 69 1 86 1 92 2 101 2 115 1 135 1 143 1 154 1 161 1 174 1 179 1 202 1 209 1 232 1 255 1 257 1 276 1 311 1 330 1 346 1 361 1 377 1 409 1 418 1 457 1 469 1 493 1 511 1 562 1 576 1 593 1 603 1 650 1 661 1 679 1 682 1 694 1 706 1 709 1 754 1 788 1 791 1 835 1 837 1 883 1 884 1 887 2 918 1 924 1 943 2 955 1 971 1 978 1 39 1 62 1 63 1 105 1 106 1 124 1 156 1 158 1 162 1 172 1 210 1 236 1 239 1 247 1 305 1 344 1 345 1 401 1 411 1 420 1 439 1 455 1 475 1 478 1 488 1 512 1 522 1 564 1 587 1 617 1 623 1 645 1 698 1 731 1 744 1 755 1 765 1 794 1 798 1 810 1 827 1 836 1 870 1 873 1 970 1 976 1 992 1 993 1 1013 1 1015 1 1016 1 1027 1 
1 207 5 1 29 1 53 1 71 1 72 1 84 1 88 1 91 1 100 1 107 1 138 1 146 1 158 1 159 1 172 1 174 1 189 1 195 1 235 1 250 1 254 1 278 2 318 1 343 1 425 1 451 1 452 1 498 1 501 1 506 1 512 1 520 2 532 1 567 1 578 1 595 1 604 1 609 1 619 1 632 1 642 2 643 1 645 1 675 1 730 1 743 1 768 1 781 1 806 2 823 1 834 1 846 1 847 1 876 1 897 1 908 1 910 1 935 1 971 1 978 1 30 1 32 1 40 1 65 1 69 1 83 1 113 1 145 1 171 1 175 1 205 1 271 1 275 1 306 1 308 1 358 1 368 1 407 1 485 1 489 1 510 1 519 1 523 1 531 1 539 1 547 1 571 1 590 1 596 1 600 1 613 1 614 1 623 1 650 1 691 1 711 1 714 1 717 1 762 1 766 1 828 1 859 1 866 1 870 1 904 1 933 1 945 1 968 1 970 1 1017 1 1019 1 1026 1 
1 215 10 1 24 1 7 1 16 1 31 1 51 1 59 1 81 1 116 1 140 1 143 1 155 1 164 1 185 1 206 1 238 1 247 1 252 1 255 1 265 1 282 1 293 1 316 1 365 1 393 1 430 1 432 1 443 1 514 1 516 2 517 1 534 1 546 1 551 1 556 1 568 1 597 1 613 1 628 1 635 1 654 1 656 1 676 1 723 1 771 1 777 1 801 1 802 1 806 1 858 1 871 1 881 1 895 2 909 1 921 2 929 1 974 1 976 1 989 1 1001 1 48 1 55 1 87 1 107 1 144 1 148 1 153 1 174 1 182 1 198 1 221 1 224 1 225 1 226 1 239 1 254 1 256 1 258 1 269 1 283 1 363 1 383 1 388 1 421 1 435 1 438 1 453 1 460 1 475 1 493 1 539 1 541 1 543 1 558 1 577 1 600 1 661 1 694 1 703 1 709 1 710 1 755 1 760 1 774 1 833 1 847 1 861 1 896 1 912 1 960 1 990 1 1003 1 1017 1 1023 1 
1 207 11 1 27 1 81 1 90 1 145 1 146 1 219 1 245 2 271 1 276 1 277 1 308 1 313 1 321 1 360 1 363 1 409 1 420 1 437 1 442 1 453 1 465 1 467 1 483 1 502 1 516 1 553 1 571 1 593 1 618 1 636 1 669 2 671 1 678 1 688 1 712 1 736 1 785 1 797 1 812 1 826 1 846 1 869 1 872 1 880 1 887 1 898 1 899 1 902 1 909 1 920 1 938 1 941 1 957 1 958 1 968 1 987 1 991 1 995 1 996 1 43 1 55 1 57 1 108 1 129 1 160 1 161 1 195 1 231 1 269 1 278 1 294 1 296 1 338 1 356 1 361 1 381 1 382 1 393 1 413 1 433 1 438 1 464 1 484 1 498 1 514 1 561 1 564 1 573 1 599 1 605 1 617 1 621 1 645 1 651 1 674 1 686 1 699 1 730 1 782 1 786 1 791 1 816 1 859 1 864 1 885 1 895 1 896 1 948 1 984 1 1008 1 1013 1 1017 1 1026 1 
1 208 1 1 18 1 25 1 21 1 23 1 27 1 30 1 30 1 114 1 124 1 140 1 155 1 164 2 169 1 205 1 227 1 233 1 241 1 263 1 308 1 332 1 337 1 341 1 364 1 372 1 374 1 382 1 405 1 445 1 450 1 455 1 460 1 461 1 479 2 483 1 514 1 539 1 542 1 543 1 568 1 578 1 584 1 596 1 611 1 618 1 643 1 713 1 730 1 783 1 792 1 795 1 818 2 865 1 889 1 911 1 914 1 915 1 922 1 931 1 948 1 955 1 957 1 976 1 993 1 31 1 43 1 45 1 90 1 127 1 153 1 193 1 215 1 221 1 248 1 256 1 272 1 288 1 323 1 325 1 328 1 342 1 343 1 360 1 373 1 378 1 385 1 411 1 413 1 417 1 418 1 442 1 456 1 474 1 481 1 503 1 538 1 562 1 572 1 582 1 597 1 604 1 653 1 688 1 689 1 753 1 794 1 812 1 843 1 864 1 880 1 909 1 912 1 919 1 930 1 936 1 980 1 984 1 987 1 1001 1 1010 1 1025 1 
1 208 8 1 18 1 28 1 30 1 35 1 40 1 45 1 76 1 89 1 110 1 112 1 114 1 122 1 142 2 191 1 196 1 198 1 203 1 231 1 235 1 259 1 305 1 335 1 336 1 347 1 349 1 350 1 361 1 367 1 381 1 408 1 416 1 451 1 463 1 464 1 528 2 590 1 597 1 618 1 638 1 644 1 682 1 718 1 721 1 725 1 743 1 783 1 796 1 807 1 823 1 836 1 846 1 850 1 888 1 928 1 932 1 943 1 945 1 962 1 966 1 1000 1 39 1 52 1 57 1 68 1 69 1 73 1 93 1 100 1 146 1 156 1 173 1 179 1 283 1 286 1 291 1 300 1 307 1 317 1 366 1 398 1 421 1 482 1 486 1 499 1 519 1 546 1 594 1 600 1 621 1 631 1 639 1 640 1 655 1 666 1 677 1 699 1 719 1 726 1 732 1 739 1 825 1 845 1 906 1 929 1 947 1 977 1 979 1 991 1 997 1 1005 1 1011 1 1021 1 
1 212 15 1 6 1 9 1 13 1 27 1 63 1 84 1 140 1 151 1 190 1 195 1 198 1 214 2 221 2 238 1 262 1 265 1 303 1 320 1 321 1 332 1 338 1 378 1 391 1 419 1 421 1 481 1 491 1 502 1 530 1 554 2 569 1 592 1 609 1 625 1 633 1 638 1 677 1 680 1 681 2 773 1 777 1 791 1 812 1 820 1 837 1 843 1 861 1 862 1 863 1 897 1 912 1 952 1 961 1 35 1 41 1 44 1 68 1 70 1 79 1 83 1 90 1 114 1 132 1 139 1 158 1 188 1 218 1 227 1 235 1 245 1 247 1 278 1 287 1 309 1 337 1 353 1 356 1 363 1 365 1 379 1 415 1 441 1 462 1 477 1 512 1 537 1 538 1 544 1 547 1 571 1 582 1 595 1 617 1 631 1 662 1 664 1 665 1 671 1 689 1 694 1 712 1 735 1 755 1 757 1 761 1 766 1 771 1 821 1 825 1 833 1 839 1 846 1 869 1 896 1 909 1 915 1 933 1 938 1 939 1 980 1 1004 1 1007 1 1011 1 1018 1 
1 211 6 1 11 1 12 1 14 1 1 1 35 1 38 1 70 1 83 1 84 1 107 1 111 1 128 1 168 1 247 1 248 1 257 1 274 2 284 1 311 1 312 1 313 1 353 1 372 1 385 1 386 1 390 1 439 1 473 1 478 1 481 1 515 1 517 1 526 1 549 1 594 1 602 2 610 1 627 1 635 1 667 1 681 1 688 1 692 1 705 1 713 1 737 1 743 1 772 1 809 1 836 1 841 1 862 1 887 1 897 1 924 1 935 1 54 1 66 1 105 1 123 1 124 1 179 1 183 1 197 1 208 1 211 1 224 1 236 1 283 1 289 1 298 1 306 1 307 1 339 1 371 1 408 1 411 1 460 1 464 1 488 1 505 1 519 1 520 1 525 1 530 1 545 1 547 1 552 1 600 1 613 1 641 1 644 1 659 1 669 1 698 1 710 1 748 1 762 1 783 1 797 1 829 1 844 1 848 1 858 1 888 1 902 1 904 1 916 1 921 1 933 1 996 1 1010 1 1014 1 1018 1 1023 1 1024 1 
1 208 2 1 4 1 23 1 48 1 59 1 79 1 88 1 155 1 156 1 160 1 197 1 203 1 293 1 310 1 312 1 326 1 353 1 372 1 393 1 396 1 417 1 427 1 431 1 449 1 462 1 492 1 520 1 532 1 540 1 572 1 575 1 581 1 608 2 614 1 674 1 679 1 706 1 721 1 730 1 754 1 775 1 781 1 786 1 826 1 897 1 932 1 937 1 953 1 971 1 35 1 104 1 121 1 135 1 164 1 191 1 231 1 238 1 245 1 250 1 264 1 267 1 281 1 283 1 296 1 307 1 317 1 332 1 333 1 355 1 361 1 408 1 430 1 447 1 464 1 474 1 482 1 507 1 542 1 558 1 584 1 592 1 601 1 615 1 637 1 649 1 707 1 712 1 769 1 774 1 777 1 797 1 807 1 864 1 869 1 887 1 890 1 895 1 922 1 951 1 1011 1 1018 1 1020 1 
1 206 31 1 33 1 17 1 32 1 34 1 36 1 44 1 59 1 122 1 126 1 135 1 150 1 164 2 177 1 186 1 190 1 192 1 193 1 200 1 209 1 216 1 223 1 239 1 252 1 267 1 278 1 297 1 299 1 314 1 329 1 348 1 362 1 371 1 380 1 398 2 402 1 420 1 436 1 447 1 458 1 481 1 486 1 514 1 562 1 564 1 566 1 568 1 580 1 587 1 592 1 628 1 727 2 740 1 747 1 768 1 773 1 782 1 793 1 812 1 831 1 852 1 892 1 904 1 925 1 932 1 936 1 937 1 952 1 954 1 964 1 988 1 50 1 80 1 125 1 138 1 143 1 148 1 159 1 231 1 246 1 249 1 266 1 280 1 287 1 304 1 307 1 326 1 361 1 364 1 378 1 394 1 424 1 435 1 443 1 446 1 484 1 493 1 494 1 524 1 547 1 555 1 625 1 634 1 636 1 642 1 655 1 669 1 685 1 700 1 702 1 706 1 720 1 733 1 745 1 746 1 781 1 805 1 823 1 838 1 879 1 910 1 929 1 1016 1 
1 207 1 1 14 1 35 1 5 1 11 1 21 1 44 1 57 1 64 1 90 1 92 1 104 1 115 1 120 1 128 1 144 1 146 1 174 1 206 1 207 1 236 1 247 1 268 1 273 1 284 1 288 1 304 2 308 1 344 1 374 1 378 1 412 1 414 1 445 1 449 1 466 1 505 1 516 1 551 1 557 1 562 1 580 1 672 1 703 1 730 1 741 1 798 1 807 1 810 1 822 2 833 1 854 1 883 1 892 1 897 1 936 1 943 1 950 1 952 1 976 1 983 1 67 1 71 1 73 1 75 1 89 1 111 1 132 1 163 1 208 1 222 1 227 1 246 1 281 1 321 1 337 1 339 1 355 1 359 1 404 1 409 1 417 1 431 1 440 1 462 1 490 1 497 1 510 1 532 1 549 1 567 1 571 1 607 1 610 1 625 1 630 1 645 1 671 1 675 1 681 1 711 1 766 1 772 1 821 1 836 1 855 1 904 1 913 1 949 1 968 1 979 1 
1 211 23 1 12 1 17 1 39 1 40 1 62 1 69 1 111 1 136 1 189 1 193 1 197 1 208 1 260 1 263 1 268 1 273 1 275 2 338 1 340 1 344 1 392 1 425 1 430 1 432 1 438 2 464 1 477 1 490 1 491 1 529 1 534 1 547 1 560 1 595 1 605 1 631 1 633 1 635 1 648 1 661 1 682 1 687 1 689 1 694 1 704 1 710 1 716 1 726 1 735 1 745 1 748 1 751 1 756 1 762 1 801 1 835 1 896 1 921 1 953 1 44 1 66 1 75 1 81 1 107 1 140 1 177 1 185 1 192 1 215 1 270 1 276 1 285 1 290 1 304 1 315 1 371 1 372 1 408 1 410 1 417 1 427 1 435 1 454 1 459 1 463 1 469 1 481 1 486 1 500 1 511 1 531 1 554 1 557 1 565 1 568 1 579 1 581 1 593 1 606 1 610 1 630 1 651 1 665 1 668 1 788 1 805 1 825 1 891 1 895 1 930 1 950 1 975 1 981 1 1005 1 1023 1 
1 208 11 1 33 1 14 1 17 1 42 1 44 1 46 1 62 1 93 1 98 1 111 1 120 2 151 1 153 1 168 1 171 1 186 1 208 1 235 2 236 1 270 1 298 1 327 1 341 1 369 1 373 1 374 1 377 1 392 1 395 1 403 1 414 1 422 1 432 1 448 1 467 1 470 1 498 1 509 1 541 1 543 1 560 1 570 1 577 1 584 1 597 1 617 1 618 2 628 1 632 1 637 1 639 1 658 2 672 1 686 2 699 1 720 2 732 1 749 1 755 1 776 1 790 1 882 1 884 1 935 2 936 1 956 1 970 1 985 1 55 1 64 1 103 1 141 1 144 1 225 1 249 1 299 1 323 1 339 1 401 1 411 1 419 1 426 1 428 1 457 1 481 1 502 1 535 1 563 1 582 1 589 1 623 1 634 1 636 1 641 1 644 1 651 1 652 1 653 1 667 1 677 1 680 1 684 1 725 1 746 1 763 1 792 1 805 1 806 1 849 1 872 1 880 1 883 1 890 1 894 1 910 1 914 1 939 1 978 1 979 1 981 1 994 1 1005 1 1016 1 1020 1 
1 211 2 1 5 1 7 1 37 1 20 1 25 1 26 1 31 1 56 1 78 1 113 1 115 1 124 1 129 1 140 2 163 1 170 1 209 1 223 2 230 1 233 2 287 1 289 1 291 1 315 1 318 1 323 1 344 1 364 1 379 1 389 1 446 1 448 1 452 1 460 1 474 1 531 1 534 1 551 1 552 1 562 1 584 2 605 1 630 1 631 1 663 1 668 1 686 1 692 1 706 1 728 1 749 2 772 1 799 1 847 1 850 1 869 1 889 1 911 1 952 1 984 2 995 1 998 1 45 1 58 1 91 1 121 1 123 1 164 1 184 1 228 1 236 1 252 1 256 1 279 1 305 1 359 1 367 1 391 1 409 1 417 1 471 1 492 1 495 1 505 1 532 1 541 1 573 1 587 1 594 1 601 1 629 1 653 1 655 1 684 1 700 1 709 1 723 1 729 1 736 1 752 1 763 1 764 1 785 1 793 1 798 1 827 1 829 1 837 1 849 1 897 1 929 1 939 1 947 1 975 1 1008 1 1023 1 
1 211 20 1 31 1 37 1 27 1 96 1 153 1 161 1 172 1 189 1 196 1 225 1 250 1 257 1 263 1 282 1 301 1 331 1 332 1 393 1 396 1 412 2 413 1 456 1 485 1 491 1 494 1 498 1 569 1 572 1 574 1 590 1 594 1 620 1 636 1 642 2 650 1 657 1 687 1 724 1 727 1 732 1 745 1 763 1 769 1 778 1 788 1 789 1 799 1 808 1 820 1 825 1 833 1 840 1 864 1 878 1 887 1 896 1 900 2 901 1 904 1 905 1 906 1 921 1 923 1 940 1 966 1 978 1 987 1 990 1 996 1 62 1 77 1 126 1 147 1 156 1 160 1 167 1 170 1 178 1 258 1 264 1 270 1 280 1 304 1 309 1 327 1 330 1 367 1 371 1 399 1 419 1 421 1 440 1 475 1 490 1 512 1 551 1 553 1 559 1 562 1 577 1 583 1 593 1 596 1 601 1 624 1 639 1 648 1 674 1 716 1 723 1 785 1 865 1 914 1 918 1 927 1 965 1 1004 1 1014 1 1024 1 1026 1 
1 212 6 1 18 1 20 1 4 1 10 1 32 1 42 1 59 1 74 2 90 1 105 1 111 1 191 1 197 1 201 1 233 1 236 2 238 1 243 1 255 1 285 2 319 1 328 1 333 1 345 1 367 1 391 1 399 1 415 1 422 1 449 1 465 1 474 1 498 1 499 1 503 1 521 1 534 1 548 2 551 1 557 1 562 1 586 1 642 1 668 1 704 1 705 1 724 1 732 1 749 1 750 2 766 1 827 1 848 2 906 1 909 1 931 1 939 1 966 1 973 1 979 1 45 1 61 1 115 1 124 1 130 1 131 1 189 1 190 1 241 1 247 1 254 1 277 1 288 1 320 1 326 1 341 1 411 1 418 1 421 1 478 1 481 1 485 1 506 1 507 1 510 1 513 1 522 1 532 1 541 1 550 1 600 1 638 1 641 1 657 1 665 1 669 1 718 1 736 1 742 1 761 1 779 1 829 1 833 1 837 1 841 1 858 1 859 1 889 1 897 1 902 1 935 1 950 1 965 1 996 1 1006 1 1009 1 1024 1 
1 213 3 1 11 1 38 1 41 1 2 1 54 1 71 1 73 1 83 1 102 1 123 1 156 1 164 1 187 1 192 1 220 1 226 1 239 1 246 1 247 2 249 1 255 1 267 1 279 1 287 1 306 1 329 1 335 1 336 1 377 1 379 1 408 1 417 1 436 1 437 1 443 1 446 1 451 1 457 1 513 1 514 2 555 1 557 1 568 1 575 1 652 2 668 1 670 1 693 1 721 1 725 1 741 2 762 1 772 1 850 1 861 1 883 1 918 1 933 1 934 1 973 1 977 1 47 1 55 1 109 1 144 1 189 1 190 1 204 1 205 1 222 1 224 1 273 1 284 1 316 1 328 1 341 1 357 1 413 1 421 1 444 1 467 1 473 1 496 1 504 1 522 1 570 1 580 1 612 1 656 1 704 1 722 1 733 1 757 1 766 1 776 1 809 1 817 1 830 1 871 1 888 1 890 1 893 1 922 1 935 1 937 1 957 1 986 1 997 1 1001 1 1003 1 1008 1 1012 1 1023 1 1027 1 
1 211 1 1 22 2 8 1 9 1 29 1 30 1 47 1 49 1 81 1 132 1 142 1 148 1 173 1 181 1 194 1 202 1 232 1 238 2 262 1 269 1 281 2 361 1 385 1 406 1 444 1 456 1 490 1 494 1 505 1 508 1 513 1 517 1 526 1 563 1 585 1 591 1 635 1 663 1 667 1 730 1 746 1 757 1 772 1 789 1 799 1 808 1 824 1 830 1 837 1 843 1 897 1 921 1 930 1 940 1 942 1 944 1 947 1 960 1 963 1 992 1 44 1 64 1 66 1 91 1 154 1 172 1 221 1 233 1 254 1 287 1 297 1 306 1 345 1 373 1 375 1 379 1 386 1 396 1 432 1 465 1 474 1 500 1 532 1 547 1 556 1 571 1 589 1 601 1 604 1 618 1 644 1 659 1 672 1 678 1 682 1 686 1 718 1 723 1 728 1 745 1 758 1 785 1 787 1 792 1 800 1 809 1 810 1 827 1 848 1 854 1 858 1 875 1 877 1 903 1 905 1 967 1 978 1 986 1 989 1 1008 1 1012 1 1016 1 1023 1 
1 211 35 1 36 1 38 1 17 1 32 1 37 1 43 1 44 1 44 1 49 1 77 1 89 1 93 1 143 1 168 1 169 1 222 2 261 1 301 1 309 1 312 1 343 1 346 1 357 1 364 1 371 1 379 1 412 1 413 1 425 1 467 1 532 1 577 1 613 1 657 1 658 1 665 1 677 2 702 1 729 1 750 1 753 1 754 1 760 1 779 1 788 1 821 1 832 1 854 1 873 1 904 1 915 1 944 1 947 1 963 1 80 1 88 1 90 1 151 1 171 1 200 1 208 1 223 1 227 1 241 1 254 1 255 1 268 1 273 1 281 1 282 1 307 1 319 1 324 1 389 1 405 1 418 1 422 1 426 1 437 1 455 1 468 1 469 1 489 1 502 1 515 1 602 1 604 1 623 1 628 1 674 1 676 1 731 1 740 1 742 1 748 1 758 1 770 1 818 1 860 1 887 1 903 1 912 1 936 1 967 1 971 1 1006 1 1008 1 1009 1 1012 1 1014 1 1026 1 
1 209 31 1 3 1 4 1 10 1 30 1 39 1 41 1 48 1 60 1 85 1 97 1 116 1 121 1 136 1 155 1 192 1 213 1 222 1 239 1 246 1 258 1 261 1 288 1 290 1 294 1 328 1 348 1 350 1 359 1 363 1 366 1 380 1 404 1 439 1 450 1 468 1 485 1 526 1 529 1 542 1 543 1 576 1 598 1 602 1 670 1 687 1 691 1 735 1 742 1 751 1 755 1 803 1 809 1 825 1 862 1 869 1 894 1 972 1 50 1 56 1 72 1 99 1 128 1 146 1 185 1 221 1 238 1 240 1 251 1 253 1 274 1 310 1 319 1 329 1 346 1 395 1 432 1 434 1 455 1 478 1 509 1 511 1 519 1 535 1 540 1 549 1 561 1 568 1 577 1 592 1 607 1 612 1 620 1 626 1 684 1 694 1 710 1 714 1 719 1 787 1 791 1 824 1 858 1 864 1 886 1 898 1 917 1 948 1 974 1 978 1 981 1 1007 1 1013 1 1014 1 1020 1 1021 1 
1 211 25 1 38 1 46 1 46 1 76 1 85 1 98 1 119 2 125 1 133 1 200 1 201 1 205 1 230 2 243 1 286 1 290 1 295 1 297 1 304 1 311 1 375 1 380 1 388 1 389 1 399 1 404 1 415 1 420 1 452 1 465 1 477 1 496 1 512 1 549 1 556 1 563 1 617 1 620 1 636 1 643 1 673 2 700 1 719 1 744 1 754 1 774 1 781 1 793 1 814 1 823 1 846 1 866 1 892 1 918 2 926 1 55 1 59 1 107 1 117 1 124 1 135 1 137 1 138 1 155 1 169 1 184 1 191 1 209 1 210 1 264 1 268 1 276 1 292 1 296 1 308 1 325 1 350 1 356 1 384 1 386 1 426 1 483 1 499 1 508 1 517 1 550 1 635 1 637 1 641 1 720 1 725 1 734 1 739 1 751 1 765 1 779 1 805 1 807 1 835 1 840 1 841 1 875 1 880 1 882 1 884 1 886 1 889 1 920 1 935 1 936 1 947 1 949 1 950 1 972 1 979 1 989 1 997 1 1013 1 1026 1 
1 213 43 1 4 1 25 1 42 1 60 1 72 2 74 1 87 1 97 1 106 1 115 1 116 1 124 1 136 1 142 1 147 1 179 1 183 1 221 1 234 1 254 1 277 1 288 1 326 1 328 1 338 1 342 1 356 2 380 1 383 1 388 1 427 1 440 1 466 1 486 1 506 1 510 1 517 1 544 1 559 1 567 1 590 1 615 1 630 1 757 1 760 1 769 1 792 1 800 1 804 1 814 1 845 1 849 1 864 1 867 1 899 1 901 1 916 2 935 1 936 1 973 1 976 2 978 1 986 1 993 1 994 1 94 1 130 1 151 1 167 1 180 1 197 1 209 1 212 1 227 1 232 1 235 1 252 1 273 1 285 1 299 1 320 1 331 1 344 1 400 1 452 1 458 1 460 1 462 1 487 1 573 1 609 1 624 1 639 1 667 1 668 1 680 1 681 1 744 1 765 1 776 1 785 1 803 1 819 1 840 1 861 1 865 1 869 1 873 1 887 1 923 1 968 1 975 1 1004 1 1005 1 1010 1 1011 1 1016 1 1023 1 
1 210 14 1 23 1 34 1 45 1 8 1 20 1 21 1 28 1 79 1 118 1 119 1 129 1 132 1 160 1 178 1 182 1 190 1 197 1 206 1 218 1 306 1 310 1 312 1 316 1 324 1 440 1 446 1 450 1 466 1 474 1 528 1 561 1 590 1 596 1 604 1 621 1 645 1 672 1 678 1 681 1 688 1 694 1 703 1 707 2 717 1 733 1 743 1 759 1 763 2 794 1 812 1 815 1 862 1 936 1 964 1 981 1 88 1 95 1 100 1 139 1 188 1 194 1 204 1 227 1 240 1 243 1 253 1 257 1 263 1 269 1 288 1 293 1 301 1 327 1 347 1 352 1 387 1 415 1 417 1 418 1 420 1 435 1 444 1 494 1 506 1 510 1 543 1 544 1 563 1 579 1 601 1 631 1 655 1 665 1 673 1 682 1 713 1 728 1 730 1 803 1 807 1 820 1 830 1 850 1 855 1 867 1 876 1 890 1 895 1 898 1 954 1 967 1 974 1 978 1 1021 1 
1 212 43 1 44 1 137 1 161 1 166 1 186 1 223 1 259 1 264 1 302 1 306 1 320 1 366 1 370 1 381 1 400 1 401 1 416 1 442 2 449 1 471 1 473 1 491 1 493 1 500 1 508 1 515 1 533 1 570 1 605 1 618 1 620 1 669 1 677 1 680 1 691 1 700 1 710 1 712 1 721 1 753 1 761 1 762 1 772 1 799 1 805 1 841 1 859 1 876 1 892 1 907 1 960 1 982 1 992 1 76 1 131 1 133 1 140 1 147 1 164 1 168 1 171 1 184 1 214 1 228 1 239 1 242 1 248 1 273 1 298 1 318 1 319 1 328 1 337 1 345 1 350 1 392 1 411 1 465 1 506 1 513 1 561 1 571 1 597 1 627 1 649 1 713 1 747 1 756 1 775 1 811 1 816 1 827 1 861 1 893 1 897 1 927 1 930 1 942 1 946 1 959 1 978 1 986 1 999 1 1006 1 1008 1 1019 1 1021 1 1026 1 
1 211 20 1 3 1 35 1 45 1 64 1 83 1 103 1 128 1 134 1 145 1 171 1 179 1 195 1 230 1 246 1 249 1 254 1 266 1 272 1 291 1 295 1 304 1 308 1 318 1 325 1 329 1 357 1 375 1 378 1 381 1 383 1 402 1 404 2 436 1 441 1 457 1 506 2 509 1 510 1 557 1 594 2 595 1 605 1 636 1 645 1 679 1 702 1 722 1 723 2 725 1 731 1 733 1 761 1 765 1 817 1 849 1 866 1 884 1 885 1 912 1 927 1 963 1 967 1 977 1 999 1 67 1 71 1 94 1 105 1 138 1 222 1 227 1 236 1 244 1 250 1 259 1 286 1 328 1 343 1 345 1 347 1 400 1 434 1 445 1 446 1 447 1 574 1 585 1 598 1 611 1 613 1 623 1 625 1 639 1 641 1 675 1 678 1 680 1 686 1 700 1 717 1 724 1 759 1 795 1 844 1 850 1 893 1 915 1 940 1 954 1 987 1 993 1 1002 1 1006 1 1010 1 1011 1 1012 1 1016 1 1019 1 
1 210 2 1 9 1 14 1 28 1 11 1 54 1 64 1 68 1 74 1 80 1 100 1 151 1 162 1 174 1 182 1 195 1 197 1 223 1 230 1 237 2 250 1 284 1 335 1 337 1 342 1 349 1 360 1 367 1 371 1 390 1 397 1 399 1 436 1 441 1 443 1 449 1 488 1 492 1 493 1 509 1 529 1 551 1 589 1 590 1 610 1 619 1 636 1 675 1 694 1 738 1 778 1 789 1 791 1 838 1 854 1 891 1 892 1 929 1 966 1 979 1 983 1 986 1 999 1 82 1 99 1 106 1 111 1 116 1 137 1 138 1 143 1 149 1 178 1 179 1 198 1 200 1 227 1 236 1 239 1 249 1 321 1 344 1 348 1 364 1 427 1 432 1 433 1 442 1 456 1 457 1 477 1 511 1 528 1 547 1 559 1 562 1 568 1 575 1 593 1 594 1 606 1 644 1 645 1 673 1 674 1 687 1 699 1 709 1 720 1 759 1 768 1 790 1 795 1 827 1 836 1 881 1 900 1 909 1 921 1 969 1 990 1 996 1 1006 1 1011 1 1024 1 
1 210 9 1 31 1 52 1 52 1 74 1 76 1 80 1 104 1 120 1 126 1 133 1 141 1 147 1 197 1 207 2 218 1 249 1 253 1 281 1 320 1 340 2 349 2 376 1 380 1 382 1 389 1 392 1 451 1 492 1 496 1 505 1 515 1 529 1 553 1 592 1 605 1 613 1 614 1 625 2 627 1 642 1 652 1 653 1 659 1 669 1 718 1 736 1 753 1 755 1 761 1 771 1 777 1 789 1 794 1 823 1 875 1 910 1 934 1 940 1 950 1 959 1 977 1 77 1 79 1 81 1 100 1 108 1 162 1 163 1 198 1 232 1 244 1 248 1 256 1 265 1 275 1 277 1 310 1 315 1 354 1 355 1 367 1 387 1 396 1 403 1 428 1 443 1 450 1 472 1 498 1 504 1 530 1 546 1 578 1 607 1 670 1 689 1 714 1 750 1 757 1 776 1 793 1 797 1 809 1 837 1 849 1 853 1 882 1 885 1 890 1 892 1 905 1 931 1 943 1 972 1 974 1 975 1 986 1 1018 1 
1 205 2 2 5 1 14 1 19 1 26 1 27 1 112 2 137 1 156 1 161 1 163 1 187 1 189 1 221 1 225 1 230 1 238 1 247 1 250 1 283 1 309 1 316 1 325 1 364 1 381 1 401 1 406 1 412 1 428 1 439 1 473 1 475 1 476 1 483 1 506 1 507 1 515 1 517 1 558 1 559 2 579 1 583 1 639 1 657 1 665 1 667 1 713 1 714 1 730 1 756 1 769 1 773 1 813 1 821 1 827 1 871 1 877 1 915 1 940 1 942 1 964 1 969 1 981 1 984 1 998 1 72 1 95 1 97 1 98 1 140 1 169 1 208 1 282 1 284 1 293 1 307 1 338 1 339 1 345 1 354 1 392 1 397 1 400 1 440 1 449 1 465 1 503 1 513 1 520 1 522 1 525 1 535 1 547 1 561 1 572 1 598 1 599 1 623 1 650 1 661 1 675 1 699 1 736 1 739 1 740 1 751 1 753 1 858 1 867 1 907 1 948 1 954 1 968 1 971 1 979 1 1010 1 1020 1 1024 1 
1 214 14 1 20 1 24 1 42 1 51 1 33 1 66 1 95 2 127 1 146 1 187 1 190 1 191 1 216 1 232 1 236 1 262 1 271 1 286 1 300 1 301 1 305 1 311 1 312 1 348 1 352 1 359 1 379 1 436 1 464 1 468 1 491 1 514 1 539 1 562 1 566 1 579 2 589 1 600 1 605 1 623 1 686 1 745 1 753 1 760 1 762 1 764 1 792 1 803 2 818 1 825 1 827 1 848 1 856 1 871 1 894 2 915 1 916 1 919 1 991 1 89 1 123 1 134 1 172 1 193 1 206 1 227 1 231 1 238 1 247 1 276 1 279 1 284 1 291 1 298 1 308 1 322 1 368 1 403 1 410 1 417 1 434 1 467 1 484 1 490 1 494 1 497 1 522 1 557 1 583 1 630 1 632 1 648 1 649 1 652 1 663 1 668 1 679 1 731 1 735 1 740 1 743 1 765 1 770 1 819 1 824 1 833 1 857 1 900 1 905 1 918 1 958 1 978 1 984 1 990 1 1005 1 1017 1 1022 1 
1 206 2 1 1 1 11 1 18 1 28 1 29 1 38 1 42 1 46 1 58 2 59 1 84 1 89 1 90 1 148 1 173 1 178 1 187 1 214 1 217 1 218 1 266 1 278 1 283 1 309 1 343 1 345 1 346 1 354 1 364 1 369 1 395 1 427 1 432 1 478 1 506 1 557 1 563 1 581 2 604 1 654 1 657 2 661 1 670 1 673 1 674 1 683 1 698 1 699 1 718 1 728 1 754 1 766 1 768 1 770 1 773 1 798 1 816 1 841 1 849 1 856 1 862 1 903 1 918 1 925 1 933 1 937 1 939 1 980 1 987 1 992 1 998 1 63 1 71 1 75 1 93 1 94 1 103 1 134 1 159 1 161 1 269 1 270 1 329 1 333 1 334 1 349 1 374 1 391 1 394 1 410 1 419 1 437 1 443 1 445 1 457 1 460 1 484 1 487 1 514 1 515 1 518 1 562 1 565 1 577 1 603 1 605 1 612 1 640 1 663 1 693 1 742 1 749 1 761 1 767 1 791 1 812 1 874 1 919 1 931 1 965 1 966 1 967 1 978 1 984 1 986 1 989 1 999 1 1001 1 1009 1 1013 1 1024 1 
1 210 7 1 11 2 39 1 4 1 45 1 60 1 63 1 114 1 120 1 141 1 142 1 144 1 178 1 181 1 207 1 210 1 233 1 235 1 267 1 272 2 286 1 323 1 325 1 343 1 375 1 404 1 426 1 435 1 455 1 488 1 490 1 492 1 502 1 553 1 567 1 580 1 585 1 597 2 602 1 612 1 626 1 634 1 641 1 651 1 667 1 725 1 742 1 763 1 778 1 784 1 785 1 792 1 800 1 837 1 881 1 909 1 948 1 981 1 69 1 87 1 153 1 158 1 208 1 209 1 240 1 250 1 254 1 271 1 281 1 307 1 311 1 317 1 320 1 322 1 328 1 330 1 354 1 364 1 377 1 389 1 398 1 400 1 409 1 449 1 464 1 480 1 527 1 528 1 542 1 599 1 609 1 611 1 620 1 644 1 670 1 676 1 689 1 712 1 724 1 734 1 760 1 844 1 851 1 852 1 865 1 873 1 925 1 932 1 961 1 1000 1 1009 1 1016 1 1021 1 
1 210 16 1 20 1 36 1 25 1 29 1 31 1 126 2 151 1 153 1 166 1 179 1 193 1 198 1 245 1 247 1 258 1 263 1 270 1 271 1 296 1 302 1 333 1 391 1 415 2 427 1 494 1 505 1 513 1 522 1 530 1 531 1 535 1 562 1 606 2 612 1 637 1 640 1 666 1 667 1 674 1 679 1 683 1 700 1 710 1 711 1 719 1 730 1 739 1 778 1 798 1 825 1 848 1 877 1 899 1 916 1 921 2 936 1 972 1 90 1 171 1 195 1 199 1 200 1 236 1 238 1 281 1 307 1 331 1 336 1 359 1 364 1 373 1 383 1 388 1 406 1 412 1 416 1 426 1 431 1 449 1 459 1 533 1 539 1 540 1 556 1 570 1 573 1 575 1 590 1 607 1 611 1 643 1 648 1 651 1 663 1 671 1 685 1 705 1 718 1 767 1 882 1 891 1 917 1 920 1 935 1 964 1 974 1 1013 1 1016 1 
1 212 20 1 55 2 8 1 12 1 39 1 62 1 74 2 77 1 79 1 86 1 124 1 129 1 156 1 165 1 169 1 172 1 204 1 257 1 276 1 309 1 341 1 367 1 373 1 398 1 424 1 432 1 451 1 455 1 467 1 471 1 483 1 494 1 518 1 520 1 533 1 538 1 568 1 574 1 581 1 641 1 654 1 740 1 771 1 774 1 779 1 800 1 815 1 853 2 874 1 884 1 899 1 901 1 936 1 940 1 952 1 985 1 63 1 68 1 73 1 100 1 122 1 147 1 181 1 195 1 243 1 263 1 280 1 283 1 288 1 298 1 306 1 315 1 336 1 347 1 381 1 391 1 403 1 412 1 461 1 498 1 523 1 540 1 549 1 634 1 651 1 674 1 702 1 723 1 741 1 759 1 767 1 784 1 798 1 804 1 824 1 825 1 869 1 894 1 896 1 927 1 935 1 957 1 960 1 1008 1 1011 1 1021 1 
1 209 28 1 34 1 35 1 41 1 55 1 1 1 10 1 46 1 83 1 93 1 96 1 98 1 104 2 113 1 121 1 157 1 160 1 174 1 178 1 186 1 220 1 236 1 273 1 282 1 288 1 315 1 317 1 331 2 359 1 363 1 374 1 380 1 425 1 431 1 433 1 435 1 493 1 508 1 517 1 519 1 544 1 548 1 551 1 556 1 567 1 597 1 634 1 652 1 659 1 672 1 673 1 715 1 764 1 853 1 860 1 918 1 919 1 922 1 964 1 995 1 997 1 73 1 94 1 100 1 122 1 146 1 166 1 172 1 222 1 225 1 243 1 248 1 276 1 285 1 294 1 336 1 352 1 367 1 392 1 414 1 416 1 438 1 445 1 450 1 452 1 474 1 494 1 579 1 590 1 594 1 603 1 621 1 643 1 654 1 692 1 706 1 723 1 726 1 730 1 780 1 805 1 806 1 827 1 862 1 883 1 920 1 928 1 959 1 963 1 974 1 1025 1 
1 207 10 1 15 1 45 1 47 1 56 1 25 1 66 1 68 1 103 2 108 1 134 1 162 1 220 1 242 1 248 1 260 1 274 1 291 1 314 2 315 1 336 1 341 1 349 1 388 1 390 1 411 1 421 1 430 1 436 1 442 1 454 1 493 1 536 1 554 1 601 2 607 1 632 1 634 1 650 1 669 1 672 1 696 1 701 1 709 1 719 1 729 1 730 1 747 1 753 1 768 1 779 2 787 1 811 1 816 1 817 1 828 1 853 1 879 1 885 1 909 1 917 1 918 1 932 1 960 1 983 1 999 1 1002 1 105 1 114 1 122 1 164 1 219 1 256 1 313 1 317 1 332 1 376 1 386 1 397 1 400 1 405 1 437 1 518 1 520 1 539 1 544 1 585 1 595 1 600 1 626 1 644 1 688 1 703 1 722 1 727 1 742 1 775 1 801 1 808 1 810 1 841 1 884 1 895 1 896 1 905 1 911 1 926 1 933 1 948 1 950 1 952 1 956 1 957 1 962 1 982 1 1003 1 1015 1 1019 1 
1 206 9 1 14 1 16 1 41 1 71 1 81 1 83 1 84 1 92 1 99 1 119 1 128 1 131 1 175 1 192 1 196 1 220 1 233 1 246 1 257 2 268 1 269 1 279 1 301 1 332 1 335 1 338 2 404 1 431 1 438 1 465 1 469 1 514 1 521 1 543 1 551 1 578 1 586 1 598 1 618 1 638 1 646 1 674 1 694 1 698 1 699 1 714 1 785 1 787 1 793 2 796 1 810 1 829 1 831 1 851 1 854 1 895 1 896 1 903 1 940 1 950 1 951 1 959 1 994 2 998 1 62 1 64 1 106 1 108 1 140 1 154 1 163 1 165 1 166 1 239 1 252 1 294 1 299 1 316 1 321 1 330 1 346 1 347 1 349 1 355 1 382 1 383 1 395 1 403 1 411 1 413 1 423 1 427 1 428 1 436 1 442 1 446 1 463 1 471 1 488 1 513 1 532 1 553 1 569 1 592 1 626 1 648 1 673 1 683 1 689 1 724 1 743 1 768 1 779 1 799 1 802 1 813 1 814 1 816 1 859 1 878 1 897 1 913 1 914 1 922 1 981 1 1000 1 
1 208 13 1 18 1 25 1 37 1 38 1 58 1 1 1 3 1 12 1 26 1 40 1 61 1 72 1 75 1 82 1 114 1 124 1 126 1 160 1 180 1 208 1 217 1 252 2 274 1 299 1 302 1 312 1 321 1 325 1 331 1 353 1 378 2 381 1 410 1 426 1 454 1 462 1 491 1 495 1 514 1 533 1 550 1 590 1 594 1 602 1 624 2 633 1 636 1 637 1 673 1 674 1 707 2 710 1 716 1 753 1 755 1 757 1 767 2 800 1 836 1 838 1 847 1 894 1 941 1 949 1 992 1 993 1 63 1 74 1 105 1 146 1 196 1 213 1 242 1 263 1 279 1 297 1 304 1 332 1 373 1 387 1 389 1 394 1 443 1 455 1 465 1 493 1 512 1 537 1 540 1 578 1 626 1 640 1 679 1 697 1 727 1 743 1 746 1 772 1 794 1 795 1 815 1 818 1 825 1 876 1 882 1 897 1 901 1 908 1 917 1 955 1 966 1 971 1 991 1 999 1 1000 1 1011 1 1015 1 
1 209 32 1 56 1 15 1 25 1 26 1 55 1 58 1 62 1 69 1 83 1 123 1 148 1 166 1 167 1 174 1 175 1 267 1 275 1 302 1 316 1 324 1 332 1 375 1 394 2 399 1 408 2 413 2 425 1 431 1 437 2 438 1 457 1 466 1 477 1 489 1 508 1 525 1 554 1 591 1 601 1 608 1 653 1 669 1 675 1 682 1 689 1 696 1 700 1 741 1 750 1 761 1 765 1 783 1 790 1 818 1 825 1 826 2 830 1 839 1 847 1 854 1 863 1 894 1 902 2 909 1 917 1 958 2 984 1 998 1 65 1 73 1 77 1 79 1 90 1 110 1 119 1 134 1 135 1 146 1 154 1 168 1 173 1 189 1 200 1 209 1 246 1 247 1 326 1 335 1 349 1 351 1 359 1 385 1 422 1 459 1 470 1 475 1 514 1 566 1 586 1 627 1 630 1 668 1 677 1 680 1 688 1 690 1 707 1 716 1 776 1 794 1 803 1 809 1 832 1 850 1 864 1 869 1 873 1 888 1 922 1 936 1 940 1 943 1 959 1 967 1 972 1 996 1 1001 1 1009 1 1012 1 1023 1 1026 1 
1 214 2 1 4 1 5 1 11 1 17 1 36 1 50 1 51 1 14 1 38 1 43 1 61 1 73 1 81 1 93 1 123 1 125 1 129 1 162 1 177 1 182 1 219 1 255 1 272 1 321 1 331 1 334 1 371 1 375 1 406 1 409 1 442 1 449 1 451 1 472 1 548 1 554 1 569 1 579 1 580 1 589 1 596 1 617 1 636 1 646 1 654 1 659 1 681 1 690 1 721 1 765 1 766 1 829 1 830 1 835 1 848 1 854 1 864 1 885 1 890 1 901 1 923 1 954 2 966 1 986 1 94 1 107 1 109 1 121 1 146 1 151 1 168 1 206 1 212 1 213 1 217 1 221 1 225 1 238 1 249 1 256 1 262 1 267 1 286 1 295 1 301 1 304 1 367 1 389 1 391 1 395 1 402 1 424 1 432 1 443 1 459 1 462 1 483 1 524 1 541 1 560 1 572 1 581 1 583 1 601 1 626 1 628 1 629 1 669 1 742 1 775 1 841 1 847 1 853 1 863 1 909 1 914 1 916 1 976 1 1011 1 
1 212 3 1 5 1 2 1 27 1 63 1 110 1 112 1 127 1 142 1 186 1 196 1 214 1 237 1 272 1 273 1 292 1 294 1 307 1 319 1 361 1 365 1 370 1 384 1 393 1 410 1 470 1 504 1 542 2 546 1 565 1 568 1 572 1 578 1 587 1 607 1 610 1 679 1 700 1 702 1 752 2 769 1 809 1 828 1 857 1 864 1 873 1 884 1 912 1 920 1 933 1 945 1 968 1 988 1 85 1 93 1 97 1 122 1 130 1 137 1 166 1 167 1 184 1 187 1 192 1 206 1 230 1 260 1 262 1 265 1 274 1 318 1 322 1 329 1 360 1 386 1 389 1 403 1 408 1 416 1 427 1 437 1 487 1 502 1 522 1 544 1 555 1 580 1 585 1 637 1 671 1 682 1 706 1 733 1 743 1 753 1 774 1 778 1 783 1 786 1 799 1 819 1 834 1 836 1 842 1 845 1 863 1 875 1 894 1 930 1 936 1 974 1 992 1 1002 1 1007 1 1010 1 1025 1 
1 206 20 1 54 1 60 1 3 1 33 1 37 1 43 1 78 1 112 1 114 1 117 1 119 1 162 1 163 1 189 1 210 2 230 1 261 1 263 1 267 1 302 1 339 1 377 2 422 1 428 1 473 1 484 1 486 1 516 1 535 1 547 1 558 1 559 1 624 1 658 1 663 1 668 1 676 1 704 1 718 1 749 1 755 1 776 1 779 1 840 1 854 1 856 1 871 1 881 1 882 1 894 1 925 1 928 1 930 1 937 1 958 1 981 1 987 1 91 1 126 1 130 1 141 1 142 1 178 1 185 1 222 1 232 1 246 1 257 1 266 1 276 1 301 1 319 1 323 1 361 1 366 1 373 1 376 1 379 1 395 1 396 1 412 1 433 1 438 1 574 1 575 1 582 1 593 1 609 1 639 1 661 1 666 1 677 1 693 1 731 1 752 1 758 1 760 1 780 1 808 1 813 1 821 1 822 1 823 1 837 1 844 1 845 1 848 1 852 1 860 1 867 1 912 1 914 1 915 1 918 1 921 1 966 1 1013 1 
1 209 25 1 36 1 50 1 87 2 97 1 112 1 119 1 131 1 167 1 171 1 181 1 187 1 203 1 227 1 269 1 317 1 330 1 341 1 381 1 400 1 423 1 425 2 429 1 468 1 489 1 526 1 545 1 552 1 630 1 634 1 650 1 660 1 684 1 687 2 691 1 714 1 729 1 732 1 736 1 744 1 753 1 759 1 778 1 798 2 802 1 845 1 862 1 873 1 886 1 929 2 957 1 970 1 71 1 80 1 113 1 170 1 173 1 192 1 205 1 213 1 248 1 284 1 346 1 364 1 365 1 374 1 377 1 378 1 405 1 411 1 417 1 440 1 459 1 503 1 538 1 540 1 563 1 564 1 604 1 614 1 621 1 657 1 668 1 672 1 722 1 737 1 742 1 765 1 773 1 800 1 807 1 842 1 869 1 923 1 927 1 967 1 1002 1 1008 1 1016 1 1025 1 
1 213 12 1 51 1 60 1 3 1 16 1 20 1 31 1 32 1 58 1 76 1 82 1 83 1 84 1 85 1 94 1 117 1 123 1 125 1 152 1 181 1 195 1 197 1 202 1 208 1 272 1 280 1 281 1 317 1 324 1 358 1 389 1 401 1 403 1 430 2 432 1 438 1 441 1 447 1 483 1 484 1 540 1 549 1 562 1 602 1 613 1 619 1 633 1 640 1 650 1 677 2 725 1 754 1 763 1 772 1 783 1 797 1 800 1 824 1 833 1 847 1 853 1 894 1 913 1 919 1 922 2 931 1 956 1 963 1 973 1 984 1 73 1 90 1 95 1 121 1 133 1 160 1 188 1 190 1 199 1 201 1 205 1 226 1 228 1 234 1 284 1 289 1 304 1 312 1 314 1 342 1 414 1 417 1 434 1 435 1 455 1 473 1 488 1 490 1 495 1 503 1 506 1 566 1 582 1 587 1 614 1 616 1 658 1 661 1 692 1 705 1 793 1 795 1 830 1 831 1 868 1 883 1 884 1 909 1 952 1 972 1 1007 1 1013 1 1014 1 1016 1 1021 1 
1 208 1 1 15 1 25 1 26 1 37 1 63 1 20 1 27 1 31 1 56 1 70 1 74 1 75 1 105 1 109 1 113 1 115 1 173 1 192 1 223 1 237 1 264 1 276 1 279 1 313 1 325 1 336 1 340 1 341 1 354 1 364 1 374 1 375 1 391 1 428 1 447 1 459 1 463 1 474 1 493 1 496 1 534 1 563 1 584 1 596 1 613 1 626 1 651 1 654 1 668 1 680 1 684 1 702 1 712 1 720 1 782 1 786 1 816 1 817 1 827 1 828 1 876 1 878 1 898 1 934 1 951 1 992 1 999 1 162 1 163 1 164 1 221 1 307 1 324 1 337 1 363 1 423 1 424 1 429 1 438 1 442 1 455 1 464 1 480 1 485 1 537 1 540 1 545 1 565 1 589 1 604 1 666 1 667 1 677 1 711 1 715 1 728 1 739 1 749 1 797 1 813 1 815 1 843 1 852 1 866 1 867 1 872 1 890 1 894 1 897 1 917 1 925 1 954 1 959 1 1005 1 1011 1 1015 1 1019 1 1023 1 
1 207 2 1 33 1 69 1 6 1 22 1 32 1 90 1 123 1 148 1 152 1 158 1 159 1 179 1 189 1 224 1 256 1 271 1 286 1 287 1 288 1 299 1 361 1 426 1 441 1 477 1 492 1 507 1 510 1 532 1 548 1 553 1 571 2 583 1 585 1 605 1 620 1 625 1 631 1 646 1 698 1 699 1 704 1 711 1 735 1 770 1 806 2 810 1 812 1 841 1 843 1 850 1 851 1 857 1 859 1 869 1 880 1 912 1 917 1 937 1 939 1 962 1 966 1 979 1 993 1 73 1 84 1 89 1 137 1 206 1 214 1 221 1 236 1 238 1 263 1 274 1 280 1 294 1 300 1 311 1 331 1 332 1 362 1 377 1 387 1 399 1 432 1 445 1 474 1 561 1 572 1 613 1 621 1 634 1 659 1 757 1 759 1 761 1 780 1 793 1 836 1 871 1 874 1 886 1 898 1 905 1 924 1 936 1 953 1 963 1 984 1 985 1 1006 1 1023 1 
1 213 10 1 11 1 27 1 42 1 61 1 1 1 24 1 36 1 50 1 55 1 67 1 75 1 76 1 80 1 104 1 109 1 118 1 121 1 137 1 158 1 164 1 180 1 188 1 191 1 196 1 205 1 212 1 221 1 223 1 242 1 254 1 265 1 307 1 317 2 320 1 367 1 377 1 419 1 437 1 445 1 451 1 479 1 480 1 495 1 527 1 535 1 554 1 588 1 595 1 617 1 686 2 688 1 711 1 760 1 764 1 767 1 774 1 791 1 796 1 816 1 822 1 855 1 870 1 879 1 895 1 912 1 925 1 938 1 954 1 965 1 987 1 997 1 1002 1 128 1 167 1 199 1 202 1 213 1 230 1 234 1 277 1 319 1 350 1 353 1 379 1 386 1 412 1 420 1 435 1 448 1 478 1 488 1 497 1 499 1 504 1 505 1 508 1 526 1 538 1 578 1 653 1 684 1 707 1 710 1 722 1 723 1 725 1 726 1 733 1 742 1 793 1 800 1 808 1 842 1 899 1 902 1 932 1 934 1 948 1 976 1 996 1 1020 1 
1 209 4 2 27 1 47 2 62 1 1 1 11 1 45 1 53 1 109 1 139 1 145 1 148 1 161 1 185 1 253 1 256 1 258 1 310 1 369 1 382 1 391 1 392 1 396 1 413 1 428 1 454 1 459 1 475 1 511 1 521 1 554 1 578 1 639 1 640 1 641 1 655 1 720 1 741 1 754 1 780 1 784 1 796 1 798 1 816 1 826 1 830 1 857 1 862 2 865 1 894 1 929 2 951 1 968 1 983 2 91 1 108 1 111 1 140 1 144 1 147 1 164 1 184 1 201 1 210 1 215 1 244 1 264 1 283 1 290 1 314 1 329 1 361 1 362 1 367 1 389 1 393 1 402 1 436 1 440 1 449 1 474 1 476 1 514 1 516 1 568 1 581 1 593 1 681 1 688 1 708 1 710 1 775 1 777 1 779 1 790 1 804 1 820 1 842 1 848 1 854 1 858 1 931 1 965 1 982 1 984 1 991 1 996 1 1009 1 1015 1 1019 1 1020 1 1026 1 
1 211 11 1 16 1 21 1 42 1 64 1 8 1 9 1 23 1 31 1 36 1 58 1 59 1 63 1 68 1 70 1 89 1 94 1 106 1 115 1 121 1 141 1 155 1 166 1 174 1 233 1 252 1 262 1 274 1 280 1 299 1 316 1 321 1 339 1 354 1 365 1 367 1 414 1 471 2 482 1 485 2 488 1 500 1 518 1 527 1 554 2 573 1 599 1 615 1 624 1 642 1 654 1 687 1 725 1 732 1 757 1 784 1 802 1 806 1 809 1 833 1 835 1 854 1 859 1 889 1 910 1 936 1 946 1 951 1 965 2 973 1 975 2 993 1 1002 1 85 1 116 1 167 1 173 1 176 1 182 1 214 1 223 1 253 1 315 1 329 1 335 1 372 1 374 1 376 1 405 1 430 1 447 1 452 1 469 1 490 1 506 1 522 1 581 1 592 1 622 1 625 1 640 1 655 1 715 1 723 1 738 1 749 1 758 1 763 1 781 1 820 1 841 1 876 1 877 1 888 1 942 1 944 1 953 1 972 1 1000 1 1016 1 1017 1 
1 224 9 1 41 2 47 1 51 1 52 1 58 2 69 1 14 1 62 1 122 1 127 1 171 1 185 1 206 1 226 1 228 1 230 1 236 1 253 1 254 2 301 1 305 1 348 1 350 1 359 1 377 1 385 1 410 1 422 1 458 1 504 1 514 1 523 1 524 1 526 1 528 1 566 2 610 1 612 1 624 1 629 1 634 1 653 1 670 1 677 1 688 1 701 1 707 1 720 1 733 1 741 1 745 1 771 1 777 1 788 1 862 1 886 1 903 1 910 1 926 1 929 1 950 1 958 2 973 1 994 1 996 1 998 1 76 1 90 1 114 1 140 1 154 1 166 1 169 1 219 1 237 1 257 1 264 1 270 1 281 1 284 1 357 1 388 1 398 1 418 1 425 1 429 1 440 1 470 1 500 1 521 1 560 1 574 1 582 1 592 1 596 1 637 1 639 1 641 1 650 1 652 1 685 1 751 1 775 1 792 1 802 1 832 1 853 1 859 1 895 1 897 1 913 1 924 1 931 1 943 1 951 1 1003 1 1004 1 1005 1 1006 1 
1 209 7 1 18 1 62 1 69 1 71 1 36 1 37 1 55 1 107 1 148 1 205 1 247 1 258 1 273 1 306 1 319 1 358 1 364 1 368 1 390 1 415 1 421 1 444 1 480 1 488 1 516 1 525 2 574 1 617 1 622 1 652 1 672 1 676 1 689 2 716 1 732 1 745 1 751 1 755 1 762 1 764 1 780 1 784 1 790 1 827 1 848 1 850 1 870 1 871 1 883 1 935 1 971 1 972 2 138 1 190 1 202 1 216 1 221 1 227 1 248 1 254 1 318 1 347 1 370 1 382 1 464 1 469 1 489 1 505 1 521 1 529 1 539 1 550 1 558 1 560 1 587 1 592 1 608 1 623 1 642 1 674 1 696 1 709 1 760 1 787 1 789 1 796 1 831 1 836 1 885 1 902 1 905 1 930 1 931 1 934 1 946 1 1014 1 1021 1 
1 207 15 1 31 1 46 1 52 1 68 1 71 1 6 1 49 1 74 1 76 1 76 1 77 1 91 2 97 1 99 1 148 1 156 1 159 1 160 1 162 1 216 1 228 1 252 1 262 1 274 1 336 1 337 1 340 1 345 1 365 1 376 1 382 1 445 2 450 1 482 1 524 1 609 1 630 1 665 1 680 1 682 1 701 1 708 1 736 1 781 1 808 1 812 1 839 2 847 1 857 1 900 1 907 1 921 2 930 1 972 1 988 1 1001 1 79 1 86 1 98 1 112 1 129 1 137 1 149 1 152 1 187 1 188 1 234 1 246 1 306 1 325 1 360 1 383 1 389 1 416 1 419 1 428 1 435 1 494 1 547 1 564 1 574 1 577 1 601 1 604 1 656 1 684 1 698 1 717 1 734 1 735 1 760 1 764 1 770 1 793 1 809 1 820 1 834 1 929 1 933 1 952 1 971 1 992 1 1015 1 1019 1 
1 208 12 1 44 1 58 1 76 1 40 1 52 1 63 1 83 1 118 1 149 1 162 1 193 1 222 1 250 1 253 1 261 1 263 1 292 2 309 1 311 1 418 1 423 1 427 1 431 1 432 1 468 1 476 1 480 1 494 1 497 1 499 1 530 1 569 1 571 1 572 2 601 1 605 2 608 1 613 1 634 1 649 1 684 1 690 1 696 1 716 1 724 1 725 1 731 1 733 1 738 1 748 1 749 1 763 1 765 2 788 2 789 1 795 1 807 1 881 1 882 1 884 1 903 1 905 2 908 1 911 1 918 1 919 1 926 1 936 1 945 1 975 1 988 1 999 1 79 1 90 1 123 1 133 1 140 1 166 1 185 1 204 1 206 1 209 1 213 1 280 1 281 1 307 1 394 1 437 1 446 1 447 1 466 1 490 1 511 1 515 1 518 1 537 1 541 1 548 1 581 1 693 1 703 1 732 1 746 1 767 1 805 1 806 1 828 1 835 1 841 1 846 1 849 1 890 1 895 1 910 1 958 1 965 1 968 1 989 1 995 1 1005 1 1011 1 1012 1 1021 1 
1 209 39 1 66 1 82 1 113 1 121 1 127 1 136 1 137 1 155 1 200 1 223 1 230 1 233 1 264 1 365 1 375 2 379 1 380 1 422 1 429 1 432 1 437 1 439 2 452 1 453 1 481 1 522 1 549 1 550 1 563 1 595 1 616 2 623 1 636 1 645 1 669 1 678 1 724 1 737 1 750 1 763 1 783 1 788 1 803 1 810 1 811 1 812 1 840 1 843 1 844 1 874 1 876 2 880 1 952 1 959 1 962 1 84 1 165 1 170 1 183 1 189 1 198 1 204 1 217 1 253 1 285 1 302 1 306 1 335 1 337 1 369 1 388 1 397 1 407 1 416 1 430 1 506 1 510 1 523 1 553 1 571 1 583 1 591 1 592 1 602 1 620 1 625 1 634 1 651 1 690 1 692 1 702 1 719 1 726 1 734 1 784 1 835 1 872 1 882 1 895 1 916 1 974 1 979 1 980 1 988 1 992 1 995 1 1010 1 
1 215 14 1 24 1 34 1 48 1 58 1 7 1 8 1 32 1 52 1 63 1 76 1 77 1 113 1 122 1 123 1 151 1 182 1 249 1 253 1 274 1 300 1 328 2 331 1 338 1 390 1 434 1 448 1 466 1 488 1 530 1 531 1 537 1 548 1 568 1 574 1 576 1 579 1 607 1 611 1 619 1 641 1 642 1 658 1 662 1 689 1 733 1 755 1 771 1 774 1 786 1 797 1 810 2 819 1 826 2 828 1 841 1 911 1 919 1 934 1 986 1 987 1 1002 1 111 1 130 1 135 1 148 1 159 1 166 1 171 1 180 1 206 1 214 1 260 1 279 1 296 1 339 1 356 1 370 1 395 1 411 1 415 1 422 1 540 1 551 1 569 1 578 1 585 1 595 1 650 1 654 1 670 1 671 1 672 1 678 1 680 1 681 1 709 1 722 1 729 1 730 1 734 1 753 1 760 1 765 1 778 1 801 1 803 1 824 1 842 1 847 1 848 1 852 1 859 1 892 1 917 1 955 1 989 1 993 1 1003 1 1016 1 1025 1 
1 214 8 1 11 1 24 1 51 1 52 1 71 1 35 1 44 1 67 1 113 1 114 2 118 1 155 1 168 1 182 1 194 1 197 1 229 1 277 1 280 1 332 1 347 1 374 1 383 1 425 1 474 1 480 1 490 1 507 1 559 1 566 1 592 1 608 1 618 1 622 1 643 2 651 1 653 1 695 1 703 1 712 1 739 1 759 1 817 1 833 1 849 1 855 1 899 1 909 1 917 1 918 1 942 1 944 1 997 1 93 1 103 1 220 1 223 1 226 1 242 1 253 1 263 1 285 1 288 1 294 1 310 1 315 1 357 1 404 1 414 1 443 1 454 1 457 1 462 1 473 1 477 1 524 1 535 1 554 1 561 1 578 1 583 1 645 1 683 1 690 1 711 1 719 1 775 1 808 1 815 1 836 1 841 1 850 1 869 1 872 1 881 1 896 1 905 1 908 1 933 1 948 1 956 1 977 1 983 1 986 1 1006 1 1010 1 1013 1 1017 1 1027 1 
1 208 7 1 28 1 29 1 43 1 61 1 64 1 4 1 37 1 52 1 88 1 100 1 106 1 113 2 135 1 149 1 151 1 162 1 192 1 193 1 203 1 235 1 245 2 253 1 282 2 314 1 327 1 331 1 333 1 359 1 366 1 381 1 423 1 428 1 431 1 470 1 478 1 519 1 524 1 626 1 629 1 640 1 686 1 691 1 693 1 702 1 798 1 805 1 815 1 826 1 860 1 862 1 882 1 886 1 913 1 915 1 945 1 949 1 957 1 958 1 984 1 84 1 92 1 95 1 111 1 169 1 179 1 198 1 209 1 218 1 233 1 236 1 265 1 279 1 295 1 298 1 299 1 325 1 352 1 365 1 397 1 402 1 420 1 446 1 477 1 511 1 545 1 552 1 597 1 613 1 615 1 663 1 670 1 689 1 712 1 733 1 775 1 789 1 797 1 801 1 814 1 837 1 841 1 846 1 875 1 877 1 902 1 904 1 941 1 943 1 959 1 971 1 1017 1 1026 1 1027 1 
1 208 4 1 16 1 19 1 62 1 68 1 78 1 51 1 121 2 136 1 141 1 160 1 179 1 195 1 225 1 226 1 234 1 283 1 296 1 305 2 326 1 335 1 362 1 374 1 392 1 405 1 409 1 431 2 441 1 452 1 458 2 465 1 485 1 497 1 505 1 527 1 536 1 573 1 654 1 655 1 683 1 691 2 714 2 777 1 810 1 835 1 865 1 867 1 878 1 938 1 143 1 157 1 165 1 172 1 184 1 193 1 201 1 222 1 280 1 348 1 366 1 368 1 408 1 427 1 449 1 477 1 483 1 523 1 542 1 577 1 618 1 649 1 667 1 704 1 713 1 716 1 769 1 771 1 774 1 775 1 781 1 785 1 788 1 845 1 846 1 852 1 864 1 872 1 895 1 900 1 923 1 926 1 941 1 958 1 970 1 987 1 1005 1 
1 210 33 1 42 1 50 1 59 1 61 1 63 1 68 1 77 1 23 1 24 1 27 1 32 1 97 1 100 1 111 1 140 1 174 2 179 1 204 1 230 1 248 1 313 1 315 1 359 1 385 1 388 1 391 1 406 1 414 1 420 1 434 1 446 1 459 1 492 1 503 1 541 1 549 1 560 1 595 1 602 1 624 1 638 1 671 1 673 2 691 1 713 2 716 1 742 1 745 1 757 1 766 1 770 1 781 1 784 1 804 1 837 2 842 1 897 1 919 2 922 1 932 1 935 2 945 1 961 1 118 1 132 1 136 1 137 1 149 1 207 1 214 1 227 1 229 1 231 1 275 1 278 1 333 1 342 1 358 1 412 1 460 1 489 1 500 1 517 1 521 1 589 1 622 1 633 1 678 1 726 1 729 1 740 1 744 1 791 1 793 1 803 1 814 1 833 1 845 1 877 1 884 1 929 1 931 1 936 1 937 1 978 1 1000 1 1005 1 1006 1 1010 1 1023 1 1027 1 
1 211 7 1 8 1 13 1 27 1 32 1 33 1 55 1 61 1 68 1 70 1 78 1 81 1 89 1 95 1 96 1 105 1 122 1 128 1 155 1 162 1 179 1 184 1 190 1 214 1 221 1 235 1 250 1 253 1 265 1 276 2 288 1 293 1 303 1 330 1 332 1 356 1 361 1 403 1 443 1 476 2 478 1 487 1 561 1 579 1 587 1 588 1 603 1 624 1 634 1 637 1 661 1 663 1 680 1 684 1 694 1 717 1 726 1 733 1 745 1 775 1 794 1 813 1 829 1 880 2 882 1 884 1 885 1 890 1 916 1 978 1 983 1 998 1 92 1 116 1 137 1 140 1 181 1 185 1 191 1 193 1 205 1 217 1 225 1 257 1 272 1 279 1 287 1 290 1 292 1 308 1 320 1 420 1 440 1 464 1 527 1 599 1 604 1 605 1 606 1 615 1 645 1 666 1 691 1 709 1 744 1 750 1 761 1 781 1 782 1 783 1 790 1 792 1 803 1 819 1 844 1 857 1 901 1 921 1 945 1 947 1 955 1 971 1 1026 1 
1 207 4 1 15 1 24 1 45 1 46 1 68 1 19 1 65 1 73 1 92 1 105 1 132 1 133 2 156 1 170 1 174 1 183 1 199 1 220 1 246 1 249 1 268 1 285 1 286 1 299 1 319 1 339 1 388 1 410 1 413 1 437 1 452 1 469 1 473 1 478 1 484 1 523 1 524 1 530 1 578 1 591 1 603 1 613 1 627 1 638 1 651 2 664 1 666 1 676 1 702 1 763 1 768 1 771 1 776 1 785 1 789 1 792 1 834 1 843 1 845 1 852 1 868 1 884 1 890 1 905 1 956 2 982 1 101 1 117 1 152 1 180 1 213 1 221 1 233 1 241 1 251 1 258 1 277 1 296 1 306 1 324 1 362 1 373 1 405 1 409 1 414 1 434 1 446 1 465 1 490 1 575 1 584 1 586 1 589 1 597 1 626 1 691 1 741 1 807 1 850 1 866 1 941 1 951 1 981 1 987 1 994 1 1020 1 1024 1 
1 208 4 1 13 1 26 1 58 1 17 1 76 1 103 1 104 1 133 1 136 1 139 1 146 1 150 1 173 1 176 2 209 1 245 1 259 1 285 1 308 1 311 1 323 1 329 1 333 1 383 1 411 1 442 1 452 1 480 2 501 2 528 1 547 1 550 1 552 1 567 2 585 2 593 1 617 1 633 1 684 1 687 2 691 1 795 1 796 1 798 2 805 1 814 1 830 2 839 1 864 1 871 1 883 1 885 1 901 1 917 1 918 1 934 1 971 1 977 1 981 1 983 1 97 1 105 1 155 1 190 1 191 1 193 1 200 1 289 1 305 1 310 1 324 1 331 1 360 1 369 1 373 1 378 1 403 1 440 1 448 1 450 1 459 1 503 1 517 1 521 1 543 1 596 1 628 1 630 1 631 1 649 1 662 1 711 1 713 1 717 1 741 1 752 1 775 1 789 1 840 1 855 1 857 1 872 1 886 1 891 1 921 1 927 1 943 1 944 1 947 1 988 1 1001 1 1005 1 
1 211 4 1 15 1 47 1 67 2 6 1 14 1 18 1 19 1 21 1 23 1 28 1 56 1 91 2 134 1 144 1 145 1 147 1 150 1 183 2 211 1 220 1 231 1 277 1 307 1 318 1 349 1 357 1 378 1 389 1 403 1 417 1 424 1 432 1 445 1 460 1 500 1 558 1 560 1 564 2 573 1 574 1 620 1 623 1 641 1 677 1 703 1 761 1 779 1 803 1 808 1 812 1 815 1 829 1 864 1 893 1 906 1 942 1 943 1 948 1 951 1 978 1 992 2 993 1 999 1 103 1 127 1 133 1 153 1 155 1 174 1 178 1 199 1 232 1 233 1 252 1 263 1 304 1 311 1 355 1 362 1 372 1 380 1 382 1 392 1 406 1 418 1 436 1 448 1 459 1 464 1 479 1 483 1 491 1 508 1 545 1 551 1 571 1 572 1 580 1 606 1 629 1 639 1 680 1 697 1 700 1 712 1 719 1 746 1 757 1 770 1 782 1 804 1 832 1 862 1 863 1 866 1 872 1 874 1 898 1 921 1 938 1 956 1 958 1 1004 1 1005 1 1013 1 1016 1 1019 1 1025 1 
1 206 4 1 8 1 27 1 34 1 81 1 14 1 20 1 44 1 48 1 104 1 106 1 115 1 132 1 133 1 179 1 184 1 185 1 204 1 209 1 256 1 257 1 277 1 302 1 337 1 347 1 371 1 392 1 414 1 453 1 465 1 471 1 475 1 486 1 512 1 523 1 525 1 534 1 564 2 565 1 597 1 608 1 617 1 640 1 642 1 649 1 677 1 727 1 734 1 766 1 777 1 787 1 808 1 813 1 815 1 833 1 842 1 843 1 927 1 939 1 953 1 985 1 987 1 993 1 103 1 112 1 124 1 134 1 144 1 249 1 270 1 272 1 287 1 290 1 295 1 308 1 321 1 349 1 351 1 360 1 370 1 375 1 403 1 442 1 445 1 492 1 493 1 511 1 533 1 575 1 648 1 663 1 698 1 722 1 739 1 741 1 768 1 770 1 811 1 851 1 855 1 858 1 865 1 883 1 896 1 952 1 957 1 968 1 989 1 1016 1 
1 209 31 1 44 1 55 1 73 1 84 1 15 1 18 1 36 1 54 1 70 1 90 1 110 1 113 1 118 1 133 1 134 1 136 1 154 1 165 1 175 1 179 1 181 1 241 1 245 1 255 1 269 1 279 1 338 1 342 1 349 1 352 1 364 1 378 1 384 1 393 1 417 1 423 1 424 1 435 1 436 1 445 1 449 1 487 1 531 1 554 1 558 1 582 1 604 2 618 1 621 1 641 1 663 1 669 1 670 1 715 1 718 1 746 1 761 1 764 1 769 1 781 1 821 1 843 1 874 1 891 1 897 1 900 1 908 1 914 1 934 1 957 1 989 1 101 1 104 1 115 1 121 1 170 1 187 1 197 1 200 1 240 1 250 1 251 1 259 1 268 1 274 1 333 1 354 1 355 1 413 1 428 1 446 1 489 1 507 1 523 1 569 1 574 1 606 1 646 1 668 1 708 1 717 1 734 1 739 1 755 1 756 1 757 1 792 1 808 1 836 1 850 1 856 1 887 1 948 1 967 1 988 1 995 1 999 1 1001 1 1013 1 1017 1 1019 1 
1 210 1 1 13 1 17 1 29 1 36 1 41 1 55 1 70 1 89 1 23 1 30 1 32 1 44 1 57 1 63 1 68 1 74 1 77 1 94 1 105 1 117 1 127 1 152 1 153 1 157 1 172 1 188 1 189 1 216 1 249 1 251 1 255 1 271 1 283 1 301 1 319 1 351 1 380 1 410 1 448 1 466 1 467 1 471 2 480 1 537 1 544 1 562 1 566 1 567 1 601 1 633 1 637 1 642 1 667 1 711 1 731 1 747 1 765 1 769 1 787 1 803 1 830 1 874 1 889 1 894 1 914 1 949 1 964 1 965 1 968 1 993 1 132 1 211 1 288 1 290 1 296 1 304 1 308 1 349 1 374 1 401 1 406 1 423 1 459 1 465 1 470 1 477 1 498 1 499 1 520 1 539 1 585 1 595 1 598 1 662 1 664 1 674 1 724 1 749 1 751 1 763 1 772 1 806 1 818 1 848 1 868 1 884 1 892 1 897 1 906 1 932 1 956 1 1002 1 1014 1 1017 1 1021 1 1026 1 
1 206 13 1 21 1 27 1 76 2 87 2 20 1 39 1 43 1 66 1 72 1 102 1 135 2 154 1 155 1 170 1 182 1 217 1 238 1 285 1 312 1 318 1 323 1 342 1 344 1 350 1 359 1 365 1 369 1 386 1 389 1 432 1 436 2 460 1 463 1 490 1 496 1 502 1 507 1 510 1 514 1 539 2 562 1 568 1 580 1 594 1 599 1 650 1 659 1 717 1 729 1 730 1 779 1 799 1 802 1 826 1 858 1 862 1 913 1 916 1 921 1 943 1 953 1 960 1 978 1 986 1 992 1 92 1 93 1 106 1 114 1 122 1 130 1 137 1 162 1 190 1 206 1 208 1 242 1 243 1 268 1 282 1 295 1 361 1 376 1 385 1 394 1 519 1 559 1 569 1 598 1 605 1 613 1 645 1 646 1 657 1 715 1 777 1 843 1 848 1 878 1 888 1 902 1 903 1 910 1 917 1 923 1 931 1 934 1 984 1 990 1 993 1 1021 1 
1 208 5 1 26 2 36 1 61 1 85 1 7 1 10 1 81 1 84 1 91 1 108 1 120 1 124 1 126 1 133 1 141 1 161 1 162 1 177 1 231 1 246 1 254 1 278 1 323 1 329 1 331 1 366 1 378 1 385 1 397 1 416 1 418 1 448 1 452 1 461 1 462 1 492 1 495 1 504 1 509 1 539 1 550 1 560 1 565 1 605 1 611 2 615 1 634 2 651 1 719 1 736 1 791 1 793 1 795 1 801 1 810 1 820 1 822 1 867 1 888 1 912 1 925 1 938 2 945 1 968 1 991 1 993 1 116 1 118 1 140 1 156 1 180 1 210 1 253 1 282 1 288 1 308 1 324 1 339 1 350 1 371 1 374 1 389 1 402 1 403 1 468 1 494 1 511 1 528 1 544 1 587 1 625 1 670 1 709 1 723 1 737 1 741 1 749 1 755 1 825 1 844 1 869 1 890 1 924 1 929 1 937 1 955 1 973 1 982 1 983 1 1007 1 
1 209 12 1 38 1 44 1 59 1 64 1 10 1 14 1 31 1 55 1 65 1 80 1 91 1 112 1 113 1 126 1 150 1 154 1 161 1 184 1 189 1 205 1 229 1 231 1 236 1 238 2 259 1 290 1 300 1 318 1 324 1 331 1 336 1 377 1 390 1 417 1 418 1 447 1 476 1 491 1 506 1 559 1 563 1 589 1 617 1 629 1 641 1 650 1 660 1 670 1 729 1 738 1 739 1 774 1 776 1 784 1 786 1 797 1 802 1 807 1 834 1 863 1 888 1 892 1 916 1 922 1 936 1 955 1 1001 1 106 1 116 1 122 1 148 1 200 1 251 1 304 1 317 1 329 1 342 1 352 1 366 1 381 1 403 1 429 1 433 1 434 1 439 1 443 1 507 1 515 1 517 1 540 1 545 1 552 1 622 1 633 1 642 1 648 1 651 1 653 1 686 1 690 1 712 1 737 1 747 1 749 1 772 1 820 1 825 1 850 1 853 1 862 1 864 1 891 1 909 1 919 1 924 1 926 1 928 1 959 1 1007 1 1014 1 1027 1 
1 213 17 1 68 1 73 1 90 1 3 1 47 1 50 1 55 1 59 1 64 1 99 1 100 1 103 1 131 1 149 1 172 1 177 1 194 1 201 1 202 2 214 1 218 1 226 1 227 1 235 1 256 1 274 1 294 1 304 1 308 1 311 1 312 1 358 1 364 1 409 1 414 2 459 1 487 1 502 1 506 1 507 1 512 1 516 1 558 1 567 1 568 1 572 1 589 1 593 1 595 1 611 1 647 1 660 1 692 1 697 1 709 1 716 1 719 1 740 2 753 1 779 1 812 1 824 1 829 1 840 1 858 1 868 2 889 1 892 1 915 1 919 1 922 1 1001 1 124 1 132 1 146 1 147 1 163 1 184 1 190 1 196 1 273 1 282 1 288 1 303 1 344 1 380 1 399 1 405 1 426 1 433 1 452 1 453 1 482 1 490 1 491 1 546 1 602 1 627 1 653 1 701 1 717 1 771 1 791 1 797 1 806 1 848 1 849 1 877 1 923 1 926 1 980 1 984 1 985 1 999 1 1024 1 1027 1 
1 211 54 2 84 1 3 1 23 1 48 1 53 1 68 1 81 1 96 1 119 1 221 1 225 1 260 1 276 1 312 1 328 1 334 1 356 1 366 1 369 1 450 1 457 1 479 1 534 1 537 1 549 1 554 1 555 1 561 1 564 1 574 1 594 2 608 1 619 1 621 1 646 1 663 1 680 1 685 1 696 1 699 1 762 2 790 1 791 1 796 1 798 1 816 1 840 1 900 1 903 1 922 1 936 1 947 2 948 2 970 1 975 1 989 1 104 1 120 1 122 1 131 1 132 1 133 1 136 1 157 1 158 1 163 1 169 1 176 1 186 1 196 1 202 1 211 1 215 1 245 1 253 1 287 1 288 1 293 1 349 1 360 1 397 1 431 1 438 1 441 1 445 1 459 1 478 1 483 1 512 1 513 1 521 1 527 1 529 1 573 1 596 1 597 1 618 1 631 1 643 1 650 1 659 1 677 1 736 1 738 1 740 1 778 1 820 1 839 1 848 1 849 1 873 1 894 1 898 1 909 1 950 1 961 1 978 1 980 1 1006 1 1009 1 1025 1 
1 215 11 1 40 1 59 1 84 1 95 1 112 1 161 1 169 1 182 1 187 1 244 1 255 1 304 1 307 1 310 1 318 1 353 1 363 2 367 1 376 1 394 1 399 1 415 1 442 1 463 1 465 1 471 1 498 1 512 1 513 1 517 1 520 1 521 1 527 1 536 1 546 1 549 1 553 1 592 1 595 1 618 1 657 1 688 2 719 1 723 1 724 1 759 1 813 1 820 1 825 1 827 1 830 1 836 1 851 1 855 1 930 1 981 1 998 1 1002 1 125 1 160 1 168 1 173 1 177 1 189 1 206 1 222 1 224 1 263 1 311 1 334 1 340 1 341 1 383 1 432 1 460 1 467 1 497 1 508 1 551 1 560 1 584 1 628 1 632 1 636 1 637 1 650 1 671 1 690 1 700 1 707 1 709 1 715 1 752 1 753 1 799 1 804 1 824 1 853 1 857 1 871 1 880 1 892 1 902 1 922 1 944 1 967 1 984 1 985 1 1007 1 1009 1 1015 1 1023 1 1026 1 1027 1 
1 210 45 1 47 1 67 1 76 1 83 1 18 1 24 1 53 1 65 1 86 1 171 1 181 1 223 2 237 1 238 1 244 1 260 1 279 1 282 1 295 1 376 1 379 1 432 1 448 1 465 1 467 1 490 1 491 1 494 1 502 1 512 1 514 1 532 1 578 1 585 1 591 1 605 1 631 1 634 1 644 1 647 1 649 1 671 1 687 1 689 1 708 1 717 2 720 1 734 1 760 1 798 1 809 1 861 1 877 1 889 2 917 1 947 1 951 1 961 1 964 1 999 1 179 1 207 1 222 1 243 1 247 1 254 1 261 1 280 1 301 1 326 1 336 1 368 1 375 1 406 1 414 1 421 1 428 1 444 1 445 1 456 1 476 1 498 1 510 1 537 1 562 1 613 1 642 1 655 1 665 1 668 1 676 1 685 1 700 1 705 1 797 1 843 1 847 1 852 1 869 1 893 1 896 1 903 1 907 1 941 1 977 1 1025 1 
1 211 9 1 12 2 38 1 46 1 59 1 53 1 76 1 132 1 142 1 149 1 151 1 167 1 195 1 199 1 257 1 263 1 276 1 284 1 297 1 323 1 346 1 369 1 374 1 379 1 380 1 384 1 386 1 433 1 462 2 485 1 502 1 519 1 524 1 528 1 602 1 610 1 621 1 665 1 689 1 690 1 695 1 698 1 743 1 755 1 761 1 780 1 807 1 811 1 816 2 870 1 904 1 913 1 936 1 953 1 965 1 972 1 129 1 153 1 156 1 160 1 181 1 189 1 193 1 200 1 203 1 209 1 226 1 229 1 230 1 234 1 255 1 268 1 322 1 341 1 358 1 385 1 396 1 454 1 457 1 493 1 514 1 521 1 537 1 575 1 576 1 590 1 622 1 628 1 636 1 641 1 646 1 682 1 736 1 744 1 757 1 781 1 790 1 812 1 846 1 847 1 873 1 907 1 908 1 915 1 923 1 958 1 967 1 978 1 990 1 1023 1 1026 1 
1 211 61 1 76 1 94 1 45 1 51 1 101 1 119 1 145 1 153 1 179 1 202 1 217 1 265 1 276 1 281 1 285 1 327 1 329 1 348 1 351 1 357 1 380 1 384 1 405 1 414 1 428 1 460 1 473 1 477 1 487 1 500 1 514 1 523 1 574 2 584 1 618 1 626 1 649 1 661 1 672 1 673 1 676 1 746 1 752 1 763 1 778 1 795 2 801 1 824 1 836 1 893 1 897 1 898 1 914 1 929 2 956 1 960 1 967 1 992 1 1002 1 120 1 128 1 136 1 138 1 144 1 159 1 213 1 219 1 231 1 259 1 263 1 266 1 268 1 293 1 319 1 359 1 365 1 375 1 420 1 431 1 432 1 442 1 472 1 479 1 483 1 498 1 542 1 544 1 549 1 566 1 624 1 632 1 641 1 660 1 691 1 707 1 717 1 760 1 787 1 789 1 793 1 816 1 827 1 830 1 845 1 855 1 861 1 866 1 911 1 913 1 919 1 931 1 934 1 948 1 994 1 998 1 1009 1 1018 1 1025 1 1027 1 
1 215 2 2 3 1 27 1 51 1 81 1 83 1 94 1 31 1 48 1 52 1 58 1 59 1 121 1 140 1 150 1 154 1 163 1 174 1 205 1 209 1 210 1 212 1 224 1 225 1 254 1 261 2 265 1 290 1 295 1 304 1 328 2 364 1 366 1 378 1 397 1 409 1 432 1 458 1 469 1 477 1 510 1 530 1 543 1 553 1 563 1 647 1 670 1 696 2 697 1 704 1 721 2 749 1 765 1 774 1 783 1 804 1 820 1 846 1 849 1 852 1 870 1 872 1 879 1 893 1 894 1 895 1 898 1 901 1 913 1 919 1 931 1 998 1 102 1 120 1 144 1 147 1 184 1 232 1 248 1 283 1 296 1 321 1 325 1 335 1 338 1 344 1 350 1 371 1 406 1 421 1 443 1 449 1 460 1 478 1 486 1 524 1 541 1 609 1 646 1 655 1 659 1 681 1 716 1 726 1 734 1 793 1 806 1 859 1 891 1 892 1 899 1 939 1 940 1 944 1 999 1 1006 1 1008 1 1023 1 
1 206 4 1 19 1 26 2 99 1 85 1 89 1 107 1 109 1 132 1 203 1 231 1 245 1 257 1 271 1 290 1 314 2 376 1 381 1 387 1 458 1 478 1 483 1 492 1 526 1 528 1 538 1 581 1 584 1 586 1 596 1 620 1 639 1 668 1 678 1 703 1 705 1 706 2 710 1 711 1 716 1 726 1 735 1 740 1 768 1 774 1 783 1 813 1 835 1 862 1 867 1 876 1 897 1 927 1 949 1 960 1 979 1 108 1 125 1 151 1 159 1 178 1 199 1 338 1 343 1 351 1 359 1 365 1 384 1 388 1 400 1 402 1 415 1 432 1 445 1 447 1 459 1 466 1 468 1 524 1 550 1 555 1 590 1 632 1 672 1 680 1 692 1 757 1 782 1 801 1 819 1 820 1 822 1 828 1 830 1 910 1 917 1 923 1 982 1 991 1 1006 1 1025 1 1026 1 
1 214 6 1 18 1 21 1 42 1 91 1 15 1 100 1 105 1 114 1 116 1 122 1 167 1 190 2 235 1 239 1 241 1 260 1 262 1 263 1 265 1 317 1 332 1 336 1 371 1 382 1 383 1 385 1 401 1 405 2 434 1 435 1 441 1 452 1 455 1 494 1 511 1 519 1 530 1 550 1 552 1 553 1 561 1 581 1 597 1 630 1 634 1 715 1 726 1 734 1 737 1 748 1 773 1 781 1 790 1 827 1 846 1 852 1 856 1 866 1 873 1 895 1 915 1 921 1 932 1 937 2 939 1 940 1 955 1 986 1 989 1 997 1 126 1 148 1 157 1 163 1 197 1 210 1 215 1 233 1 236 1 250 1 273 1 275 1 281 1 302 1 316 1 349 1 366 1 388 1 404 1 420 1 425 1 470 1 480 1 497 1 501 1 505 1 506 1 516 1 529 1 533 1 545 1 574 1 589 1 615 1 640 1 651 1 656 1 670 1 676 1 687 1 698 1 739 1 746 1 759 1 762 1 819 1 870 1 901 1 910 1 911 1 913 1 919 1 1003 1 1006 1 1015 1 1017 1 1023 1 1026 1 
1 213 20 1 25 1 50 1 60 2 86 1 94 1 2 1 21 1 38 1 55 1 80 1 87 1 88 1 128 1 132 1 139 1 150 2 162 1 164 1 207 1 209 2 224 1 264 2 268 1 274 1 296 1 312 1 316 1 322 1 333 1 366 1 377 1 381 1 402 1 412 1 424 1 443 1 459 1 463 1 486 1 512 1 543 1 546 1 549 1 589 1 593 1 633 1 640 2 642 1 651 1 657 1 658 1 687 1 696 1 710 1 741 1 749 1 750 1 781 1 818 1 832 1 835 1 844 1 854 1 861 1 874 1 881 1 927 1 937 1 982 1 988 1 995 1 124 1 136 1 138 1 173 1 177 1 182 1 192 1 195 1 205 1 253 1 271 1 334 1 363 1 411 1 418 1 436 1 452 1 466 1 472 1 497 1 501 1 514 1 522 1 553 1 584 1 590 1 649 1 670 1 672 1 682 1 688 1 708 1 711 1 712 1 777 1 797 1 820 1 847 1 849 1 871 1 882 1 892 1 934 1 969 1 985 1 998 1 1007 1 1008 1 
1 207 22 1 36 1 52 1 59 2 71 1 86 1 88 1 34 1 89 1 95 1 118 1 127 1 134 1 143 1 146 1 150 1 152 1 153 1 156 2 159 2 163 1 169 1 170 1 197 1 218 1 225 1 240 1 244 1 248 1 259 1 285 1 324 1 346 1 362 1 369 1 370 1 462 1 476 1 504 1 538 1 540 1 574 1 592 1 603 1 606 1 612 1 661 1 664 1 702 1 705 1 708 1 727 1 745 1 747 1 749 1 750 1 759 1 786 2 817 2 824 1 826 1 833 1 840 1 844 1 908 1 909 1 922 1 934 1 938 1 942 1 947 1 972 1 978 1 979 1 147 1 158 1 173 1 181 1 245 1 255 1 261 1 312 1 327 1 357 1 359 1 364 1 376 1 415 1 445 1 452 1 467 1 488 1 515 1 518 1 524 1 525 1 526 1 527 1 532 1 533 1 565 1 578 1 582 1 627 1 629 1 660 1 667 1 741 1 761 1 765 1 789 1 790 1 832 1 900 1 901 1 903 1 913 1 927 1 930 1 952 1 997 1 1010 1 1022 1 
1 211 41 1 69 1 84 1 85 1 90 1 102 1 3 1 11 1 26 1 33 1 50 1 60 1 62 1 86 1 110 1 131 1 165 1 178 2 206 1 223 1 232 1 295 1 298 1 299 1 305 1 310 1 312 1 349 2 381 1 393 1 440 1 454 1 456 1 458 1 482 1 504 1 508 1 510 2 525 1 549 1 551 1 562 1 564 1 589 1 599 1 607 2 636 1 643 1 670 1 673 1 678 1 682 1 705 1 720 1 730 1 762 1 811 1 813 1 828 1 841 1 902 1 905 1 912 1 917 1 971 1 993 1 144 1 148 1 153 1 179 1 194 1 209 1 213 1 249 1 270 1 306 1 325 1 326 1 342 1 360 1 368 1 380 1 392 1 402 1 407 1 430 1 439 1 468 1 490 1 491 1 511 1 526 1 537 1 567 1 575 1 592 1 612 1 621 1 648 1 650 1 669 1 700 1 722 1 736 1 755 1 798 1 809 1 833 1 869 1 882 1 965 1 987 1 1012 1 1025 1 
1 209 4 1 17 1 19 1 24 1 47 1 73 1 81 1 88 1 1 1 15 1 18 1 26 1 51 1 61 1 91 1 93 1 121 1 140 1 159 1 172 1 180 2 182 1 187 1 210 1 214 1 247 1 251 1 262 1 286 2 334 1 346 1 355 1 357 1 363 1 364 1 365 1 391 1 454 1 462 1 493 1 511 1 512 1 517 1 520 1 537 1 541 1 566 2 579 1 584 1 590 1 652 1 667 2 705 1 707 1 713 1 734 1 750 1 759 1 849 1 864 1 923 1 941 1 952 1 970 1 972 1 977 1 984 1 986 1 128 1 152 1 164 1 165 1 200 1 229 1 270 1 305 1 319 1 336 1 337 1 339 1 340 1 356 1 377 1 381 1 404 1 405 1 420 1 497 1 513 1 521 1 532 1 554 1 588 1 600 1 606 1 635 1 638 1 669 1 672 1 691 1 699 1 783 1 789 1 791 1 799 1 809 1 821 1 848 1 858 1 892 1 904 1 912 1 939 1 955 1 963 1 981 1 995 1 998 1 1012 1 1022 1 
1 217 25 1 27 1 33 1 75 1 101 1 28 1 37 1 46 1 64 1 122 1 141 1 156 1 172 1 206 1 212 1 230 2 240 1 250 1 275 1 323 1 324 1 337 1 359 1 373 1 397 2 406 1 411 2 458 1 509 1 552 1 577 1 581 1 636 2 660 1 669 1 675 1 714 2 718 1 725 1 779 1 788 1 789 1 808 1 836 1 841 1 888 1 893 1 969 1 979 1 1001 2 113 1 138 1 160 1 167 1 190 1 242 1 276 1 296 1 308 1 336 1 355 1 361 1 364 1 380 1 384 1 433 1 478 1 484 1 498 1 519 1 542 1 543 1 544 1 591 1 598 1 600 1 601 1 605 1 651 1 655 1 680 1 683 1 709 1 730 1 744 1 747 1 756 1 772 1 791 1 799 1 813 1 840 1 842 1 861 1 871 1 873 1 874 1 876 1 883 1 923 1 941 1 980 1 991 1 998 1 1000 1 1004 1 1007 1 1019 1 1021 1 1027 1 
1 211 60 1 92 1 2 1 6 1 23 1 29 1 52 1 61 1 72 1 101 1 126 1 130 1 134 1 154 1 173 1 186 1 195 1 254 1 270 1 277 1 283 1 348 1 370 1 391 1 392 1 396 2 415 1 425 1 433 1 467 1 475 1 489 1 535 1 538 1 555 1 584 1 600 1 605 1 640 1 644 1 649 1 664 1 670 1 702 1 710 1 714 1 729 1 731 1 734 1 752 1 784 1 797 1 801 1 841 1 855 1 858 1 863 1 937 1 953 1 972 1 112 1 114 1 117 1 120 1 124 1 131 1 164 1 202 1 206 1 210 1 221 1 290 1 316 1 336 1 347 1 381 1 382 1 399 1 431 1 455 1 472 1 519 1 537 1 548 1 561 1 589 1 642 1 650 1 651 1 661 1 689 1 701 1 722 1 730 1 741 1 759 1 762 1 773 1 774 1 788 1 816 1 842 1 850 1 853 1 859 1 882 1 885 1 892 1 932 1 934 1 938 1 960 1 962 1 967 1 1003 1 1018 1 
1 213 69 1 71 1 72 1 101 1 42 1 64 1 112 2 118 1 186 1 188 1 193 1 234 1 270 1 271 1 276 1 282 1 288 1 301 2 340 1 379 1 380 1 390 1 392 1 437 1 439 1 460 1 476 1 516 1 523 1 562 1 567 2 570 1 586 1 592 1 597 1 598 1 614 1 622 1 639 1 661 1 663 1 668 1 671 1 678 1 701 1 703 1 706 1 742 1 771 1 782 1 783 1 801 2 806 1 808 1 815 2 826 2 843 1 850 1 890 1 891 1 896 1 914 1 960 1 969 1 983 1 1000 1 1001 1 170 1 176 1 179 1 180 1 185 1 187 1 196 1 294 1 296 1 309 1 334 1 338 1 355 1 368 1 378 1 415 1 491 1 507 1 527 1 602 1 604 1 609 1 615 1 624 1 632 1 644 1 708 1 721 1 731 1 739 1 749 1 766 1 812 1 823 1 842 1 875 1 883 1 888 1 893 1 931 1 940 1 972 1 975 1 977 1 986 1 1009 1 1010 1 1013 1 1019 1 1021 1 
1 210 31 1 65 1 89 1 105 1 11 1 63 1 122 1 149 1 161 1 200 1 218 1 230 1 237 1 294 1 305 1 307 1 309 1 311 1 321 1 324 2 340 1 390 1 422 1 457 1 467 1 481 1 489 1 508 1 513 1 518 1 524 1 535 1 560 1 581 1 591 1 607 1 639 1 646 1 665 1 674 1 722 1 730 1 738 1 747 1 757 2 759 1 766 1 798 1 800 2 832 1 870 1 913 1 918 1 935 1 954 1 964 1 970 1 991 1 116 1 118 1 143 1 158 1 185 1 188 1 201 1 219 1 227 1 251 1 256 1 258 1 266 1 270 1 287 1 297 1 308 1 315 1 318 1 335 1 385 1 408 1 436 1 456 1 466 1 487 1 523 1 574 1 575 1 627 1 636 1 644 1 695 1 708 1 723 1 761 1 825 1 845 1 857 1 885 1 902 1 907 1 908 1 910 1 912 1 945 1 946 1 960 1 968 1 974 1 983 1 989 1 992 1 996 1 1004 1 1011 1 1025 1 
1 214 33 1 37 1 38 1 41 1 83 1 36 1 51 1 72 1 79 1 81 1 119 1 123 1 127 1 145 1 202 1 242 1 271 1 298 1 307 1 315 1 322 1 367 1 373 1 374 1 395 1 421 1 435 2 457 1 473 1 479 1 543 1 572 1 583 1 609 1 611 1 631 1 655 1 671 1 682 1 727 1 755 1 784 1 826 1 853 1 862 1 879 1 899 1 901 1 919 1 920 1 938 1 976 1 983 1 122 1 146 1 200 1 219 1 220 1 228 1 253 1 255 1 301 1 310 1 316 1 319 1 331 1 337 1 359 1 383 1 411 1 412 1 428 1 434 1 439 1 443 1 454 1 464 1 481 1 493 1 503 1 563 1 589 1 591 1 618 1 623 1 665 1 690 1 703 1 708 1 753 1 761 1 763 1 791 1 798 1 813 1 823 1 906 1 915 1 926 1 933 1 956 1 980 1 1003 1 1006 1 
1 211 6 1 18 1 31 1 53 2 65 1 66 1 67 1 93 1 96 1 109 2 24 1 25 1 76 1 88 1 108 1 126 1 131 1 154 1 178 1 215 1 217 2 227 1 243 1 245 1 262 1 266 1 267 1 294 1 297 1 323 1 357 1 366 2 410 1 417 1 418 1 422 1 458 1 511 1 512 1 513 1 529 1 538 1 548 1 628 1 637 1 644 1 647 1 653 1 677 2 750 1 793 1 821 1 837 1 867 1 871 1 890 1 893 1 902 1 903 2 908 1 919 1 921 1 935 1 936 1 938 1 942 1 948 1 958 1 975 1 124 1 140 1 143 1 167 1 190 1 235 1 248 1 258 1 264 1 320 1 335 1 339 1 341 1 345 1 351 1 352 1 364 1 373 1 380 1 382 1 387 1 393 1 432 1 490 1 496 1 499 1 505 1 536 1 559 1 581 1 608 1 631 1 663 1 690 1 726 1 731 1 755 1 768 1 786 1 792 1 832 1 833 1 844 1 891 1 898 1 901 1 915 1 926 1 1004 1 1014 1 
1 206 25 1 39 1 59 1 69 1 78 1 79 1 80 1 81 2 89 1 93 1 11 1 19 1 27 1 67 1 107 1 134 1 138 1 143 1 148 1 181 1 186 2 190 1 194 1 228 1 229 1 243 1 246 1 292 2 316 1 355 1 358 1 363 1 434 1 452 1 489 1 503 1 512 1 539 1 571 1 574 1 582 2 650 1 652 1 686 1 688 1 714 1 755 1 802 1 807 1 824 1 848 1 855 1 859 1 885 1 891 1 905 1 919 1 921 1 940 1 941 1 945 1 946 1 962 1 965 1 972 1 986 1 117 1 158 1 168 1 215 1 270 1 287 1 302 1 313 1 324 1 348 1 360 1 365 1 367 1 387 1 390 1 392 1 393 1 431 1 438 1 540 1 550 1 557 1 588 1 597 1 598 1 608 1 636 1 641 1 646 1 665 1 676 1 681 1 687 1 717 1 739 1 785 1 796 1 812 1 819 1 831 1 833 1 869 1 889 1 892 1 899 1 957 1 992 1 994 1 998 1 1004 1 1014 1 1026 1 
1 209 4 1 11 1 15 1 30 1 31 1 56 1 62 1 66 1 80 2 102 1 6 1 21 1 32 1 60 1 74 1 91 1 108 1 157 1 289 1 302 1 312 1 337 1 398 1 410 1 429 1 435 1 440 1 456 1 487 1 491 1 540 1 565 1 592 1 614 1 616 1 623 1 630 1 664 1 674 1 677 1 695 1 779 1 794 1 831 1 855 1 857 1 860 1 879 1 891 1 902 1 909 1 920 1 929 1 933 2 937 1 938 1 959 1 979 1 992 1 998 1 141 1 156 1 159 1 177 1 182 1 184 1 226 1 256 1 264 1 294 1 326 1 361 1 364 1 382 1 385 1 404 1 408 1 480 1 486 1 519 1 527 1 533 1 538 1 546 1 584 1 596 1 634 1 642 1 645 1 648 1 667 1 727 1 731 1 747 1 773 1 814 1 822 1 840 1 842 1 897 1 901 1 908 1 913 1 919 1 928 1 962 1 972 1 974 1 981 1 1009 1 
1 208 12 2 26 1 36 1 39 1 47 1 69 1 73 1 88 1 41 1 89 1 116 1 117 1 175 1 180 1 191 1 200 1 248 1 254 1 292 2 297 2 325 1 349 1 353 1 357 1 372 1 389 1 394 1 398 1 405 1 409 1 410 1 433 1 443 1 444 1 457 1 488 1 495 1 511 1 552 1 564 1 592 2 599 1 681 1 689 1 694 1 702 1 720 1 739 1 744 1 752 1 760 1 797 1 798 1 810 1 816 1 874 1 882 2 883 1 924 2 968 1 980 2 167 1 169 1 182 1 188 1 202 1 210 1 223 1 247 1 294 1 311 1 315 1 323 1 328 1 360 1 441 1 520 1 531 1 540 1 545 1 569 1 572 1 578 1 586 1 605 1 653 1 654 1 662 1 671 1 675 1 679 1 680 1 683 1 686 1 693 1 695 1 707 1 711 1 746 1 755 1 769 1 784 1 799 1 811 1 836 1 838 1 849 1 877 1 898 1 921 1 962 1 974 1 981 1 999 1 1015 1 1023 1 1025 1 
1 214 2 1 15 1 28 1 45 1 47 1 102 1 115 1 6 1 10 1 51 1 73 1 84 1 92 1 93 1 110 1 117 1 120 1 141 1 142 1 156 1 174 1 183 1 189 1 205 1 250 1 251 1 268 1 294 1 296 2 303 1 316 1 339 2 376 1 383 1 388 1 395 2 412 2 414 1 437 2 451 1 467 1 485 1 496 1 502 1 503 1 523 2 536 1 549 1 550 1 599 1 603 1 606 1 621 1 642 1 655 1 661 1 702 1 706 1 772 1 780 1 800 1 822 1 862 1 867 1 869 1 897 1 939 1 969 1 986 1 125 1 199 1 207 1 249 1 257 1 276 1 305 1 321 1 381 1 402 1 419 1 439 1 441 1 443 1 450 1 480 1 532 1 548 1 557 1 585 1 597 1 647 1 651 1 677 1 687 1 692 1 723 1 726 1 728 1 731 1 745 1 789 1 813 1 843 1 870 1 919 1 923 1 924 1 950 1 955 1 959 1 964 1 985 1 988 1 1015 1 
1 206 8 1 15 1 23 1 66 1 68 1 90 1 115 1 116 1 46 1 85 1 108 1 113 1 193 1 214 1 216 1 255 1 262 1 269 1 270 1 275 1 317 1 369 1 380 1 381 2 403 2 413 1 441 1 453 1 458 1 481 1 487 1 490 1 492 1 495 1 529 1 584 1 665 1 670 1 676 1 682 1 708 1 736 1 743 1 753 1 760 1 806 1 820 1 839 1 859 1 878 1 893 1 896 1 974 1 975 1 985 1 1000 2 1001 1 126 1 133 1 202 1 218 1 236 1 308 1 312 1 339 1 341 1 345 1 352 1 358 1 359 1 402 1 409 1 427 1 430 1 442 1 475 1 478 1 524 1 525 1 540 1 580 1 581 1 590 1 596 1 598 1 604 1 617 1 641 1 652 1 657 1 740 1 756 1 757 1 794 1 802 1 807 1 840 1 845 1 855 1 857 1 868 1 925 1 930 1 954 1 982 1 1016 1 1021 1 
1 211 48 1 71 1 77 1 80 1 89 1 104 1 109 1 21 1 24 1 83 1 92 1 110 1 170 1 192 1 214 1 222 1 223 1 235 1 245 1 272 1 273 1 297 1 302 2 304 1 349 1 363 1 396 1 399 1 419 1 422 1 423 1 432 1 436 1 481 2 494 1 508 1 517 1 525 1 530 1 532 1 533 1 541 1 551 1 575 1 580 1 587 1 589 1 637 1 662 1 699 1 711 1 716 1 724 1 731 1 732 1 734 1 777 1 783 1 796 1 836 1 845 1 855 1 863 1 879 1 881 1 887 1 905 1 909 1 914 2 959 1 963 1 988 1 126 1 155 1 158 1 168 1 198 1 224 1 226 1 230 1 265 1 283 1 286 1 317 1 340 1 351 1 369 1 392 1 439 1 462 1 471 1 491 1 495 1 528 1 534 1 550 1 558 1 578 1 601 1 605 1 616 1 645 1 650 1 667 1 698 1 704 1 708 1 723 1 728 1 729 1 738 1 757 1 770 1 781 1 788 1 853 1 857 1 864 1 895 1 925 1 927 1 930 1 958 1 997 1 1001 1 1014 1 1015 1 1016 1 1018 1 1021 1 
1 213 2 1 16 1 46 2 48 1 61 1 66 1 67 1 95 1 99 1 111 1 63 1 121 1 130 1 149 1 170 1 189 1 214 1 218 1 225 1 226 1 236 1 254 1 268 1 290 1 317 2 319 1 332 1 335 1 384 1 386 1 389 1 427 1 428 1 429 1 445 1 456 1 500 1 507 1 529 1 535 1 562 1 564 1 606 1 614 1 620 1 647 1 669 1 681 1 685 1 705 1 766 1 777 1 797 1 805 1 807 1 812 2 820 1 830 1 851 1 878 1 892 1 911 1 925 1 928 1 958 1 974 1 975 1 155 1 181 1 197 1 208 1 270 1 289 1 330 1 358 1 377 1 401 1 405 1 413 1 415 1 434 1 440 1 451 1 467 1 474 1 477 1 504 1 516 1 538 1 550 1 582 1 603 1 610 1 624 1 654 1 726 1 736 1 739 1 754 1 762 1 770 1 794 1 841 1 850 1 877 1 907 1 930 1 946 1 955 1 964 1 1005 1 1006 1 1010 1 1016 1 1017 1 1026 1 
1 219 1 1 12 1 36 1 38 2 52 1 56 1 92 1 116 1 15 1 23 1 95 1 99 1 100 1 108 1 130 1 144 1 163 1 190 1 195 2 200 1 213 1 220 1 224 1 236 1 255 1 267 1 289 1 343 1 349 1 410 1 421 1 443 1 463 1 467 1 509 1 514 1 516 1 520 1 522 1 523 1 551 1 599 1 630 1 642 1 654 1 662 1 663 1 686 1 695 1 696 1 717 1 726 1 733 1 782 1 788 1 818 1 904 1 929 1 941 1 958 2 977 1 125 1 127 1 140 1 168 1 174 1 232 1 243 1 260 1 270 1 280 1 309 1 320 1 340 1 347 1 348 1 379 1 402 1 427 1 434 1 492 1 495 1 512 1 518 1 529 1 532 1 536 1 543 1 558 1 576 1 580 1 616 1 677 1 730 1 753 1 755 1 757 1 812 1 813 1 852 1 867 1 874 1 920 1 937 1 940 1 946 1 963 1 975 1 983 1 1002 1 1006 1 1007 1 1013 1 1017 1 1024 1 
1 205 45 1 59 1 71 1 73 1 78 1 82 2 100 1 106 1 119 1 20 1 34 1 39 1 64 1 68 1 89 1 127 1 155 1 159 1 167 1 226 1 227 1 250 1 285 1 314 2 367 1 370 1 371 1 377 1 396 1 449 1 450 1 463 1 465 1 505 1 528 1 581 1 583 1 588 1 592 1 620 1 621 1 627 1 632 1 647 1 656 1 661 1 664 1 692 1 765 1 773 1 825 1 835 1 858 1 864 1 866 1 883 1 914 1 920 1 941 1 944 1 951 1 968 1 975 1 991 1 135 1 142 1 151 1 164 1 225 1 235 1 255 1 274 1 281 1 289 1 320 1 326 1 418 1 444 1 474 1 508 1 529 1 565 1 574 1 579 1 580 1 596 1 597 1 603 1 623 1 631 1 634 1 650 1 693 1 702 1 707 1 726 1 728 1 729 1 731 1 733 1 746 1 814 1 871 1 878 1 886 1 890 1 909 1 923 1 924 1 937 1 992 1 993 1 1000 1 
1 210 9 1 31 1 35 1 74 1 79 1 84 1 102 1 107 1 110 1 8 1 24 1 25 1 58 1 59 1 60 1 65 1 91 1 93 1 95 1 111 1 130 1 144 1 164 1 234 1 255 1 264 1 271 1 272 1 295 1 298 1 331 1 337 1 341 1 347 1 357 1 364 1 377 1 433 1 481 1 517 1 563 1 583 1 602 1 605 1 631 1 659 1 665 1 696 1 737 1 750 1 776 1 782 1 785 2 817 1 860 1 861 1 879 1 886 1 902 1 920 1 940 1 958 1 984 1 987 1 205 1 217 1 240 1 256 1 283 1 288 1 359 1 371 1 373 1 376 1 386 1 401 1 412 1 438 1 482 1 506 1 508 1 518 1 525 1 529 1 534 1 567 1 568 1 630 1 667 1 676 1 682 1 724 1 727 1 735 1 786 1 794 1 824 1 833 1 836 1 849 1 869 1 880 1 893 1 927 1 933 1 948 1 990 1 1003 1 1009 1 1016 1 1019 1 1021 1 
1 211 2 1 19 1 42 1 63 1 64 1 68 1 70 1 79 1 111 1 23 1 25 1 33 1 39 1 54 1 77 1 138 1 148 1 172 1 196 1 203 1 213 1 272 1 274 1 309 1 320 1 333 1 352 1 382 1 409 1 433 1 446 1 447 1 481 1 496 1 584 1 592 1 606 2 608 1 649 1 698 1 725 1 784 1 799 1 801 1 802 1 823 1 851 1 859 1 870 1 873 1 903 1 911 1 920 1 936 1 940 1 958 1 996 1 163 1 165 1 173 1 209 1 214 1 235 1 249 1 271 1 278 1 285 1 312 1 330 1 367 1 370 1 375 1 432 1 439 1 456 1 460 1 465 1 515 1 526 1 572 1 576 1 603 1 607 1 616 1 680 1 683 1 759 1 769 1 774 1 793 1 819 1 822 1 881 1 883 1 947 1 951 1 955 1 957 1 977 1 985 1 1005 1 1008 1 1012 1 1013 1 1014 1 1021 1 1023 1 
1 208 1 1 2 1 30 1 39 1 47 1 58 1 62 1 92 1 5 1 24 1 26 1 33 1 41 1 46 1 88 1 94 1 103 1 108 1 112 1 202 1 205 1 209 1 223 1 235 1 261 1 291 1 299 2 352 1 359 1 389 1 415 1 472 1 488 1 495 1 510 1 549 1 554 2 594 1 646 1 667 1 693 1 708 1 820 1 846 1 857 1 879 1 885 1 886 2 894 1 904 1 924 1 925 1 938 1 949 1 973 1 137 1 164 1 175 1 188 1 214 1 217 1 260 1 264 1 274 1 277 1 283 1 287 1 288 1 308 1 332 1 370 1 376 1 394 1 441 1 444 1 448 1 452 1 466 1 467 1 468 1 491 1 517 1 531 1 571 1 645 1 712 1 717 1 722 1 726 1 741 1 758 1 797 1 816 1 817 1 822 1 828 1 917 1 920 1 944 1 975 1 1001 1 1018 1 1019 1 
1 209 2 1 46 1 64 1 68 1 24 1 35 1 96 1 101 1 116 1 120 1 134 1 173 2 177 1 180 1 187 1 195 1 196 1 202 1 211 1 229 1 233 1 234 1 243 1 277 1 312 1 316 1 338 1 374 1 414 1 415 2 474 1 519 1 537 1 541 1 559 1 577 1 588 1 600 1 604 1 617 1 651 1 662 1 689 1 691 1 694 1 720 1 754 1 762 1 767 2 789 1 818 1 823 1 825 1 835 1 859 1 862 1 874 1 891 1 900 1 935 1 938 1 992 2 1000 1 137 1 145 1 156 1 198 1 212 1 237 1 248 1 264 1 288 1 289 1 296 1 331 1 349 1 365 1 412 1 430 1 432 1 435 1 438 1 442 1 443 1 450 1 479 1 508 1 518 1 565 1 578 1 580 1 582 1 616 1 618 1 623 1 634 1 640 1 661 1 672 1 687 1 695 1 701 1 703 1 714 1 724 1 764 1 773 1 781 1 802 1 824 1 845 1 853 1 858 1 889 1 894 1 918 1 922 1 936 1 1009 1 
1 210 16 1 35 1 52 1 57 2 62 1 92 1 93 1 108 1 112 1 14 1 17 1 40 1 66 1 102 1 117 1 118 1 133 1 141 1 173 1 178 1 194 1 203 1 206 1 231 1 235 1 271 1 297 1 305 1 307 2 312 1 314 1 315 1 322 1 332 2 345 1 355 1 358 1 388 1 541 1 550 1 553 1 581 1 593 1 609 1 616 1 624 1 637 1 650 1 670 1 672 1 674 1 692 1 693 1 720 1 724 1 728 1 814 1 829 1 830 1 838 1 840 1 854 1 877 1 881 1 884 1 900 1 901 1 929 1 953 1 967 1 973 1 990 1 146 1 160 1 163 1 165 1 175 1 208 1 220 1 262 1 269 1 277 1 294 1 295 1 299 1 302 1 321 1 330 1 399 1 417 1 490 1 494 1 505 1 567 1 574 1 591 1 600 1 647 1 680 1 682 1 690 1 714 1 741 1 767 1 784 1 798 1 799 1 800 1 826 1 849 1 852 1 897 1 921 1 926 1 930 1 949 1 986 1 1001 1 1005 1 1011 1 1014 1 
1 214 11 1 21 1 23 1 54 1 65 1 74 1 78 1 90 1 104 1 111 1 121 1 4 1 30 1 87 1 120 1 128 1 180 1 211 1 220 1 222 1 249 2 257 1 259 1 260 1 291 1 302 1 322 1 340 1 364 1 410 1 421 1 422 1 430 1 466 1 472 1 492 1 530 1 568 1 572 1 579 1 601 1 605 1 607 1 613 1 618 1 643 1 663 1 665 1 692 1 693 1 708 1 709 1 716 1 727 1 728 1 730 1 736 1 738 1 742 1 777 1 817 1 875 1 878 1 903 1 904 1 916 1 924 1 940 1 949 1 960 1 983 1 989 1 990 1 131 1 139 1 144 1 146 1 150 1 172 1 192 1 219 1 223 1 229 1 230 1 234 1 235 1 303 1 318 1 320 1 325 1 341 1 368 1 378 1 387 1 468 1 476 1 489 1 518 1 525 1 533 1 543 1 555 1 623 1 666 1 690 1 704 1 714 1 746 1 786 1 789 1 831 1 832 1 843 1 851 1 855 1 861 1 864 1 897 1 959 1 963 1 966 1 975 1 991 1 995 1 1012 1 1017 1 1019 1 
1 206 9 1 33 1 36 1 50 1 61 1 84 1 103 1 127 1 1 1 10 1 14 1 45 1 71 1 99 1 106 1 154 1 174 1 228 1 245 1 250 1 263 1 268 1 269 1 276 1 286 1 292 1 303 2 314 1 322 1 334 1 388 1 407 1 408 1 422 1 449 1 461 1 463 1 471 2 481 1 492 1 503 1 523 1 524 1 531 1 539 1 548 1 555 2 570 1 596 1 598 1 622 1 656 1 671 1 678 1 705 1 707 1 729 1 743 1 757 1 778 1 784 1 785 2 808 1 836 1 843 1 871 1 959 1 963 1 980 1 991 1 152 1 165 1 177 1 189 1 195 1 209 1 220 1 229 1 230 1 247 1 258 1 259 1 287 1 313 1 338 1 400 1 402 1 480 1 491 1 495 1 579 1 611 1 612 1 624 1 666 1 694 1 703 1 719 1 781 1 799 1 818 1 825 1 841 1 861 1 866 1 884 1 932 1 933 1 934 1 955 1 968 1 990 1 998 1 1007 1 1012 1 
1 213 7 1 16 1 19 1 39 1 48 1 58 1 64 1 4 1 29 1 76 1 98 1 137 1 147 1 178 1 179 1 184 1 186 1 204 1 209 1 243 1 313 1 368 1 374 1 380 2 384 1 393 1 402 1 417 1 456 1 458 1 472 1 481 1 529 1 536 1 539 2 555 1 575 1 576 1 582 1 663 1 670 1 677 1 700 1 735 1 748 1 754 1 756 1 758 1 800 1 812 1 813 1 829 1 853 2 859 1 864 1 878 1 893 1 897 1 917 1 919 1 951 1 988 1 135 1 217 1 239 1 248 1 254 1 275 1 284 1 331 1 335 1 343 1 356 1 377 1 383 1 412 1 435 1 449 1 474 1 475 1 504 1 508 1 510 1 525 1 534 1 594 1 628 1 632 1 646 1 656 1 658 1 664 1 672 1 688 1 720 1 722 1 731 1 747 1 753 1 771 1 777 1 781 1 788 1 797 1 802 1 836 1 843 1 876 1 895 1 924 1 925 1 940 1 1004 1 1012 1 1016 1 1017 1 1026 1 
1 207 23 1 108 1 119 1 120 1 122 1 18 1 41 1 47 1 65 1 66 1 79 1 91 1 143 1 195 2 196 1 278 1 286 1 287 1 289 1 305 1 321 1 357 1 370 2 380 2 381 1 404 1 416 1 431 1 449 1 469 1 508 2 513 1 519 1 541 1 546 1 611 1 621 1 640 1 642 1 684 1 687 1 720 1 744 1 757 2 784 1 786 1 886 1 893 1 908 1 946 1 962 1 966 1 974 1 999 1 134 1 141 1 149 1 151 1 152 1 157 1 166 1 171 1 186 1 191 1 234 1 235 1 271 1 281 1 296 1 299 1 312 1 320 1 344 1 392 1 396 1 400 1 455 1 459 1 462 1 490 1 524 1 530 1 539 1 545 1 562 1 567 1 571 1 600 1 602 1 620 1 624 1 625 1 631 1 648 1 653 1 657 1 661 1 665 1 727 1 800 1 802 1 807 1 847 1 860 1 894 1 909 1 920 1 972 1 985 1 1008 1 1012 1 1018 1 1019 1 1024 1 
1 212 21 1 61 1 67 1 94 1 105 1 112 1 6 1 13 1 41 1 49 1 95 1 108 1 127 1 133 1 188 1 197 1 230 1 242 1 259 1 284 1 337 1 349 1 365 1 383 1 384 1 431 1 436 1 485 1 488 1 493 1 526 1 533 2 543 1 545 1 569 1 575 1 593 1 600 1 661 1 666 1 708 1 726 1 764 1 779 1 793 1 806 1 878 1 905 1 909 1 920 1 942 1 943 1 953 1 965 1 149 1 192 1 196 1 198 1 205 1 220 1 224 1 231 1 233 1 263 1 265 1 289 1 295 1 303 1 310 1 348 1 356 1 357 1 370 1 394 1 418 1 439 1 441 1 456 1 458 1 473 1 490 1 497 1 503 1 535 1 554 1 559 1 565 1 589 1 597 1 619 1 634 1 656 1 741 1 758 1 766 1 780 1 809 1 825 1 873 1 933 1 969 1 981 1 997 1 1005 1 1014 1 1015 1 1021 1 1024 1 1025 1 
1 207 15 1 43 1 48 1 85 1 88 1 98 1 101 1 103 1 3 1 8 1 16 1 23 1 32 1 36 1 83 1 90 1 94 1 95 1 137 1 139 1 151 1 177 1 196 1 209 1 210 1 225 2 234 1 237 1 239 1 248 1 288 1 310 1 317 1 343 1 355 1 372 1 390 1 421 1 429 1 444 1 446 1 449 1 459 1 470 2 479 2 482 1 511 1 527 1 531 1 543 1 555 1 560 1 583 1 597 1 623 1 624 1 628 1 640 1 642 1 655 1 674 1 689 1 766 1 790 1 798 1 821 1 846 1 885 1 888 1 893 1 898 1 913 1 949 1 968 1 980 2 167 1 174 1 194 1 211 1 245 1 275 1 320 1 332 1 334 1 345 1 354 1 367 1 373 1 374 1 375 1 396 1 442 1 471 1 485 1 486 1 541 1 546 1 548 1 556 1 566 1 574 1 578 1 582 1 614 1 626 1 653 1 668 1 676 1 686 1 691 1 694 1 741 1 745 1 778 1 842 1 894 1 899 1 900 1 922 1 928 1 972 1 1018 1 1019 1 1026 1 
1 213 9 1 46 1 52 1 85 2 86 1 88 1 89 1 92 1 126 1 131 1 10 1 16 1 49 1 68 1 77 1 87 1 95 1 117 1 134 1 138 1 161 1 163 1 173 1 194 1 203 1 205 1 218 1 230 1 244 1 285 1 297 1 306 1 312 1 336 1 347 1 348 1 357 1 361 1 370 1 407 1 425 1 433 2 445 1 454 1 472 1 493 1 546 1 552 1 580 1 593 1 615 1 627 1 637 1 654 1 672 1 690 1 695 1 697 1 754 1 769 1 782 1 798 1 808 1 824 1 827 1 844 1 857 1 874 1 886 1 887 1 928 1 931 1 947 1 948 1 977 1 989 1 153 1 157 1 159 1 162 1 164 1 211 1 237 1 246 1 259 1 280 1 284 1 287 1 304 1 315 1 319 1 333 1 344 1 354 1 362 1 391 1 437 1 506 1 508 1 530 1 538 1 549 1 591 1 606 1 642 1 646 1 664 1 676 1 696 1 714 1 748 1 756 1 814 1 864 1 870 1 881 1 917 1 944 1 963 1 1006 1 1011 1 1023 1 
1 208 50 1 60 1 87 1 89 1 104 1 108 1 113 1 125 1 133 1 4 1 23 1 54 1 55 1 63 1 88 1 130 1 140 1 142 1 150 1 198 1 208 1 219 1 232 1 233 1 251 1 265 1 275 1 287 1 291 2 301 1 333 1 376 1 377 1 385 1 428 1 442 1 461 1 483 1 485 1 486 2 505 1 513 1 515 1 528 1 530 1 553 1 557 1 588 1 598 1 606 1 613 2 617 1 654 1 656 1 666 1 678 1 699 1 724 1 741 1 768 1 786 1 824 1 830 1 848 1 849 1 894 1 904 1 916 1 936 1 942 1 955 2 996 1 217 1 256 1 322 1 332 1 351 1 362 1 415 1 435 1 489 1 490 1 499 1 564 1 602 1 629 1 630 1 640 1 645 1 647 1 657 1 665 1 668 1 670 1 707 1 778 1 791 1 817 1 839 1 854 1 866 1 876 1 891 1 920 1 933 1 949 1 964 1 978 1 1005 1 1007 1 1009 1 1010 1 1013 1 
1 210 24 1 26 1 35 1 81 1 91 2 6 1 14 1 23 1 34 1 46 1 63 1 79 1 121 1 129 1 142 1 170 1 175 1 197 1 218 1 223 1 227 1 263 1 278 1 280 1 289 1 318 1 327 1 332 1 370 1 374 2 400 1 403 1 427 1 447 1 470 1 479 1 533 1 647 1 679 1 724 1 743 1 768 1 797 1 798 1 808 1 821 1 849 1 850 1 856 1 863 2 878 1 885 1 909 1 935 1 955 2 983 1 143 1 153 1 159 1 160 1 161 1 167 1 207 1 209 1 216 1 239 1 268 1 270 1 284 1 310 1 312 1 324 1 345 1 350 1 382 1 413 1 435 1 441 1 456 1 524 1 526 1 568 1 583 1 588 1 601 1 603 1 607 1 615 1 633 1 658 1 663 1 677 1 678 1 695 1 708 1 714 1 722 1 732 1 741 1 742 1 769 1 799 1 803 1 816 1 827 1 841 1 899 1 933 1 936 1 937 1 941 1 951 1 998 1 1000 1 1005 1 1008 1 1012 1 
1 213 7 1 24 1 37 1 45 1 47 1 78 1 82 1 86 1 89 1 83 1 95 1 99 1 103 1 142 1 147 1 150 1 154 1 175 1 190 1 195 1 210 1 232 2 236 1 237 1 260 1 267 1 271 1 279 1 300 1 317 2 328 1 340 1 349 1 361 2 369 1 445 2 489 1 496 1 504 1 524 1 535 1 543 1 547 1 553 1 558 1 566 2 571 1 590 1 610 1 628 1 636 1 639 1 640 1 674 1 729 1 736 1 739 1 765 1 769 1 787 1 791 1 795 1 802 1 840 1 841 1 845 1 875 1 880 1 883 1 912 1 916 1 924 1 925 1 929 1 943 1 968 1 980 1 137 1 161 1 179 1 198 1 202 1 216 1 224 1 228 1 243 1 247 1 257 1 299 1 343 1 355 1 356 1 365 1 375 1 376 1 419 1 470 1 472 1 493 1 494 1 533 1 541 1 545 1 577 1 586 1 597 1 599 1 611 1 649 1 693 1 707 1 753 1 789 1 810 1 833 1 836 1 853 1 860 1 872 1 898 1 903 1 959 1 982 1 987 1 989 1 997 1 1003 1 1009 1 1024 1 1025 1 
1 211 13 1 49 1 53 1 71 1 78 1 129 1 132 1 18 1 46 1 51 1 65 1 70 1 76 1 83 1 84 1 91 1 124 1 125 1 136 1 164 1 167 1 169 1 220 1 262 1 293 1 315 1 329 1 341 1 345 1 370 1 373 2 380 1 414 1 431 1 442 1 449 1 477 1 500 1 519 1 522 2 542 1 551 1 561 1 591 1 594 1 597 2 618 1 678 1 721 2 736 1 759 1 773 1 786 2 794 1 796 1 813 1 831 1 859 1 914 1 922 1 932 1 959 1 973 1 141 1 154 1 170 1 173 1 179 1 191 1 195 1 202 1 227 1 246 1 280 1 300 1 301 1 326 1 390 1 447 1 463 1 474 1 484 1 523 1 525 1 529 1 532 1 568 1 579 1 582 1 595 1 611 1 620 1 653 1 656 1 690 1 712 1 739 1 747 1 767 1 787 1 797 1 819 1 826 1 845 1 935 1 938 1 948 1 955 1 956 1 960 1 963 1 967 1 987 1 1007 1 1020 1 1021 1 
1 206 10 1 27 1 113 1 123 1 133 1 35 1 46 1 50 1 51 1 75 1 99 1 103 1 107 1 148 1 155 1 194 1 223 1 241 1 263 1 285 1 322 1 328 1 337 1 357 1 360 1 386 1 470 1 480 1 495 1 498 1 514 1 529 1 562 1 580 1 582 1 591 1 607 1 616 1 620 1 625 1 636 1 641 1 686 1 687 1 708 2 712 1 727 1 728 2 734 1 736 1 746 1 771 1 774 1 781 1 784 1 793 1 808 2 826 2 828 1 843 1 846 1 857 1 870 2 880 2 889 1 902 1 920 1 927 2 930 1 959 1 979 1 142 1 143 1 154 1 205 1 213 1 242 1 252 1 282 1 290 1 299 1 308 1 339 1 382 1 436 1 439 1 444 1 450 1 456 1 500 1 503 1 541 1 592 1 602 1 648 1 677 1 713 1 773 1 783 1 817 1 822 1 865 1 887 1 954 1 960 1 995 1 1000 1 1015 1 1017 1 1027 1 
1 211 72 1 86 1 103 1 132 1 32 1 48 1 127 1 144 1 161 1 178 1 203 1 208 1 216 1 222 1 236 1 237 1 246 1 257 1 268 2 277 1 286 1 306 1 310 1 325 1 339 1 347 1 353 1 366 1 373 1 384 1 388 1 397 1 456 1 487 1 492 1 542 1 555 1 561 1 572 1 578 1 586 2 616 1 680 1 681 1 736 1 741 1 784 1 800 1 813 1 869 1 916 1 917 1 941 2 958 1 962 1 972 1 1000 1 141 1 159 1 221 1 238 1 256 1 265 1 269 1 288 1 296 1 314 1 334 1 346 1 382 1 394 1 414 1 422 1 430 1 450 1 452 1 466 1 470 1 473 1 520 1 530 1 539 1 544 1 570 1 600 1 691 1 700 1 702 1 729 1 737 1 752 1 753 1 754 1 775 1 785 1 793 1 794 1 799 1 802 1 823 1 839 1 847 1 848 1 875 1 900 1 914 1 919 1 934 1 948 1 949 1 1005 1 1010 1 
1 209 3 1 28 1 30 1 32 1 39 2 83 1 100 1 106 1 134 1 4 1 11 1 37 1 49 1 53 1 61 1 72 1 74 1 77 1 84 1 92 1 112 1 120 1 146 1 159 1 173 1 187 1 219 1 228 1 251 1 254 1 261 1 281 1 308 1 330 1 355 1 360 1 368 1 392 1 402 1 410 1 418 1 426 1 452 1 475 1 525 2 533 1 551 1 556 1 567 2 620 1 654 1 680 1 722 1 723 1 738 1 740 1 743 2 780 1 788 1 789 1 799 1 801 1 803 1 847 1 848 1 849 1 862 1 870 1 877 1 891 1 961 1 984 1 166 1 168 1 172 1 182 1 185 1 189 1 212 1 217 1 226 1 247 1 250 1 274 1 283 1 304 1 315 1 334 1 348 1 358 1 393 1 403 1 412 1 457 1 499 1 530 1 545 1 558 1 596 1 607 1 622 1 632 1 669 1 674 1 687 1 689 1 692 1 711 1 763 1 808 1 816 1 819 1 831 1 835 1 875 1 888 1 892 1 915 1 918 1 926 1 947 1 969 1 995 1 996 1 1007 1 1019 1 
1 210 7 1 52 1 56 1 73 1 82 1 92 1 107 1 116 1 126 1 4 1 5 1 13 1 38 1 66 1 114 1 130 1 137 1 139 1 170 1 176 1 180 1 205 1 230 2 233 1 250 1 276 1 321 1 359 1 379 1 422 1 443 2 462 1 466 1 469 1 489 2 503 1 532 1 551 1 557 1 575 1 577 1 616 1 650 1 670 1 677 1 683 1 691 1 696 1 728 1 733 2 738 1 765 1 782 1 800 1 818 1 853 1 875 1 878 1 879 1 906 1 911 1 926 1 929 1 932 1 977 1 167 1 182 1 188 1 225 1 231 1 257 1 261 1 272 1 291 1 296 1 307 1 311 1 312 1 332 1 339 1 351 1 363 1 405 1 412 1 430 1 435 1 447 1 491 1 512 1 563 1 601 1 605 1 624 1 625 1 657 1 663 1 681 1 721 1 725 1 752 1 757 1 778 1 824 1 840 1 849 1 876 1 887 1 913 1 937 1 941 1 961 1 980 1 984 1 986 1 988 1 999 1 1018 1 
1 209 4 1 31 2 43 1 47 1 56 1 65 1 98 1 116 1 134 1 135 1 136 1 66 1 121 1 138 1 153 1 164 1 187 1 200 1 216 1 232 1 240 1 254 1 271 1 274 1 295 1 301 1 313 1 318 1 343 1 345 1 346 1 348 1 354 1 404 1 421 1 444 2 447 1 456 1 478 1 495 2 500 1 504 1 600 1 613 1 661 1 662 1 668 1 678 1 727 2 785 1 797 1 803 1 808 1 821 1 824 1 833 1 835 1 869 1 882 1 887 1 889 1 901 1 929 1 981 1 988 1 995 1 999 1 149 1 163 1 166 1 178 1 179 1 212 1 227 1 233 1 236 1 258 1 275 1 324 1 351 1 352 1 393 1 411 1 424 1 425 1 454 1 476 1 512 1 514 1 529 1 541 1 597 1 628 1 645 1 648 1 713 1 715 1 721 1 735 1 757 1 764 1 784 1 817 1 832 1 873 1 915 1 939 1 957 1 972 1 989 1 1001 1 1006 1 1016 1 
1 210 3 1 20 1 26 1 28 1 44 1 104 1 113 1 130 1 24 1 35 1 51 1 82 1 110 1 112 1 135 1 138 1 157 1 169 1 175 1 182 1 184 1 209 1 229 1 237 1 256 1 265 1 287 1 292 1 331 1 345 1 356 1 358 1 371 1 387 1 398 1 423 1 427 1 454 1 469 1 491 1 531 1 533 1 543 1 571 1 616 1 617 1 666 1 696 1 698 1 705 2 711 1 718 1 722 1 727 1 728 1 742 1 748 1 760 1 763 2 792 1 839 1 853 1 859 1 909 1 916 1 969 1 978 1 984 1 144 1 183 1 193 1 203 1 204 1 221 1 234 1 252 1 282 1 314 1 410 1 444 1 448 1 465 1 512 1 522 1 524 1 551 1 554 1 582 1 598 1 604 1 618 1 663 1 697 1 699 1 709 1 726 1 743 1 744 1 755 1 757 1 765 1 768 1 777 1 795 1 805 1 814 1 836 1 845 1 851 1 879 1 915 1 922 1 929 1 958 1 973 1 1012 1 1025 1 
1 211 12 1 36 1 56 1 87 1 120 1 122 1 139 1 25 1 28 1 38 1 42 1 72 1 88 1 99 1 100 1 105 1 127 1 143 1 209 1 227 1 244 1 252 1 256 2 259 2 273 1 280 1 282 1 308 1 322 1 338 1 341 2 350 1 370 1 419 1 423 1 432 1 463 1 498 1 506 1 558 1 559 1 566 1 622 1 637 1 638 1 640 1 660 1 665 1 678 1 740 1 752 2 761 1 797 1 798 1 818 1 847 2 848 1 877 1 903 1 915 1 916 1 920 1 968 1 165 1 190 1 202 1 203 1 210 1 229 1 232 1 242 1 247 1 255 1 257 1 260 1 266 1 276 1 289 1 313 1 324 1 329 1 336 1 353 1 365 1 368 1 408 1 411 1 448 1 453 1 471 1 504 1 647 1 656 1 667 1 675 1 685 1 722 1 736 1 762 1 766 1 801 1 807 1 815 1 837 1 887 1 914 1 925 1 935 1 943 1 954 1 970 1 989 1 1008 1 1011 1 1026 1 
1 210 10 1 29 1 50 1 72 1 87 1 99 1 111 1 1 1 3 1 5 1 27 1 125 1 152 1 181 1 202 1 211 1 282 1 289 1 292 1 301 1 323 1 335 1 336 1 337 2 346 1 348 1 356 1 367 1 370 1 385 1 408 1 419 1 472 1 473 1 482 1 496 1 520 1 521 1 547 1 549 1 564 1 595 1 610 1 611 1 617 1 636 1 639 1 649 1 656 1 668 1 679 1 704 1 705 1 709 1 732 1 757 1 771 1 780 1 785 1 791 1 815 1 831 1 845 1 878 1 888 1 900 1 919 1 996 1 160 1 174 1 190 1 191 1 204 1 210 1 212 1 236 1 252 1 271 1 279 1 307 1 355 1 450 1 477 1 483 1 505 1 523 1 554 1 560 1 574 1 585 1 594 1 631 1 701 1 737 1 760 1 761 1 775 1 779 1 806 1 822 1 834 1 840 1 854 1 857 1 889 1 890 1 896 1 922 1 924 1 963 1 981 1 993 1 1013 1 1024 1 
1 213 15 1 20 1 21 1 27 1 29 1 36 1 54 1 86 1 104 1 140 1 5 1 31 1 45 1 59 1 62 1 63 1 64 1 94 1 111 1 126 1 127 1 167 1 187 1 204 1 215 1 234 1 246 1 306 1 363 1 369 1 373 1 379 1 394 1 410 1 412 1 414 1 438 1 474 1 496 2 497 1 529 1 562 2 574 1 580 1 584 1 612 1 617 1 633 1 645 1 655 1 670 1 701 1 710 1 734 1 739 1 860 1 866 1 872 1 878 1 943 1 954 2 962 1 986 1 995 1 160 1 189 1 195 1 207 1 212 1 219 1 253 1 258 1 262 1 265 1 266 1 286 1 289 1 321 1 327 1 357 1 375 1 399 1 425 1 472 1 475 1 507 1 530 1 533 1 534 1 548 1 587 1 601 1 604 1 618 1 680 1 694 1 700 1 711 1 713 1 719 1 721 1 726 1 747 1 758 1 822 1 830 1 845 1 851 1 861 1 871 1 880 1 881 1 917 1 920 1 963 1 970 1 1001 1 1008 1 1012 1 1015 1 1018 1 1019 1 
1 207 3 1 4 1 10 1 18 1 47 1 52 1 87 1 129 1 136 1 15 1 19 1 20 1 40 1 49 1 58 1 72 1 94 1 100 1 104 1 180 1 183 1 188 1 191 1 263 1 265 1 277 1 299 1 315 1 320 1 322 2 325 1 331 1 336 1 355 1 358 1 360 1 452 1 463 1 483 1 486 1 488 1 494 2 509 1 511 1 514 1 537 1 554 1 558 1 562 1 576 1 609 1 661 1 687 1 700 1 706 1 712 1 717 1 732 2 748 1 807 1 824 1 839 1 842 1 851 1 867 1 889 1 893 1 922 1 927 1 928 1 929 1 948 2 981 1 986 1 998 1 177 1 184 1 210 1 215 1 249 1 304 1 319 1 384 1 398 1 415 1 461 1 468 1 476 1 543 1 552 1 556 1 573 1 645 1 647 1 649 1 656 1 677 1 680 1 703 1 729 1 754 1 762 1 782 1 786 1 794 1 801 1 805 1 808 1 810 1 811 1 815 1 826 1 829 1 868 1 876 1 881 1 894 1 962 1 1004 1 1020 1 1025 1 
1 208 3 1 19 1 20 1 22 1 43 1 55 1 63 1 70 1 72 1 75 1 76 1 113 1 123 1 138 1 8 1 11 1 28 1 35 1 79 1 93 1 102 1 105 1 148 1 148 1 158 1 173 1 205 1 222 1 230 1 243 1 247 1 255 1 260 1 261 1 298 1 302 2 316 1 342 1 361 1 365 1 397 1 406 1 409 1 413 1 427 1 449 1 468 1 477 1 499 2 506 1 519 1 538 1 567 1 576 2 591 1 613 1 616 1 621 1 622 1 656 1 699 1 731 1 749 1 757 1 778 1 787 1 793 1 795 1 833 1 834 1 861 1 892 1 906 1 908 1 915 1 916 1 1002 1 153 1 179 1 202 1 231 1 270 1 284 1 299 1 303 1 312 1 324 1 353 1 374 1 441 1 451 1 455 1 498 1 540 1 566 1 580 1 584 1 603 1 639 1 643 1 696 1 703 1 710 1 730 1 739 1 753 1 818 1 828 1 879 1 880 1 909 1 911 1 920 1 934 1 966 1 972 1 984 1 987 1 990 1 1000 1 1003 1 1012 1 1027 1 
1 212 3 1 7 1 77 1 81 1 94 1 98 1 110 1 119 1 4 1 51 1 76 1 83 1 130 1 131 1 142 1 213 1 222 1 280 1 294 1 312 1 332 1 345 1 354 1 357 1 361 1 374 1 409 1 423 1 439 1 452 1 472 1 492 1 497 1 511 2 517 1 534 1 551 1 577 1 578 1 580 1 591 1 596 1 603 1 670 1 671 1 676 1 686 1 688 1 696 1 702 1 703 1 704 1 713 1 714 1 739 1 745 1 773 1 789 1 794 1 811 1 833 1 835 1 923 1 927 1 945 1 967 2 976 1 996 1 1001 1 160 1 189 1 197 1 202 1 231 1 233 1 246 1 247 1 270 1 308 1 309 1 314 1 341 1 383 1 384 1 389 1 391 1 402 1 421 1 446 1 470 1 489 1 491 1 504 1 549 1 568 1 575 1 584 1 601 1 604 1 614 1 628 1 637 1 645 1 648 1 681 1 708 1 720 1 753 1 770 1 819 1 826 1 842 1 846 1 897 1 907 1 912 1 931 1 950 1 957 1 958 1 997 1 998 1 1003 1 1005 1 1011 1 1015 1 1021 1 
1 211 6 2 35 1 86 1 87 1 93 1 100 1 103 2 104 1 134 1 136 1 12 1 13 1 127 1 155 1 158 1 166 1 184 1 206 1 222 1 226 1 234 1 239 1 251 1 286 1 299 1 348 1 377 1 402 1 427 1 474 1 483 1 504 1 510 1 560 1 579 1 581 1 587 1 591 1 602 1 603 1 617 1 655 1 660 1 676 2 725 1 762 1 795 1 796 1 836 1 838 1 857 1 859 1 930 1 936 1 943 2 960 1 164 1 173 1 179 1 197 1 246 1 253 1 257 1 281 1 304 1 314 1 334 1 336 1 370 1 401 1 408 1 424 1 430 1 455 1 460 1 472 1 473 1 517 1 531 1 536 1 543 1 578 1 609 1 662 1 691 1 701 1 727 1 730 1 732 1 771 1 797 1 827 1 852 1 870 1 899 1 906 1 937 1 971 1 988 1 992 1 994 1 1004 1 1006 1 1014 1 
1 212 3 1 14 1 15 2 32 1 38 1 51 1 57 1 79 1 81 1 98 1 132 1 4 1 24 1 25 1 44 1 47 1 64 1 101 1 121 1 130 1 161 1 190 1 195 1 214 1 270 2 279 1 287 1 292 1 299 1 303 1 335 1 356 1 360 1 371 1 372 1 393 1 394 1 407 1 427 1 527 1 540 1 545 1 578 1 589 1 611 1 615 1 647 1 655 1 712 1 714 1 746 1 780 1 784 1 785 2 794 1 831 1 843 1 845 2 899 1 926 2 967 1 975 1 980 1 994 1 995 1 157 1 171 1 188 1 207 1 211 1 227 1 359 1 373 1 410 1 445 1 477 1 481 1 494 1 522 1 538 1 577 1 593 1 599 1 600 1 627 1 630 1 644 1 663 1 667 1 678 1 710 1 748 1 749 1 792 1 804 1 820 1 832 1 834 1 844 1 858 1 882 1 885 1 888 1 942 1 1000 1 1003 1 1005 1 1017 1 1026 1 
1 209 2 1 68 1 70 1 90 1 104 1 145 1 76 1 85 1 106 1 128 1 130 1 158 1 159 1 160 1 193 1 211 1 222 1 240 1 241 2 243 1 306 1 318 1 346 1 347 1 369 1 416 1 423 1 480 1 481 1 486 1 558 2 591 2 596 1 613 1 623 1 628 1 642 1 652 1 657 1 659 1 679 1 725 1 727 1 754 1 765 1 766 1 767 1 785 1 807 1 810 1 828 1 829 1 839 1 842 1 849 1 865 1 873 1 874 1 875 1 881 1 902 1 903 1 908 1 916 2 928 1 939 1 944 1 955 1 962 1 976 2 978 1 983 1 997 1 156 1 171 1 224 1 247 1 262 1 273 1 293 1 322 1 365 1 370 1 412 1 462 1 476 1 489 1 503 1 509 1 526 1 548 1 577 1 578 1 597 1 605 1 616 1 622 1 649 1 666 1 675 1 696 1 712 1 743 1 745 1 747 1 790 1 797 1 816 1 851 1 870 1 919 1 940 1 950 1 951 1 1017 1 
1 210 13 1 38 1 40 1 57 1 90 1 99 1 104 1 142 1 17 1 28 1 30 1 56 1 87 1 98 1 105 1 133 1 135 1 148 1 165 1 214 1 239 1 243 1 245 1 256 1 260 1 282 1 311 1 349 1 382 1 402 1 417 1 423 1 455 1 458 1 491 1 492 1 500 1 526 1 536 1 556 1 594 2 615 1 644 1 694 1 744 1 774 1 794 1 802 1 833 1 834 1 855 1 868 1 872 1 895 1 903 1 932 1 962 1 976 1 978 1 982 1 987 1 1000 1 167 1 169 1 181 1 182 1 192 1 196 1 202 1 219 1 226 1 236 1 259 1 274 1 286 1 289 1 291 1 312 1 322 1 344 1 360 1 397 1 433 1 474 1 476 1 484 1 494 1 497 1 518 1 537 1 572 1 608 1 611 1 636 1 646 1 700 1 725 1 730 1 736 1 777 1 793 1 811 1 815 1 826 1 827 1 844 1 943 1 947 1 952 1 956 1 1002 1 1004 1 1006 1 1014 1 1020 1 1022 1 
1 216 13 1 26 1 89 1 91 1 93 1 100 1 108 1 112 1 128 1 136 1 43 1 61 1 63 1 74 1 137 1 138 1 158 2 182 1 208 1 217 1 246 1 272 1 297 1 304 1 313 1 321 1 336 1 341 1 342 1 344 1 345 1 362 1 385 1 396 1 403 1 412 1 472 1 507 1 519 1 532 1 543 1 546 2 547 1 581 1 641 1 660 1 666 1 699 1 700 1 715 1 734 1 751 1 763 1 773 1 778 1 792 1 822 1 830 1 859 1 884 1 904 2 908 1 918 1 922 1 925 1 946 1 950 1 969 1 986 1 998 1 999 1 1000 1 165 1 191 1 199 1 203 1 227 1 314 1 334 1 335 1 358 1 366 1 373 1 378 1 379 1 417 1 445 1 459 1 469 1 496 1 521 1 565 1 590 1 607 1 612 1 624 1 629 1 635 1 636 1 665 1 673 1 724 1 735 1 761 1 806 1 814 1 829 1 832 1 842 1 843 1 869 1 887 1 893 1 910 1 917 1 944 1 981 1 1005 1 1007 1 1015 1 1016 1 1018 1 1020 1 
1 209 18 1 21 1 28 1 30 1 34 1 45 1 73 1 78 1 80 1 84 1 91 1 121 1 138 1 150 1 5 1 15 1 46 1 86 1 87 1 118 1 119 1 160 1 162 1 181 1 222 1 224 1 251 1 289 1 294 1 322 1 328 1 385 1 411 1 444 1 454 1 466 1 512 1 519 1 525 2 546 1 571 1 576 1 589 1 591 1 602 1 621 1 631 1 643 1 654 1 675 1 694 1 699 1 722 1 731 1 742 1 756 1 774 1 780 1 783 1 829 1 862 1 863 1 913 1 915 1 920 1 938 1 951 1 956 1 961 1 987 1 157 1 164 1 175 1 180 1 183 1 196 1 218 1 235 1 239 1 244 1 258 1 274 1 277 1 316 1 361 1 364 1 367 1 376 1 377 1 406 1 410 1 419 1 423 1 441 1 448 1 477 1 518 1 536 1 542 1 548 1 559 1 570 1 590 1 614 1 624 1 640 1 673 1 689 1 716 1 741 1 746 1 766 1 844 1 888 1 896 1 900 1 909 1 918 1 919 1 931 1 940 1 969 1 990 1 1001 1 1004 1 1016 1 1022 1 1024 1 
1 214 4 1 5 1 34 1 42 1 53 1 58 1 76 1 85 1 104 2 107 1 116 1 13 1 19 1 26 1 31 1 40 1 92 1 98 1 114 1 125 1 152 1 158 1 195 1 207 1 219 1 259 1 290 1 336 1 346 1 379 1 386 2 395 1 417 1 460 2 480 1 490 1 508 1 529 1 554 1 594 2 623 1 659 1 663 1 664 1 675 1 692 1 694 1 707 1 715 1 719 1 725 1 759 1 761 1 767 1 776 1 792 1 810 1 815 1 816 1 821 1 842 1 868 1 915 1 942 1 988 1 992 1 997 1 166 1 173 1 191 1 208 1 293 1 300 1 307 1 316 1 318 1 320 1 343 1 347 1 370 1 374 1 433 1 434 1 445 1 450 1 473 1 486 1 541 1 546 1 581 1 621 1 654 1 657 1 733 1 740 1 760 1 784 1 804 1 846 1 871 1 874 1 878 1 881 1 929 1 931 1 939 1 957 1 964 1 982 1 998 1 1003 1 1019 1 1024 1 
1 208 3 1 10 2 59 1 90 1 114 1 143 1 11 1 23 1 82 1 95 1 102 1 130 1 133 1 151 1 155 1 163 1 182 1 190 1 194 1 211 1 218 1 220 1 225 1 241 1 254 1 300 1 306 1 309 1 321 1 322 1 325 1 356 1 367 1 373 1 380 1 397 1 423 1 435 1 438 1 451 1 455 1 471 1 499 1 541 1 565 1 583 1 585 1 612 1 616 2 617 1 636 1 658 1 665 1 666 1 667 1 673 1 688 1 748 1 766 1 781 1 802 1 829 1 863 1 884 1 923 1 970 2 975 1 187 1 206 1 209 1 229 1 243 1 253 1 311 1 315 1 317 1 326 1 338 1 353 1 362 1 425 1 429 1 432 1 464 1 480 1 532 1 567 1 589 1 603 1 629 1 631 1 677 1 691 1 706 1 710 1 718 1 753 1 764 1 770 1 771 1 785 1 801 1 826 1 833 1 834 1 856 1 857 1 862 1 866 1 896 1 899 1 919 1 926 1 962 1 981 1 982 1 996 1 1006 1 1015 1 1019 1 1023 1 
1 205 27 1 70 1 71 1 148 1 150 1 152 1 154 2 156 1 7 1 22 1 26 1 32 1 56 1 95 1 104 1 110 1 113 1 118 1 207 1 223 1 229 1 233 1 234 1 279 1 328 1 342 1 354 1 355 1 362 1 379 1 412 1 418 1 445 1 447 1 500 1 501 1 507 1 540 1 585 1 613 1 661 1 680 1 712 1 713 1 738 1 793 1 804 1 815 1 844 1 867 1 870 1 873 1 904 1 916 1 950 1 955 1 987 1 216 1 220 1 238 1 239 1 243 1 265 1 270 1 275 1 277 1 286 1 291 1 309 1 329 1 334 1 339 1 341 1 343 1 370 1 376 1 400 1 408 1 420 1 428 1 458 1 480 1 502 1 508 1 519 1 552 1 569 1 580 1 624 1 628 1 683 1 708 1 745 1 764 1 807 1 810 1 817 1 827 1 830 1 832 1 854 1 861 1 887 1 895 1 914 1 946 1 962 1 975 1 1004 1 
1 207 1 2 27 1 70 1 76 1 104 2 106 1 121 1 140 1 152 1 6 1 10 1 24 1 35 1 55 1 79 1 99 1 101 1 114 1 133 1 135 1 139 1 164 1 182 1 203 1 217 1 224 1 233 1 247 1 248 1 279 1 283 1 287 2 364 1 368 1 378 1 430 1 447 1 456 1 461 1 462 2 478 1 516 1 517 1 538 1 556 1 566 1 567 1 577 1 605 1 608 1 610 1 666 1 674 1 708 1 718 1 741 1 742 1 751 1 755 1 802 1 804 1 819 1 828 1 875 1 879 1 896 1 908 1 914 1 936 1 943 1 1002 1 201 1 235 1 241 1 258 1 263 1 267 1 274 1 295 1 315 1 343 1 351 1 396 1 465 1 479 1 485 1 506 1 512 1 514 1 580 1 628 1 634 1 636 1 652 1 684 1 686 1 717 1 761 1 762 1 777 1 787 1 825 1 838 1 861 1 892 1 909 1 910 1 911 1 931 1 944 1 963 1 994 1 1003 1 1017 1 1022 1 
1 214 34 1 48 1 59 1 62 1 76 1 82 1 152 1 155 1 2 1 12 1 20 1 29 1 40 1 68 1 96 1 98 1 107 1 126 1 135 1 145 1 146 1 149 1 170 1 172 1 175 1 196 1 207 1 211 1 237 1 248 1 264 1 290 1 298 1 302 1 335 1 342 1 344 1 381 1 406 1 409 2 450 1 495 1 527 1 532 1 541 1 546 1 562 1 568 1 569 2 583 1 618 1 625 1 626 1 627 1 636 1 683 1 729 1 732 1 740 1 860 1 861 1 871 1 885 2 898 2 908 1 939 1 943 1 948 1 953 1 991 1 992 1 993 1 995 1 163 1 181 1 202 1 216 1 220 1 223 1 232 1 258 1 260 1 271 1 292 1 321 1 324 1 359 1 374 1 378 1 392 1 407 1 436 1 442 1 499 1 526 1 530 1 548 1 550 1 584 1 595 1 623 1 631 1 647 1 656 1 666 1 667 1 710 1 724 1 728 1 733 1 734 1 752 1 765 1 766 1 799 1 813 1 823 1 851 1 915 1 923 1 951 1 962 1 974 1 982 1 1003 1 1005 1 1007 1 1009 1 1011 1 1017 1 1024 1 
1 209 7 1 26 1 40 1 49 1 53 1 72 1 92 1 93 1 96 1 110 1 133 1 139 1 151 1 2 1 29 1 55 1 135 1 136 1 214 1 260 1 271 1 274 1 295 1 296 1 311 1 317 1 319 1 327 1 387 1 397 1 409 1 418 1 438 1 440 1 468 1 507 1 526 1 533 1 535 1 543 1 585 1 591 1 597 1 598 1 628 1 644 1 653 1 663 1 697 1 698 1 699 1 746 2 748 1 760 1 762 1 767 1 782 1 791 1 869 1 880 1 906 1 912 1 914 1 920 1 927 1 973 1 164 1 172 1 187 1 194 1 198 1 238 1 263 1 320 1 326 1 396 1 408 1 421 1 454 1 465 1 469 1 553 1 565 1 576 1 579 1 580 1 611 1 627 1 630 1 656 1 729 1 766 1 773 1 777 1 780 1 792 1 797 1 813 1 821 1 860 1 893 1 905 1 910 1 918 1 946 1 952 1 972 1 976 1 1024 1 
1 205 51 1 60 1 64 1 66 1 76 1 77 1 81 1 84 1 92 1 103 1 155 1 26 1 52 1 69 1 91 1 133 1 168 1 200 1 212 1 238 2 256 1 269 1 276 1 289 1 295 1 299 2 361 1 368 1 376 1 379 1 410 1 437 1 445 1 446 1 449 1 465 1 510 1 557 1 569 1 581 1 621 2 640 1 666 1 667 1 683 1 686 1 696 1 701 1 722 1 732 1 796 1 802 1 806 1 812 1 829 1 840 1 855 1 856 1 862 1 898 1 918 1 919 1 970 2 996 1 225 1 273 1 282 1 283 1 286 1 300 1 306 1 338 1 339 1 341 1 358 1 381 1 393 1 398 1 400 1 431 1 448 1 504 1 506 1 544 1 551 1 560 1 598 1 624 1 634 1 670 1 702 1 706 1 748 1 757 1 783 1 793 1 801 1 835 1 874 1 910 1 946 1 974 1 990 1 1002 1 1008 1 1014 1 1027 1 
1 209 3 1 39 1 53 1 66 1 100 1 104 1 120 1 133 1 157 1 5 1 16 1 36 1 52 1 61 1 69 1 94 1 95 1 102 1 123 1 126 1 142 1 160 1 178 1 200 1 209 1 213 1 258 1 296 1 309 1 325 1 329 1 338 1 339 1 343 1 380 1 385 1 398 1 402 1 454 1 481 1 502 1 524 1 544 1 550 1 557 1 576 1 595 1 612 1 644 1 646 1 685 1 751 1 762 2 774 2 779 2 789 1 803 1 806 1 812 1 839 1 857 1 907 1 934 1 955 1 982 1 174 1 191 1 202 1 222 1 251 1 261 1 288 1 310 1 319 1 323 1 331 1 333 1 359 1 389 1 395 1 401 1 412 1 423 1 425 1 472 1 482 1 493 1 523 1 530 1 574 1 631 1 670 1 673 1 690 1 711 1 716 1 719 1 721 1 770 1 786 1 798 1 823 1 827 1 847 1 867 1 908 1 926 1 960 1 968 1 980 1 983 1 1014 1 1018 1 1020 1 
1 206 5 1 7 1 28 1 30 2 35 2 42 1 71 1 103 1 122 1 137 1 142 1 159 1 18 1 34 1 39 1 49 1 60 1 69 1 72 1 106 1 108 1 121 1 124 1 133 1 150 1 155 1 161 1 186 1 191 1 208 2 220 1 242 1 244 1 246 1 264 1 280 1 289 1 330 1 357 1 360 1 369 1 410 1 417 1 427 1 429 1 440 1 462 1 463 1 465 1 491 1 496 1 503 1 513 1 521 1 526 1 537 1 554 1 583 1 597 1 607 1 627 2 629 1 632 1 657 1 682 1 687 1 689 1 697 1 698 1 737 1 753 1 763 1 804 2 827 1 848 1 863 1 870 1 905 1 909 1 911 1 924 1 937 1 947 1 954 1 966 1 987 1 996 1 205 1 230 1 240 1 241 1 253 1 272 1 279 1 291 1 337 1 340 1 370 1 376 1 404 1 422 1 446 1 453 1 468 1 486 1 518 1 543 1 558 1 573 1 576 1 587 1 598 1 606 1 618 1 646 1 679 1 688 1 708 1 743 1 747 1 760 1 766 1 771 1 786 1 829 1 854 1 866 1 868 1 878 1 938 1 952 1 974 1 980 1 992 1 998 1 1014 1 1019 1 
1 207 16 2 21 1 24 1 58 1 89 1 105 1 153 1 5 1 8 1 9 1 12 1 61 1 78 1 82 1 106 1 123 1 126 1 128 1 144 1 154 1 171 1 183 1 187 1 193 1 211 1 214 2 276 1 289 1 299 1 308 1 333 1 371 1 373 1 415 1 417 1 426 1 427 1 438 1 447 1 452 1 460 2 465 1 488 1 513 1 516 2 529 1 557 1 561 1 569 2 574 1 586 1 595 1 609 1 657 1 665 1 674 1 685 1 687 1 703 2 707 1 708 1 716 1 731 1 735 1 738 1 739 1 762 1 769 1 812 1 815 1 830 1 842 1 849 1 852 1 870 1 891 1 906 1 911 1 917 1 919 1 935 1 959 1 960 1 967 2 976 1 977 1 988 1 990 1 204 1 234 1 247 1 253 1 287 1 292 1 339 1 342 1 350 1 361 1 380 1 424 1 432 1 507 1 528 1 548 1 603 1 616 1 623 1 633 1 635 1 645 1 652 1 659 1 671 1 679 1 696 1 718 1 726 1 728 1 751 1 756 1 772 1 780 1 817 1 828 1 840 1 858 1 866 1 888 1 899 1 924 1 934 1 
1 210 49 1 57 1 63 1 73 1 150 1 3 1 13 1 20 1 21 1 59 1 61 1 65 1 74 1 77 1 79 1 130 1 140 1 142 1 156 1 191 1 202 1 308 1 309 1 312 1 352 1 362 1 367 1 451 1 462 1 535 1 560 1 567 1 573 1 588 1 598 1 624 2 654 1 667 1 679 1 686 1 689 1 694 2 700 2 708 1 716 1 730 1 738 1 795 1 801 1 809 1 823 1 833 2 838 1 856 1 873 1 919 1 929 1 933 1 946 1 960 2 970 1 990 1 169 1 175 1 182 1 217 1 226 1 229 1 241 1 245 1 266 1 269 1 311 1 319 1 341 1 347 1 366 1 373 1 381 1 384 1 402 1 409 1 477 1 495 1 517 1 519 1 546 1 547 1 580 1 601 1 603 1 604 1 620 1 637 1 672 1 684 1 698 1 703 1 707 1 721 1 722 1 753 1 770 1 779 1 783 1 798 1 822 1 847 1 850 1 851 1 867 1 903 1 905 1 916 1 930 1 989 1 1003 1 
1 210 10 1 63 1 67 1 98 1 102 1 121 1 137 1 146 1 40 1 47 1 65 1 71 1 73 1 107 1 112 1 115 1 132 1 135 1 141 1 153 1 202 1 208 1 247 1 260 1 281 1 283 1 312 1 326 2 333 1 343 1 353 1 366 1 378 1 405 1 418 1 444 1 455 1 457 1 489 1 491 1 493 1 515 1 521 1 523 1 529 1 538 1 574 1 579 1 591 1 606 1 610 1 625 1 633 1 639 1 684 2 694 1 715 1 734 1 741 1 743 1 745 1 781 1 808 1 814 1 818 1 847 1 862 1 874 1 889 1 903 1 904 1 967 1 996 2 997 1 170 1 178 1 184 1 212 1 284 1 305 1 352 1 356 1 370 1 408 1 417 1 431 1 438 1 472 1 486 1 518 1 531 1 535 1 578 1 587 1 588 1 595 1 601 1 612 1 613 1 647 1 654 1 661 1 774 1 805 1 819 1 831 1 835 1 843 1 851 1 855 1 863 1 872 1 875 1 876 1 905 1 911 1 954 1 962 1 984 1 1014 1 1027 1 
1 209 13 1 33 1 38 1 44 1 80 1 162 1 3 1 25 1 49 1 63 1 64 1 96 1 113 1 118 1 120 1 140 1 181 1 208 1 235 1 243 1 258 1 271 1 279 1 330 1 341 1 346 1 358 1 362 1 364 2 378 1 428 1 450 1 471 1 508 1 510 1 511 1 556 2 560 1 573 1 584 1 603 1 613 1 618 1 619 1 657 1 662 1 664 1 706 1 722 1 736 1 759 1 760 1 778 1 779 1 783 1 793 1 825 1 828 1 830 1 835 1 850 1 853 1 890 1 895 1 897 1 898 1 912 1 915 1 917 1 950 1 990 1 991 1 997 1 185 1 193 1 219 1 245 1 252 1 287 1 307 1 415 1 421 1 432 1 446 1 452 1 461 1 465 1 481 1 489 1 539 1 555 1 562 1 565 1 570 1 572 1 574 1 599 1 615 1 617 1 621 1 623 1 677 1 680 1 685 1 702 1 714 1 719 1 749 1 805 1 827 1 832 1 857 1 859 1 885 1 886 1 903 1 904 1 926 1 946 1 947 1 956 1 967 1 976 1 994 1 1015 1 
1 211 3 1 17 1 30 1 44 1 58 1 96 1 104 1 137 1 143 1 21 1 46 1 53 1 74 1 81 1 95 1 115 1 153 1 166 1 180 1 196 1 213 1 234 1 255 1 257 1 262 1 267 1 306 1 347 1 362 1 376 1 380 1 434 1 461 1 529 2 534 1 587 1 620 1 659 1 672 1 681 1 694 1 703 1 704 1 706 1 716 1 742 1 754 1 768 1 782 1 783 1 785 1 788 1 790 1 837 1 850 1 896 1 903 1 924 2 969 1 976 1 989 1 994 1 212 1 215 1 263 1 317 1 320 1 325 1 371 1 409 1 429 1 449 1 453 1 477 1 485 1 497 1 524 1 536 1 544 1 575 1 601 1 603 1 606 1 613 1 628 1 642 1 647 1 668 1 680 1 687 1 698 1 733 1 737 1 744 1 746 1 748 1 750 1 799 1 812 1 820 1 857 1 863 1 895 1 910 1 923 1 926 1 946 1 1009 1 1010 1 1011 1 1018 1 1023 1 
1 218 39 1 85 1 91 1 104 1 118 1 119 1 135 1 141 1 160 1 40 1 67 1 78 1 89 1 109 1 137 1 167 1 221 1 269 1 281 1 294 1 304 1 320 1 329 1 377 1 378 1 381 1 382 1 395 1 405 1 406 1 407 1 411 1 464 1 475 1 484 1 514 1 515 1 525 1 561 1 563 1 564 2 577 2 614 1 624 1 630 1 687 1 707 1 725 1 788 1 802 1 804 1 819 1 825 1 846 2 866 1 882 1 891 1 894 1 914 1 952 1 956 1 171 1 185 1 204 1 205 1 211 1 215 1 227 1 240 1 272 1 274 1 298 1 301 1 303 1 333 1 334 1 347 1 348 1 367 1 369 1 375 1 423 1 443 1 490 1 498 1 499 1 504 1 527 1 529 1 543 1 556 1 569 1 586 1 590 1 595 1 596 1 605 1 608 1 633 1 669 1 670 1 681 1 706 1 722 1 760 1 782 1 814 1 826 1 829 1 861 1 868 1 869 1 886 1 905 1 939 1 969 1 1005 1 1006 1 1010 1 1013 1 1017 1 1025 1 
1 204 1 1 13 1 38 1 50 1 67 1 74 1 97 1 165 1 27 1 44 1 49 1 57 1 79 1 130 1 151 1 152 1 170 1 183 1 190 1 199 1 214 1 218 2 251 1 272 1 275 1 288 1 308 1 325 1 329 1 335 1 339 1 347 1 358 1 400 1 420 1 430 1 442 1 445 1 466 1 468 1 486 1 505 1 509 1 524 1 532 1 559 1 563 1 568 1 577 1 586 1 593 1 618 1 637 1 638 1 653 1 664 1 671 2 678 1 683 1 709 1 736 1 740 1 741 1 764 1 787 1 795 1 828 1 843 1 850 1 863 1 883 1 884 1 889 1 910 1 916 1 921 1 922 1 928 1 960 1 980 1 180 1 197 1 209 1 261 1 293 1 294 1 300 1 310 1 312 1 333 1 352 1 356 1 376 1 429 1 453 1 463 1 477 1 478 1 481 1 506 1 541 1 548 1 554 1 583 1 628 1 630 1 652 1 658 1 676 1 694 1 706 1 776 1 790 1 792 1 802 1 805 1 811 1 845 1 852 1 877 1 906 1 907 1 912 1 915 1 930 1 935 1 938 1 946 1 996 1 1019 1 
1 209 5 1 19 1 27 1 40 1 58 1 90 1 94 1 106 1 107 1 123 1 160 1 1 1 13 1 26 1 43 1 54 1 59 1 82 1 127 1 140 1 161 1 172 1 172 1 191 1 192 1 249 1 273 1 279 1 280 1 291 1 319 1 345 1 386 1 410 1 457 1 483 1 494 2 524 1 530 1 539 1 557 1 564 1 574 1 582 1 596 1 609 2 625 1 627 1 638 1 641 1 648 1 658 1 661 1 669 1 691 1 705 1 717 1 731 1 736 1 759 2 767 1 802 1 806 1 816 1 823 2 834 1 839 1 849 1 853 1 861 1 883 1 926 1 953 1 966 1 974 1 176 1 195 1 210 1 213 1 221 1 233 1 248 1 264 1 283 1 296 1 305 1 321 1 325 1 326 1 333 1 340 1 341 1 373 1 374 1 383 1 388 1 420 1 443 1 449 1 452 1 463 1 464 1 475 1 496 1 508 1 554 1 599 1 655 1 702 1 721 1 728 1 733 1 758 1 775 1 785 1 793 1 799 1 876 1 880 1 890 1 913 1 925 1 928 1 933 1 939 1 955 1 999 1 1017 1 1026 1 
1 214 3 1 24 1 25 1 43 1 55 1 69 1 86 1 108 1 125 2 126 1 133 1 140 1 148 1 31 1 63 1 67 1 73 1 96 1 103 1 104 1 123 1 137 1 150 1 156 1 226 1 271 1 300 1 336 1 348 1 352 1 366 1 383 1 384 1 408 1 418 1 422 1 427 1 486 1 487 2 528 1 532 1 553 1 557 1 560 1 568 1 593 2 602 1 631 1 642 1 660 1 665 1 674 1 678 1 683 1 716 1 724 1 755 1 797 1 810 1 812 1 819 1 824 1 864 2 871 1 882 1 884 1 946 1 973 1 979 1 999 1 183 1 224 1 228 1 284 1 332 1 345 1 372 1 381 1 394 1 407 1 413 1 419 1 452 1 483 1 488 1 502 1 504 1 524 1 531 1 534 1 539 1 555 1 569 1 595 1 656 1 668 1 701 1 702 1 704 1 709 1 735 1 763 1 772 1 780 1 784 1 816 1 832 1 835 1 849 1 852 1 855 1 995 1 1019 1 1021 1 
1 207 6 1 20 1 26 1 27 1 36 1 51 1 59 1 63 1 73 1 83 2 85 1 100 1 116 1 128 1 11 1 15 1 28 1 87 1 120 1 132 1 145 1 163 1 194 1 203 1 204 1 228 1 236 1 245 1 247 1 258 1 262 1 267 1 285 1 289 1 339 1 358 1 364 1 383 1 412 1 418 1 424 1 429 1 435 1 456 1 463 2 467 1 482 1 518 1 527 1 552 1 573 1 592 1 600 1 613 1 620 1 629 1 630 1 632 1 642 1 651 1 661 1 665 1 680 1 688 1 693 1 724 1 744 1 788 1 798 1 834 1 859 1 865 1 979 1 176 1 195 1 201 1 232 1 276 1 283 1 319 1 330 1 332 1 337 1 379 1 393 1 395 1 402 1 444 1 469 1 486 1 521 1 523 1 531 1 541 1 582 1 587 1 594 1 622 1 623 1 625 1 633 1 764 1 767 1 771 1 801 1 821 1 838 1 856 1 885 1 893 1 946 1 952 1 964 1 997 1 1003 1 
1 209 10 1 16 1 19 1 61 1 63 1 89 1 115 1 135 1 136 1 143 1 160 1 21 1 27 1 124 1 126 1 155 1 166 1 190 1 191 1 217 1 261 1 275 1 313 1 316 1 355 1 374 1 403 1 446 1 511 1 515 1 532 1 550 1 553 1 569 1 588 2 616 2 619 2 638 1 651 1 677 1 750 1 777 1 786 1 815 1 822 1 826 1 848 1 895 1 937 1 948 1 971 1 178 1 223 1 230 1 236 1 246 1 263 1 277 1 295 1 309 1 335 1 362 1 383 1 384 1 393 1 397 1 421 1 423 1 424 1 438 1 457 1 466 1 468 1 488 1 531 1 562 1 578 1 584 1 641 1 649 1 652 1 672 1 693 1 722 1 727 1 728 1 732 1 769 1 772 1 792 1 818 1 825 1 835 1 836 1 839 1 844 1 846 1 851 1 893 1 894 1 904 1 921 1 931 1 965 1 979 1 1017 1 1019 1 1026 1 
1 216 86 2 141 1 5 1 20 1 73 1 95 1 109 1 172 1 174 1 182 1 197 1 212 1 218 1 230 1 231 1 264 1 278 2 320 1 342 1 363 1 378 1 383 1 389 1 394 1 395 1 396 1 419 1 422 1 423 1 452 1 464 1 490 1 511 1 538 1 561 1 584 1 589 1 602 1 611 1 626 1 629 1 649 1 663 1 695 1 717 1 733 1 737 1 752 1 755 1 760 1 822 1 830 1 852 1 860 1 865 1 869 1 873 1 887 1 921 1 931 1 933 1 188 1 207 1 215 1 239 1 288 1 297 1 323 1 328 1 336 1 345 1 356 1 359 1 369 1 390 1 428 1 432 1 450 1 461 1 470 1 498 1 509 1 535 1 545 1 555 1 603 1 624 1 637 1 700 1 708 1 722 1 735 1 750 1 793 1 817 1 828 1 856 1 901 1 910 1 912 1 946 1 953 1 968 1 982 1 1003 1 1007 1 1013 1 1018 1 1022 1 1024 1 1025 1 1027 1 
1 208 13 1 22 1 35 1 64 1 92 1 94 1 125 1 132 1 9 1 15 1 19 1 37 1 96 1 103 1 114 1 128 1 147 1 179 1 232 1 240 1 303 1 312 2 330 1 349 1 354 1 362 1 375 2 381 2 405 2 444 1 474 1 481 2 495 1 523 1 542 1 545 2 585 1 596 1 646 1 652 1 667 1 682 1 685 1 700 1 733 1 740 1 748 1 764 1 765 2 776 1 808 1 813 1 818 2 823 1 866 1 928 1 957 1 963 1 987 1 989 1 183 1 194 1 200 1 206 1 208 1 238 1 251 1 256 1 290 1 332 1 357 1 407 1 411 1 413 1 420 1 453 1 483 1 489 1 500 1 502 1 569 1 601 1 602 1 608 1 622 1 630 1 645 1 668 1 672 1 681 1 734 1 741 1 788 1 826 1 839 1 851 1 880 1 905 1 907 1 918 1 919 1 936 1 938 1 985 1 1005 1 1027 1 
1 213 1 1 10 1 48 1 55 1 56 1 59 1 105 2 112 1 126 1 129 1 139 1 163 1 40 1 51 1 66 1 87 1 101 1 142 1 167 1 175 1 201 1 213 1 252 1 256 1 267 1 272 1 278 1 287 1 314 1 343 1 361 1 370 1 386 1 399 1 410 1 414 1 439 1 441 1 455 1 472 1 484 1 488 1 497 1 513 1 530 2 571 1 578 1 583 1 593 1 598 1 611 1 642 1 645 1 652 1 667 1 673 1 722 1 735 1 752 1 770 1 838 1 841 1 848 1 849 1 866 1 881 1 908 1 913 1 947 1 966 1 986 1 992 1 996 2 999 2 226 1 262 1 266 1 284 1 295 1 301 1 368 1 371 1 396 1 397 1 433 1 457 1 482 1 500 1 552 1 560 1 562 1 589 1 592 1 594 1 604 1 615 1 624 1 640 1 671 1 704 1 706 1 712 1 746 1 765 1 787 1 817 1 820 1 864 1 888 1 890 1 905 1 935 1 1002 1 1005 1 1013 1 1015 1 1021 1 1027 1 
1 219 11 1 26 1 47 1 50 1 57 1 70 1 82 1 83 1 84 1 88 1 89 1 99 1 129 1 177 1 17 1 23 1 31 1 33 1 51 1 81 1 97 1 105 1 109 1 136 1 137 1 142 1 148 1 150 1 212 1 213 1 233 1 239 1 255 1 268 1 308 1 322 1 326 1 368 1 373 1 392 1 402 1 410 1 415 1 452 1 459 1 491 1 497 1 509 1 519 1 522 1 530 1 554 1 591 1 593 1 627 1 681 1 701 1 709 1 748 1 753 1 764 1 777 1 790 1 823 1 832 1 834 1 875 1 958 1 965 1 969 1 971 1 989 1 997 1 999 1 1002 1 180 1 187 1 194 1 240 1 250 1 266 1 267 1 277 1 278 1 305 1 313 1 399 1 488 1 495 1 507 1 527 1 595 1 602 1 628 1 636 1 647 1 678 1 687 1 699 1 720 1 733 1 737 1 754 1 765 1 796 1 804 1 806 1 819 1 828 1 847 1 870 1 872 1 882 1 920 1 923 1 925 1 938 1 942 1 990 1 998 1 1011 1 1012 1 1015 1 1016 1 1020 1 1023 1 1026 1 1027 1 
1 209 11 1 13 1 19 1 62 1 71 1 106 2 115 1 125 1 127 1 141 1 147 1 169 1 2 1 4 1 7 1 47 1 79 1 85 1 92 1 109 1 155 1 171 1 179 1 202 1 221 1 227 2 246 1 257 1 260 1 261 1 263 1 293 1 297 1 302 1 315 1 335 1 337 1 340 1 353 1 368 1 412 1 413 1 440 1 443 1 450 1 462 1 488 1 493 1 513 1 522 1 540 1 608 1 618 1 619 1 652 1 680 1 685 2 709 1 732 1 785 1 799 1 800 1 843 1 872 1 899 1 905 1 922 1 946 1 948 1 979 1 194 1 215 1 243 1 247 1 254 1 258 1 278 1 282 1 300 1 319 1 332 1 361 1 374 1 399 1 427 1 428 1 437 1 460 1 490 1 495 1 505 1 507 1 510 1 520 1 557 1 587 1 595 1 601 1 631 1 645 1 651 1 657 1 662 1 699 1 721 1 734 1 808 1 813 1 837 1 844 1 869 1 880 1 887 1 889 1 895 1 898 1 908 1 910 1 944 1 968 1 970 1 1022 1 
1 207 9 1 43 1 56 1 67 1 68 1 89 1 97 1 113 1 145 1 155 1 168 1 58 1 84 1 98 1 104 1 119 1 153 1 160 1 192 1 197 1 212 1 221 1 236 1 244 1 255 1 294 1 320 1 328 1 334 2 344 1 345 1 357 1 386 2 397 1 398 1 405 1 453 1 468 1 493 1 497 1 519 1 531 1 542 1 543 1 582 1 608 1 641 1 649 1 653 1 657 1 672 1 681 1 685 1 687 1 708 1 763 1 773 1 776 1 778 1 793 1 794 1 871 1 880 1 888 1 893 1 902 1 912 1 935 1 941 1 948 1 969 1 977 1 983 1 187 1 214 1 239 1 278 1 286 1 297 1 299 1 350 1 352 1 356 1 358 1 364 1 384 1 390 1 401 1 420 1 470 1 480 1 482 1 518 1 520 1 536 1 566 1 604 1 620 1 671 1 674 1 695 1 701 1 729 1 760 1 804 1 808 1 809 1 814 1 863 1 870 1 873 1 874 1 887 1 924 1 952 1 970 1 971 1 973 1 1007 1 1018 1 1020 1 1027 1 
1 208 6 1 48 1 51 1 64 1 79 1 80 1 91 1 96 1 106 1 143 1 154 1 157 1 159 1 176 1 14 1 28 1 73 1 103 1 114 1 115 1 140 1 141 1 153 1 166 1 201 1 216 1 260 1 261 1 277 1 313 1 331 1 342 1 359 2 367 1 369 1 394 1 406 1 417 1 424 1 431 1 479 1 484 2 531 1 538 1 545 1 581 1 606 1 645 1 650 1 653 1 659 2 700 1 730 1 736 1 756 1 758 1 800 1 817 1 824 1 829 1 870 1 872 2 895 1 904 1 939 1 950 1 976 1 993 1 190 1 204 1 223 1 233 1 308 1 326 1 340 1 349 1 351 1 399 1 403 1 413 1 414 1 441 1 450 1 454 1 458 1 482 1 510 1 515 1 543 1 546 1 555 1 568 1 587 1 624 1 631 1 641 1 658 1 671 1 686 1 694 1 729 1 744 1 767 1 777 1 804 1 821 1 853 1 905 1 927 1 928 1 996 1 1000 1 1004 1 1009 1 1026 1 
1 205 12 1 47 1 85 1 87 2 116 1 147 1 165 1 171 1 7 1 33 1 78 1 143 1 155 1 173 1 177 1 233 1 242 1 246 1 250 1 256 1 259 1 284 1 288 2 294 1 322 1 337 1 356 1 361 1 373 1 392 1 410 2 416 1 439 1 451 1 459 1 460 1 497 1 505 1 515 1 522 1 530 1 534 1 540 1 546 1 566 1 601 1 655 1 656 1 680 1 690 1 692 1 725 1 732 1 735 1 740 1 741 1 747 1 757 1 782 1 812 1 814 1 817 1 843 1 853 1 863 1 866 1 870 1 874 2 886 1 903 1 905 1 919 1 933 1 936 1 962 1 973 2 193 1 198 1 229 1 257 1 266 1 298 1 319 1 343 1 347 1 380 1 381 1 401 1 408 1 421 1 437 1 453 1 454 1 455 1 489 1 512 1 532 1 552 1 581 1 610 1 627 1 637 1 652 1 675 1 701 1 709 1 716 1 739 1 750 1 818 1 833 1 834 1 861 1 876 1 894 1 976 1 1005 1 
1 204 17 1 84 1 88 1 93 1 129 1 143 1 150 1 39 1 46 1 49 1 65 1 72 1 82 1 94 1 100 1 114 1 147 1 167 1 189 1 232 1 274 1 292 1 293 1 301 1 314 1 362 1 367 1 370 1 373 1 410 1 421 1 422 1 435 1 479 1 489 1 492 1 558 1 610 1 688 1 727 1 730 1 731 1 739 1 759 1 762 1 763 1 797 1 810 1 836 1 847 1 907 1 970 1 994 2 998 1 187 1 206 1 230 1 233 1 243 1 276 1 307 1 320 1 364 1 365 1 381 1 400 1 405 1 407 1 418 1 420 1 443 1 460 1 464 1 496 1 497 1 504 1 522 1 548 1 557 1 564 1 643 1 650 1 675 1 682 1 692 1 695 1 715 1 744 1 750 1 768 1 775 1 777 1 814 1 826 1 843 1 849 1 866 1 872 1 886 1 955 1 968 1 977 1 1005 1 
1 210 28 1 72 1 74 1 88 1 22 1 37 1 45 1 66 1 77 1 84 1 109 1 110 1 140 1 168 1 170 1 190 1 218 1 232 1 243 1 254 1 260 1 264 1 273 1 276 1 295 1 311 1 317 1 340 1 343 1 351 1 357 1 363 1 400 1 408 1 419 1 450 1 473 1 489 1 528 1 538 2 549 1 566 1 570 2 623 1 642 1 643 1 647 1 681 1 724 1 761 1 811 1 819 1 822 1 825 1 884 1 910 1 935 1 941 1 943 1 964 1 972 1 982 1 997 1 193 1 201 1 241 1 247 1 305 1 312 1 339 1 346 1 347 1 348 1 353 1 377 1 442 1 477 1 479 1 514 1 516 1 522 1 533 1 540 1 563 1 588 1 591 1 612 1 615 1 621 1 628 1 641 1 649 1 661 1 666 1 684 1 687 1 706 1 713 1 734 1 738 1 783 1 799 1 823 1 839 1 901 1 949 1 957 1 960 1 1009 1 1013 1 1023 1 1027 1 
1 213 23 1 35 1 38 1 49 1 59 1 65 1 108 1 109 1 113 2 129 1 164 1 5 1 9 1 18 1 19 1 20 1 95 1 130 1 189 1 207 1 241 1 245 1 248 1 265 1 306 1 308 1 319 1 340 1 342 1 344 1 353 1 354 1 360 1 366 1 390 1 398 1 400 1 402 1 414 1 421 1 430 1 443 2 448 1 457 1 508 1 519 1 542 1 555 1 561 1 562 1 584 1 586 1 602 1 642 1 710 1 715 1 741 1 747 1 788 1 824 1 828 1 830 2 846 1 851 1 871 1 902 2 903 1 908 1 924 1 954 1 978 1 994 1 216 1 228 1 260 1 304 1 318 1 322 1 325 1 385 1 387 1 449 1 459 1 473 1 495 1 500 1 517 1 531 1 554 1 558 1 599 1 619 1 622 1 625 1 661 1 683 1 733 1 740 1 742 1 771 1 810 1 823 1 841 1 862 1 984 1 985 1 1003 1 1007 1 1017 1 1018 1 1024 1 
1 213 19 2 22 1 42 1 53 1 54 1 55 1 67 1 96 1 106 1 125 1 140 1 142 1 146 1 165 1 9 1 16 1 65 1 76 1 89 1 109 1 157 1 161 1 179 1 181 1 184 1 195 1 204 2 215 1 223 1 259 1 269 1 273 1 285 1 311 1 345 1 348 1 364 1 371 1 413 1 423 1 425 1 428 1 451 1 508 1 525 1 526 1 551 1 552 1 553 1 561 2 613 1 634 1 644 1 657 1 658 1 678 1 682 1 709 1 732 1 735 1 754 1 760 1 766 1 790 1 812 1 815 1 821 1 830 1 834 1 852 1 912 1 962 1 967 1 975 1 212 1 230 1 257 1 261 1 277 1 279 1 288 1 295 1 300 1 411 1 459 1 478 1 488 1 494 1 495 1 514 1 558 1 590 1 595 1 624 1 649 1 659 1 662 1 690 1 693 1 725 1 733 1 768 1 772 1 801 1 813 1 825 1 857 1 859 1 863 1 866 1 886 1 898 1 921 1 951 1 957 1 974 1 1015 1 1021 1 1024 1 1025 1 
1 207 9 1 71 1 90 1 109 1 131 1 147 1 5 1 21 1 32 1 48 1 68 1 76 1 110 1 115 1 124 1 141 1 151 1 176 1 208 1 211 1 233 1 311 1 321 1 360 1 381 1 434 1 439 1 443 1 445 1 463 1 481 1 496 1 530 1 538 1 584 1 591 1 617 2 628 1 646 1 719 1 734 1 773 1 797 2 799 1 808 1 811 1 836 1 837 1 843 2 866 1 884 1 896 1 933 1 948 1 971 1 982 1 254 1 267 1 269 1 281 1 283 1 312 1 324 1 377 1 382 1 383 1 437 1 449 1 470 1 488 1 504 1 544 1 572 1 583 1 588 1 616 1 643 1 654 1 657 1 666 1 671 1 674 1 679 1 681 1 775 1 784 1 810 1 821 1 823 1 859 1 877 1 895 1 914 1 916 1 923 1 969 1 978 1 979 1 981 1 992 1 1000 1 
1 214 9 1 27 1 37 1 40 1 53 1 66 1 70 1 90 1 93 1 116 1 119 1 184 1 186 1 41 1 42 1 63 1 78 1 96 1 98 1 128 1 140 1 146 1 149 1 233 2 234 1 268 1 303 1 334 1 361 1 374 1 382 1 383 1 398 1 413 1 419 1 442 1 451 1 492 1 529 1 565 1 567 1 578 1 596 1 619 1 621 2 658 1 734 1 740 1 742 1 743 1 759 1 782 1 794 1 830 1 834 1 840 2 845 1 854 1 861 1 876 1 904 2 908 1 933 1 943 1 956 1 964 1 985 1 253 1 266 1 271 1 274 1 289 1 322 1 357 1 372 1 373 1 446 1 478 1 505 1 506 1 523 1 543 1 546 1 557 1 566 1 574 1 576 1 577 1 587 1 592 1 594 1 598 1 608 1 641 1 649 1 683 1 721 1 725 1 726 1 732 1 744 1 760 1 765 1 766 1 798 1 809 1 812 1 819 1 846 1 897 1 898 1 925 1 930 1 934 1 951 1 962 1 967 1 1003 1 1006 1 1011 1 1020 1 
1 210 11 1 32 1 35 1 48 1 54 1 84 1 102 2 113 1 120 1 136 1 151 1 157 1 171 1 175 1 185 1 22 1 41 1 42 1 68 1 75 1 86 1 91 1 94 1 107 1 112 1 144 1 145 1 182 1 219 1 230 1 270 1 282 1 284 1 296 1 307 1 332 1 346 1 347 1 378 1 392 1 419 1 420 1 431 1 438 1 439 1 463 1 475 1 481 1 509 1 533 1 543 1 556 1 557 1 569 1 593 1 671 1 684 1 685 1 700 1 729 1 730 1 734 1 754 1 764 1 770 1 795 1 840 1 882 1 888 1 891 1 926 1 946 1 954 1 964 1 998 1 207 1 215 1 217 1 314 1 316 1 321 1 324 1 358 1 359 1 372 1 377 1 389 1 399 1 416 1 441 1 454 1 456 1 496 1 522 1 553 1 560 1 566 1 627 1 632 1 651 1 660 1 672 1 722 1 727 1 738 1 751 1 755 1 771 1 783 1 797 1 801 1 872 1 875 1 886 1 897 1 902 1 928 1 950 1 962 1 1003 1 1018 1 1025 1 
1 212 2 1 4 1 5 2 14 1 22 1 31 1 41 1 54 1 71 1 115 1 147 1 164 1 166 1 172 1 175 1 6 1 16 1 18 1 25 1 34 1 46 1 84 1 86 1 130 1 137 1 145 1 154 1 156 1 163 1 193 1 218 1 233 1 260 2 262 1 287 1 304 1 307 2 311 1 335 1 348 1 359 1 369 1 403 1 437 1 456 1 470 2 477 1 488 1 498 1 512 1 542 1 576 1 579 1 595 1 610 1 650 1 662 1 676 1 687 1 691 1 711 1 764 1 787 1 792 1 824 1 830 1 873 1 890 1 893 2 901 1 951 1 965 1 976 1 986 1 211 1 225 1 237 1 245 1 248 1 255 1 256 1 261 1 294 1 296 1 367 1 380 1 394 1 409 1 412 1 419 1 425 1 451 1 458 1 459 1 462 1 495 1 519 1 525 1 573 1 614 1 624 1 663 1 714 1 743 1 754 1 769 1 783 1 786 1 788 1 818 1 826 1 834 1 866 1 872 1 921 1 925 1 979 1 996 1 1007 1 1018 1 1021 1 1022 1 1023 1 
1 215 1 1 35 1 42 1 45 1 61 1 69 1 81 1 118 1 172 1 181 1 11 1 15 1 22 1 37 1 65 1 67 1 103 1 127 1 131 1 153 1 202 1 216 2 234 1 245 1 250 1 278 1 281 1 349 1 381 1 416 1 417 1 452 2 454 1 455 1 462 1 477 1 500 1 511 1 513 1 515 1 524 1 527 2 534 1 567 1 571 1 581 2 587 1 607 1 628 1 632 1 640 1 650 1 666 1 703 1 736 1 759 1 777 1 781 1 796 1 810 1 823 1 831 1 876 1 884 1 889 1 927 1 938 1 966 1 969 1 995 1 1002 1 241 1 259 1 262 1 270 1 280 1 285 1 290 1 337 1 356 1 377 1 396 1 418 1 421 1 423 1 437 1 517 1 529 1 541 1 550 1 563 1 593 1 608 1 612 1 614 1 627 1 633 1 639 1 643 1 660 1 675 1 678 1 694 1 711 1 719 1 760 1 769 1 825 1 836 1 903 1 906 1 908 1 919 1 924 1 954 1 1001 1 1003 1 1006 1 1010 1 1014 1 1015 1 1018 1 1022 1 1025 1 
1 207 4 1 7 1 19 2 35 1 37 1 57 1 77 1 81 1 109 1 117 1 152 1 165 1 191 1 25 1 30 1 54 1 82 1 84 1 86 1 98 1 143 1 168 1 183 1 185 1 195 1 211 2 229 1 292 1 293 1 303 1 336 2 351 1 357 1 376 1 380 1 431 1 432 1 464 1 466 1 469 1 480 1 502 1 511 1 532 1 545 1 553 1 557 2 610 1 617 1 636 2 725 1 735 1 738 1 741 1 743 1 792 1 802 1 816 1 855 1 878 1 901 1 915 1 922 1 953 1 970 1 200 1 201 1 218 1 237 1 244 1 247 1 269 1 270 1 314 1 365 1 370 1 388 1 406 1 415 1 416 1 417 1 424 1 426 1 440 1 473 1 478 1 489 1 493 1 495 1 528 1 560 1 564 1 570 1 597 1 654 1 697 1 703 1 720 1 727 1 728 1 760 1 800 1 828 1 866 1 874 1 880 1 888 1 905 1 921 1 934 1 995 1 1013 1 1018 1 
1 206 17 1 23 1 43 1 80 1 94 1 113 1 126 1 133 1 138 1 157 1 174 1 8 1 13 1 24 1 48 1 105 1 132 1 161 1 177 1 179 1 180 1 216 1 220 1 223 1 235 1 245 1 253 1 254 2 261 1 274 2 293 1 298 1 318 1 331 1 350 2 384 1 400 1 430 1 445 1 523 1 542 2 543 1 559 2 575 1 593 1 600 1 609 1 653 1 678 1 690 1 696 1 716 1 732 1 735 1 743 2 746 1 749 1 764 1 774 1 805 1 814 1 815 1 823 1 845 1 874 1 882 1 890 1 937 1 948 1 989 1 201 1 227 1 232 1 234 1 238 1 264 1 268 1 282 1 299 1 303 1 323 1 345 1 363 1 371 1 374 1 383 1 386 1 406 1 414 1 426 1 429 1 433 1 461 1 492 1 493 1 528 1 554 1 560 1 576 1 633 1 639 1 669 1 679 1 681 1 687 1 719 1 725 1 727 1 747 1 756 1 844 1 857 1 887 1 910 1 952 1 959 1 973 1 1010 1 1018 1 
1 207 10 1 27 1 32 1 50 1 51 1 68 1 82 1 98 1 108 1 120 2 125 1 130 2 136 1 151 1 156 1 187 1 193 1 8 1 17 1 29 1 57 1 58 1 103 1 128 1 137 1 146 1 172 1 174 1 203 1 208 1 223 1 235 1 241 1 252 1 259 1 266 1 270 1 278 1 281 1 283 1 323 1 352 2 377 1 416 1 429 1 450 1 455 1 477 1 529 1 530 1 533 1 542 1 556 1 594 1 607 1 619 1 639 2 648 1 654 1 661 1 665 1 673 1 682 1 728 1 793 1 804 1 813 1 833 1 835 1 858 1 860 1 864 1 865 1 874 2 890 1 898 1 905 1 909 1 921 1 932 1 947 2 238 1 242 1 285 1 302 1 363 1 401 1 411 1 421 1 437 1 441 1 488 1 489 1 516 1 549 1 559 1 567 1 581 1 624 1 627 1 658 1 691 1 711 1 745 1 836 1 840 1 841 1 872 1 875 1 956 1 971 1 1011 1 
1 205 31 1 40 1 61 1 65 1 71 1 123 1 125 1 130 1 132 1 160 1 169 1 62 1 94 1 95 1 109 1 131 1 153 1 155 1 219 1 264 1 313 1 329 1 350 1 370 1 382 1 428 1 430 1 478 1 495 2 509 1 512 1 534 1 548 1 591 1 611 1 669 1 672 1 690 1 692 1 695 1 726 1 753 2 757 1 768 1 774 1 781 1 799 1 815 1 824 1 827 1 835 1 836 1 837 1 849 1 862 1 867 1 941 1 953 1 957 1 966 2 984 1 203 1 227 1 231 1 234 1 242 1 312 1 344 1 357 1 377 1 412 1 438 1 490 1 499 1 515 1 529 1 532 1 555 1 565 1 574 1 575 1 597 1 646 1 656 1 689 1 691 1 698 1 699 1 709 1 728 1 736 1 772 1 785 1 826 1 846 1 847 1 880 1 883 1 889 1 906 1 918 1 926 1 942 1 949 1 952 1 976 1 
1 211 7 1 8 1 34 1 37 1 41 1 48 1 51 1 52 1 68 1 80 1 104 1 131 1 135 1 176 1 181 1 1 1 33 1 47 1 89 1 102 1 119 1 149 1 150 1 171 1 244 1 263 1 342 1 347 1 362 1 369 1 376 1 388 1 394 1 406 1 431 1 458 1 545 1 550 1 574 1 577 1 601 1 607 2 610 1 627 1 640 1 666 2 672 1 706 1 715 1 728 1 751 1 757 1 780 1 788 1 826 1 828 1 845 1 865 1 908 1 917 1 921 1 946 1 950 1 964 1 979 1 983 1 208 1 221 1 228 1 230 1 238 1 246 1 252 1 254 1 262 1 267 1 287 1 288 1 349 1 368 1 382 1 389 1 409 1 417 1 425 1 479 1 482 1 487 1 492 1 506 1 543 1 548 1 556 1 579 1 591 1 592 1 594 1 608 1 618 1 619 1 621 1 663 1 668 1 673 1 675 1 681 1 682 1 696 1 704 1 804 1 811 1 819 1 827 1 869 1 881 1 889 1 896 1 949 1 956 1 1000 1 1003 1 1007 1 
1 205 31 1 32 1 57 1 134 1 7 1 16 1 25 1 28 1 51 1 52 1 78 1 81 1 118 1 125 1 131 1 136 1 161 1 183 1 224 1 249 1 251 1 264 1 278 1 280 1 282 1 309 1 314 1 360 1 364 1 375 1 384 1 393 1 423 1 427 1 437 1 484 1 485 1 488 1 496 1 507 1 516 1 534 1 538 1 546 1 547 1 561 1 563 2 635 1 644 1 702 1 731 1 732 1 752 1 762 1 765 1 797 1 833 1 837 1 883 1 890 1 891 2 913 1 929 1 975 1 997 1 1001 1 216 1 217 1 232 1 246 1 257 1 289 1 292 1 301 1 323 1 337 1 347 1 402 1 405 1 431 1 438 1 450 1 453 1 456 1 492 1 532 1 549 1 554 1 560 1 585 1 587 1 602 1 647 1 668 1 694 1 701 1 705 1 708 1 714 1 763 1 764 1 766 1 773 1 801 1 851 1 873 1 874 1 916 1 938 1 977 1 989 1 993 1 1017 1 
1 211 13 1 20 1 85 1 98 1 171 1 23 1 57 1 68 1 71 1 87 1 101 1 116 1 154 1 241 1 250 1 254 1 265 1 271 1 278 1 292 1 294 1 312 1 320 1 330 2 334 1 339 1 342 1 348 2 365 1 369 1 467 1 471 1 505 1 540 1 551 1 559 2 560 1 577 1 609 1 668 1 678 1 702 1 717 1 728 1 734 1 739 1 782 1 786 1 788 2 789 1 796 1 798 1 801 1 828 1 843 1 845 1 847 1 892 1 912 2 965 1 984 1 986 1 211 1 240 1 258 1 262 1 275 1 296 1 325 1 333 1 346 1 351 1 375 1 391 1 437 1 442 1 449 1 464 1 481 1 515 1 529 1 544 1 566 1 570 1 580 1 583 1 602 1 606 1 617 1 653 1 670 1 690 1 721 1 758 1 763 1 775 1 784 1 785 1 867 1 874 1 891 1 923 1 924 1 940 1 946 1 949 1 952 1 960 1 979 1 988 1 1004 1 1005 1 1010 1 1016 1 1017 1 1023 1 
1 207 8 1 12 1 16 1 35 1 46 1 78 1 110 1 115 1 120 1 142 1 162 1 163 1 9 1 19 1 21 1 22 1 44 1 51 1 57 1 63 1 86 1 89 1 93 1 98 1 106 1 111 1 177 1 193 1 229 1 233 1 257 1 261 1 290 1 308 2 320 1 322 1 326 1 340 2 363 1 370 1 372 2 382 2 410 1 453 1 459 1 484 1 485 1 502 1 516 1 527 1 529 1 548 1 549 1 574 1 584 1 586 1 626 1 631 1 648 1 697 1 703 1 729 1 731 1 741 1 758 1 767 2 771 1 784 2 791 1 792 1 794 1 810 1 855 1 857 2 864 2 876 1 913 1 916 1 954 1 986 1 998 1 1001 1 206 1 227 1 281 1 368 1 376 1 385 1 418 1 440 1 466 1 467 1 471 1 473 1 495 1 556 1 597 1 598 1 644 1 652 1 711 1 712 1 714 1 724 1 761 1 797 1 814 1 839 1 852 1 856 1 867 1 878 1 915 1 1011 1 1014 1 1016 1 
1 210 12 1 19 1 41 1 46 1 94 1 178 1 182 1 2 1 8 1 68 1 72 1 82 1 110 1 159 1 174 1 185 1 193 1 194 1 213 1 216 1 225 1 245 1 263 1 277 1 283 1 286 1 322 1 325 1 354 1 360 1 361 1 463 1 478 1 481 1 501 1 507 1 530 1 540 1 570 1 600 1 636 1 638 1 649 1 657 1 689 1 690 1 693 1 699 1 707 1 741 2 776 1 796 2 802 1 813 1 816 1 875 1 877 1 918 1 922 1 928 1 961 2 968 1 981 1 345 1 376 1 384 1 397 1 400 1 407 1 411 1 446 1 466 1 488 1 517 1 519 1 555 1 564 1 569 1 604 1 614 1 633 1 667 1 673 1 682 1 709 1 710 1 716 1 718 1 724 1 731 1 782 1 853 1 862 1 869 1 894 1 954 1 979 1 980 1 992 1 1000 1 1009 1 1012 1 
1 208 18 1 26 1 43 1 68 1 94 2 99 1 111 1 124 1 125 1 145 1 166 1 167 1 180 1 192 1 1 1 71 1 75 1 95 1 108 1 115 1 117 1 136 1 137 1 144 1 148 1 149 1 153 1 160 1 163 1 224 2 297 1 311 1 334 1 336 1 388 1 393 1 426 1 476 1 490 1 495 1 516 1 517 1 538 1 546 1 559 1 566 1 577 1 582 1 613 1 629 1 646 1 648 1 656 2 664 1 723 1 756 1 780 1 820 1 825 1 861 1 872 1 874 1 902 1 934 1 938 1 979 1 987 1 215 1 218 1 263 1 270 1 275 1 298 1 301 1 309 1 316 1 343 1 384 1 400 1 402 1 438 1 442 1 443 1 514 1 550 1 558 1 578 1 597 1 607 1 625 1 633 1 657 1 660 1 662 1 687 1 688 1 724 1 725 1 775 1 782 1 848 1 852 1 854 1 860 1 882 1 884 1 885 1 893 1 895 1 904 1 941 1 942 1 946 1 992 1 1005 1 1008 1 
1 209 16 1 23 1 31 1 34 1 67 1 81 1 101 1 123 1 126 1 133 1 139 1 159 1 174 1 195 1 13 1 98 1 143 1 144 1 154 1 196 1 217 1 235 1 255 1 272 1 280 1 299 1 303 1 304 1 390 1 443 1 476 1 484 2 494 1 497 1 515 1 521 1 522 1 528 1 530 1 531 1 550 1 555 1 573 1 580 1 604 2 610 1 611 1 629 1 693 1 697 1 750 1 752 1 774 1 830 1 835 1 842 1 894 1 948 1 955 1 979 1 219 1 220 1 265 1 281 1 287 1 290 1 301 1 310 1 386 1 446 1 454 1 460 1 527 1 566 1 579 1 609 1 612 1 635 1 640 1 642 1 660 1 670 1 712 1 745 1 751 1 753 1 762 1 766 1 772 1 776 1 780 1 789 1 844 1 887 1 933 1 959 1 1010 1 1019 1 1020 1 1021 1 1026 1 
1 213 11 1 20 1 24 2 58 1 83 1 88 1 129 1 146 1 174 1 187 2 42 1 48 1 77 1 78 1 143 1 145 1 165 1 170 1 182 1 211 1 217 1 237 1 268 1 295 1 312 1 326 1 346 1 366 1 375 1 387 1 395 1 408 1 415 1 419 1 431 1 454 1 458 1 463 1 487 1 505 1 559 1 564 1 565 1 569 1 571 1 582 1 610 1 622 1 630 1 638 1 670 1 672 1 679 2 708 1 715 2 720 1 733 1 736 1 772 1 795 1 817 2 835 1 858 1 860 1 863 1 872 1 876 1 897 1 899 1 937 1 948 1 964 1 965 1 979 1 984 1 988 1 989 1 990 1 240 1 249 1 267 1 272 1 280 1 281 1 291 1 309 1 315 1 331 1 353 1 360 1 373 1 388 1 407 1 422 1 425 1 477 1 491 1 515 1 521 1 554 1 563 1 576 1 585 1 609 1 611 1 614 1 632 1 645 1 656 1 682 1 710 1 726 1 734 1 740 1 742 1 764 1 766 1 831 1 847 1 850 1 854 1 870 1 875 1 891 1 931 1 947 1 957 1 963 1 986 1 993 1 1003 1 1015 1 1026 1 
1 209 20 1 30 1 46 1 71 1 75 1 93 1 100 1 116 1 124 1 133 1 141 1 148 1 4 1 27 1 42 1 67 1 68 1 84 1 103 1 122 1 131 1 138 1 164 1 170 1 238 1 273 1 274 1 307 1 321 1 329 1 334 1 357 1 368 1 391 1 401 1 423 1 433 1 441 1 448 1 473 1 478 1 490 1 497 1 513 2 516 2 548 1 564 1 580 1 590 1 593 1 595 2 621 1 697 1 699 1 708 1 764 1 789 1 814 1 819 1 830 1 852 1 878 1 894 1 898 1 924 1 927 1 935 1 944 2 980 1 992 1 213 1 214 1 233 1 258 1 295 1 304 1 360 1 388 1 389 1 404 1 482 1 504 1 520 1 526 1 552 1 562 1 583 1 592 1 608 1 615 1 629 1 649 1 675 1 676 1 713 1 722 1 731 1 754 1 772 1 777 1 791 1 815 1 818 1 828 1 834 1 888 1 926 1 951 1 962 1 975 1 987 1 1012 1 
1 210 3 1 12 1 20 1 28 1 36 1 48 1 74 1 105 1 107 1 126 1 150 1 19 1 54 1 64 1 65 1 70 1 77 1 79 1 91 1 96 1 108 1 157 1 177 1 184 1 200 1 212 1 224 2 247 1 274 1 286 1 314 1 341 1 359 1 376 1 413 1 421 1 429 1 430 1 432 1 434 1 435 1 467 1 558 1 576 2 582 1 597 1 617 1 624 1 657 1 671 1 691 1 709 1 717 1 727 1 752 1 757 1 770 1 773 1 812 1 818 1 826 1 877 1 893 1 930 1 940 1 963 1 976 1 992 1 229 1 260 1 271 1 282 1 289 1 290 1 320 1 384 1 414 1 466 1 469 1 507 1 513 1 518 1 533 1 536 1 553 1 555 1 556 1 565 1 606 1 610 1 659 1 681 1 707 1 719 1 724 1 728 1 743 1 744 1 771 1 831 1 845 1 874 1 895 1 913 1 935 1 952 1 954 1 972 1 997 1 1016 1 1024 1 
1 213 36 1 52 2 56 1 103 1 156 1 158 1 160 1 186 1 83 1 97 1 116 1 135 1 146 1 151 1 176 1 190 1 208 1 213 2 226 1 238 1 243 1 292 1 293 1 380 1 386 1 420 1 427 1 461 1 463 1 476 1 479 1 490 1 561 1 574 1 598 1 618 2 654 1 660 1 666 1 686 1 706 1 720 1 724 1 760 1 765 1 846 1 851 1 870 1 928 1 935 1 941 1 944 1 210 1 225 1 241 1 242 1 273 1 280 1 283 1 311 1 336 1 347 1 365 1 384 1 398 1 400 1 444 1 460 1 464 1 480 1 526 1 527 1 543 1 575 1 576 1 590 1 602 1 649 1 667 1 681 1 722 1 743 1 767 1 768 1 779 1 782 1 802 1 803 1 822 1 823 1 843 1 850 1 862 1 878 1 886 1 897 1 906 1 910 1 957 1 964 1 999 1 1004 1 1019 1 1024 1 
1 207 1 1 37 1 38 1 62 1 68 1 134 1 139 1 154 1 164 2 167 1 168 1 188 1 195 1 207 1 9 1 10 1 18 1 33 1 36 1 44 1 53 1 56 1 91 1 119 1 126 1 156 1 177 1 197 1 246 1 253 1 264 1 296 1 314 1 323 1 351 1 356 1 367 1 390 1 395 1 442 1 453 1 462 1 463 1 466 1 470 1 472 1 474 1 475 1 483 2 498 1 510 1 518 1 519 1 535 1 551 2 595 1 596 1 608 1 617 1 685 1 692 1 731 1 745 1 788 1 827 1 831 1 843 1 847 1 859 1 877 1 883 1 893 1 905 1 922 1 944 1 960 1 974 1 213 1 215 1 220 1 221 1 225 1 232 1 233 1 236 1 276 1 294 1 343 1 344 1 357 1 364 1 369 1 374 1 389 1 410 1 426 1 438 1 473 1 511 1 571 1 588 1 610 1 626 1 638 1 665 1 667 1 669 1 689 1 701 1 713 1 717 1 719 1 728 1 734 1 740 1 746 1 758 1 760 1 782 1 789 1 913 1 989 1 990 1 1009 1 
1 211 26 1 35 1 39 1 86 1 88 1 100 1 103 2 124 1 129 1 132 1 143 1 144 1 163 1 23 1 46 1 47 1 56 1 63 1 77 1 81 1 98 1 105 1 123 1 128 1 135 1 157 1 171 1 218 1 225 1 268 1 271 1 321 1 330 1 348 1 355 1 360 1 364 2 448 1 470 1 515 1 520 1 539 1 543 1 555 1 570 1 575 1 581 1 585 1 608 1 641 1 646 1 651 1 660 1 671 1 680 1 691 1 703 2 709 1 722 1 725 1 732 1 870 1 885 1 894 1 907 1 920 1 926 1 928 1 948 1 955 1 967 1 977 1 989 1 990 1 991 2 229 1 244 1 275 1 278 1 310 1 320 1 325 1 327 1 347 1 358 1 381 1 422 1 427 1 428 1 432 1 436 1 450 1 462 1 477 1 497 1 512 1 544 1 599 1 602 1 637 1 648 1 665 1 687 1 695 1 720 1 723 1 730 1 741 1 747 1 754 1 777 1 783 1 785 1 789 1 792 1 818 1 833 1 883 1 941 1 972 1 979 1 998 1 1007 1 1013 1 
1 209 20 1 56 1 66 2 100 1 106 1 132 1 136 1 4 1 26 1 46 1 72 1 92 1 102 1 108 1 115 1 144 1 145 1 147 1 172 1 207 1 211 1 217 2 221 1 230 1 242 1 270 1 302 1 383 1 387 1 396 1 420 1 442 1 460 1 469 1 483 1 488 1 514 1 518 1 527 2 539 1 569 1 583 1 588 1 611 1 627 1 628 2 661 1 663 1 673 1 679 1 694 2 699 1 715 1 736 1 743 1 760 1 767 1 782 1 791 1 795 1 863 1 884 1 899 1 904 1 929 1 983 1 214 1 254 1 261 1 310 1 325 1 343 1 352 1 374 1 413 1 421 1 447 1 477 1 480 1 502 1 528 1 542 1 544 1 576 1 625 1 630 1 658 1 662 1 685 1 697 1 711 1 718 1 727 1 733 1 738 1 754 1 766 1 818 1 868 1 893 1 956 1 959 1 966 1 996 1 998 1 1012 1 1013 1 1016 1 
1 208 6 1 19 1 21 1 87 1 125 1 127 1 145 1 152 1 157 1 160 1 165 1 188 1 193 2 204 1 210 1 10 1 33 1 90 1 95 1 132 1 133 1 151 1 170 1 191 1 199 1 228 1 257 1 273 1 308 1 317 1 342 1 365 2 387 1 391 1 402 1 407 1 424 1 438 1 453 1 455 1 470 2 505 1 523 1 562 1 566 1 573 1 576 1 593 1 594 1 602 1 665 1 683 1 691 1 711 1 726 1 753 1 792 1 810 1 837 1 856 1 899 2 907 1 962 1 972 1 973 1 230 1 246 1 259 1 277 1 283 1 289 1 297 1 322 1 343 1 347 1 352 1 354 1 366 1 367 1 394 1 425 1 436 1 457 1 464 1 500 1 539 1 544 1 563 1 571 1 583 1 590 1 627 1 632 1 637 1 661 1 686 1 752 1 774 1 793 1 815 1 825 1 903 1 917 1 942 1 983 1 987 1 1003 1 1013 1 
1 205 13 1 19 1 71 1 100 1 107 1 162 1 176 1 179 1 181 1 206 1 22 1 47 1 64 1 125 1 140 1 142 1 145 1 146 1 167 1 169 1 187 1 219 1 237 1 240 1 259 1 292 1 327 1 345 1 381 1 390 1 435 1 437 1 443 1 455 1 462 1 463 1 469 1 507 1 509 1 512 1 551 1 564 1 574 1 579 1 586 1 595 1 607 1 611 1 626 1 629 2 634 1 651 1 679 1 712 1 727 1 767 2 775 1 786 1 800 1 801 1 807 1 814 1 822 1 824 1 837 1 870 2 891 1 902 1 905 1 912 2 913 1 980 1 1002 2 238 1 241 1 256 1 262 1 281 1 283 1 285 1 305 1 331 1 332 1 366 1 369 1 398 1 419 1 420 1 440 1 497 1 527 1 539 1 553 1 597 1 614 1 658 1 681 1 702 1 707 1 732 1 749 1 780 1 813 1 842 1 849 1 858 1 877 1 899 1 911 1 916 1 953 1 996 1 1008 1 1009 1 
1 212 8 1 45 1 120 1 123 1 149 1 163 1 169 1 178 1 179 1 201 1 207 2 7 1 18 1 62 1 64 1 67 1 71 1 77 1 85 1 99 1 105 1 138 1 172 1 205 1 208 1 234 2 237 1 238 2 266 1 323 1 330 1 354 1 355 1 365 1 375 1 391 1 395 1 412 1 429 1 490 1 501 1 532 1 552 1 570 1 586 1 604 1 610 1 675 1 680 1 700 1 735 2 750 1 755 1 766 1 771 1 773 1 786 1 787 1 799 1 812 1 817 1 822 1 835 1 845 1 892 1 903 1 931 1 951 1 971 1 983 1 993 1 995 1 225 1 275 1 286 1 295 1 298 1 328 1 358 1 361 1 415 1 427 1 428 1 436 1 450 1 477 1 482 1 489 1 494 1 498 1 517 1 523 1 543 1 547 1 549 1 556 1 572 1 580 1 619 1 620 1 632 1 697 1 701 1 729 1 730 1 732 1 744 1 767 1 776 1 794 1 801 1 843 1 844 1 847 1 854 1 872 1 884 1 911 1 920 1 981 1 990 1 1015 1 
1 211 13 1 32 2 55 1 65 1 84 1 94 1 106 1 117 1 118 1 119 1 151 1 153 1 161 1 165 2 171 1 12 1 49 1 70 1 73 1 79 1 83 1 123 1 124 1 181 1 205 1 210 1 232 1 274 1 275 2 313 1 316 1 333 1 346 1 351 1 383 1 397 1 417 1 427 1 432 2 456 1 483 2 512 1 532 1 544 1 550 1 569 1 575 2 583 1 603 1 633 1 641 1 723 1 727 1 743 1 796 1 799 1 807 2 894 1 910 1 917 1 928 1 939 1 962 1 982 1 987 2 245 1 256 1 263 1 305 1 312 1 343 1 356 1 362 1 399 1 414 1 469 1 474 1 479 1 487 1 489 1 504 1 514 1 524 1 528 1 536 1 548 1 551 1 615 1 652 1 653 1 666 1 679 1 737 1 767 1 771 1 773 1 775 1 778 1 779 1 786 1 808 1 811 1 819 1 820 1 835 1 841 1 860 1 877 1 898 1 970 1 993 1 1006 1 1018 1 1021 1 
1 208 13 1 112 1 146 1 187 1 30 1 37 1 72 1 95 1 102 1 113 1 147 1 169 1 170 1 176 1 180 1 190 1 202 1 208 1 240 1 244 2 245 1 258 1 259 1 260 1 262 1 277 1 286 1 303 1 327 1 346 1 360 1 402 1 427 1 440 1 451 1 452 1 465 1 473 1 476 1 479 1 480 1 533 1 538 1 549 2 552 1 555 2 596 1 604 1 637 1 658 1 699 1 765 1 768 1 778 1 801 1 811 1 836 1 838 1 850 1 854 1 858 1 862 1 869 1 874 1 972 1 226 1 232 1 238 1 242 1 254 1 266 1 270 1 317 1 331 1 354 1 355 1 377 1 382 1 383 1 388 1 390 1 395 1 408 1 481 1 487 1 511 1 512 1 515 1 524 1 531 1 537 1 550 1 551 1 556 1 571 1 582 1 629 1 641 1 646 1 647 1 668 1 713 1 725 1 766 1 772 1 777 1 795 1 804 1 805 1 813 1 824 1 844 1 847 1 860 1 871 1 893 1 976 1 983 1 986 1 1001 1 1004 1 1006 1 1014 1 
1 215 35 1 54 1 76 1 90 1 117 1 139 1 142 1 182 1 192 2 194 1 201 1 3 1 21 1 75 1 135 1 136 1 158 1 160 1 186 1 198 1 222 1 226 1 240 1 275 1 281 1 316 1 340 1 360 1 418 1 427 1 438 1 461 1 462 1 472 1 482 1 484 1 499 1 520 1 526 1 528 1 534 1 535 1 550 1 568 1 570 1 575 1 588 1 591 1 617 1 625 1 662 1 666 1 680 1 687 1 697 1 702 1 709 2 711 1 732 2 736 1 742 1 747 1 768 1 828 2 858 1 859 1 896 1 920 1 927 1 985 1 228 1 243 1 293 1 304 1 333 1 354 1 356 1 375 1 378 1 406 1 455 1 471 1 503 1 504 1 512 1 521 1 546 1 567 1 590 1 595 1 597 1 611 1 624 1 646 1 683 1 689 1 704 1 718 1 719 1 751 1 773 1 775 1 797 1 826 1 847 1 884 1 893 1 916 1 935 1 963 1 990 1 1004 1 1009 1 1017 1 
1 209 55 1 62 1 91 1 99 1 112 2 154 1 159 1 175 1 203 1 204 1 210 2 7 1 64 1 78 1 84 1 122 1 124 1 129 1 134 1 140 1 166 1 190 1 198 1 229 1 251 2 264 1 273 1 325 1 343 1 376 1 383 1 385 1 391 1 397 2 416 1 440 1 457 1 489 1 529 1 544 1 561 1 602 2 661 1 685 1 694 1 699 1 723 1 752 1 755 1 766 1 772 1 785 2 786 1 806 1 834 1 841 1 855 1 868 1 872 1 907 1 913 1 922 1 930 1 935 1 962 2 969 1 971 1 239 1 266 1 286 1 297 1 306 1 393 1 402 1 451 1 453 1 467 1 468 1 471 1 518 1 521 1 528 1 603 1 620 1 628 1 675 1 683 1 691 1 708 1 734 1 818 1 819 1 879 1 901 1 920 1 936 1 965 1 1007 1 1011 1 1023 1 
1 205 20 1 24 2 48 1 52 1 55 1 94 1 104 1 110 1 119 1 133 1 135 1 157 1 171 2 176 1 185 1 191 1 209 1 4 1 32 1 81 1 117 1 155 1 193 1 202 1 242 1 250 1 262 1 281 1 293 1 317 1 325 1 340 1 355 1 369 1 377 1 394 1 418 1 439 1 472 1 484 1 526 1 545 1 547 2 550 1 551 1 553 1 575 1 599 1 620 1 648 1 672 1 685 1 704 1 710 1 731 1 732 1 735 1 780 1 785 1 796 1 806 1 847 1 910 1 929 1 933 1 949 1 950 1 971 1 249 1 256 1 341 1 347 1 359 1 363 1 385 1 404 1 429 1 474 1 480 1 481 1 502 1 546 1 562 1 565 1 584 1 585 1 588 1 602 1 632 1 652 1 656 1 659 1 678 1 699 1 751 1 763 1 773 1 805 1 813 1 820 1 856 1 938 1 958 1 980 1 997 1 998 1 1017 1 
1 209 13 1 29 1 64 1 134 1 140 1 156 1 190 1 196 1 212 1 12 1 25 1 60 1 74 1 99 1 110 1 111 1 127 1 146 1 153 1 168 1 203 1 254 1 267 1 278 1 279 1 295 1 318 1 325 1 335 2 348 1 352 1 362 2 367 1 402 1 415 1 417 2 448 1 460 1 495 1 525 1 539 1 567 1 583 1 617 1 632 1 633 1 681 1 712 1 714 1 766 1 789 1 804 1 805 1 813 1 833 1 841 1 862 1 874 1 876 1 910 1 914 1 916 2 918 1 924 1 931 1 977 1 988 2 220 1 227 1 230 1 276 1 280 1 289 1 294 1 310 1 336 1 340 1 357 1 369 1 400 1 432 1 451 1 500 1 510 1 511 1 516 1 559 1 574 1 579 1 644 1 652 1 682 1 684 1 731 1 751 1 754 1 772 1 817 1 824 1 825 1 877 1 890 1 895 1 908 1 942 1 980 1 987 1 991 1 1024 1 
1 210 3 1 18 1 22 1 24 1 42 1 59 1 60 1 61 1 85 1 87 1 120 1 127 1 137 1 157 1 164 1 194 1 8 1 80 1 111 1 126 1 128 1 131 1 158 1 160 1 203 1 208 1 219 1 233 1 258 1 289 1 290 1 353 1 364 1 382 1 432 1 435 1 438 1 439 1 472 1 475 1 495 1 497 1 513 1 540 1 556 2 563 1 567 1 589 1 608 1 623 1 629 1 667 1 673 1 687 1 695 1 709 1 721 1 733 1 740 1 759 1 768 1 774 1 800 2 832 1 839 1 840 1 853 1 927 1 930 1 933 1 937 1 939 1 979 1 999 1 221 1 246 1 287 1 324 1 328 1 355 1 361 1 411 1 433 1 457 1 531 1 547 1 565 1 585 1 599 1 601 1 613 1 647 1 655 1 661 1 701 1 722 1 745 1 758 1 766 1 767 1 769 1 776 1 777 1 782 1 788 1 815 1 819 1 847 1 849 1 866 1 867 1 869 1 870 1 931 1 936 1 973 1 986 1 992 1 1018 1 
1 211 5 1 12 1 21 1 32 2 47 1 53 1 71 1 84 1 95 1 170 1 180 1 181 1 210 1 18 1 28 1 30 1 43 1 45 1 64 1 69 1 70 1 75 1 85 1 108 1 139 1 143 1 172 1 197 1 208 1 220 1 230 1 240 1 248 1 249 1 259 1 278 1 280 1 283 1 292 1 320 1 339 1 340 2 349 1 366 1 395 1 403 1 405 1 406 1 437 1 469 1 484 1 511 1 527 1 529 1 536 1 552 1 558 1 566 1 574 1 582 2 662 1 667 1 669 1 684 2 707 1 711 1 759 1 775 1 815 1 829 1 839 1 846 2 854 1 866 1 908 1 916 1 926 1 944 1 949 1 958 1 992 2 999 1 1000 1 250 1 252 1 264 1 267 1 284 1 286 1 289 1 331 1 333 1 364 1 372 1 404 1 414 1 418 1 429 1 439 1 463 1 491 1 508 1 512 1 518 1 525 1 541 1 551 1 559 1 601 1 607 1 610 1 613 1 614 1 630 1 660 1 678 1 682 1 743 1 770 1 785 1 813 1 818 1 837 1 860 1 862 1 877 1 899 1 923 1 931 1 957 1 962 1 971 1 1005 1 
1 212 12 1 17 1 22 1 44 2 45 1 77 1 118 1 127 1 139 1 148 1 149 1 150 1 152 1 155 1 216 1 7 1 36 1 42 1 50 1 59 1 66 1 82 1 96 1 97 1 163 1 235 2 236 1 241 1 273 1 283 2 371 1 379 1 397 1 400 1 410 1 419 1 430 1 439 1 447 1 545 1 591 1 610 1 646 1 658 1 667 1 670 1 686 1 702 1 723 1 750 1 752 1 753 1 793 1 799 1 822 1 856 1 860 1 877 2 909 1 910 1 917 1 922 1 923 1 951 1 952 2 967 1 977 1 981 1 990 1 997 1 267 1 269 1 270 1 302 1 309 1 339 1 354 1 417 1 454 1 469 1 511 1 515 1 518 1 538 1 571 1 599 1 614 1 625 1 640 1 648 1 662 1 673 1 712 1 745 1 794 1 811 1 813 1 814 1 863 1 888 1 893 1 938 1 944 1 955 1 966 1 1010 1 1011 1 1018 1 
1 212 19 1 24 1 25 1 35 1 39 2 49 1 51 1 69 1 71 1 78 1 97 2 105 1 118 1 124 1 135 1 138 1 158 1 187 1 194 1 195 1 12 1 13 1 16 1 44 1 73 1 80 1 115 1 127 1 160 1 175 1 182 1 230 1 234 1 258 1 291 1 313 1 318 1 344 1 345 1 357 1 387 1 402 1 423 1 430 1 434 1 474 1 495 1 496 1 505 1 514 1 522 2 531 1 587 1 652 1 686 1 718 2 741 1 749 1 762 1 764 1 766 1 768 1 775 1 783 1 785 2 792 1 845 1 851 1 875 1 892 1 894 2 904 1 906 1 907 1 931 1 933 1 942 1 973 1 243 1 264 1 273 1 285 1 303 1 304 1 332 1 333 1 341 1 356 1 379 1 393 1 420 1 477 1 515 1 525 1 541 1 548 1 558 1 565 1 573 1 620 1 630 1 664 1 703 1 734 1 748 1 752 1 807 1 846 1 871 1 874 1 888 1 896 1 928 1 954 1 964 1 1007 1 1017 1 1024 1 1025 1 
1 205 3 1 8 1 70 1 100 1 103 1 120 1 155 1 159 1 198 1 202 2 206 2 28 1 33 1 42 1 96 1 118 1 131 1 136 1 152 1 173 1 234 1 260 1 266 1 305 1 328 1 339 1 345 1 365 1 371 1 384 1 412 1 427 1 447 1 487 1 490 2 550 1 551 1 560 1 565 1 567 1 576 1 580 1 595 1 605 1 616 1 618 1 626 1 664 1 673 1 698 1 717 1 730 1 748 1 766 1 783 1 818 1 827 1 867 1 874 1 878 1 919 1 924 1 952 1 997 1 227 1 256 1 264 1 336 1 369 1 428 1 456 1 475 1 486 1 494 1 501 1 511 1 512 1 513 1 520 1 533 1 555 1 577 1 617 1 625 1 666 1 676 1 679 1 703 1 738 1 757 1 794 1 795 1 817 1 838 1 843 1 870 1 892 1 911 1 934 1 956 1 966 1 982 1 996 1 1001 1 
1 210 40 1 53 1 82 1 95 1 100 1 104 1 119 1 132 2 157 1 201 1 209 1 13 1 28 1 38 1 59 1 64 1 84 1 121 1 141 1 162 1 191 1 207 1 208 1 213 1 253 1 266 1 271 2 288 1 300 1 327 1 361 1 370 1 402 1 456 1 490 1 511 1 517 2 536 1 554 1 604 1 608 1 614 2 633 1 635 1 641 1 643 1 692 1 716 2 729 1 749 1 755 1 761 1 785 1 815 1 819 1 822 1 824 1 832 1 838 1 844 1 846 1 880 1 891 1 892 1 936 1 940 1 961 1 963 1 978 1 980 1 1002 1 289 1 290 1 299 1 307 1 356 1 357 1 383 1 434 1 439 1 443 1 448 1 459 1 478 1 482 1 503 1 505 1 550 1 578 1 584 1 592 1 600 1 612 1 618 1 636 1 640 1 710 1 731 1 741 1 769 1 780 1 786 1 851 1 852 1 879 1 884 1 889 1 904 1 927 1 951 1 959 1 975 1 988 1 1005 1 1006 1 1008 1 1013 1 1025 1 
1 208 25 1 42 1 74 1 82 1 94 1 119 1 121 1 150 1 173 1 207 1 216 1 9 1 28 1 68 1 80 1 98 1 114 1 118 1 140 1 153 1 166 1 178 1 215 1 226 1 226 1 241 1 257 1 271 1 273 1 304 1 307 1 323 1 342 1 349 1 356 1 367 1 377 1 392 1 395 1 397 1 413 1 421 1 424 1 428 1 438 1 456 1 465 1 476 1 504 1 505 1 523 1 525 1 557 1 561 1 566 1 577 1 609 1 629 1 662 1 663 1 672 1 701 1 726 1 746 1 776 1 821 1 836 1 841 1 847 1 853 1 898 1 901 1 911 1 975 1 995 2 240 1 255 1 302 1 334 1 407 1 451 1 457 1 481 1 501 1 502 1 509 1 519 1 520 1 521 1 534 1 559 1 569 1 579 1 607 1 608 1 658 1 660 1 676 1 695 1 706 1 714 1 737 1 739 1 801 1 802 1 808 1 822 1 828 1 835 1 939 1 949 1 962 1 991 1 1006 1 1010 1 1012 1 1016 1 
1 207 24 1 30 1 67 1 94 1 112 1 121 1 135 1 144 1 180 2 5 1 11 1 19 1 23 1 32 1 36 1 44 1 47 1 48 1 50 1 51 1 54 1 75 1 83 1 110 1 137 1 142 1 151 1 154 1 170 1 194 1 196 1 200 1 219 1 224 1 248 1 249 1 263 1 270 1 283 1 288 1 298 1 328 1 334 1 355 1 363 1 384 1 420 1 447 1 454 1 481 1 489 1 505 1 519 1 549 1 565 1 575 1 578 1 585 1 598 1 609 1 662 1 736 1 775 1 884 1 886 1 890 1 936 1 988 1 992 2 230 1 234 1 245 1 259 1 279 1 291 1 313 1 320 1 329 1 333 1 379 1 382 1 399 1 404 1 426 1 438 1 471 1 476 1 485 1 516 1 569 1 618 1 700 1 701 1 732 1 734 1 758 1 835 1 857 1 869 1 870 1 880 1 891 1 909 1 926 1 963 1 968 1 1009 1 1019 1 
1 208 74 1 76 1 113 1 128 1 140 1 174 1 211 1 16 1 23 1 39 1 49 1 68 1 111 1 136 1 173 1 186 1 197 1 216 1 249 1 265 1 270 1 288 1 301 1 304 1 376 1 377 1 387 1 393 1 405 1 420 2 428 1 429 1 447 1 473 1 483 2 503 1 532 2 545 1 548 1 560 1 594 1 599 1 611 1 630 1 659 2 704 1 782 1 784 1 786 1 791 1 800 1 804 1 807 1 835 1 837 2 887 1 907 1 908 1 925 1 970 1 982 1 986 1 273 1 274 1 277 1 287 1 313 1 335 1 354 1 403 1 404 1 409 1 419 1 426 1 432 1 433 1 459 1 466 1 547 1 549 1 569 1 598 1 629 1 654 1 660 1 697 1 730 1 744 1 787 1 795 1 799 1 815 1 822 1 825 1 827 1 866 1 877 1 881 1 943 1 949 1 954 1 966 1 968 1 985 1 1002 1 1025 1 
1 213 80 1 93 1 113 1 125 1 143 1 158 1 193 1 200 1 217 1 3 1 24 1 83 1 98 1 106 1 127 1 128 1 144 1 157 1 166 1 183 1 206 1 209 1 234 1 261 1 268 1 302 1 322 1 331 1 347 1 387 1 412 1 420 1 432 1 447 1 467 1 471 1 612 1 627 1 631 1 655 1 656 1 667 1 668 1 774 1 785 1 791 1 819 1 869 1 876 1 877 1 882 1 891 1 896 1 915 1 919 1 959 2 974 1 980 1 986 1 248 1 257 1 313 1 352 1 354 1 356 1 357 1 362 1 383 1 390 1 405 1 438 1 452 1 453 1 497 1 527 1 559 1 580 1 585 1 587 1 590 1 597 1 628 1 672 1 674 1 724 1 728 1 745 1 806 1 830 1 848 1 860 1 868 1 875 1 886 1 907 1 910 1 917 1 921 1 935 1 961 1 973 1 1007 1 1008 1 1014 1 1019 1 1021 1 1027 1 
1 213 14 1 39 1 46 2 50 1 51 1 53 1 66 1 74 1 78 1 83 1 107 2 110 1 131 1 133 1 141 2 148 1 176 1 190 1 210 1 221 1 223 1 5 1 22 1 65 1 71 1 98 1 118 1 127 1 128 1 164 1 175 1 184 1 187 1 197 1 211 1 219 1 227 1 231 1 274 1 278 2 300 1 306 1 315 1 317 1 321 1 324 1 372 1 382 1 393 1 404 1 422 2 431 1 461 1 485 1 517 1 542 1 555 1 572 1 602 1 616 1 627 1 642 1 649 1 659 1 699 1 710 1 719 1 729 1 758 1 785 1 788 1 794 1 819 1 821 1 825 1 832 1 862 1 867 2 869 1 877 1 880 1 916 1 923 1 938 1 945 1 948 1 952 1 987 1 994 1 254 1 268 1 293 1 320 1 337 1 341 1 359 1 383 1 385 1 439 1 445 1 452 1 502 1 509 1 535 1 540 1 557 1 559 1 578 1 580 1 590 1 592 1 600 1 634 1 692 1 697 1 704 1 738 1 744 1 759 1 786 1 795 1 805 1 823 1 831 1 881 1 901 1 933 1 935 1 942 1 956 1 964 1 990 1 1016 1 1022 1 
1 207 5 1 31 1 87 1 92 1 93 1 101 1 126 1 176 1 230 1 4 1 29 1 34 1 35 1 54 1 83 1 99 1 131 1 141 1 148 1 149 1 196 1 242 1 249 1 251 2 260 1 271 2 280 1 290 1 323 1 325 1 338 1 371 1 398 1 413 1 470 1 491 1 504 1 515 1 538 1 547 1 570 1 571 1 572 1 579 1 630 1 636 1 663 1 681 1 710 1 720 1 738 1 747 2 756 1 762 1 797 1 841 1 845 1 861 1 894 1 898 1 900 1 922 1 930 1 947 1 981 1 992 1 1002 1 234 1 253 1 257 1 263 1 275 1 284 1 328 1 343 1 344 1 346 1 352 1 356 1 358 1 369 1 375 1 403 1 471 1 506 1 508 1 511 1 512 1 521 1 548 1 575 1 581 1 582 1 600 1 610 1 615 1 644 1 680 1 698 1 704 1 722 1 727 1 771 1 785 1 862 1 863 1 871 1 875 1 897 1 899 1 942 1 953 1 964 1 975 1 979 1 986 1 1006 1 1009 1 1017 1 
1 213 26 1 43 1 54 1 105 1 134 1 136 2 142 1 177 1 184 1 185 1 214 1 13 1 21 1 47 1 52 1 66 1 87 1 100 1 120 1 144 1 160 1 174 1 194 1 198 1 208 1 215 1 237 1 274 1 287 1 288 1 292 1 303 1 308 1 309 1 323 1 325 1 345 1 346 1 348 1 353 1 409 1 414 1 430 1 431 1 434 1 446 1 450 1 477 2 495 1 512 1 520 1 524 1 550 1 590 1 599 1 600 1 601 1 605 1 618 1 620 1 636 1 659 1 681 1 686 1 687 1 700 1 720 1 721 1 728 1 770 1 772 1 787 1 796 1 819 1 856 1 857 1 859 1 868 1 873 1 898 2 915 1 937 1 957 1 959 1 961 1 988 1 1001 1 238 1 245 1 334 1 336 1 369 1 370 1 425 1 439 1 448 1 496 1 502 1 504 1 510 1 530 1 564 1 568 1 573 1 606 1 610 1 622 1 626 1 660 1 701 1 708 1 716 1 746 1 800 1 801 1 803 1 805 1 809 1 811 1 839 1 872 1 896 1 899 1 911 1 951 1 963 1 1005 1 1010 1 1013 1 1016 1 1020 1 
1 211 7 1 17 1 18 2 30 1 39 2 41 1 56 1 61 1 73 1 78 1 125 1 134 1 141 1 158 1 159 1 179 1 183 1 188 1 189 2 191 1 200 1 220 1 43 1 81 1 85 1 87 1 102 1 131 1 142 1 149 1 172 1 182 1 184 1 205 1 208 1 247 1 257 1 273 1 277 1 284 1 310 1 359 1 377 1 395 1 401 1 403 1 446 1 493 1 528 1 531 1 535 1 546 1 548 1 551 1 553 1 558 1 563 1 574 1 585 1 587 1 604 1 614 1 621 1 623 1 636 1 651 1 653 2 683 1 718 1 741 1 753 1 757 1 768 1 769 1 790 1 815 1 824 1 831 1 832 1 857 1 860 1 883 1 898 1 911 1 913 1 944 1 945 1 978 1 1000 1 242 1 286 1 297 1 306 1 318 1 320 1 348 1 370 1 472 1 495 1 562 1 576 1 659 1 677 1 678 1 690 1 730 1 754 1 759 1 760 1 782 1 806 1 818 1 823 1 863 1 882 1 894 1 933 1 958 1 960 1 991 1 998 1 1005 1 1006 1 1010 1 1025 1 
1 208 12 1 47 1 82 1 109 1 122 1 125 1 132 1 146 1 150 1 158 1 169 1 189 1 192 1 213 2 223 1 224 1 229 1 5 1 11 1 68 1 71 1 76 1 98 1 127 1 130 1 143 1 165 1 194 1 196 1 227 1 231 1 257 1 287 1 324 1 373 1 458 1 474 1 510 1 539 1 555 1 576 1 605 1 619 2 627 1 628 1 639 1 671 1 676 1 677 1 678 1 703 1 706 1 714 1 739 1 795 1 856 1 868 1 899 1 942 1 949 1 971 1 978 1 252 1 254 1 255 1 263 1 301 1 322 1 333 1 335 1 347 1 351 1 388 1 408 1 422 1 435 1 453 1 481 1 504 1 515 1 519 1 521 1 538 1 573 1 578 1 582 1 620 1 688 1 733 1 747 1 750 1 762 1 785 1 787 1 811 1 814 1 822 1 845 1 865 1 869 1 873 1 879 1 882 1 888 1 930 1 943 1 970 1 986 1 991 1 1006 1 1015 1 1017 1 
1 210 1 1 11 1 18 1 27 1 31 1 38 2 56 1 81 1 84 1 94 1 102 1 118 1 124 1 126 1 168 1 194 1 195 1 203 1 222 2 12 1 32 1 47 1 112 1 121 1 123 1 127 1 130 1 155 1 159 1 242 1 246 2 260 1 261 1 262 1 324 1 367 1 376 1 378 1 380 1 404 1 410 1 419 1 421 1 424 1 441 1 451 1 535 1 577 1 581 1 599 1 603 1 615 1 629 1 664 1 683 1 705 1 706 1 714 1 715 1 730 1 742 2 820 1 835 1 839 1 843 1 880 1 887 2 930 1 931 1 938 1 969 1 978 1 987 1 988 1 993 1 999 1 240 1 250 1 279 1 308 1 337 1 344 1 384 1 396 1 397 1 428 1 429 1 449 1 457 1 472 1 482 1 487 1 500 1 510 1 532 1 560 1 598 1 601 1 612 1 623 1 650 1 659 1 670 1 687 1 713 1 735 1 747 1 759 1 760 1 802 1 808 1 847 1 848 1 876 1 893 1 907 1 945 1 946 1 952 1 989 1 998 1 1016 1 
1 211 4 1 36 1 38 1 41 2 54 1 59 1 74 1 93 1 119 1 120 1 136 1 139 1 174 1 181 1 222 1 5 1 11 1 12 1 26 1 33 1 39 1 50 1 51 1 57 1 70 1 81 1 102 1 117 1 142 1 145 1 153 1 175 1 208 1 244 1 246 1 254 1 256 1 260 1 288 1 291 1 295 1 300 1 323 1 364 1 369 1 370 1 390 1 399 1 404 1 420 2 458 1 469 1 472 1 476 1 478 1 491 2 493 1 523 1 545 1 630 1 696 1 721 1 723 1 728 1 749 1 762 1 772 1 778 1 786 1 795 1 816 2 818 1 861 1 889 1 898 1 912 1 975 1 993 1 996 1 1001 1 242 1 258 1 278 1 293 1 305 1 325 1 355 1 377 1 381 1 400 1 413 1 414 1 424 1 434 1 435 1 448 1 453 1 473 1 474 1 477 1 501 1 514 1 521 1 526 1 561 1 626 1 632 1 699 1 707 1 739 1 743 1 746 1 775 1 787 1 797 1 812 1 831 1 869 1 887 1 910 1 917 1 941 1 958 1 969 1 1005 1 1008 1 1014 1 1027 1 
1 213 51 2 65 1 69 1 97 1 110 1 132 1 136 1 139 1 143 1 160 1 204 1 212 1 213 1 232 1 5 1 18 1 74 1 125 1 133 1 191 1 193 1 273 1 278 1 280 1 300 1 319 1 358 1 364 2 381 1 382 1 397 1 403 1 409 1 446 1 449 1 458 1 465 1 485 1 505 1 524 1 552 1 558 1 589 1 594 2 604 1 615 1 640 1 644 1 657 1 659 1 680 1 685 1 686 1 705 1 722 1 749 1 755 1 783 1 798 1 813 1 850 1 866 1 881 1 890 1 925 1 964 1 250 1 255 1 282 1 285 1 303 1 308 1 325 1 326 1 371 1 407 1 418 1 463 1 471 1 472 1 477 1 489 1 499 1 522 1 538 1 542 1 581 1 583 1 629 1 658 1 673 1 711 1 731 1 773 1 791 1 811 1 812 1 823 1 829 1 841 1 848 1 900 1 1016 1 1018 1 1019 1 
1 209 5 1 25 1 28 1 32 1 41 1 43 2 53 1 91 1 93 2 97 1 162 2 205 1 207 1 213 2 34 1 45 1 54 1 57 1 64 1 70 1 139 1 158 1 161 1 177 1 194 1 195 1 197 1 212 1 215 1 232 1 250 1 269 1 280 1 316 1 322 1 327 1 348 1 352 1 354 1 356 1 365 1 369 1 372 1 373 1 375 1 392 1 397 1 402 1 403 1 422 1 426 2 438 1 484 1 520 1 524 1 528 1 530 1 559 1 656 1 663 1 676 1 681 1 694 1 695 1 698 1 701 1 707 1 709 1 729 1 733 1 734 1 742 2 753 1 767 1 781 1 807 1 808 1 850 1 857 1 858 1 865 1 869 1 885 1 901 1 944 2 947 1 979 1 985 2 990 1 304 1 362 1 391 1 440 1 504 1 561 1 582 1 592 1 593 1 603 1 617 1 625 1 626 1 633 1 645 1 673 1 682 1 718 1 755 1 774 1 787 1 790 1 805 1 810 1 830 1 832 1 840 1 844 1 864 1 875 1 880 1 912 1 913 1 917 1 926 1 929 1 931 1 953 1 972 1 974 1 997 1 1000 1 1014 1 1019 1 1025 1 
1 210 9 1 35 1 42 1 45 1 102 1 132 1 150 1 153 1 179 1 8 1 26 1 28 1 49 1 51 1 61 1 129 1 135 1 155 1 158 1 176 1 181 1 217 1 302 1 307 1 321 1 326 1 336 1 355 1 356 1 365 1 431 1 436 1 443 1 457 1 485 1 489 1 494 2 508 1 519 1 527 1 530 1 546 1 574 1 599 1 607 1 625 1 629 1 648 1 657 1 675 1 710 1 752 1 775 1 781 1 787 1 805 1 824 1 831 1 839 1 862 1 867 1 872 1 888 2 891 2 904 1 919 1 926 1 946 1 953 1 963 1 976 1 985 1 255 1 258 1 259 1 267 1 271 1 283 1 289 1 295 1 297 1 325 1 329 1 409 1 412 1 428 1 440 1 444 1 473 1 514 1 537 1 550 1 566 1 590 1 603 1 616 1 622 1 643 1 674 1 678 1 733 1 740 1 748 1 768 1 774 1 777 1 863 1 887 1 905 1 907 1 930 1 948 1 954 1 967 1 970 1 978 1 1000 1 1022 1 
1 205 1 1 14 1 18 1 24 1 104 1 107 1 142 1 152 1 177 1 212 1 215 1 216 1 221 1 17 1 45 1 48 1 56 1 89 1 122 1 164 1 170 1 179 1 199 1 204 1 226 1 235 1 240 1 240 1 246 2 248 1 254 1 263 1 269 1 276 1 277 1 317 1 338 1 359 1 366 1 378 1 424 1 430 1 452 1 474 1 475 2 480 1 492 1 511 1 518 1 525 1 546 1 562 1 569 1 576 1 617 1 652 1 668 1 682 1 684 2 727 1 766 1 796 1 824 1 953 1 957 1 996 1 242 1 261 1 265 1 321 1 339 1 350 1 372 1 383 1 438 1 440 1 443 1 465 1 469 1 478 1 489 1 504 1 545 1 548 1 595 1 598 1 599 1 642 1 658 1 678 1 680 1 689 1 695 1 696 1 722 1 765 1 788 1 792 1 804 1 818 1 828 1 838 1 844 1 871 1 907 1 915 1 929 1 936 1 941 1 970 1 1018 1 
1 204 30 1 89 1 102 1 138 1 152 2 157 1 186 1 195 1 199 1 222 1 226 1 7 1 41 1 44 1 85 1 159 1 164 1 166 1 185 1 192 1 207 1 212 1 274 1 281 1 336 1 337 1 360 1 363 1 364 1 380 1 381 1 386 1 391 2 408 1 440 2 463 1 464 1 508 1 548 1 556 1 571 1 581 1 584 1 590 1 616 1 632 1 656 1 662 1 665 1 673 1 675 2 677 1 696 1 698 1 710 1 728 1 742 1 744 1 748 1 762 1 776 1 791 1 796 1 829 1 843 1 883 1 888 1 902 1 944 1 951 1 954 1 967 1 988 1 243 1 246 1 249 1 278 1 283 1 308 1 312 1 315 1 317 1 327 1 351 1 402 1 404 1 406 1 410 1 411 1 434 1 445 1 457 1 506 1 512 1 517 1 547 1 551 1 612 1 635 1 645 1 660 1 769 1 790 1 801 1 802 1 805 1 817 1 818 1 839 1 842 1 847 1 862 1 864 1 970 1 1002 1 1014 1 
1 214 60 1 71 1 111 1 131 1 164 1 183 1 210 1 218 1 231 1 235 1 8 1 49 1 62 1 80 1 91 1 107 1 138 1 144 1 195 1 196 1 207 1 215 1 233 1 236 1 240 1 253 1 269 1 277 1 281 1 284 1 292 2 297 1 298 1 299 1 313 1 318 1 319 1 332 2 335 1 338 1 341 1 342 1 415 1 442 1 450 1 463 1 487 1 511 1 512 1 521 1 550 1 559 1 571 1 575 1 576 1 586 1 592 1 630 1 667 1 700 1 701 1 708 1 723 1 748 1 760 1 768 1 778 1 783 1 785 1 795 2 816 1 875 1 883 1 925 1 937 1 945 1 952 1 268 1 344 1 369 1 371 1 384 1 421 1 435 1 459 1 467 1 472 1 482 1 506 1 515 1 523 1 527 1 581 1 583 1 607 1 610 1 633 1 650 1 652 1 657 1 663 1 685 1 692 1 765 1 779 1 796 1 800 1 829 1 838 1 842 1 850 1 877 1 901 1 913 1 956 1 1005 1 1019 1 
1 211 2 1 41 1 46 1 112 1 113 1 125 1 129 1 148 1 152 1 153 1 168 1 185 1 207 1 12 1 48 1 58 1 59 1 91 1 97 1 120 1 136 1 157 1 158 1 180 1 184 1 216 1 223 1 241 1 249 1 254 1 262 1 279 1 314 1 337 1 362 1 372 1 376 1 399 1 400 1 409 1 433 1 440 1 453 1 462 1 482 1 486 2 488 1 514 1 536 1 541 1 576 1 586 1 624 1 632 1 645 1 666 1 682 1 686 1 744 1 790 1 843 1 862 1 893 1 910 1 929 1 950 1 984 1 988 1 264 1 332 1 341 1 352 1 384 1 412 1 419 1 425 1 444 1 451 1 465 1 483 1 501 1 509 1 561 1 568 1 617 1 618 1 638 1 689 1 698 1 733 1 738 1 770 1 775 1 793 1 795 1 814 1 832 1 873 1 892 1 931 1 999 1 1006 1 1024 1 
1 210 5 1 21 1 96 1 97 1 104 1 133 1 144 1 164 1 181 1 197 1 215 2 236 1 1 1 7 1 11 1 50 1 52 1 72 1 155 1 193 1 209 1 255 1 267 1 337 1 338 2 426 1 447 1 454 1 486 1 487 2 495 1 506 1 522 1 531 1 550 1 608 1 612 2 641 1 642 1 645 1 650 1 652 1 720 1 724 1 733 1 742 2 749 1 771 1 792 1 828 1 833 1 866 1 872 1 878 1 904 1 914 1 938 1 957 1 961 1 263 1 275 1 280 1 281 1 282 1 300 1 311 1 318 1 339 1 378 1 382 1 419 1 438 1 443 1 451 1 482 1 485 1 496 1 509 1 516 1 526 1 528 1 536 1 578 1 593 1 618 1 620 1 639 1 640 1 646 1 659 1 662 1 700 1 712 1 753 1 787 1 803 1 852 1 863 1 864 1 869 1 871 1 890 1 906 1 908 1 913 1 916 1 933 1 1016 1 
1 212 13 1 29 2 57 1 81 2 86 1 89 1 101 1 112 1 118 1 128 1 153 1 174 1 186 1 192 1 194 1 201 1 215 1 7 1 32 1 34 1 95 1 104 1 132 1 166 1 168 1 191 1 214 1 227 1 232 1 277 1 289 1 297 1 351 1 378 1 382 1 389 1 398 1 462 1 464 1 486 1 487 1 502 1 515 1 548 1 568 1 600 1 604 1 606 1 622 1 642 1 649 1 671 2 700 1 712 1 715 1 766 1 774 1 789 1 877 1 888 1 899 2 906 1 924 1 951 1 992 1 999 1 1001 1 344 1 354 1 366 1 403 1 406 1 500 1 503 1 540 1 551 1 555 1 559 1 569 1 575 1 578 1 580 1 588 1 602 1 627 1 641 1 662 1 688 1 721 1 728 1 752 1 775 1 788 1 797 1 803 1 804 1 847 1 876 1 882 1 887 1 913 1 916 1 918 1 926 1 941 1 942 1 960 1 
1 210 6 1 11 1 24 1 42 1 45 1 50 1 61 1 85 1 92 1 113 1 139 1 146 1 154 1 164 1 180 1 183 1 208 1 235 2 236 1 240 2 15 1 35 1 36 1 63 1 66 1 76 1 133 1 137 1 149 1 150 1 175 1 197 1 198 1 211 1 220 1 241 1 263 1 349 1 384 1 391 1 405 1 406 1 479 1 491 1 515 1 527 1 544 1 546 1 576 1 593 1 616 1 690 1 692 1 713 1 730 1 767 1 771 1 799 1 842 1 850 1 855 1 856 1 860 1 866 1 867 1 916 1 927 1 955 1 966 1 986 1 991 1 264 1 265 1 266 1 280 1 295 1 299 1 300 1 309 1 392 1 401 1 431 1 468 1 493 1 520 1 538 1 551 1 561 1 573 1 589 1 626 1 639 1 642 1 645 1 660 1 674 1 677 1 701 1 722 1 734 1 745 1 754 1 762 1 774 1 782 1 814 1 819 1 870 1 895 1 900 1 910 1 921 1 973 1 1003 1 
1 220 28 1 33 1 36 1 42 2 53 1 57 1 75 1 106 1 148 1 159 1 167 1 174 1 206 1 233 1 8 1 26 1 32 1 41 1 54 1 63 1 97 1 115 1 128 1 136 1 140 1 144 1 149 1 152 1 165 1 180 1 185 1 193 1 266 1 282 1 284 1 299 1 305 1 325 1 356 1 357 1 375 1 408 1 415 1 424 1 444 1 458 1 469 1 475 1 476 1 482 1 485 1 509 2 519 2 531 1 537 1 538 1 569 1 576 1 583 1 600 1 604 1 610 1 614 1 633 1 642 1 693 1 710 2 724 1 725 1 776 1 800 1 817 1 830 1 835 1 838 1 875 1 877 1 914 1 924 1 958 1 959 1 974 1 979 1 980 1 996 1 255 1 296 1 332 1 354 1 360 1 422 1 427 1 440 1 451 1 465 1 466 1 504 1 540 1 554 1 560 1 580 1 591 1 631 1 647 1 656 1 668 1 690 1 698 1 707 1 714 1 765 1 790 1 827 1 832 1 846 1 856 1 889 1 904 1 928 1 929 1 946 1 968 1 986 1 1008 1 1010 1 1012 1 1019 1 1021 1 1023 1 
1 210 6 1 33 1 60 1 83 1 104 1 115 1 132 1 159 1 160 1 186 1 221 1 227 1 240 1 22 1 23 1 24 1 30 1 49 1 52 1 59 1 67 1 75 1 100 1 112 1 125 1 129 1 172 1 191 1 229 1 271 1 283 1 328 1 329 1 349 1 352 1 375 1 411 1 418 1 421 1 451 2 458 1 463 1 473 1 491 1 495 1 510 1 534 1 542 1 545 1 557 1 582 1 585 1 589 1 616 1 632 1 647 1 650 1 651 1 663 1 678 1 694 1 707 1 745 1 758 1 811 1 818 1 827 1 886 1 892 1 896 1 909 1 918 1 922 1 931 1 943 1 974 1 991 1 1001 1 249 1 261 1 265 1 299 1 300 1 327 1 332 1 344 1 355 1 389 1 413 1 468 1 503 1 505 1 529 1 533 1 556 1 559 1 562 1 572 1 592 1 593 1 595 1 642 1 660 1 667 1 677 1 685 1 705 1 710 1 712 1 741 1 771 1 776 1 787 1 788 1 792 1 798 1 834 1 873 1 894 1 965 1 967 1 971 1 980 1 982 1 1014 1 1016 1 1020 1 1027 1 
1 210 24 1 42 1 50 1 52 1 79 1 85 1 90 1 127 2 172 1 198 1 221 1 227 1 228 1 231 1 243 1 35 1 38 1 51 1 64 1 88 1 105 1 116 1 123 1 147 1 204 1 218 1 241 1 248 1 269 1 290 1 324 1 333 1 345 1 348 1 359 1 375 1 391 1 419 1 430 1 451 1 473 1 478 2 492 1 494 1 508 1 539 1 542 1 590 1 608 1 609 1 621 1 627 1 646 1 655 1 659 1 685 1 688 2 702 1 715 1 740 1 745 1 805 1 888 1 905 1 913 1 921 1 945 1 951 1 959 2 968 1 979 1 1000 1 255 1 279 1 298 1 306 1 326 1 337 1 354 1 398 1 445 1 458 1 461 1 498 1 499 1 503 1 518 1 523 1 527 1 559 1 598 1 601 1 610 1 631 1 668 1 674 1 712 1 744 1 754 1 757 1 776 1 779 1 796 1 817 1 836 1 852 1 858 1 862 1 898 1 909 1 931 1 940 1 999 1 1004 1 1011 1 1019 1 1026 1 
1 213 1 1 19 1 27 1 40 1 51 1 53 1 77 1 84 1 107 1 116 1 121 1 128 1 141 1 183 1 192 1 199 1 218 1 238 1 3 1 13 1 34 1 50 1 56 1 89 1 102 1 140 1 179 1 221 1 235 1 237 1 253 1 266 1 269 1 302 1 307 1 314 1 329 1 336 1 337 2 394 1 453 2 470 1 497 1 498 1 503 1 505 1 517 1 544 1 556 1 559 1 568 1 598 1 607 1 633 1 659 2 677 1 684 1 694 1 705 2 718 1 720 1 773 1 783 1 798 1 805 1 829 1 831 1 851 1 890 1 901 1 917 1 952 1 979 1 989 1 998 1 1001 1 255 1 265 1 295 1 331 1 348 1 369 1 392 1 400 1 408 1 413 1 437 1 474 1 493 1 500 1 504 1 511 1 532 1 548 1 578 1 600 1 618 1 632 1 641 1 642 1 649 1 670 1 742 1 753 1 765 1 770 1 811 1 828 1 882 1 887 1 906 1 911 1 919 1 941 1 943 1 976 1 987 1 990 1 1007 1 1012 1 1025 1 
1 211 16 1 90 1 106 1 116 1 134 1 140 1 150 1 155 1 171 1 198 1 217 2 231 2 45 1 85 1 89 1 93 1 110 1 163 1 177 1 259 1 289 1 296 1 311 1 322 1 325 1 336 1 368 1 371 1 373 1 396 1 402 1 433 1 435 1 445 1 448 1 451 1 454 1 455 1 458 1 486 1 497 1 504 1 511 1 515 1 530 1 536 1 539 1 566 1 569 1 587 1 591 1 638 1 660 1 674 1 680 1 717 1 718 1 727 1 756 1 771 1 772 1 789 1 839 1 850 1 860 1 891 1 900 1 901 1 912 1 919 1 922 1 276 1 282 1 291 1 292 1 304 1 310 1 314 1 362 1 364 1 386 1 387 1 418 1 461 1 463 1 469 1 518 1 545 1 556 1 564 1 571 1 645 1 676 1 723 1 724 1 725 1 729 1 746 1 777 1 809 1 846 1 878 1 882 1 897 1 909 1 914 1 920 1 924 1 944 1 988 1 992 1 1008 1 1009 1 1014 1 1021 1 1022 1 1025 1 
1 212 15 1 24 1 28 1 35 1 62 2 73 1 76 1 144 1 178 1 195 1 5 1 8 1 39 1 47 1 61 1 87 1 138 1 143 1 145 1 168 1 197 1 221 1 234 1 265 2 272 1 300 1 316 1 332 1 342 1 350 1 361 1 367 1 370 1 381 1 394 1 400 1 426 1 490 1 516 1 617 1 622 1 642 1 647 2 655 1 658 1 664 1 678 1 680 1 766 1 768 1 771 1 778 1 809 1 822 1 840 1 896 1 900 1 938 1 963 1 986 1 1001 1 258 1 267 1 268 1 270 1 315 1 329 1 335 1 340 1 372 1 398 1 401 1 424 1 439 1 484 1 495 1 502 1 523 1 525 1 526 1 530 1 579 1 591 1 592 1 599 1 635 1 643 1 659 1 665 1 694 1 703 1 704 1 708 1 718 1 720 1 723 1 730 1 746 1 761 1 830 1 849 1 851 1 860 1 916 1 930 1 932 1 961 1 966 1 976 1 977 1 1008 1 1009 1 1020 1 
1 207 21 1 52 1 72 1 74 1 77 1 79 1 81 1 84 1 194 1 208 1 225 1 242 1 250 1 15 1 45 1 48 1 73 1 78 1 80 1 92 1 95 1 103 1 111 1 146 1 150 1 157 1 164 1 165 1 189 1 231 1 265 1 269 1 270 1 288 1 298 1 328 1 365 1 393 1 436 1 452 1 460 1 469 1 481 2 494 1 497 1 545 1 548 1 574 1 633 1 640 1 664 1 671 1 672 1 675 1 691 1 695 1 697 1 699 1 715 1 726 1 734 1 739 1 760 1 770 1 788 2 799 1 800 1 817 1 826 1 828 1 831 1 839 1 868 1 877 2 890 1 903 1 913 1 918 1 922 1 934 1 935 1 944 1 951 1 960 1 972 1 982 1 989 2 260 1 299 1 304 1 329 1 353 1 386 1 398 1 425 1 456 1 462 1 504 1 530 1 534 1 582 1 628 1 638 1 641 1 683 1 721 1 737 1 742 1 743 1 750 1 763 1 765 1 774 1 776 1 804 1 812 1 813 1 821 1 840 1 852 1 864 1 865 1 915 1 958 1 1000 1 1003 1 1013 1 
1 211 11 2 18 1 19 1 27 1 47 1 50 1 71 1 74 2 92 1 100 1 108 1 115 1 119 1 140 1 142 1 157 1 185 1 194 2 199 1 219 1 236 1 240 1 243 1 21 1 28 1 41 1 43 1 44 1 56 1 75 1 97 1 129 1 180 1 188 1 197 1 210 1 215 1 230 1 234 1 257 1 265 1 276 1 311 1 328 1 345 1 352 1 356 1 362 1 394 1 406 1 444 1 453 1 495 1 497 1 579 1 582 1 595 1 618 1 641 1 669 1 675 1 697 1 706 1 710 1 733 1 766 1 828 1 834 1 838 2 855 1 872 1 879 1 900 1 902 1 936 1 1001 1 271 1 281 1 289 1 319 1 327 1 334 1 348 1 369 1 376 1 381 1 420 1 464 1 475 1 484 1 566 1 568 1 570 1 573 1 593 1 620 1 636 1 637 1 642 1 644 1 662 1 672 1 702 1 719 1 736 1 755 1 760 1 776 1 792 1 826 1 851 1 852 1 856 1 857 1 868 1 877 1 932 1 933 1 949 1 959 1 984 1 1006 1 1007 1 1013 1 1019 1 1022 1 1024 1 
1 214 26 1 28 1 41 1 42 1 64 1 89 1 90 1 96 1 117 1 120 1 122 1 148 1 169 1 179 1 181 1 203 1 244 1 14 1 16 1 44 1 98 1 104 1 111 1 121 1 144 1 191 1 226 1 234 1 237 1 239 1 247 1 249 1 250 1 265 1 266 2 273 1 298 1 314 1 324 1 330 1 353 1 371 1 395 1 416 1 422 1 431 1 439 1 445 1 465 1 474 1 480 1 526 1 537 1 567 1 596 1 619 1 626 1 645 1 699 1 708 1 749 1 783 1 789 1 809 1 819 1 867 1 873 1 878 1 880 1 889 1 911 1 932 1 934 1 948 1 960 1 988 1 1002 1 268 1 328 1 367 1 385 1 388 1 402 1 407 1 408 1 423 1 427 1 429 1 450 1 471 1 527 1 550 1 566 1 572 1 573 1 588 1 597 1 609 1 620 1 649 1 675 1 706 1 723 1 736 1 746 1 758 1 762 1 766 1 772 1 832 1 833 1 838 1 864 1 882 1 899 1 910 1 912 1 919 1 921 1 946 1 951 1 1004 1 1005 1 1012 1 1013 1 1022 1 1027 1 
1 210 70 1 72 1 88 1 94 1 143 1 144 2 153 1 162 1 178 1 183 1 236 1 2 1 12 1 28 1 30 1 39 1 52 1 60 1 64 1 110 1 114 1 122 1 134 1 139 1 177 1 191 1 212 1 214 1 218 1 224 1 268 1 305 2 318 1 324 2 364 1 388 1 395 1 405 1 410 1 438 1 448 1 449 1 468 1 471 1 477 1 478 1 496 1 499 1 522 1 544 1 548 1 579 1 586 1 606 1 624 1 645 1 653 1 676 1 709 1 714 1 717 1 720 1 729 1 745 1 770 1 792 1 859 2 906 1 922 1 923 1 929 1 943 1 948 1 956 1 988 1 278 1 287 1 342 1 361 1 367 1 372 1 420 1 439 1 440 1 481 1 501 1 527 1 562 1 565 1 599 1 650 1 655 1 684 1 721 1 801 1 812 1 837 1 877 1 896 1 899 1 910 1 940 1 958 1 959 1 970 1 979 1 1021 1 
1 210 17 1 26 1 33 1 40 1 58 1 61 2 88 1 98 1 101 1 127 1 139 1 169 1 180 1 200 1 211 1 226 1 233 1 234 1 254 1 48 1 66 1 74 1 84 1 116 1 136 1 141 1 144 1 150 1 183 1 187 1 198 1 229 1 231 1 284 1 291 1 300 1 317 1 326 1 333 1 336 1 340 1 353 1 355 1 359 1 362 2 404 1 416 1 435 1 448 1 453 2 522 2 525 1 586 1 643 1 673 1 674 1 716 1 775 1 783 1 796 1 801 1 810 1 813 1 818 1 883 1 885 1 906 1 920 1 953 1 962 1 981 1 987 1 265 1 276 1 285 1 288 1 290 1 309 1 314 1 320 1 338 1 358 1 414 1 450 1 474 1 521 1 537 1 541 1 589 1 590 1 591 1 623 1 631 1 640 1 645 1 653 1 670 1 691 1 702 1 728 1 736 1 738 1 740 1 749 1 750 1 767 1 778 1 786 1 807 1 808 1 814 1 815 1 842 1 844 1 851 1 878 1 914 1 923 1 959 1 982 1 983 1 999 1 1004 1 1007 1 1018 1 1022 1 
1 209 8 1 45 1 57 1 72 1 75 1 163 1 168 1 174 1 215 1 220 1 223 1 28 1 40 1 85 1 110 1 112 1 128 1 142 1 146 1 155 1 159 1 160 1 180 1 199 1 205 1 236 1 239 1 252 1 291 1 295 1 340 1 350 1 355 1 356 2 364 1 365 1 368 1 380 1 394 1 395 2 408 1 424 1 449 1 460 1 470 1 486 1 506 1 510 1 544 1 570 1 571 1 572 1 577 2 578 1 607 1 639 1 646 2 667 1 704 1 707 1 714 1 715 1 726 1 727 1 754 1 779 1 793 1 839 1 846 2 849 1 866 1 879 1 882 1 917 1 959 1 961 1 962 1 1001 1 316 1 319 1 362 1 366 1 372 1 385 1 402 1 411 1 443 1 466 1 491 1 513 1 526 1 550 1 555 1 582 1 593 1 617 1 718 1 724 1 735 1 752 1 756 1 770 1 808 1 813 1 821 1 831 1 874 1 885 1 896 1 909 1 941 1 987 1 1002 1 1012 1 1018 1 1025 1 
1 210 17 1 31 1 49 1 86 1 93 1 104 1 127 1 131 1 144 2 156 1 183 1 187 1 195 1 212 1 215 1 221 1 251 1 10 1 16 1 18 1 23 1 50 1 89 1 99 1 128 1 133 1 153 1 192 1 211 1 227 1 239 1 262 1 266 1 339 1 344 1 362 1 404 1 416 1 438 1 478 1 531 1 551 1 607 1 627 1 656 1 703 1 770 2 788 1 791 1 813 1 814 1 822 1 838 1 842 2 844 1 857 1 929 1 940 1 944 1 993 1 301 1 352 1 357 1 363 1 370 1 390 1 433 1 447 1 463 1 464 1 468 1 483 1 491 1 502 1 513 1 527 1 532 1 533 1 557 1 582 1 584 1 585 1 588 1 598 1 609 1 615 1 617 1 624 1 637 1 652 1 664 1 672 1 682 1 701 1 718 1 747 1 760 1 766 1 775 1 779 1 783 1 786 1 800 1 801 1 820 1 824 1 835 1 865 1 886 1 890 1 942 1 988 1 990 1 992 1 997 1 1011 1 1012 1 1027 1 
1 211 11 1 37 1 60 1 95 1 97 1 102 1 127 1 136 1 148 1 153 1 161 1 167 1 180 1 182 1 185 1 191 2 215 1 224 1 231 1 235 1 236 1 2 1 65 1 79 1 120 1 124 1 144 1 160 1 186 1 206 1 253 1 272 2 297 1 329 1 334 1 338 1 348 1 392 1 394 1 410 1 414 1 431 1 446 1 464 1 470 1 478 1 545 1 567 1 597 2 646 1 659 1 671 1 682 1 683 1 702 1 712 1 724 1 766 1 792 1 813 1 817 1 835 1 845 1 854 1 867 1 875 1 899 1 910 1 934 1 935 1 977 1 993 1 277 1 367 1 393 1 398 1 407 1 439 1 452 1 459 1 473 1 486 1 503 1 508 1 518 1 541 1 572 1 573 1 603 1 608 1 630 1 631 1 658 1 669 1 718 1 723 1 730 1 758 1 785 1 815 1 833 1 842 1 882 1 907 1 918 1 937 1 942 1 950 1 968 1 997 1 1024 1 
1 209 44 1 45 1 66 1 77 1 100 2 124 1 140 1 148 1 175 1 180 1 182 1 194 1 200 1 229 1 235 1 9 1 13 1 97 1 104 1 141 1 163 1 171 1 187 1 191 1 210 1 240 1 248 1 282 1 290 1 323 1 325 1 331 1 334 1 368 1 373 1 397 1 404 1 425 1 435 1 444 1 454 1 485 1 500 1 511 1 524 1 534 1 540 1 568 1 625 1 640 1 655 1 683 1 720 2 733 1 767 1 795 1 799 1 803 1 809 1 830 1 847 1 866 1 894 1 907 1 914 1 920 1 980 1 988 1 996 1 295 1 300 1 315 1 318 1 320 1 335 1 347 1 461 1 474 1 478 1 492 1 498 1 516 1 517 1 551 1 591 1 608 1 610 1 623 1 654 1 670 1 681 1 689 1 705 1 706 1 771 1 778 1 783 1 797 1 841 1 844 1 861 1 876 1 886 1 889 1 909 1 926 1 934 1 936 1 962 1 965 1 1011 1 1016 1 
1 208 1 1 32 1 43 1 54 1 73 1 76 1 102 1 106 1 112 1 117 1 137 1 169 1 174 1 191 1 215 1 218 1 235 1 243 1 259 1 64 1 65 1 126 1 146 1 152 1 178 1 192 1 197 1 199 1 212 1 275 1 311 1 317 1 323 1 326 1 339 1 355 1 363 2 381 1 392 1 422 1 463 1 488 1 537 1 566 1 581 1 589 1 593 1 624 1 630 1 664 1 671 2 734 1 739 1 754 1 765 1 777 1 820 1 825 1 863 1 867 1 875 2 928 1 946 1 953 1 977 1 979 1 983 1 988 1 992 1 266 1 268 1 307 1 367 1 378 1 379 1 387 1 415 1 426 1 440 1 447 1 465 1 467 1 485 1 507 1 543 1 563 1 582 1 584 1 590 1 608 1 618 1 620 1 633 1 673 1 692 1 693 1 699 1 735 1 796 1 810 1 828 1 840 1 871 1 906 1 912 1 921 1 930 1 934 1 942 1 963 1 973 1 1003 1 1021 1 1027 1 
1 210 4 1 30 1 37 1 40 1 57 1 66 1 77 1 98 1 102 1 128 1 135 1 138 1 147 1 180 1 197 1 201 1 227 1 240 1 246 1 48 1 58 1 62 1 70 1 80 1 87 1 96 1 99 1 131 1 159 1 161 1 169 1 175 1 202 1 214 1 231 1 234 1 244 1 272 1 274 1 275 1 307 1 325 1 353 1 367 1 375 1 401 1 407 1 413 1 415 1 416 1 434 1 462 1 487 1 488 1 498 1 504 1 575 1 577 1 605 1 620 1 636 1 654 1 668 1 672 1 674 1 682 1 725 1 737 1 758 1 765 1 768 1 769 1 806 1 811 1 836 1 845 1 867 2 872 1 874 1 877 1 894 1 921 1 936 1 961 1 962 1 985 1 989 1 999 1 284 1 317 1 359 1 392 1 408 1 410 1 427 1 438 1 446 1 447 1 493 1 502 1 503 1 531 1 533 1 592 1 609 1 628 1 644 1 651 1 660 1 745 1 754 1 784 1 823 1 840 1 854 1 860 1 861 1 868 1 896 1 907 1 913 1 918 1 934 1 950 1 963 1 981 1 995 1 1003 1 1010 1 1014 1 1018 1 
1 210 1 1 18 1 49 1 69 1 78 1 103 2 122 1 160 1 164 1 176 1 185 1 196 1 198 1 208 1 217 1 20 1 23 1 34 1 40 1 46 1 72 1 74 1 112 1 114 1 124 1 125 1 172 1 194 1 221 1 223 1 224 1 243 1 246 1 297 1 300 1 312 1 320 1 322 1 330 1 348 1 368 1 392 1 408 1 413 1 453 1 454 1 477 1 504 1 509 1 518 2 530 1 539 1 557 1 562 1 602 1 633 1 640 1 661 1 663 1 666 1 686 1 694 1 712 1 729 1 752 1 850 1 925 1 937 1 957 1 958 1 960 1 967 1 289 1 303 1 309 1 339 1 359 1 361 1 388 1 395 1 421 1 487 1 490 1 545 1 550 1 561 1 569 1 575 1 580 1 583 1 586 1 599 1 616 1 619 1 620 1 631 1 642 1 658 1 696 1 743 1 768 1 779 1 792 1 796 1 844 1 846 1 848 1 856 1 885 1 910 1 930 1 932 1 964 1 997 1 1005 1 1018 1 1023 1 
1 212 28 1 32 1 71 1 84 1 99 1 100 1 102 1 134 1 143 1 147 1 186 1 199 1 228 1 252 2 253 1 254 1 255 1 14 1 52 1 65 1 81 1 118 1 131 1 139 1 146 1 158 1 203 1 240 1 246 1 248 1 250 1 257 1 272 1 279 1 321 1 331 1 374 1 412 1 416 1 436 1 497 1 508 1 528 1 550 1 587 1 617 1 637 1 656 1 661 1 671 1 687 1 693 1 714 1 716 1 717 1 724 1 761 1 765 1 768 1 786 1 810 1 832 1 835 1 851 1 852 1 876 1 889 1 921 1 939 1 983 1 987 2 282 1 309 1 312 1 327 1 364 1 373 1 401 1 413 1 435 1 440 1 502 1 509 1 515 1 538 1 557 1 560 1 636 1 654 1 666 1 698 1 704 1 733 1 758 1 763 1 793 1 831 1 833 1 848 1 896 1 923 1 928 1 952 1 960 1 989 1 995 1 1019 1 1022 1 
1 214 2 1 3 1 16 1 50 1 55 1 112 1 195 1 213 1 224 1 225 1 247 1 250 1 255 2 259 1 13 1 25 1 35 1 66 1 99 1 110 1 144 1 146 1 166 1 178 1 179 1 183 1 189 1 215 1 217 1 246 1 262 1 267 1 282 1 292 1 299 1 329 1 339 1 356 1 370 1 373 1 381 1 385 1 389 1 390 1 391 1 422 1 429 1 436 1 454 1 462 1 464 1 479 1 492 1 494 1 573 1 575 1 578 1 590 1 597 1 599 2 637 1 659 1 685 1 690 1 723 1 781 1 790 1 828 1 848 1 861 1 899 1 901 1 932 1 952 1 960 2 961 2 324 1 335 1 412 1 420 1 442 1 503 1 507 1 519 1 541 1 593 1 607 1 610 1 634 1 661 1 699 1 704 1 760 1 765 1 770 1 771 1 810 1 816 1 866 1 885 1 898 1 907 1 921 1 935 1 985 1 1005 1 1012 1 1013 1 
1 209 12 1 21 1 35 1 42 1 56 1 63 1 66 1 112 1 120 1 136 1 169 1 174 1 178 1 219 1 244 1 266 1 6 1 24 1 34 1 64 1 159 1 179 1 188 1 197 1 204 1 221 1 222 1 239 1 252 1 270 1 288 1 292 1 324 1 334 1 361 1 364 1 377 2 389 1 408 1 454 2 466 1 482 1 529 1 559 1 584 1 603 1 617 1 621 1 639 1 683 1 712 1 731 1 742 1 756 1 757 1 776 1 802 1 803 1 809 1 825 1 827 1 865 1 876 1 885 1 887 1 912 1 913 1 930 1 933 1 938 2 945 1 948 1 951 1 955 1 967 1 973 1 979 1 982 1 290 1 310 1 321 1 333 1 342 1 347 1 348 1 366 1 373 1 423 1 435 1 445 1 479 1 486 1 506 1 549 1 619 1 622 1 624 1 711 1 726 1 729 1 752 1 768 1 769 1 815 1 844 1 860 1 862 1 867 1 870 1 890 1 896 1 897 1 898 1 907 1 921 1 932 1 946 1 957 1 1003 1 1009 1 1025 1 
1 209 2 1 4 1 8 1 21 1 36 1 37 1 61 1 85 1 103 1 116 1 119 1 128 1 139 2 179 1 189 1 204 1 209 1 229 1 256 1 18 1 24 1 44 1 46 1 89 1 91 1 98 1 99 1 135 1 194 1 230 1 242 1 252 1 255 1 262 1 337 1 353 1 392 1 437 1 440 1 452 1 458 1 475 1 492 1 548 1 568 1 570 1 586 1 631 1 638 1 641 2 646 1 662 1 686 2 723 2 726 1 755 1 768 1 778 1 801 1 814 1 820 1 823 1 852 1 861 1 864 1 872 1 887 1 896 1 901 1 919 1 921 1 972 1 975 1 985 1 1002 1 293 1 331 1 352 1 374 1 383 1 393 1 422 1 486 1 511 1 517 1 542 1 549 1 559 1 587 1 591 1 593 1 600 1 617 1 618 1 681 1 683 1 685 1 750 1 776 1 802 1 806 1 809 1 822 1 838 1 842 1 845 1 867 1 890 1 916 1 920 1 929 1 938 1 951 1 967 1 983 1 984 1 988 1 
1 211 13 1 43 1 61 1 67 1 89 1 117 1 128 1 162 1 170 1 187 1 238 1 240 1 242 1 249 1 250 1 253 1 28 1 29 1 48 1 55 1 126 1 139 1 166 1 188 1 193 1 222 1 333 1 352 1 388 1 416 1 475 2 503 1 527 1 534 1 537 1 541 1 564 1 614 1 618 1 642 1 646 1 647 1 685 1 696 1 701 1 719 1 734 1 802 1 835 1 869 1 873 1 892 1 907 1 910 1 913 1 927 1 943 1 956 1 963 1 286 1 300 1 361 1 423 1 429 1 441 1 449 1 457 1 472 1 484 1 498 1 509 1 522 1 546 1 580 1 600 1 602 1 627 1 648 1 652 1 663 1 668 1 712 1 729 1 732 1 745 1 767 1 799 1 809 1 827 1 830 1 854 1 870 1 877 1 879 1 880 1 899 1 912 1 915 1 929 1 946 1 948 1 964 1 972 1 1000 1 1005 1 1012 1 1020 1 
1 207 4 1 7 1 38 1 57 1 108 1 109 1 117 1 151 2 190 1 195 1 210 1 227 1 228 1 253 1 267 1 37 1 40 1 55 1 74 1 88 1 105 1 106 1 110 1 113 1 119 1 120 1 135 1 148 1 149 1 158 1 192 1 193 1 202 1 215 1 222 1 252 1 299 1 301 1 319 1 332 1 380 1 387 1 414 1 420 1 440 1 450 1 455 1 485 1 510 1 540 1 581 1 590 1 600 1 648 1 671 1 672 1 688 1 697 1 704 1 705 1 722 1 728 1 734 1 735 1 754 1 777 1 778 1 784 1 788 1 794 1 807 1 827 1 849 1 872 1 882 2 891 1 892 1 911 1 912 1 937 1 948 1 964 1 969 1 282 1 307 1 320 1 323 1 330 1 344 1 351 1 422 1 447 1 459 1 470 1 487 1 507 1 543 1 555 1 572 1 622 1 640 1 698 1 701 1 707 1 756 1 781 1 785 1 799 1 838 1 856 1 875 1 877 1 886 1 904 1 924 1 928 1 947 1 961 1 1027 1 
1 205 2 1 17 1 29 1 54 1 57 1 70 1 90 1 101 1 109 1 111 1 122 1 126 1 136 1 142 1 161 1 168 1 173 1 199 1 209 1 225 2 226 1 231 2 248 1 27 1 56 1 103 1 123 1 130 1 145 1 160 1 189 1 206 1 239 1 254 1 272 1 305 1 319 1 325 1 351 1 381 1 388 1 415 1 475 1 514 1 531 1 544 1 567 1 569 1 611 1 613 1 681 1 682 1 690 1 701 1 703 1 717 1 742 1 816 1 830 1 836 1 861 1 870 1 875 1 877 1 888 1 889 1 899 1 901 1 914 1 916 1 967 1 968 1 983 1 987 1 291 1 302 1 312 1 315 1 329 1 378 1 403 1 439 1 441 1 448 1 468 1 496 1 512 1 528 1 549 1 553 1 562 1 583 1 589 1 606 1 670 1 671 1 672 1 674 1 677 1 715 1 755 1 762 1 780 1 784 1 795 1 803 1 842 1 860 1 897 1 903 1 915 1 957 1 965 1 995 1 1016 1 1017 1 
1 211 2 1 10 1 14 1 50 1 56 2 64 1 65 1 68 1 118 1 122 1 123 1 154 1 171 1 178 1 203 1 252 1 260 2 263 1 265 1 271 1 16 1 30 1 84 1 88 1 141 1 164 1 170 1 204 1 304 1 308 1 325 1 339 1 342 1 354 1 373 1 393 1 434 1 509 1 523 1 526 1 532 1 565 1 567 1 592 1 602 1 618 1 623 1 624 2 633 1 638 1 655 2 681 1 684 1 700 1 708 1 712 1 731 1 747 1 785 1 792 1 809 1 825 1 835 1 840 1 846 1 858 1 872 2 914 1 940 1 943 1 946 1 949 1 960 1 963 2 975 2 988 1 275 1 306 1 319 1 338 1 361 1 376 1 425 1 447 1 463 1 465 1 491 1 503 1 521 1 573 1 585 1 609 1 699 1 709 1 735 1 761 1 762 1 767 1 780 1 807 1 873 1 905 1 927 1 932 1 1017 1 1020 1 1023 1 
1 216 36 1 37 1 59 1 65 1 75 1 118 1 144 1 172 1 185 1 187 1 205 1 211 1 217 1 222 1 226 1 233 1 237 1 255 1 15 1 42 1 44 1 47 1 49 1 94 1 102 1 152 1 162 1 207 1 223 1 228 1 295 1 377 1 381 1 398 1 401 1 432 2 437 1 467 1 476 1 513 1 517 1 527 1 556 1 557 1 588 1 597 1 602 1 622 1 634 1 639 1 659 1 664 1 673 1 694 1 713 1 747 1 755 1 765 1 777 1 779 1 797 1 808 1 816 1 843 2 850 1 873 1 892 1 977 1 998 1 314 1 319 1 320 1 338 1 357 1 363 1 504 1 520 1 524 1 580 1 598 1 611 1 612 1 631 1 666 1 674 1 676 1 679 1 690 1 703 1 715 1 738 1 758 1 780 1 813 1 819 1 823 1 854 1 890 1 928 1 951 1 961 1 972 1 973 1 1007 1 1011 1 1018 1 1027 1 
1 207 20 2 33 2 60 1 62 1 73 1 76 1 79 1 94 1 103 1 123 1 142 1 161 1 184 1 194 2 205 1 206 1 214 1 230 1 232 1 241 1 263 1 13 1 14 1 45 1 65 1 70 1 89 1 121 1 124 1 140 1 153 1 155 1 159 1 170 1 189 1 228 1 306 1 307 1 336 1 357 1 360 1 362 1 380 1 408 2 409 1 413 1 439 2 442 1 450 1 467 1 484 1 504 1 513 1 541 1 545 1 554 1 592 1 600 1 604 1 605 1 649 1 654 1 661 1 664 1 674 1 678 1 706 1 719 1 726 1 775 1 799 1 832 1 838 1 844 1 847 1 848 1 853 1 893 1 903 1 917 1 923 1 929 1 971 1 978 1 988 1 297 1 320 1 344 1 374 1 382 1 430 1 433 1 490 1 503 1 516 1 531 1 540 1 596 1 610 1 621 1 637 1 647 1 668 1 679 1 680 1 684 1 686 1 693 1 703 1 727 1 745 1 810 1 811 1 818 1 834 1 843 1 862 1 872 1 877 1 894 1 934 1 939 1 955 1 1009 1 1023 1 
1 214 14 1 23 1 37 2 63 1 107 1 117 1 134 1 171 1 175 1 214 2 216 1 262 1 263 1 4 1 19 1 24 1 27 1 52 1 83 1 102 1 129 1 132 1 142 1 158 1 199 1 202 1 209 1 213 1 231 1 244 1 272 1 277 1 293 1 320 1 333 1 337 1 349 1 388 1 413 1 414 1 441 1 494 1 512 1 547 1 588 1 591 1 597 1 662 1 673 1 691 1 706 1 714 2 716 1 719 1 757 1 798 1 818 1 819 1 822 1 824 1 832 1 859 1 898 2 907 1 928 1 939 1 940 1 958 1 961 1 282 1 286 1 290 1 338 1 353 1 355 1 382 1 390 1 392 1 426 1 432 1 452 1 515 1 519 1 536 1 539 1 541 1 556 1 577 1 613 1 616 1 621 1 626 1 637 1 656 1 681 1 687 1 698 1 700 1 709 1 721 1 746 1 751 1 760 1 775 1 817 1 864 1 903 1 904 1 905 1 949 1 982 1 997 1 1008 1 1013 1 1018 1 1024 1 
1 210 22 1 26 1 29 1 58 1 69 1 84 2 95 1 98 1 99 1 109 1 128 1 141 1 162 1 165 1 185 1 240 1 254 1 9 1 12 1 15 1 37 1 46 1 54 1 59 1 66 1 107 1 116 1 144 1 174 1 184 1 208 1 219 1 251 1 257 1 278 1 280 1 346 1 359 1 364 1 372 1 399 1 402 2 442 1 449 1 450 1 468 1 476 1 498 1 500 1 503 1 509 1 524 1 553 1 560 2 570 1 589 1 591 1 601 1 602 1 626 1 631 1 639 1 645 1 652 1 670 2 700 1 707 1 710 1 716 2 757 1 785 2 811 1 833 1 845 1 859 1 878 1 939 1 942 1 957 1 961 1 976 1 985 1 1000 1 286 1 302 1 303 1 310 1 327 1 358 1 363 1 365 1 377 1 380 1 390 1 394 1 420 1 465 1 495 1 532 1 534 1 543 1 598 1 616 1 617 1 618 1 628 1 647 1 654 1 696 1 706 1 762 1 787 1 804 1 876 1 893 1 944 1 972 1 981 1 986 1 989 1 1008 1 1017 1 1021 1 1024 1 1025 1 
1 212 5 1 12 1 29 1 47 1 80 1 87 1 88 1 108 1 125 1 139 1 147 1 182 1 201 1 215 1 233 1 240 1 242 1 245 1 275 1 41 1 52 1 71 1 85 1 124 1 126 1 155 1 158 1 175 1 179 1 187 1 211 1 228 1 260 1 326 1 339 1 343 1 373 1 378 2 395 1 404 1 415 1 416 1 421 1 433 1 460 1 522 1 534 2 549 1 552 1 579 1 594 1 609 1 613 1 619 1 627 2 638 1 639 1 655 1 681 1 685 1 710 1 721 1 728 1 748 1 791 1 807 1 825 1 847 1 852 1 883 1 907 1 988 1 294 1 304 1 334 1 345 1 375 1 403 1 436 1 441 1 444 1 453 1 491 1 497 1 535 1 542 1 543 1 578 1 608 1 626 1 630 1 632 1 637 1 665 1 666 1 670 1 733 1 742 1 746 1 752 1 775 1 778 1 794 1 800 1 837 1 840 1 844 1 864 1 895 1 902 1 909 1 913 1 941 1 953 1 954 1 986 1 994 1 1006 1 1011 1 1018 1 
1 214 24 1 27 2 35 1 55 1 92 1 130 1 135 1 176 2 178 1 192 1 195 1 198 1 199 1 219 1 221 1 230 2 237 1 276 1 12 1 29 1 32 1 83 1 123 1 179 1 180 1 181 1 209 1 236 1 241 1 256 1 299 1 311 1 312 1 327 1 333 1 338 1 340 1 361 1 366 1 377 1 420 1 432 1 433 1 451 1 476 1 483 1 495 1 499 1 512 1 515 1 516 1 536 1 543 1 591 1 596 1 622 1 624 1 648 1 681 1 707 1 754 1 791 1 793 1 795 1 800 1 803 2 818 1 820 1 825 1 938 1 968 1 997 1 282 1 304 1 335 1 368 1 397 1 399 1 405 1 407 1 412 1 415 1 423 1 456 1 462 1 463 1 544 1 566 1 649 1 670 1 697 1 735 1 740 1 781 1 843 1 853 1 862 1 881 1 899 1 911 1 915 1 926 1 971 1 1001 1 1010 1 1011 1 1012 1 1015 1 1017 1 
1 211 10 1 14 1 42 1 61 1 69 1 89 1 97 1 136 1 151 1 158 1 159 1 168 1 172 1 219 1 243 1 265 1 18 1 39 1 54 1 62 1 79 1 81 1 84 1 145 1 164 1 187 1 227 1 235 1 249 1 282 1 318 1 334 1 381 1 429 1 441 1 483 1 484 1 515 1 525 1 543 1 584 1 634 1 635 1 653 1 687 1 698 2 701 1 718 1 724 1 737 2 748 1 752 1 787 1 820 1 824 1 903 1 929 1 290 1 293 1 313 1 332 1 338 1 345 1 387 1 389 1 400 1 403 1 404 1 414 1 425 1 443 1 461 1 475 1 512 1 519 1 545 1 571 1 577 1 591 1 592 1 597 1 619 1 645 1 654 1 656 1 660 1 708 1 712 1 716 1 760 1 811 1 871 1 878 1 913 1 917 1 918 1 920 1 921 1 965 1 967 1 980 1 1006 1 1019 1 
1 214 1 1 6 1 14 1 68 1 73 1 80 1 135 1 144 1 149 1 164 1 172 1 198 1 203 1 221 1 231 1 237 1 238 1 276 1 35 1 40 1 58 1 70 1 77 1 82 1 97 1 120 1 133 1 137 1 192 1 204 1 207 1 219 1 244 1 246 1 309 1 330 1 347 1 376 1 388 1 390 1 412 1 426 1 430 1 486 1 490 1 510 1 519 1 527 1 534 1 540 2 557 1 561 1 592 2 603 1 675 1 676 1 697 1 747 1 755 1 757 2 766 1 801 1 810 1 842 1 854 1 904 1 923 2 951 1 957 1 970 1 987 1 282 1 289 1 310 1 350 1 356 1 371 1 380 1 382 1 411 1 418 1 443 1 445 1 483 1 491 1 496 1 505 1 543 1 547 1 554 1 597 1 602 1 618 1 627 1 651 1 677 1 678 1 688 1 700 1 774 1 786 1 809 1 823 1 873 1 881 1 935 1 1010 1 1011 1 1013 1 1022 1 
1 208 12 1 15 1 21 1 43 2 52 1 68 1 99 1 140 1 167 1 170 1 192 1 195 1 216 1 218 1 241 1 242 1 18 1 19 1 34 1 36 1 44 1 56 1 57 1 74 1 77 1 102 1 121 1 130 1 150 1 188 1 200 1 203 1 204 1 212 1 244 1 254 1 286 1 308 2 315 1 325 1 340 1 377 1 415 1 418 1 440 1 445 1 451 1 478 1 496 1 517 1 535 1 558 1 569 1 582 1 583 1 587 1 595 1 649 1 662 1 668 1 709 1 727 1 730 1 732 1 734 1 737 2 744 1 766 1 770 2 772 1 779 1 785 1 788 1 794 1 826 1 840 1 841 1 879 1 895 1 935 1 956 1 970 1 982 1 984 1 993 1 997 1 285 1 288 1 296 1 303 1 309 1 327 1 341 1 346 1 365 1 380 1 388 1 455 1 456 1 457 1 458 1 462 1 515 1 525 1 591 1 598 1 602 1 603 1 628 1 651 1 682 1 712 1 781 1 793 1 796 1 800 1 801 1 818 1 819 1 847 1 876 1 891 1 910 1 937 1 948 1 969 1 973 1 995 1 1020 1 1024 1 
1 211 9 1 28 1 40 1 59 1 81 2 97 1 109 1 144 1 145 1 153 1 190 1 198 1 247 1 261 1 266 1 279 1 44 1 53 1 91 1 92 1 94 1 138 1 143 1 162 1 180 1 194 1 206 1 237 1 244 1 251 1 265 1 270 1 275 1 278 1 280 1 305 1 330 1 333 1 379 1 386 2 432 1 435 1 437 1 441 1 450 1 471 1 495 1 526 2 532 1 622 1 623 1 626 2 646 1 660 1 733 2 740 1 751 1 753 1 770 1 773 1 782 1 799 1 815 1 831 1 850 1 861 1 876 1 877 1 880 1 896 1 919 1 925 1 952 1 966 1 967 1 981 1 986 1 995 1 1002 1 291 1 297 1 345 1 358 1 360 1 376 1 404 1 412 1 422 1 443 1 473 1 476 1 501 1 508 1 512 1 521 1 542 1 566 1 591 1 595 1 619 1 631 1 634 1 638 1 642 1 708 1 728 1 732 1 736 1 738 1 776 1 791 1 797 1 817 1 823 1 832 1 845 1 847 1 858 1 902 1 935 1 944 1 956 1 959 1 1000 1 1017 1 
1 209 1 1 12 1 53 1 55 1 82 1 90 1 108 1 159 1 167 1 195 1 201 1 221 1 222 2 227 1 248 1 28 1 31 1 33 1 34 1 58 1 72 1 100 1 118 1 122 1 124 1 140 1 162 1 172 1 174 1 188 1 207 1 211 1 212 1 239 1 241 1 291 1 329 1 344 1 350 1 368 1 369 1 370 1 373 1 389 1 390 1 394 1 400 1 433 1 448 1 475 1 477 1 484 1 503 1 515 1 516 1 536 1 574 1 601 1 602 1 606 1 657 1 700 1 710 1 715 1 731 1 755 1 766 1 809 1 816 1 823 1 839 2 842 1 894 1 907 1 913 1 931 1 950 1 972 1 995 1 1000 1 1001 1 305 1 314 1 318 1 341 1 375 1 386 1 451 1 478 1 508 1 517 1 520 1 534 1 535 1 541 1 552 1 588 1 664 1 667 1 683 1 684 1 696 1 705 1 768 1 786 1 805 1 807 1 831 1 846 1 853 1 862 1 925 1 944 1 946 1 947 1 969 1 1006 1 1008 1 1022 1 
1 206 2 1 14 1 16 1 21 1 33 1 36 1 51 1 98 1 131 1 183 1 190 1 233 1 242 1 247 1 257 1 1 1 42 1 53 1 54 1 67 1 68 1 74 1 129 1 133 1 135 1 148 1 167 1 173 1 178 1 221 1 231 1 263 1 285 1 316 1 317 1 383 1 391 1 404 1 425 1 467 1 473 2 489 1 511 1 514 1 519 1 556 1 590 1 602 1 618 1 620 1 642 1 661 1 665 1 747 1 774 1 776 1 780 1 797 1 832 1 864 1 910 1 916 1 936 1 959 1 962 1 972 1 991 1 294 1 297 1 302 1 303 1 311 1 322 1 329 1 358 1 362 1 372 1 400 1 405 1 406 1 432 1 434 1 440 1 479 1 503 1 505 1 537 1 540 1 582 1 599 1 617 1 626 1 627 1 630 1 640 1 648 1 671 1 685 1 689 1 701 1 726 1 734 1 756 1 761 1 782 1 790 1 800 1 818 1 842 1 844 1 881 1 898 1 915 1 934 1 963 1 979 1 986 1 1006 1 1007 1 
1 214 20 1 22 1 24 1 41 2 85 1 86 1 91 1 99 1 104 1 121 1 133 1 138 1 174 1 187 1 284 1 37 1 47 1 59 1 78 1 80 1 123 1 192 1 195 1 212 1 223 1 237 1 257 1 281 1 292 1 294 1 296 1 303 1 316 1 326 1 333 1 358 1 370 1 389 1 393 1 406 1 421 1 437 1 441 2 459 1 493 1 515 1 522 2 527 1 548 1 576 1 578 1 589 1 605 1 615 1 634 1 635 1 647 1 655 1 656 1 668 1 673 2 688 2 704 1 751 2 804 1 853 1 861 1 911 1 919 1 986 1 997 1 309 1 332 1 349 1 351 1 355 1 388 1 414 1 451 1 452 1 462 1 472 1 481 1 501 1 529 1 552 1 572 1 590 1 604 1 644 1 654 1 675 1 695 1 705 1 709 1 756 1 764 1 768 1 774 1 784 1 813 1 827 1 846 1 904 1 913 1 925 1 926 1 946 1 963 1 977 1 1003 1 1012 1 1024 1 
1 215 6 1 46 1 54 1 56 1 70 1 85 1 106 2 128 1 130 1 139 1 150 1 201 1 206 1 215 1 281 1 1 1 15 1 23 1 31 1 50 1 64 1 118 1 146 1 153 1 158 1 162 1 181 1 213 1 217 1 221 1 233 1 269 1 275 1 276 1 294 1 307 2 310 1 328 2 353 1 357 1 376 1 385 1 397 1 417 1 420 1 424 1 432 1 467 1 539 1 544 1 557 1 564 1 596 1 609 1 617 1 636 1 645 1 668 1 672 2 675 1 684 1 758 1 759 1 789 1 793 1 814 1 830 1 857 1 860 1 879 1 906 1 926 1 929 1 954 1 971 1 973 1 991 1 1001 1 358 1 369 1 391 1 392 1 426 1 431 1 433 1 458 1 473 1 489 1 497 1 519 1 556 1 569 1 572 1 583 1 613 1 643 1 650 1 660 1 763 1 764 1 785 1 816 1 837 1 848 1 856 1 900 1 904 1 923 1 927 1 987 1 1004 1 1011 1 1014 1 1015 1 1019 1 1021 1 1023 1 1025 1 1027 1 
1 210 3 1 23 1 39 1 42 1 70 1 130 1 134 1 143 1 151 1 159 2 178 1 191 1 232 1 234 1 18 1 32 1 35 1 43 1 84 1 88 1 95 1 110 1 113 1 124 1 128 1 133 1 165 1 168 1 197 1 203 1 220 1 228 1 256 1 295 1 318 1 333 1 340 1 369 1 374 1 407 1 417 1 451 1 468 1 469 1 479 1 480 1 507 1 515 1 519 1 534 1 634 2 642 1 643 1 652 1 661 1 666 1 668 1 689 1 763 1 781 1 782 1 794 1 795 1 817 1 838 1 863 1 865 1 876 1 927 1 934 1 998 1 299 1 300 1 314 1 350 1 355 1 375 1 379 1 412 1 424 1 428 1 443 1 445 1 464 1 474 1 499 1 527 1 532 1 533 1 544 1 547 1 581 1 583 1 595 1 615 1 619 1 653 1 676 1 680 1 690 1 701 1 739 1 756 1 764 1 792 1 800 1 808 1 820 1 823 1 841 1 884 1 896 1 925 1 928 1 937 1 983 1 989 1 1004 1 1005 1 1009 1 1022 1 
1 207 17 2 36 1 45 1 47 1 59 1 70 1 84 1 109 1 132 1 171 1 183 2 225 1 227 1 228 1 232 1 236 1 253 1 267 1 24 1 30 1 41 1 48 1 58 1 80 1 90 1 92 1 94 1 95 1 122 1 124 1 125 1 139 1 163 1 176 1 187 1 197 1 257 1 281 1 303 1 313 1 334 1 336 1 352 1 374 1 390 1 466 1 497 1 524 1 528 1 544 1 551 2 559 1 562 1 564 1 568 1 592 1 602 1 603 2 626 1 628 1 630 1 658 1 678 1 751 1 752 1 763 1 806 1 843 1 848 1 919 1 945 1 993 1 995 1 996 1 337 1 338 1 346 1 347 1 354 1 385 1 422 1 451 1 475 1 479 1 486 1 518 1 543 1 573 1 608 1 615 1 641 1 665 1 670 1 691 1 695 1 711 1 721 1 803 1 807 1 866 1 927 1 966 1 973 1 985 1 992 1 999 1 1001 1 1012 1 1013 1 1017 1 1027 1 
1 205 1 1 9 1 24 1 39 1 114 1 120 1 130 1 135 1 145 1 155 1 162 1 164 1 165 1 174 1 220 1 245 1 251 1 3 1 6 1 33 1 68 1 86 1 119 1 121 1 125 1 131 1 144 1 146 1 153 1 189 1 198 1 206 1 211 1 219 1 221 1 225 1 239 1 254 1 264 1 280 1 296 1 298 1 299 1 307 1 360 2 382 1 389 1 391 2 410 1 411 1 414 1 421 1 428 1 442 2 469 1 474 1 496 1 497 1 502 1 503 1 511 1 514 1 529 1 535 1 536 1 570 1 594 1 598 1 622 1 632 1 645 1 673 1 693 1 702 1 704 1 719 1 729 1 779 1 811 1 816 1 817 1 819 1 848 1 870 1 875 1 904 1 950 1 952 1 967 1 971 1 316 1 333 1 357 1 368 1 400 1 404 1 412 1 436 1 439 1 446 1 475 1 513 1 541 1 549 1 564 1 618 1 631 1 647 1 656 1 674 1 675 1 692 1 705 1 736 1 738 1 763 1 786 1 794 1 799 1 833 1 839 1 842 1 853 1 858 1 863 1 878 1 889 1 935 1 939 1 956 1 993 1 999 1 
1 208 45 1 46 1 93 1 100 1 101 1 119 1 156 1 160 1 200 1 220 1 231 1 249 1 261 1 10 1 37 1 72 1 84 1 88 1 90 1 108 1 138 1 177 1 192 1 203 1 206 1 225 1 257 1 267 1 275 1 279 1 290 1 290 1 356 2 359 2 373 1 375 1 382 1 409 1 414 1 432 1 443 1 466 1 467 1 469 1 473 1 499 1 506 1 539 1 542 2 544 1 556 1 568 1 569 1 575 1 583 1 603 1 615 1 622 1 623 1 633 1 638 1 646 2 647 1 651 1 673 1 676 1 713 1 718 1 781 1 786 1 836 1 853 1 866 1 872 1 896 1 910 1 940 1 949 1 991 1 994 1 301 1 311 1 313 1 321 1 333 1 338 1 346 1 406 1 421 1 428 1 435 1 436 1 439 1 448 1 459 1 474 1 502 1 518 1 524 1 527 1 529 1 534 1 535 1 552 1 605 1 632 1 634 1 641 1 644 1 670 1 674 1 692 1 704 1 739 1 741 1 771 1 796 1 816 1 843 1 844 1 861 1 950 1 958 1 974 1 993 1 1001 1 1004 1 1017 1 1019 1 1025 1 
1 210 7 1 39 1 50 1 60 1 124 1 127 1 134 2 172 1 223 1 236 1 257 1 258 1 283 1 12 1 18 1 31 1 54 1 141 1 153 1 158 1 164 1 204 1 227 1 251 1 271 1 282 1 306 1 324 1 347 1 348 1 350 1 356 2 410 1 470 1 489 1 517 1 543 1 561 1 576 1 581 1 624 1 626 1 639 1 640 1 649 1 650 1 654 1 658 1 681 1 689 1 712 1 727 1 730 2 741 1 753 1 762 1 793 1 810 1 813 1 873 1 881 1 891 1 900 1 902 1 929 1 937 1 958 1 969 1 977 1 300 1 307 1 315 1 329 1 362 1 398 1 462 1 468 1 472 1 499 1 551 1 566 1 605 1 621 1 657 1 666 1 667 1 672 1 686 1 695 1 699 1 709 1 804 1 805 1 818 1 834 1 928 1 934 1 949 1 995 1 998 1 1013 1 1015 1 1025 1 
1 209 65 1 77 2 113 2 115 2 128 1 143 1 145 1 151 1 184 1 193 1 199 1 207 1 212 1 221 1 232 1 242 2 266 1 267 1 285 1 4 1 46 1 84 1 160 1 165 1 198 1 251 1 300 1 307 1 317 1 322 1 375 1 388 1 409 1 429 1 446 1 475 1 483 1 506 1 510 2 515 1 529 1 555 1 592 1 626 1 644 1 649 1 650 1 662 1 673 1 678 1 685 1 686 1 698 1 721 1 771 1 823 1 829 1 833 1 882 1 883 1 916 1 919 1 927 1 931 1 943 2 951 1 990 1 996 1 294 1 347 1 402 1 418 1 420 1 445 1 468 1 473 1 505 1 545 1 556 1 559 1 561 1 573 1 638 1 669 1 690 1 701 1 714 1 715 1 722 1 724 1 730 1 792 1 822 1 831 1 853 1 860 1 894 1 914 1 953 1 986 1 989 1 1008 1 1009 1 1017 1 1021 1 
1 212 19 1 28 1 34 1 84 1 137 1 180 1 184 1 193 1 194 1 207 1 218 1 275 1 6 1 48 1 53 1 95 1 99 1 152 1 156 1 171 1 216 1 230 1 236 1 268 1 279 1 293 1 293 1 336 1 344 1 353 1 375 1 410 1 417 2 419 2 422 1 425 1 434 1 499 1 504 1 509 1 510 1 514 1 525 1 538 1 573 1 574 1 584 1 595 1 600 1 647 1 662 1 690 1 699 1 702 1 710 1 727 1 743 1 751 1 754 1 770 1 772 1 788 1 797 1 814 1 846 1 858 1 917 1 918 1 921 1 926 1 965 1 980 1 309 1 333 1 403 1 407 1 409 1 413 1 438 1 475 1 479 1 492 1 519 1 536 1 542 1 562 1 602 1 603 1 614 1 620 1 634 1 659 1 679 1 683 1 701 1 775 1 776 1 789 1 840 1 852 1 856 1 868 1 885 1 886 1 891 1 902 1 924 1 941 1 982 1 989 1 1022 1 
1 206 7 1 9 1 23 1 45 1 65 1 94 1 110 1 112 1 116 1 149 1 155 1 170 1 181 1 183 1 199 1 285 1 286 1 29 1 59 1 61 1 70 1 80 1 109 1 114 1 115 1 126 1 171 1 191 1 208 1 219 1 277 1 284 1 292 1 318 1 323 1 325 1 332 1 376 1 405 2 413 2 429 1 430 1 472 1 495 1 498 2 501 1 506 1 517 1 533 1 534 1 535 1 549 1 637 1 678 1 696 1 728 1 730 1 769 1 773 1 775 1 788 1 790 1 816 1 833 1 840 1 867 1 869 1 893 2 900 1 938 1 946 1 961 1 972 1 974 1 1002 1 336 1 339 1 357 1 374 1 379 1 382 1 383 1 392 1 398 1 419 1 425 1 442 1 465 1 484 1 493 1 510 1 539 1 580 1 614 1 631 1 671 1 673 1 677 1 699 1 706 1 797 1 810 1 844 1 864 1 871 1 882 1 907 1 910 1 925 1 940 1 943 1 952 1 970 1 971 1 976 1 982 1 999 1 1003 1 1019 1 
1 215 46 1 50 1 97 1 100 1 105 1 122 1 142 1 161 1 162 1 185 1 204 1 219 1 236 1 258 1 273 1 287 1 64 1 81 1 88 1 91 1 126 1 131 1 159 1 175 1 178 1 187 1 205 1 213 1 239 1 246 1 250 1 261 1 348 1 372 1 392 1 472 1 489 1 497 1 528 1 546 1 548 1 568 2 589 1 613 1 644 2 695 1 711 1 732 1 748 1 751 2 765 1 791 1 799 1 802 2 804 1 806 2 821 1 834 1 846 1 890 1 892 1 908 1 960 1 967 1 972 1 299 1 313 1 329 1 331 1 339 1 345 1 355 1 369 1 411 1 422 1 480 1 485 1 492 1 518 1 523 1 525 1 530 1 562 1 580 1 629 1 649 1 661 1 669 1 687 1 692 1 704 1 724 1 750 1 777 1 783 1 785 1 787 1 796 1 826 1 833 1 838 1 867 1 875 1 894 1 938 1 942 1 951 1 984 1 1000 1 1004 1 1005 1 1018 1 1020 1 
1 212 7 1 57 1 82 1 103 1 116 2 161 1 163 1 190 1 208 1 251 1 285 1 289 1 29 1 34 1 46 1 79 1 85 1 90 1 100 1 107 1 109 1 125 1 130 1 139 1 141 1 172 1 191 1 199 1 247 1 281 1 335 1 346 1 350 1 363 1 369 1 378 1 410 1 463 1 468 1 470 1 476 1 540 1 551 1 585 1 607 1 614 1 629 1 650 1 653 1 726 1 753 1 759 2 761 1 763 1 766 1 775 1 778 2 786 1 836 1 859 1 862 1 887 1 904 1 924 1 928 1 940 1 941 1 944 1 952 1 965 1 993 1 999 1 311 1 320 1 341 1 351 1 362 1 371 1 440 1 460 1 461 1 495 1 588 1 626 1 635 1 636 1 662 1 715 1 731 1 735 1 737 1 742 1 743 1 756 1 760 1 777 1 779 1 783 1 804 1 808 1 857 1 892 1 895 1 923 1 934 1 1016 1 1017 1 1021 1 1026 1 
1 210 35 1 46 1 98 1 112 1 115 2 118 1 126 1 133 1 154 1 180 1 202 1 242 1 245 1 260 1 264 1 19 1 43 1 62 1 110 1 176 1 181 1 211 1 217 1 233 1 239 1 274 1 282 1 284 1 304 1 311 1 332 1 342 1 352 1 361 2 364 1 392 1 395 1 406 1 410 1 416 2 428 2 435 1 456 1 487 1 514 1 529 1 530 1 546 1 547 1 605 1 621 2 623 1 676 1 679 1 685 1 700 1 725 1 729 1 763 1 770 1 787 1 789 1 806 1 807 1 816 1 887 1 967 1 974 1 299 1 303 1 320 1 326 1 337 1 357 1 372 1 394 1 476 1 479 1 496 1 533 1 534 1 551 1 564 1 567 1 591 1 599 1 600 1 603 1 613 1 620 1 627 1 632 1 647 1 668 1 703 1 750 1 752 1 758 1 871 1 882 1 888 1 890 1 919 1 932 1 944 1 956 1 960 1 996 1 1005 1 1006 1 1017 1 1020 1 1021 1 
1 210 38 1 105 1 111 1 122 1 148 1 160 1 194 1 227 1 242 1 253 1 255 1 289 1 5 1 6 1 33 1 49 1 54 1 58 1 81 1 170 1 183 1 202 1 213 1 249 1 299 1 315 1 375 1 400 1 415 1 417 1 422 1 432 1 488 1 500 1 507 1 566 1 575 1 593 1 616 1 617 2 635 1 652 1 662 1 679 1 700 1 708 1 730 1 763 1 768 1 781 1 853 1 855 1 873 1 883 1 899 2 904 1 910 1 936 1 939 1 941 1 991 1 998 1 999 1 321 1 326 1 331 1 344 1 345 1 352 1 380 1 391 1 401 1 440 1 445 1 486 1 535 1 538 1 541 1 547 1 548 1 553 1 574 1 609 1 644 1 653 1 659 1 696 1 699 1 724 1 748 1 755 1 773 1 777 1 779 1 793 1 794 1 810 1 817 1 824 1 826 1 838 1 842 1 871 1 901 1 922 1 978 1 979 1 992 1 1009 1 1011 1 1013 1 1020 1 1022 1 
1 214 1 1 35 1 62 1 70 1 73 1 85 1 105 1 124 2 147 1 150 1 151 1 162 2 165 1 203 1 242 1 247 1 266 1 270 1 278 1 289 1 298 1 38 1 47 1 61 1 81 1 126 1 130 1 136 1 138 1 148 1 181 1 194 1 225 1 246 1 248 1 253 1 287 1 295 1 297 1 304 1 337 1 359 1 378 1 404 1 427 1 434 1 435 1 446 1 456 2 459 1 462 1 473 1 498 1 519 1 528 1 567 1 573 1 579 1 599 1 604 1 635 1 640 1 644 1 648 1 654 1 669 1 672 1 677 1 684 1 686 1 687 1 732 1 762 1 776 1 803 1 819 1 848 1 869 1 895 1 903 1 920 1 928 1 931 1 934 1 944 1 947 1 965 1 968 1 969 1 325 1 328 1 349 1 362 1 438 1 447 1 518 1 540 1 547 1 558 1 577 1 593 1 607 1 633 1 637 1 657 1 667 1 679 1 683 1 739 1 740 1 767 1 796 1 821 1 826 1 828 1 831 1 866 1 892 1 911 1 917 1 936 1 938 1 956 1 964 1 990 1 993 1 1004 1 1006 1 1007 1 1014 1 
1 211 3 1 54 1 79 1 93 1 136 1 157 1 173 1 225 1 230 1 236 1 237 1 252 1 257 1 264 1 292 1 7 1 18 1 31 1 70 1 137 1 156 1 162 1 171 1 180 1 187 1 244 1 246 1 248 1 261 1 269 1 287 1 291 1 312 1 342 1 354 1 358 1 360 1 372 1 378 1 385 1 422 1 449 1 450 1 452 1 456 1 490 1 496 1 497 1 500 1 512 1 515 1 525 1 529 1 537 1 582 1 592 1 600 1 618 1 655 1 659 2 696 1 717 1 735 1 737 1 742 1 751 1 789 1 798 1 804 1 811 1 820 1 844 2 845 1 849 1 864 1 870 1 874 1 903 1 906 1 907 1 910 1 920 1 968 2 981 1 986 1 994 1 314 1 361 1 365 1 404 1 416 1 421 1 447 1 541 1 548 1 576 1 585 1 651 1 699 1 711 1 715 1 736 1 744 1 782 1 796 1 800 1 812 1 827 1 860 1 889 1 921 1 930 1 937 1 946 1 947 1 949 1 962 1 991 1 1003 1 1009 1 1026 1 
1 206 2 1 20 1 40 1 44 1 54 1 61 1 74 1 90 1 109 2 134 1 142 1 145 1 184 1 228 1 270 1 10 1 48 1 64 1 66 1 97 1 111 1 137 1 170 1 178 1 198 1 202 1 203 1 234 1 259 1 290 1 316 1 320 1 332 1 336 1 338 1 357 1 358 1 368 1 371 1 397 1 405 1 425 1 427 1 445 1 448 1 526 1 563 1 579 1 587 1 605 1 612 1 614 1 638 1 641 1 644 1 671 1 693 1 695 1 699 1 709 1 714 1 731 1 765 1 823 1 858 1 864 1 878 1 885 1 897 1 924 1 930 1 931 1 937 1 945 1 978 1 331 1 350 1 364 1 380 1 381 1 401 1 447 1 449 1 459 1 467 1 479 1 480 1 486 1 493 1 496 1 506 1 534 1 553 1 557 1 571 1 588 1 589 1 590 1 593 1 608 1 616 1 624 1 627 1 628 1 647 1 692 1 698 1 706 1 715 1 724 1 738 1 779 1 786 1 798 1 801 1 802 1 806 1 821 1 836 1 837 1 839 1 853 1 915 1 916 1 940 1 1021 1 
1 204 49 1 57 1 62 1 63 1 66 1 88 1 114 1 118 2 127 1 148 2 160 1 180 1 210 1 229 1 239 1 250 1 19 1 78 1 102 1 113 1 126 1 195 1 222 1 226 1 271 1 276 1 284 1 302 1 302 1 315 1 329 1 337 1 347 1 353 1 405 2 410 1 459 2 479 1 481 1 483 1 509 1 524 1 529 1 532 1 549 1 560 1 563 1 570 1 571 1 629 1 633 1 639 1 645 1 654 1 668 1 676 1 699 1 704 1 705 1 717 1 756 1 774 2 809 1 817 1 837 1 841 1 855 1 875 1 880 1 901 1 911 1 915 1 918 2 952 1 986 1 1000 1 312 1 368 1 384 1 395 1 431 1 434 1 442 1 468 1 515 1 556 1 600 1 606 1 613 1 625 1 642 1 646 1 661 1 669 1 682 1 684 1 691 1 697 1 712 1 719 1 723 1 739 1 773 1 784 1 787 1 807 1 810 1 814 1 822 1 834 1 849 1 856 1 859 1 869 1 874 1 877 1 889 1 890 1 904 1 942 1 947 1 1018 1 
1 211 17 2 32 1 84 1 116 1 128 2 151 1 177 1 189 1 193 1 203 1 215 1 232 1 285 1 288 1 9 1 14 1 22 1 94 1 127 1 131 1 148 1 170 1 194 1 223 1 237 1 264 1 276 1 281 1 284 1 297 1 312 1 313 1 318 1 325 1 346 1 362 1 375 1 384 1 399 1 405 1 435 1 440 1 457 1 477 1 494 2 499 2 545 1 562 1 644 1 660 1 704 1 723 1 727 1 735 1 758 1 805 1 813 1 815 1 821 1 843 1 875 1 877 1 889 1 901 1 903 1 920 1 936 1 953 1 964 1 967 1 986 1 990 1 310 1 359 1 383 1 417 1 470 1 476 1 481 1 507 1 520 1 522 1 551 1 576 1 594 1 601 1 612 1 682 1 702 1 716 1 731 1 732 1 753 1 771 1 772 1 777 1 823 1 856 1 859 1 868 1 874 1 922 1 925 1 930 1 972 1 981 1 988 1 994 1 1006 1 1011 1 1021 1 1027 1 
1 209 6 1 36 2 46 1 50 1 94 1 96 1 100 1 118 1 154 1 170 1 191 1 203 1 226 1 228 1 272 1 297 1 299 1 9 1 35 1 37 1 40 1 62 1 64 1 68 1 87 1 90 1 93 1 133 1 140 1 147 1 150 1 186 1 205 1 216 1 223 1 238 1 251 1 253 1 277 1 278 1 310 1 336 1 371 1 390 1 454 1 505 1 508 1 512 1 521 1 549 1 560 1 564 1 592 1 624 1 634 1 635 1 653 1 664 1 726 1 760 1 788 1 793 1 802 1 805 1 861 1 930 1 998 1 318 1 319 1 337 1 342 1 349 1 353 1 361 1 370 1 372 1 373 1 381 1 410 1 414 1 429 1 457 1 468 1 483 1 520 1 532 1 558 1 622 1 628 1 632 1 645 1 666 1 671 1 673 1 674 1 685 1 689 1 697 1 705 1 730 1 750 1 823 1 833 1 837 1 851 1 864 1 882 1 889 1 898 1 904 1 916 1 925 1 931 1 959 1 974 1 991 1 993 1 994 1 996 1 1004 1 1011 1 
1 208 3 1 17 1 22 1 31 1 54 1 74 1 82 2 105 1 110 1 126 1 130 1 224 1 247 1 256 2 271 1 282 1 2 1 26 1 39 1 86 1 106 1 116 1 167 1 172 1 179 1 185 1 212 1 214 1 236 1 283 1 334 1 343 1 362 1 368 1 375 1 384 1 404 1 415 1 445 1 454 1 489 1 496 1 507 1 554 1 565 1 596 1 639 1 653 1 676 1 692 1 704 1 714 1 723 2 726 1 733 2 752 1 775 1 837 1 839 1 859 1 873 1 875 2 918 1 933 1 944 2 957 1 959 1 963 2 971 1 976 1 991 1 1000 1 1002 1 337 1 342 1 357 1 373 1 397 1 398 1 420 1 425 1 426 1 428 1 444 1 488 1 550 1 560 1 561 1 567 1 576 1 578 1 587 1 590 1 635 1 681 1 724 1 732 1 749 1 758 1 763 1 769 1 787 1 816 1 818 1 822 1 827 1 834 1 842 1 871 1 876 1 936 1 939 1 987 1 993 1 1007 1 1010 1 1019 1 1025 1 
1 214 17 1 19 1 42 1 48 1 49 1 75 1 133 1 139 1 146 1 152 1 157 1 169 1 186 1 230 1 274 1 291 1 18 1 20 1 27 1 33 1 43 1 58 1 76 1 78 1 85 1 105 1 162 1 217 1 233 1 249 1 272 1 318 1 328 1 332 1 339 1 350 1 379 1 386 1 399 1 461 1 465 1 466 1 473 1 492 1 504 1 519 2 525 1 537 1 540 1 557 1 561 1 584 1 588 1 594 1 618 1 632 1 651 1 703 1 708 1 737 1 741 1 766 1 772 1 789 1 790 1 846 1 857 1 867 1 870 2 893 1 906 1 913 1 940 1 959 1 960 1 968 2 977 1 346 1 383 1 384 1 403 1 405 1 423 1 424 1 425 1 439 1 453 1 539 1 545 1 606 1 669 1 674 1 720 1 743 1 795 1 799 1 807 1 813 1 827 1 833 1 839 1 842 1 856 1 865 1 876 1 882 1 884 1 885 1 886 1 892 1 895 1 924 1 949 1 962 1 1024 1 1025 1 1026 1 1027 1 
1 209 13 1 65 1 71 1 87 1 96 1 110 1 111 1 126 2 190 1 191 2 205 1 226 1 239 1 250 1 263 1 274 1 286 2 289 1 292 1 5 1 8 1 31 1 33 1 34 1 35 1 44 1 53 1 56 1 57 1 69 1 77 1 141 1 145 1 156 1 168 1 184 1 225 1 262 1 270 1 291 1 339 1 352 1 372 1 374 1 377 1 384 1 416 1 419 2 433 1 444 1 450 1 456 1 497 1 535 1 564 1 572 1 575 1 577 1 582 1 650 1 671 1 693 1 725 1 730 1 744 1 745 2 787 1 789 1 809 1 883 1 893 1 901 1 904 1 911 1 940 1 346 1 392 1 420 1 423 1 430 1 439 1 440 1 462 1 483 1 498 1 514 1 549 1 552 1 556 1 579 1 587 1 591 1 598 1 611 1 619 1 626 1 644 1 645 1 653 1 660 1 694 1 717 1 729 1 732 1 752 1 818 1 832 1 837 1 838 1 882 1 912 1 945 1 946 1 962 1 1008 1 
1 210 25 1 29 1 30 1 36 1 50 1 86 1 94 1 140 1 144 1 165 1 166 1 171 1 179 1 186 1 200 2 211 1 232 1 272 1 281 2 27 1 46 1 54 1 84 1 88 1 90 1 92 1 107 1 110 1 117 1 124 1 138 1 149 1 182 1 235 1 237 1 241 1 335 1 350 1 374 1 375 1 396 1 400 1 403 1 405 1 422 1 423 1 440 2 453 1 454 1 457 1 465 1 466 1 467 1 491 1 523 1 543 1 629 1 671 1 673 1 675 1 694 1 697 1 707 1 754 1 787 2 790 1 797 1 809 1 831 1 848 1 893 1 896 1 906 1 930 1 944 1 976 1 313 1 336 1 345 1 377 1 378 1 399 1 464 1 493 1 505 1 551 1 568 1 581 1 589 1 595 1 611 1 612 1 627 1 681 1 687 1 688 1 698 1 703 1 705 1 713 1 738 1 756 1 757 1 759 1 764 1 778 1 786 1 808 1 818 1 871 1 895 1 904 1 938 1 939 1 964 1 1001 1 1005 1 1006 1 1022 1 
1 208 4 1 44 1 53 1 55 1 58 1 77 1 110 1 123 1 157 1 163 1 166 1 198 1 232 1 280 1 25 1 32 1 40 1 109 1 120 1 149 1 158 1 175 1 202 1 204 1 222 1 246 1 257 1 264 1 265 1 281 1 285 1 293 1 314 1 315 1 347 1 352 1 355 2 358 1 365 1 370 1 412 1 418 1 432 1 469 1 482 1 483 1 489 1 490 1 499 1 509 1 565 1 582 1 610 1 611 1 613 1 695 1 701 1 710 1 731 2 738 1 770 1 774 1 790 1 791 1 793 1 805 2 815 1 818 1 831 2 850 1 866 1 874 1 882 1 905 1 916 1 984 1 343 1 368 1 373 1 394 1 400 1 404 1 462 1 468 1 487 1 520 1 590 1 592 1 620 1 636 1 652 1 658 1 683 1 690 1 691 1 702 1 750 1 800 1 807 1 846 1 862 1 918 1 919 1 928 1 1012 1 1022 1 
1 209 5 1 6 1 7 1 34 1 48 1 72 1 96 1 105 1 132 1 139 1 233 1 286 1 304 1 2 1 45 1 52 1 80 1 86 1 111 1 131 1 135 1 163 1 171 1 203 1 209 1 210 1 219 1 251 1 267 1 276 1 280 1 303 1 327 1 334 1 361 1 369 1 416 1 423 1 473 1 496 1 516 1 527 1 541 1 556 1 560 1 596 1 602 1 640 1 695 1 697 1 781 1 800 1 803 1 847 1 849 1 877 1 895 1 896 1 907 2 931 2 938 1 314 1 317 1 321 1 338 1 341 1 355 1 367 1 410 1 414 1 452 1 497 1 530 1 537 1 548 1 549 1 561 1 580 1 587 1 599 1 616 1 635 1 658 1 667 1 669 1 715 1 718 1 723 1 732 1 742 1 747 1 773 1 796 1 815 1 822 1 833 1 844 1 879 1 892 1 926 1 949 1 950 1 981 1 988 1 993 1 1008 1 1011 1 
1 210 4 1 26 1 33 1 46 1 54 1 77 1 86 1 94 1 110 1 153 1 161 1 185 1 187 1 188 1 191 1 202 1 251 1 254 1 262 1 278 1 297 1 56 1 70 1 87 1 96 1 115 1 141 1 157 1 166 1 207 1 244 1 284 1 290 1 296 1 361 1 438 1 445 1 459 1 472 1 488 1 514 1 520 1 532 1 534 1 541 1 603 1 614 1 635 1 645 1 647 1 655 1 663 1 665 1 678 1 682 1 725 1 727 1 730 1 787 2 802 1 805 1 851 1 864 1 871 1 874 1 882 1 907 1 909 1 937 1 946 1 957 1 962 1 967 1 974 1 994 1 322 1 324 1 330 1 360 1 372 1 403 1 433 1 437 1 448 1 451 1 475 1 501 1 526 1 536 1 545 1 552 1 564 1 578 1 616 1 656 1 710 1 731 1 818 1 823 1 827 1 844 1 847 1 872 1 875 1 893 1 900 1 904 1 923 1 934 1 950 1 951 1 991 1 997 1 1008 1 1012 1 1013 1 
1 208 10 1 23 1 24 1 33 1 34 1 44 1 48 1 54 1 62 1 91 1 94 1 95 1 103 1 105 1 114 1 125 1 126 1 133 1 149 1 166 1 167 1 177 2 199 1 204 1 264 1 278 1 300 1 303 1 9 1 16 1 68 1 104 1 117 1 123 1 130 1 135 1 141 1 148 1 153 1 171 1 185 1 188 1 196 1 214 1 241 1 265 1 271 1 302 1 316 1 319 1 335 1 395 1 403 1 429 1 436 1 443 1 457 1 470 1 499 1 526 1 535 1 546 2 553 1 583 1 613 1 631 1 647 1 659 1 663 1 673 1 678 1 693 1 738 1 748 1 766 1 779 1 788 2 791 1 819 1 831 1 840 1 843 1 859 1 875 1 922 1 951 1 986 1 994 1 996 2 998 1 1000 1 325 1 327 1 380 1 398 1 406 1 410 1 419 1 433 1 465 1 467 1 475 1 480 1 497 1 580 1 587 1 590 1 600 1 607 1 610 1 615 1 617 1 651 1 662 1 671 1 695 1 752 1 771 1 790 1 792 1 796 1 825 1 832 1 854 1 871 1 892 1 908 1 915 1 918 1 932 1 980 1 
1 207 7 1 29 1 33 1 69 1 83 1 129 1 142 1 154 1 175 1 182 1 196 1 214 1 223 1 242 1 288 1 303 1 60 1 113 1 128 1 144 1 179 1 227 1 228 1 229 1 279 1 290 1 295 1 308 1 313 1 313 1 328 1 332 1 333 1 353 1 388 1 398 1 401 1 412 1 419 1 434 1 439 1 450 2 454 1 463 1 491 1 519 1 546 2 549 1 560 1 565 1 578 1 586 1 646 1 655 1 669 1 687 1 700 1 734 1 775 1 789 1 803 1 810 1 815 1 856 1 888 2 900 1 907 1 915 1 923 1 933 1 992 1 999 1 348 1 373 1 375 1 422 1 423 1 452 1 515 1 541 1 543 1 544 1 559 1 612 1 621 1 629 1 651 1 656 1 657 1 677 1 680 1 693 1 699 1 707 1 710 1 716 1 749 1 796 1 809 1 834 1 843 1 854 1 870 1 883 1 917 1 926 1 945 1 961 1 967 1 990 1 1020 1 
1 213 10 1 13 1 16 1 35 1 60 2 81 1 101 2 121 2 126 1 128 1 178 1 184 1 198 1 206 1 208 1 243 1 250 1 255 1 309 1 14 1 24 1 68 1 72 1 139 1 143 1 149 1 150 1 154 1 190 1 193 1 251 1 257 1 273 1 283 1 287 1 300 1 310 1 360 1 366 1 376 1 382 1 386 1 395 1 405 1 432 1 452 1 461 1 472 1 491 1 502 1 505 1 514 1 520 1 534 1 537 1 546 1 548 1 551 1 555 2 583 1 584 1 589 1 614 1 628 1 635 1 661 1 681 1 690 1 723 1 766 1 775 2 777 1 779 1 798 1 808 1 809 1 818 1 834 1 872 1 910 1 933 1 947 1 316 1 364 1 423 1 468 1 521 1 529 1 570 1 572 1 620 1 640 1 645 1 660 1 701 1 713 1 731 1 745 1 755 1 757 1 772 1 783 1 803 1 813 1 852 1 890 1 895 1 916 1 922 1 930 1 957 1 989 1 998 1 1012 1 1020 1 1024 1 1026 1 
1 204 39 1 59 1 60 1 83 1 111 1 126 1 137 1 147 1 180 1 230 1 281 1 298 1 302 1 309 1 37 1 52 1 58 1 73 1 80 1 110 1 115 1 133 1 140 1 157 1 159 1 204 1 241 1 252 1 261 1 271 1 291 1 323 1 354 1 365 1 366 1 367 1 373 1 430 1 431 1 439 1 445 1 458 1 484 1 489 1 545 1 553 1 581 2 586 1 594 2 621 1 635 1 647 1 649 1 660 1 664 1 680 1 685 1 717 1 761 1 815 1 820 2 841 1 842 1 941 1 946 1 956 1 971 2 985 1 321 1 332 1 334 1 345 1 351 1 356 1 374 1 409 1 412 1 419 1 443 1 481 1 486 1 487 1 499 1 504 1 512 1 516 1 534 1 538 1 558 1 620 1 622 1 629 1 658 1 683 1 704 1 725 1 744 1 767 1 824 1 856 1 864 1 899 1 913 1 969 1 973 1 989 1 995 1 
1 214 3 1 28 1 48 1 53 1 63 1 73 1 103 1 113 1 116 1 125 1 148 1 175 1 214 1 216 1 238 1 252 1 284 1 285 1 301 1 312 1 11 1 42 1 61 1 102 1 108 1 111 1 155 1 156 1 190 1 202 1 258 1 289 1 314 1 322 1 327 1 331 1 341 1 349 1 361 1 364 1 389 1 442 1 488 1 496 1 497 1 518 1 526 1 542 1 555 1 560 1 637 1 724 1 729 1 733 1 755 1 758 1 809 2 813 1 847 2 862 1 871 1 884 1 885 1 921 1 923 1 927 2 935 2 944 1 967 1 343 1 352 1 402 1 432 1 439 1 453 1 521 1 571 1 575 1 590 1 595 1 609 1 611 1 649 1 651 1 661 1 682 1 688 1 719 1 750 1 816 1 824 1 842 1 891 1 903 1 913 1 922 1 931 1 976 1 978 1 987 1 999 1 1008 1 1009 1 1010 1 1018 1 
1 204 59 1 67 1 68 1 71 2 102 1 117 1 119 2 132 1 136 2 161 1 185 1 211 1 218 1 230 1 240 1 257 1 262 1 284 1 292 1 14 1 19 1 31 1 34 1 56 1 60 1 93 1 118 1 157 1 169 1 215 1 241 1 263 1 310 1 319 1 322 1 328 1 332 1 342 1 354 1 360 1 380 1 399 2 401 1 404 1 426 1 429 1 434 1 443 1 480 1 492 1 537 1 542 1 593 1 625 1 634 1 641 1 648 1 651 1 656 1 660 1 683 1 695 1 699 1 719 1 787 1 798 1 800 1 802 1 819 1 832 1 833 1 876 1 885 1 910 1 942 1 962 1 966 1 973 1 979 1 985 2 1000 1 318 1 330 1 363 1 371 1 373 1 375 1 376 1 382 1 385 1 386 1 394 1 420 1 435 1 523 1 536 1 551 1 555 1 562 1 563 1 566 1 595 1 610 1 624 1 629 1 643 1 710 1 718 1 739 1 754 1 759 1 779 1 784 1 790 1 793 1 826 1 829 1 831 1 840 1 878 1 921 1 924 1 926 1 932 1 944 1 957 1 965 1 992 1 1019 1 
1 206 27 1 39 1 50 1 87 1 91 1 93 1 96 1 135 1 142 1 152 1 194 1 219 1 223 1 242 1 256 1 279 1 287 1 294 1 303 1 306 1 49 1 65 1 75 1 110 1 127 1 156 1 186 1 233 1 244 1 261 1 283 1 304 1 317 1 338 1 343 1 383 1 422 1 431 1 467 1 475 1 493 1 499 1 512 1 557 1 558 1 565 1 568 1 576 1 600 2 603 1 609 1 615 1 639 1 646 1 649 1 657 1 680 1 690 2 738 1 744 1 758 1 808 1 854 1 882 1 930 1 973 1 977 1 987 1 320 1 342 1 370 1 392 1 395 1 466 1 497 1 521 1 567 1 612 1 640 1 653 1 686 1 694 1 697 1 702 1 710 1 716 1 729 1 736 1 796 1 802 1 805 1 811 1 824 1 826 1 837 1 840 1 851 1 860 1 864 1 902 1 913 1 925 1 928 1 934 1 936 1 945 1 946 1 950 1 972 1 1015 1 1023 1 1024 1 
1 210 41 1 65 1 75 1 85 1 90 1 119 1 161 1 172 1 186 1 237 1 242 1 270 1 271 1 312 1 317 1 19 1 22 1 44 1 45 1 49 1 66 1 71 1 99 1 106 1 111 1 133 1 147 1 163 1 166 1 174 1 180 1 183 1 254 1 258 1 272 1 273 1 304 1 336 1 347 1 352 1 388 1 389 1 391 1 405 1 414 1 428 1 439 1 446 2 456 1 475 1 519 1 528 1 536 1 553 1 555 1 571 2 581 1 607 1 625 1 637 1 691 1 694 1 747 1 755 1 760 1 791 1 795 1 801 1 812 1 824 1 835 1 891 2 901 1 910 1 944 1 951 1 955 1 957 1 962 1 971 1 974 1 332 1 361 1 385 1 396 1 417 1 418 1 425 1 445 1 477 1 481 1 493 1 501 1 512 1 534 1 543 1 585 1 608 1 656 1 668 1 677 1 680 1 688 1 699 1 703 1 753 1 774 1 789 1 805 1 847 1 855 1 895 1 900 1 919 1 953 1 960 1 976 1 983 1 984 1 1023 1 
1 215 9 1 11 1 13 1 14 1 32 1 49 1 52 1 71 1 123 1 147 1 170 1 176 1 181 1 199 1 200 1 221 1 264 1 275 1 301 1 24 1 25 1 41 1 47 1 56 1 84 1 112 1 120 1 121 1 127 1 130 1 132 1 156 1 161 1 169 1 184 1 206 1 209 1 227 1 230 1 233 1 257 1 261 1 270 1 273 1 274 1 296 1 297 1 318 1 324 1 325 1 345 1 376 1 389 1 390 1 400 1 439 1 441 1 468 1 475 1 528 1 537 1 539 1 543 1 553 1 587 1 644 1 678 1 703 1 769 1 774 1 782 1 829 1 833 1 848 1 853 1 865 2 867 1 878 1 883 1 889 1 897 2 900 1 902 1 906 1 907 1 959 1 975 1 976 1 328 1 354 1 366 1 387 1 421 1 426 1 481 1 497 1 501 1 519 1 520 1 527 1 536 1 540 1 547 1 562 1 585 1 608 1 629 1 643 1 659 1 674 1 700 1 726 1 745 1 778 1 834 1 842 1 850 1 856 1 890 1 905 1 929 1 944 1 948 1 949 1 998 1 1006 1 1007 1 1013 1 1017 1 1019 1 1020 1 1026 1 
1 209 10 1 29 1 32 1 62 1 64 1 73 1 110 1 130 1 141 1 154 1 157 1 188 1 205 1 209 1 230 1 239 1 265 1 11 1 36 1 51 1 61 1 88 1 100 1 116 1 126 1 146 1 160 1 172 1 190 1 240 1 267 1 290 1 298 1 310 1 315 1 334 1 436 1 494 1 520 1 523 1 524 1 536 1 541 1 544 1 552 1 573 1 586 1 594 1 596 1 629 1 634 1 643 1 652 1 666 1 674 1 682 1 686 1 724 1 736 1 737 1 738 1 746 1 754 1 769 1 831 1 877 1 896 1 906 1 942 1 965 1 969 2 1002 1 342 1 343 1 346 1 358 1 359 1 361 1 364 1 368 1 388 1 404 1 438 1 452 1 466 1 482 1 484 1 490 1 491 1 529 1 547 1 563 1 597 1 621 1 657 1 692 1 693 1 719 1 752 1 762 1 765 1 777 1 792 1 835 1 838 1 859 1 873 1 875 1 878 1 932 1 949 1 955 1 966 1 976 1 983 1 989 1 1009 1 
1 205 103 1 111 1 126 1 127 1 128 1 138 1 144 1 147 2 155 1 157 1 179 1 183 1 200 1 201 1 229 1 238 1 251 1 264 1 292 1 316 1 317 1 8 1 54 1 56 1 65 1 98 1 134 1 152 1 153 1 186 1 189 1 211 1 234 1 284 1 311 1 353 1 361 1 395 1 404 1 421 1 425 2 439 1 445 1 451 2 463 1 477 1 494 1 500 1 524 2 556 1 593 1 611 1 617 1 621 1 637 1 643 1 646 1 654 1 674 1 688 1 690 1 694 1 696 2 717 1 719 1 729 1 735 1 740 1 756 1 783 1 805 1 844 1 877 1 934 1 937 1 946 1 950 1 959 1 973 1 984 1 994 1 997 1 1002 2 371 1 385 1 400 1 419 1 443 1 457 1 462 1 488 1 489 1 496 1 502 1 506 1 518 1 532 1 533 1 552 1 554 1 567 1 628 1 659 1 684 1 726 1 791 1 803 1 804 1 841 1 854 1 865 1 875 1 902 1 945 1 952 1 999 1 1003 1 1013 1 
1 212 39 1 56 1 86 1 91 1 92 1 98 1 107 1 112 1 145 1 195 1 208 1 213 1 226 1 231 1 232 1 236 1 261 1 262 1 294 1 315 1 15 1 30 1 38 1 66 1 115 1 163 1 176 1 194 1 198 1 270 1 331 1 339 1 349 1 371 1 388 1 398 1 399 1 400 1 434 1 450 1 459 1 488 1 495 1 506 2 523 1 538 1 603 1 634 2 638 1 688 1 691 1 718 1 719 1 726 1 728 2 731 1 737 1 744 2 797 1 834 1 898 1 926 1 931 1 966 1 984 1 404 1 405 1 408 1 409 1 418 1 435 1 447 1 455 1 527 1 532 1 564 1 588 1 624 1 626 1 637 1 659 1 665 1 729 1 745 1 758 1 767 1 789 1 800 1 816 1 828 1 886 1 899 1 911 1 918 1 921 1 934 1 947 1 957 1 962 1 976 1 985 1 1000 1 1006 1 1009 1 1018 1 1022 1 
1 209 15 1 48 1 63 1 68 1 93 1 104 1 107 1 110 2 230 1 234 1 235 1 249 1 255 1 256 2 267 1 291 1 320 1 2 1 8 1 44 1 69 1 85 1 86 1 92 1 113 1 135 1 142 1 144 1 148 1 160 1 188 1 190 1 220 1 266 1 311 1 337 1 352 1 357 1 367 1 383 1 479 1 483 1 508 1 510 2 528 1 536 1 548 1 570 1 579 1 591 1 596 1 597 1 622 1 625 1 664 1 684 1 708 1 712 1 729 1 780 1 812 1 813 2 846 1 849 1 859 1 866 1 883 1 901 1 935 1 946 1 953 1 954 2 978 1 345 1 389 1 409 1 459 1 484 1 515 1 537 1 546 1 550 1 571 1 581 1 588 1 620 1 624 1 630 1 654 1 665 1 697 1 741 1 742 1 775 1 782 1 795 1 808 1 814 1 862 1 880 1 913 1 938 1 943 1 980 1 988 1 990 1 1004 1 
1 211 16 1 25 1 50 1 53 1 56 1 62 1 69 1 115 1 139 1 147 1 157 1 163 1 171 1 201 1 217 1 218 1 219 1 231 1 232 1 247 1 251 1 261 1 263 1 271 1 272 1 281 1 294 1 303 1 320 1 5 1 7 1 30 1 46 1 76 1 81 1 100 1 105 1 127 1 169 1 172 1 186 1 199 1 209 1 210 1 236 1 237 1 239 1 299 1 312 1 336 1 341 1 349 1 376 1 378 1 379 2 387 1 408 1 440 1 455 1 462 1 467 1 468 1 482 2 492 1 496 1 520 1 543 1 619 2 621 1 626 1 644 1 700 1 712 1 751 1 782 1 783 1 788 1 795 1 815 2 818 1 842 1 855 1 857 1 873 1 883 1 886 1 887 1 890 1 902 1 935 2 968 1 978 1 1000 1 370 1 389 1 392 1 417 1 423 1 444 1 447 1 457 1 465 1 476 1 501 1 545 1 548 1 575 1 600 1 610 1 636 1 657 1 687 1 691 1 699 1 719 1 768 1 827 1 847 1 869 1 895 1 930 1 940 1 958 1 972 1 977 1 985 1 1005 1 1007 1 1013 1 
1 209 11 1 34 1 47 1 82 1 167 2 179 1 200 1 204 1 239 1 257 1 262 1 277 1 285 1 35 1 41 1 63 1 97 1 105 1 114 1 121 1 137 1 157 1 161 1 172 1 182 1 237 1 249 1 297 1 298 1 344 1 346 1 351 1 411 1 414 1 429 1 447 1 518 1 519 1 527 1 554 1 558 1 572 1 608 1 613 1 622 1 626 1 628 1 630 1 664 1 670 1 672 2 683 1 686 1 723 1 749 1 772 1 781 1 789 1 808 1 818 1 867 1 885 1 938 1 944 1 952 2 961 1 979 1 982 1 991 1 1001 1 357 1 373 1 391 1 404 1 406 1 415 1 423 1 438 1 480 1 487 1 492 1 494 1 505 1 530 1 532 1 545 1 584 1 592 1 598 1 601 1 632 1 663 1 667 1 676 1 698 1 739 1 765 1 766 1 792 1 819 1 834 1 853 1 863 1 878 1 905 1 906 1 909 1 946 1 969 1 970 1 1014 1 
1 205 1 1 6 1 19 1 22 1 38 1 81 1 99 1 135 1 161 1 212 1 215 1 225 1 238 1 278 1 310 1 316 1 40 1 48 1 104 1 146 1 209 1 241 1 248 1 254 1 265 1 276 1 281 1 312 1 345 1 395 1 414 1 434 1 440 1 457 1 484 1 493 1 519 1 530 1 543 1 552 1 556 1 591 1 601 1 629 2 631 1 666 1 671 1 679 1 682 1 685 1 693 1 728 1 743 1 747 1 752 1 763 1 765 1 771 1 796 1 810 1 819 1 831 1 850 2 853 1 859 1 869 1 885 1 893 1 901 1 912 1 918 1 936 1 956 1 987 1 992 1 334 1 354 1 355 1 356 1 365 1 383 1 389 1 392 1 406 1 424 1 448 1 459 1 486 1 506 1 515 1 522 1 534 1 537 1 540 1 610 1 641 1 660 1 674 1 678 1 700 1 713 1 751 1 778 1 784 1 798 1 805 1 820 1 824 1 875 1 933 1 945 1 957 1 974 1 1018 1 1025 1 
1 214 25 1 41 1 45 1 47 1 79 2 95 1 100 2 136 1 138 1 155 1 158 1 181 1 224 1 227 1 248 1 253 1 254 1 286 2 306 1 313 1 317 1 7 1 11 1 23 1 30 1 42 1 49 1 50 1 56 1 115 1 176 1 213 1 220 1 231 1 255 1 299 1 320 1 330 1 340 1 390 1 399 1 401 1 407 1 430 1 473 1 485 1 493 1 519 1 587 1 621 1 623 1 624 1 636 1 679 1 681 2 686 1 698 1 712 1 716 2 726 1 734 1 744 1 761 1 773 1 775 1 784 1 799 1 841 1 854 1 904 1 931 1 935 1 943 1 950 1 964 1 966 1 967 1 980 1 1002 1 354 1 387 1 392 1 427 1 469 1 479 1 483 1 489 1 492 1 500 1 522 1 535 1 542 1 582 1 629 1 641 1 648 1 650 1 655 1 660 1 661 1 706 1 721 1 728 1 746 1 747 1 755 1 770 1 788 1 821 1 825 1 834 1 853 1 855 1 857 1 865 1 907 1 929 1 948 1 955 1 963 1 1001 1 1003 1 1005 1 1008 1 1021 1 
1 214 8 2 16 1 22 1 35 1 42 1 50 1 86 1 92 1 99 1 137 1 163 1 170 1 171 1 196 1 205 1 248 1 250 1 260 1 266 1 283 1 302 1 18 1 45 1 55 1 65 1 72 1 73 1 93 1 144 1 158 1 227 1 239 1 252 1 253 1 271 1 284 1 291 1 295 1 343 1 375 1 399 1 401 1 402 1 411 1 448 1 455 1 466 1 473 1 481 1 485 1 493 1 498 1 499 1 501 2 519 1 537 1 553 1 582 1 590 1 634 2 657 1 664 1 674 1 686 1 689 1 697 1 716 1 722 1 737 1 741 1 748 1 756 1 767 1 770 1 793 1 802 1 805 1 817 1 825 1 873 1 874 1 878 1 888 1 921 1 962 1 986 1 996 1 1000 1 363 1 374 1 386 1 413 1 418 1 424 1 457 1 476 1 478 1 503 1 580 1 600 1 632 1 658 1 682 1 683 1 714 1 750 1 786 1 788 1 797 1 804 1 809 1 820 1 822 1 832 1 890 1 900 1 914 1 948 1 951 1 963 1 970 1 971 1 1017 1 1026 1 
1 208 1 1 4 1 14 1 26 1 67 1 84 1 140 1 164 1 168 1 177 1 199 2 209 1 213 1 255 1 264 1 280 1 282 1 328 1 8 1 12 1 40 1 56 1 61 1 119 1 123 1 126 1 174 1 270 1 311 1 317 1 331 1 347 1 349 1 354 1 358 1 388 1 401 1 419 1 456 1 460 2 462 1 498 1 499 1 501 1 527 2 554 1 557 1 574 1 588 1 593 1 595 1 606 1 610 1 638 1 647 1 663 1 667 1 681 1 707 1 714 1 726 1 729 1 774 1 777 2 780 1 785 1 791 1 903 1 937 1 948 1 951 1 996 1 332 1 336 1 339 1 342 1 370 1 394 1 410 1 416 1 444 1 455 1 481 1 514 1 559 1 572 1 573 1 576 1 608 1 642 1 665 1 685 1 719 1 725 1 742 1 748 1 831 1 856 1 867 1 876 1 883 1 889 1 900 1 920 1 942 1 943 1 952 1 957 1 967 1 971 1 972 1 977 1 992 1 1006 1 1018 1 1027 1 
1 209 9 1 40 1 59 2 62 1 64 1 79 1 81 1 92 1 93 1 122 1 143 1 147 1 182 1 194 1 229 1 261 1 265 1 316 1 323 1 330 1 11 1 47 1 57 1 70 1 86 1 111 1 125 1 129 1 163 1 204 1 212 1 215 1 221 1 250 1 268 1 295 1 298 1 301 1 331 1 331 1 345 1 383 1 395 1 421 1 483 1 502 1 527 1 535 1 548 1 549 1 588 1 593 1 600 1 618 1 625 1 632 1 633 1 674 1 700 1 704 1 734 1 739 1 750 1 766 1 774 2 814 1 841 1 847 1 884 1 901 1 904 1 908 1 929 1 940 1 955 1 957 1 959 1 960 1 964 1 971 1 1002 1 346 1 351 1 372 1 391 1 411 1 427 1 444 1 445 1 479 1 486 1 545 1 558 1 610 1 639 1 654 1 656 1 663 1 677 1 687 1 748 1 751 1 760 1 773 1 778 1 829 1 837 1 845 1 886 1 909 1 911 1 926 1 948 1 967 1 988 1 992 1 1001 1 1013 1 1017 1 1027 1 
1 209 30 1 32 1 40 1 61 1 63 1 80 1 84 1 102 1 119 1 126 2 135 1 149 1 190 1 242 2 252 1 270 1 294 1 297 1 301 1 306 1 313 1 317 1 7 1 18 1 34 1 60 1 62 1 70 1 124 1 132 1 134 1 141 1 173 1 174 1 177 1 180 1 212 1 223 1 243 1 247 1 248 1 279 1 285 1 315 1 319 1 330 1 353 1 359 1 378 1 381 1 407 1 412 1 446 1 448 1 455 1 485 2 488 1 526 1 553 1 556 1 569 1 580 1 589 1 620 1 639 1 643 1 662 1 676 1 711 1 715 1 841 1 865 1 882 1 901 1 902 1 906 2 929 1 937 1 939 1 337 1 362 1 376 1 384 1 387 1 400 1 415 1 427 1 429 1 436 1 456 1 476 1 484 1 510 1 534 1 590 1 607 1 623 1 664 1 700 1 706 1 713 1 717 1 742 1 747 1 758 1 760 1 761 1 780 1 787 1 791 1 800 1 819 1 835 1 855 1 860 1 875 1 913 1 936 1 944 1 965 1 972 1 988 1 992 1 1018 1 1025 1 
1 206 12 1 16 1 41 1 57 1 81 1 86 1 103 1 123 1 134 1 165 1 167 1 214 1 249 1 257 1 269 1 275 1 278 1 282 1 285 1 287 1 313 1 34 1 55 1 83 1 89 1 133 1 163 1 170 1 171 1 172 1 199 1 216 1 221 1 223 1 227 1 234 1 267 1 289 1 290 1 293 1 350 1 351 1 377 1 395 1 409 1 478 1 493 1 522 1 572 1 602 1 618 1 653 1 662 1 665 1 678 1 724 1 732 1 748 1 752 1 764 1 778 1 783 1 789 1 791 1 821 1 838 1 859 1 866 2 923 1 961 1 970 1 989 1 339 1 357 1 358 1 396 1 398 1 404 1 436 1 466 1 474 1 477 1 486 1 502 1 540 1 571 1 619 1 666 1 690 1 694 1 701 1 711 1 714 1 735 1 744 1 753 1 785 1 793 1 808 1 846 1 885 1 889 1 906 1 933 1 953 1 971 1 973 1 987 1 1006 1 
1 216 12 1 14 1 64 1 95 1 106 1 128 1 181 2 189 1 199 1 202 1 205 1 227 1 260 1 261 1 267 1 279 1 288 1 305 1 310 1 321 1 55 1 96 1 103 1 109 1 132 1 139 1 140 1 150 1 154 1 158 1 170 1 226 1 232 1 254 1 277 1 315 1 327 1 352 1 358 1 360 1 387 1 404 1 409 1 415 1 424 1 438 1 464 1 466 1 469 1 491 1 504 1 535 1 558 1 567 1 575 1 594 1 618 1 619 1 660 1 696 1 700 1 725 1 727 1 733 1 765 1 769 1 814 1 828 1 863 1 889 1 890 1 902 1 908 1 923 1 925 1 937 1 952 1 955 1 982 1 989 1 998 1 349 1 353 1 364 1 365 1 380 1 381 1 382 1 397 1 458 1 471 1 496 1 569 1 572 1 592 1 605 1 642 1 649 1 701 1 749 1 808 1 822 1 829 1 868 1 873 1 901 1 903 1 922 1 924 1 943 1 944 1 986 1 1008 1 1009 1 1010 1 1018 1 1022 1 
1 208 2 1 31 1 42 1 51 1 61 1 82 1 119 1 145 1 151 1 160 1 171 1 180 1 191 1 219 2 242 1 296 1 308 1 312 1 19 1 20 1 63 1 73 1 78 1 100 1 110 1 112 1 129 1 154 1 175 1 228 1 234 1 252 1 261 1 266 1 278 1 341 1 342 1 398 2 402 1 406 1 420 1 450 1 478 1 482 1 502 1 509 1 516 1 537 1 550 1 570 1 578 1 604 1 616 1 623 1 626 1 635 1 659 2 689 2 691 2 702 1 713 1 779 1 811 1 814 1 822 2 826 1 889 1 893 1 934 1 948 1 951 1 977 1 988 1 990 1 997 2 378 1 386 1 403 1 405 1 448 1 505 1 512 1 523 1 525 1 546 1 575 1 579 1 610 1 648 1 679 1 707 1 709 1 711 1 750 1 758 1 760 1 764 1 815 1 827 1 851 1 854 1 877 1 880 1 927 1 949 1 982 1 1008 1 1011 1 1019 1 
1 213 12 1 15 1 31 1 42 1 60 1 69 1 76 1 93 1 102 1 133 1 145 1 147 1 154 1 156 1 173 1 193 2 202 1 239 1 241 1 250 1 251 1 257 1 274 1 288 1 293 1 301 1 304 1 319 1 325 1 16 1 19 1 57 1 58 1 59 1 97 1 106 1 107 1 108 1 144 1 150 1 176 1 207 1 219 1 224 1 232 1 294 1 308 1 330 1 343 1 361 1 407 1 461 1 533 1 540 2 550 1 576 1 590 1 603 1 668 1 675 1 676 1 710 1 727 1 733 1 800 1 801 1 830 1 868 1 877 1 922 1 934 1 935 1 959 1 961 1 968 1 979 1 988 2 997 2 337 1 356 1 385 1 388 1 389 1 476 1 478 1 502 1 519 1 534 1 567 1 573 1 602 1 643 1 662 1 663 1 705 1 711 1 721 1 795 1 825 1 862 1 876 1 878 1 881 1 901 1 906 1 930 1 973 1 982 1 1011 1 1021 1 
1 209 2 1 18 1 25 1 30 1 51 1 76 1 88 1 107 1 114 1 122 1 131 1 138 1 145 2 180 1 183 1 241 1 243 1 244 1 250 2 268 1 275 1 299 1 302 1 324 1 16 1 19 1 32 1 36 1 49 1 69 1 78 1 106 1 111 1 164 1 174 1 192 1 198 1 230 1 235 1 249 1 288 1 297 1 304 1 305 1 332 1 336 1 351 1 377 1 382 1 387 1 401 1 411 1 458 1 476 1 505 1 515 1 532 1 547 1 584 1 613 1 621 1 634 1 651 1 698 1 700 1 734 1 738 1 756 1 759 1 776 1 807 1 878 1 926 1 949 1 957 1 972 1 993 1 403 1 426 1 430 1 460 1 468 1 475 1 497 1 504 1 543 1 544 1 563 1 567 1 583 1 587 1 608 1 615 1 639 1 654 1 705 1 720 1 747 1 757 1 761 1 763 1 769 1 780 1 808 1 823 1 863 1 871 1 876 1 877 1 879 1 880 1 963 1 965 1 1004 1 1008 1 1025 1 
1 207 3 1 32 1 37 1 47 1 61 2 79 1 89 1 125 1 144 1 163 1 231 1 240 1 242 1 244 2 260 1 278 1 301 1 318 1 29 1 53 1 100 1 101 1 109 1 128 1 157 1 162 1 257 1 272 1 273 1 275 1 279 1 288 1 290 1 310 1 362 1 371 1 376 1 416 1 419 1 440 1 444 1 493 1 504 1 528 1 534 1 550 1 578 1 598 1 599 1 637 1 638 1 655 1 672 1 698 2 706 1 736 1 740 1 742 1 744 1 750 1 761 1 815 1 819 1 849 1 854 1 861 1 889 1 893 1 897 1 927 1 931 1 959 1 967 1 969 1 983 1 997 1 350 1 367 1 389 1 434 1 441 1 465 1 487 1 489 1 496 1 520 1 545 1 553 1 573 1 592 1 597 1 625 1 688 1 703 1 718 1 719 1 727 1 731 1 749 1 756 1 804 1 805 1 807 1 831 1 837 1 856 1 860 1 866 1 874 1 878 1 915 1 941 1 942 1 1001 1 1011 1 1017 1 1022 1 
1 208 2 1 66 1 73 1 85 1 116 2 139 1 163 1 171 1 174 1 199 1 221 1 224 1 259 1 262 1 266 1 272 1 277 1 306 1 307 1 323 1 19 1 33 1 36 1 38 1 53 1 79 1 92 1 106 1 112 1 117 1 138 1 141 1 158 1 162 1 165 1 185 1 222 1 240 1 244 1 264 1 294 1 295 1 330 1 333 1 397 1 424 1 439 1 440 1 468 1 485 1 492 1 497 1 513 1 541 1 565 1 583 2 587 1 648 1 668 1 694 1 698 1 747 1 748 1 770 1 773 1 775 1 798 1 807 1 808 1 818 2 827 1 854 1 865 1 880 1 905 1 907 1 911 1 955 1 958 1 966 1 993 1 994 1 1000 1 378 1 394 1 416 1 420 1 442 1 448 1 452 1 480 1 510 1 517 1 529 1 536 1 547 1 551 1 561 1 592 1 600 1 603 1 616 1 627 1 633 1 643 1 660 1 674 1 677 1 681 1 691 1 722 1 767 1 792 1 849 1 877 1 883 1 927 1 959 1 975 1 999 1 1009 1 1020 1 1021 1 1025 1 1026 1 
1 210 8 1 18 1 37 1 52 2 69 1 76 1 109 1 110 1 127 1 136 1 180 1 185 1 186 1 200 2 216 1 218 1 221 2 257 1 258 1 278 1 281 1 287 1 328 1 11 1 96 1 106 1 118 1 120 1 164 1 172 1 182 1 219 1 252 1 340 1 340 1 365 1 369 1 401 1 403 1 459 1 473 1 479 1 499 1 549 1 562 1 568 1 585 1 597 1 658 1 676 1 679 1 705 1 708 1 733 1 745 1 756 1 773 1 819 1 821 1 833 1 845 1 868 1 890 1 937 1 947 1 949 1 952 1 351 1 357 1 377 1 379 1 388 1 400 1 402 1 464 1 501 1 531 1 545 1 581 1 584 1 626 1 655 1 662 1 688 1 696 1 698 1 703 1 704 1 710 1 743 1 764 1 790 1 796 1 797 1 860 1 862 1 864 1 875 1 882 1 912 1 913 1 917 1 923 1 933 1 989 1 1005 1 1012 1 1014 1 
1 210 15 1 24 1 30 1 38 1 58 1 60 1 67 1 69 1 122 1 137 1 144 2 154 1 168 1 206 1 242 1 316 1 325 1 335 1 25 1 41 1 42 1 96 1 98 1 112 1 117 1 127 1 149 1 158 1 162 1 166 1 172 1 218 1 223 1 230 1 243 1 281 1 283 1 296 1 310 1 341 1 341 1 351 1 352 1 359 1 362 1 368 1 369 1 377 1 400 1 425 1 430 1 528 2 557 1 590 1 642 1 643 1 652 2 657 1 668 1 697 1 705 1 711 1 730 1 750 1 763 1 806 1 820 1 825 1 827 1 837 1 850 1 851 1 863 1 880 1 881 1 909 1 910 1 913 1 932 1 954 1 964 1 979 1 347 1 355 1 367 1 396 1 399 1 426 1 443 1 472 1 501 1 527 1 534 1 542 1 559 1 560 1 569 1 585 1 615 1 628 1 649 1 684 1 703 1 706 1 729 1 761 1 762 1 770 1 773 1 784 1 844 1 852 1 859 1 864 1 865 1 870 1 906 1 914 1 919 1 972 1 990 1 998 1 1006 1 1008 1 1019 1 
1 207 25 1 47 1 51 1 89 1 91 1 148 1 154 1 158 1 160 1 176 1 182 1 186 1 197 1 199 1 211 1 226 1 242 1 252 1 272 1 297 1 300 1 317 1 335 1 30 1 68 1 83 1 93 1 105 1 165 1 256 1 267 1 304 1 305 1 318 1 321 1 330 1 376 1 395 1 401 1 406 1 433 1 486 1 500 1 512 1 514 1 540 1 573 1 598 1 620 1 621 1 622 1 627 1 674 1 698 1 721 1 736 1 738 1 760 1 808 1 821 1 828 1 851 1 868 1 882 1 886 1 907 1 913 2 918 1 940 1 961 1 982 1 1000 1 350 1 370 1 381 1 384 1 394 1 429 1 430 1 441 1 491 1 548 1 553 1 593 1 633 1 634 1 640 1 643 1 647 1 657 1 700 1 718 1 751 1 758 1 765 1 769 1 787 1 794 1 801 1 812 1 814 1 859 1 862 1 865 1 871 1 875 1 884 1 919 1 931 1 967 1 977 1 988 1 1009 1 1014 1 
1 207 18 1 23 1 27 1 44 1 55 1 56 1 120 1 132 1 142 1 163 1 167 1 178 1 185 1 217 1 277 1 305 1 318 1 329 1 336 1 9 1 30 1 50 1 101 1 129 1 136 1 156 1 158 1 159 1 183 1 202 1 208 1 210 1 211 1 214 1 231 1 309 1 316 1 321 1 376 1 390 1 417 1 432 1 437 1 460 1 474 1 485 1 497 1 511 1 513 1 543 1 575 1 619 2 636 1 650 1 653 1 713 1 754 1 755 1 759 1 760 1 763 1 810 2 829 1 862 1 872 1 888 1 894 1 906 1 921 1 956 1 962 1 966 2 978 1 980 1 356 1 358 1 373 1 383 1 402 1 449 1 450 1 451 1 453 1 458 1 477 1 481 1 492 1 499 1 505 1 527 1 549 1 557 1 565 1 570 1 579 1 609 1 614 1 622 1 628 1 652 1 679 1 686 1 692 1 721 1 734 1 738 1 765 1 772 1 773 1 798 1 823 1 825 1 826 1 830 1 843 1 845 1 880 1 914 1 922 1 938 1 940 1 971 1 1001 1 1008 1 1015 1 
1 206 36 1 37 1 39 1 91 1 154 1 160 1 181 1 186 1 223 1 259 1 283 1 293 1 326 1 10 1 12 1 15 1 26 1 47 1 51 1 94 1 100 1 130 1 133 1 153 1 196 1 208 1 231 1 235 1 242 1 245 1 248 1 270 1 274 1 298 1 363 1 383 1 404 1 407 1 414 1 444 1 473 1 474 1 483 1 489 1 492 1 503 2 504 1 538 1 561 1 587 1 591 1 622 1 654 1 676 1 686 1 703 1 737 1 774 1 782 1 788 1 800 1 802 1 811 1 831 1 834 1 855 1 862 1 870 1 880 1 911 1 915 1 921 1 962 1 354 1 361 1 373 1 378 1 379 1 394 1 400 1 426 1 472 1 482 1 501 1 511 1 570 1 583 1 586 1 597 1 600 1 617 1 641 1 644 1 658 1 691 1 697 1 704 1 708 1 722 1 727 1 758 1 765 1 798 1 857 1 906 1 912 1 941 1 947 1 950 1 961 1 966 1 968 1 970 1 976 1 992 1 995 1 1011 1 1015 1 1019 1 
1 213 4 1 25 1 41 1 55 1 76 1 126 1 137 1 142 1 143 1 149 1 154 1 172 1 181 1 187 1 212 1 223 1 224 1 232 1 249 1 254 1 320 1 327 1 331 1 2 1 26 1 43 1 49 1 50 1 53 1 112 1 117 1 132 1 135 1 173 1 176 1 194 1 201 1 277 1 279 1 282 1 295 1 298 1 308 1 315 1 324 1 348 1 363 1 426 1 432 1 458 1 470 1 486 1 489 1 491 1 492 1 503 1 520 1 553 1 565 1 569 1 598 1 612 1 613 1 644 1 701 1 710 1 764 1 784 1 786 1 803 1 805 1 809 1 822 1 823 1 829 1 835 1 899 2 917 1 930 1 966 1 967 1 993 1 1002 1 347 1 364 1 367 1 368 1 401 1 410 1 416 1 425 1 430 1 465 1 466 1 475 1 502 1 522 1 548 1 571 1 606 1 634 1 643 1 651 1 652 1 668 1 678 1 693 1 703 1 705 1 717 1 724 1 741 1 750 1 759 1 790 1 795 1 814 1 834 1 853 1 869 1 885 1 895 1 982 1 986 1 1004 1 1011 1 1012 1 1024 1 
1 208 22 1 26 1 44 1 55 1 98 1 104 1 106 1 142 1 145 1 152 1 156 1 168 1 190 1 204 1 214 1 215 1 232 1 276 1 296 1 303 1 326 1 11 1 15 1 18 1 45 1 61 1 67 1 139 1 185 1 199 1 231 1 281 1 288 1 290 1 306 1 307 1 321 1 331 1 366 1 397 1 398 1 403 1 413 1 438 1 440 2 450 1 465 1 490 1 519 1 550 1 551 1 568 1 570 1 577 1 606 1 614 1 640 1 654 1 655 1 659 1 690 1 700 1 703 1 726 1 734 1 739 1 797 1 807 1 818 1 836 1 867 1 873 1 879 1 889 2 920 1 943 1 950 1 952 1 977 1 979 1 357 1 371 1 396 1 416 1 481 1 482 1 493 1 516 1 521 1 544 1 545 1 557 1 565 1 572 1 582 1 598 1 608 1 611 1 612 1 757 1 758 1 760 1 763 1 764 1 774 1 794 1 811 1 817 1 884 1 897 1 924 1 948 1 999 1 1006 1 1012 1 
1 210 11 1 23 1 31 1 80 1 88 1 122 1 133 1 139 1 152 1 169 1 171 1 190 1 197 1 229 1 280 1 291 1 302 1 309 1 319 1 330 1 4 1 12 1 21 1 22 1 48 1 50 1 58 1 61 1 75 1 108 1 120 1 156 1 166 1 170 1 183 1 185 1 198 1 207 1 209 1 211 1 218 1 234 1 261 1 267 1 288 1 292 1 341 1 345 1 358 1 374 1 375 2 395 1 399 1 413 1 422 1 428 2 433 1 441 1 448 1 456 1 458 1 476 1 480 1 509 1 510 1 515 1 562 1 564 1 570 1 579 1 596 1 607 1 613 1 633 1 637 2 651 1 658 1 691 1 693 1 774 1 796 1 800 1 804 1 829 1 843 1 866 1 873 1 880 1 881 1 951 1 952 1 967 1 350 1 406 1 408 1 477 1 507 1 512 1 516 1 548 1 583 1 599 1 606 1 612 1 627 1 660 1 664 1 673 1 681 1 685 1 714 1 727 1 729 1 730 1 776 1 777 1 822 1 847 1 867 1 877 1 902 1 934 1 948 1 966 1 994 1 1006 1 1009 1 1016 1 
1 208 3 2 6 1 14 1 35 1 45 1 54 1 74 1 99 1 108 1 133 1 142 1 145 1 150 1 173 1 187 1 191 1 199 2 209 1 219 1 232 1 238 1 249 1 260 1 264 1 291 1 295 1 345 1 20 1 51 1 82 1 113 1 120 1 131 1 140 1 170 1 185 1 233 1 250 1 254 1 267 1 313 1 408 2 433 1 443 1 467 1 470 1 485 1 508 1 512 1 518 1 527 1 566 1 610 1 639 2 646 1 650 1 659 1 669 1 674 1 684 1 686 1 705 1 708 1 720 1 807 1 819 1 831 1 837 1 849 1 888 1 891 1 901 1 906 1 912 1 915 1 920 1 941 1 944 1 948 1 965 2 392 1 426 1 440 1 457 1 460 1 462 1 481 1 488 1 499 1 500 1 538 1 546 1 556 1 557 1 576 1 678 1 700 1 707 1 714 1 743 1 780 1 799 1 823 1 833 1 834 1 846 1 875 1 886 1 900 1 914 1 954 1 964 1 1008 1 1021 1 
1 209 31 1 51 1 52 2 60 1 87 1 89 1 105 2 115 1 118 1 120 1 131 1 136 1 153 1 177 1 192 1 221 1 226 1 246 1 248 1 275 1 316 1 323 1 325 1 330 1 13 1 21 1 55 1 61 1 63 1 88 1 90 1 95 1 102 1 125 1 182 1 197 1 285 1 299 1 304 1 334 1 353 1 368 1 371 1 378 1 410 1 434 1 443 1 447 1 448 1 488 1 620 1 647 1 682 1 701 1 716 1 792 1 805 1 814 2 816 1 817 1 819 2 845 1 884 1 891 2 909 1 956 1 363 1 382 1 429 1 442 1 445 1 462 1 495 1 501 1 520 1 548 1 566 1 567 1 572 1 587 1 605 1 609 1 613 1 618 1 737 1 743 1 771 1 772 1 798 1 801 1 823 1 827 1 835 1 840 1 852 1 856 1 867 1 887 1 890 1 901 1 902 1 925 1 926 1 972 1 1013 1 1014 1 1016 1 1018 1 1023 1 
1 210 14 1 23 1 31 1 45 1 74 1 91 1 144 1 194 2 196 1 252 1 258 1 283 1 291 1 296 1 306 1 308 1 333 1 12 1 46 1 49 1 71 1 92 1 100 1 135 1 165 1 181 1 240 1 280 1 287 1 301 1 338 1 342 1 347 1 363 1 375 1 401 1 404 1 444 1 499 1 523 1 530 1 551 1 561 1 569 1 585 1 627 1 658 1 685 1 732 2 774 1 786 1 797 1 799 1 825 1 833 1 866 1 879 1 905 1 907 1 909 1 914 1 935 1 356 1 373 1 376 1 397 1 430 1 438 1 463 1 467 1 474 1 483 1 498 1 521 1 522 1 549 1 558 1 570 1 580 1 589 1 594 1 671 1 708 1 730 1 738 1 776 1 787 1 806 1 840 1 857 1 863 1 876 1 886 1 896 1 898 1 928 1 960 1 963 1 966 1 974 1 1005 1 1014 1 1018 1 1024 1 
1 209 22 1 90 1 99 1 185 1 193 1 208 1 214 1 245 1 271 1 326 1 333 1 337 1 341 1 63 1 88 1 101 1 112 1 118 1 134 1 141 1 142 1 159 1 182 1 199 1 234 1 241 1 270 1 285 1 296 1 315 1 331 1 340 1 365 1 383 1 410 1 461 1 468 1 541 1 542 1 571 1 572 1 598 1 631 1 654 1 664 1 669 1 672 2 689 1 696 1 711 1 714 1 724 1 729 1 737 1 739 1 757 1 789 1 814 1 825 1 832 1 833 1 852 2 864 1 913 1 925 1 930 1 933 1 937 1 951 1 961 1 972 1 999 1 361 1 411 1 447 1 449 1 456 1 477 1 485 1 492 1 493 1 495 1 497 1 512 1 513 1 518 1 523 1 557 1 568 1 590 1 604 1 613 1 619 1 644 1 657 1 673 1 684 1 690 1 733 1 747 1 764 1 774 1 791 1 841 1 845 1 893 1 897 1 899 1 923 1 940 1 946 1 952 1 953 1 975 1 990 1 1020 1 1023 1 
1 212 1 1 12 2 21 1 54 1 89 1 123 1 124 1 166 1 173 1 195 2 219 1 238 1 248 1 254 1 269 1 288 1 297 1 307 1 309 1 319 1 324 1 334 1 341 1 48 1 59 1 81 1 93 1 112 1 117 1 142 1 167 1 171 1 181 1 210 1 211 1 229 1 231 1 243 1 259 1 268 1 298 1 316 1 370 1 377 2 402 2 410 1 427 1 460 1 467 1 469 1 472 1 493 1 510 1 526 1 528 1 570 1 574 1 601 1 605 1 648 2 718 1 774 1 801 1 804 2 811 1 879 1 890 1 916 1 966 1 994 1 376 1 388 1 390 1 397 1 399 1 403 1 419 1 437 1 457 1 475 1 532 1 537 1 544 1 548 1 551 1 577 1 581 1 658 1 679 1 693 1 719 1 735 1 759 1 771 1 772 1 783 1 794 1 797 1 825 1 846 1 860 1 871 1 885 1 893 1 904 1 923 1 933 1 938 1 947 1 957 1 991 1 1021 1 1022 1 1027 1 
1 214 10 1 33 1 34 1 62 1 96 1 115 1 139 1 167 1 180 1 186 1 220 1 232 1 255 1 257 1 263 1 268 1 286 1 293 1 302 1 313 1 322 1 332 1 349 1 7 1 32 1 71 1 144 1 148 1 157 1 185 1 204 1 253 1 275 1 304 1 334 1 354 1 366 1 390 1 407 1 441 1 472 2 476 1 484 1 489 1 490 1 502 1 535 1 537 1 573 1 591 1 610 1 643 1 663 1 680 1 689 1 736 1 759 1 780 1 781 1 800 1 802 1 838 1 869 1 877 1 878 1 883 1 891 1 922 1 949 1 951 1 977 1 996 1 386 1 391 1 402 1 415 1 420 1 426 1 449 1 493 1 514 1 538 1 546 1 559 1 670 1 673 1 710 1 737 1 752 1 784 1 810 1 819 1 822 1 830 1 880 1 881 1 886 1 890 1 901 1 902 1 911 1 913 1 950 1 958 1 1006 1 1011 1 1022 1 
1 209 55 1 69 1 73 1 142 1 149 1 158 1 177 1 186 1 201 1 213 1 238 1 272 1 300 1 315 1 317 1 330 1 353 1 19 1 25 1 52 1 53 1 56 1 89 1 132 1 133 1 211 1 215 1 216 1 222 1 228 1 229 1 245 1 247 1 249 1 288 1 320 1 327 1 328 1 344 1 354 1 354 1 356 1 371 2 375 1 414 1 442 1 468 1 481 1 501 1 535 1 538 1 576 1 685 1 713 1 792 1 793 1 804 1 829 1 842 1 847 1 857 1 859 1 862 1 869 1 879 1 909 1 919 1 934 1 941 1 949 1 957 2 998 1 363 1 405 1 465 1 474 1 490 1 491 1 516 1 524 1 533 1 537 1 571 1 575 1 593 1 633 1 652 1 672 1 701 1 741 1 752 1 768 1 775 1 781 1 803 1 805 1 808 1 815 1 850 1 860 1 916 1 917 1 937 1 944 1 961 1 977 1 980 1 997 1 1011 1 1017 1 1021 1 
1 209 24 1 106 1 113 1 126 1 132 1 140 1 147 1 158 1 175 1 209 1 213 1 218 1 227 1 239 1 257 1 258 1 262 1 309 2 15 1 22 1 34 1 36 1 52 1 61 1 87 1 89 1 107 1 109 1 136 1 145 1 215 1 220 1 236 1 248 1 275 1 285 1 287 1 295 1 310 1 327 1 341 1 355 1 355 1 411 1 457 1 461 1 467 1 503 1 506 1 537 1 559 1 599 1 623 1 656 1 664 1 670 1 689 1 690 1 715 1 723 1 732 1 763 1 769 1 798 1 804 1 811 1 829 1 889 1 904 1 930 1 950 1 358 1 426 1 433 1 458 1 466 1 496 1 499 1 509 1 518 1 539 1 551 1 566 1 576 1 578 1 580 1 628 1 637 1 648 1 667 1 683 1 692 1 713 1 720 1 742 1 768 1 770 1 815 1 895 1 901 1 909 1 917 1 926 1 933 1 939 1 943 1 944 1 958 1 966 1 980 1 997 1 1002 1 1004 1 1015 1 1016 1 1025 1 
1 212 47 2 84 1 95 1 143 1 145 1 151 1 157 1 183 1 208 1 226 1 238 1 239 1 247 1 254 1 258 2 266 1 290 2 291 2 354 1 6 1 29 1 32 1 46 1 79 1 106 1 129 1 131 1 136 1 167 1 171 1 176 1 181 1 192 1 214 1 216 1 223 1 225 1 229 1 231 1 280 1 315 1 327 1 336 1 343 1 350 1 390 1 399 1 440 1 456 1 469 1 473 1 531 1 557 1 569 1 585 1 594 1 596 1 597 1 656 2 659 1 665 1 683 1 719 1 762 1 783 1 789 1 818 1 824 1 836 1 853 1 864 1 895 1 967 1 969 1 990 1 997 1 374 1 393 1 406 1 408 1 437 1 449 1 459 1 464 1 479 1 483 1 527 1 550 1 582 1 583 1 622 1 626 1 635 1 640 1 641 1 652 1 716 1 739 1 769 1 781 1 825 1 848 1 854 1 882 1 909 1 911 1 913 1 921 1 975 1 1005 1 1006 1 1009 1 1013 1 
1 211 44 1 50 1 87 1 99 1 106 1 112 1 115 1 122 1 130 1 133 1 138 1 149 1 164 1 181 1 185 1 193 1 205 1 223 1 247 1 274 1 286 1 301 1 324 1 42 1 74 1 80 1 104 1 131 1 146 1 177 1 189 1 196 1 208 1 219 1 225 1 229 1 259 1 273 1 289 1 294 1 297 1 305 1 326 1 333 1 340 1 346 1 360 1 366 1 372 1 396 1 397 1 400 1 403 1 408 1 420 1 433 1 445 1 453 2 462 1 466 1 477 2 489 1 515 1 519 1 523 1 524 1 548 1 569 1 586 1 591 1 612 1 633 1 648 1 654 1 666 1 668 1 702 1 719 1 728 1 733 1 823 1 830 1 865 1 876 1 890 1 891 1 894 1 902 1 906 1 911 1 926 1 929 1 951 1 953 2 968 1 979 1 983 1 1000 1 378 1 422 1 436 1 459 1 473 1 526 1 534 1 563 1 627 1 631 1 632 1 638 1 642 1 647 1 653 1 670 1 738 1 739 1 762 1 772 1 793 1 812 1 835 1 849 1 863 1 879 1 914 1 925 1 947 1 952 1 961 1 976 1 992 1 1010 1 1016 1 1020 1 1024 1 1026 1 
1 205 3 1 5 1 17 1 68 1 75 1 94 1 113 1 126 1 143 1 147 1 168 1 171 1 174 1 237 1 285 1 300 1 301 1 309 1 330 1 334 1 347 1 1 1 8 1 27 1 83 1 98 1 117 1 119 1 140 1 154 1 162 1 181 1 190 1 209 1 213 1 231 1 257 1 276 1 282 1 284 1 286 1 321 1 333 1 343 1 355 1 392 1 405 2 439 1 472 1 475 1 500 1 513 1 522 1 538 1 541 1 552 1 555 1 581 1 590 1 610 2 628 1 638 1 669 1 674 1 681 1 687 1 690 1 693 1 702 1 717 1 732 1 746 1 763 1 789 1 806 1 814 1 820 1 847 1 852 1 866 1 882 1 896 1 899 1 902 1 929 1 933 1 411 1 431 1 432 1 438 1 459 1 517 1 525 1 528 1 558 1 571 1 585 1 594 1 596 1 597 1 598 1 629 1 641 1 644 1 647 1 659 1 667 1 668 1 691 1 727 1 744 1 757 1 778 1 798 1 813 1 824 1 826 1 870 1 905 1 954 1 960 1 961 1 975 1 981 1 983 1 1016 1 
1 214 45 1 54 1 59 1 74 1 81 1 83 1 91 1 107 1 124 1 141 1 182 2 191 1 206 1 233 1 240 1 249 1 257 1 276 1 290 2 299 1 332 1 341 1 15 1 36 1 39 1 57 1 63 1 99 1 101 1 104 1 111 1 117 1 122 1 151 1 160 1 163 1 176 1 190 1 218 1 230 1 263 1 264 1 303 1 321 1 366 1 378 1 384 1 416 2 417 1 422 1 445 1 519 1 522 1 554 1 571 1 574 1 583 1 595 1 602 1 623 2 627 1 677 1 708 1 737 1 760 1 763 1 782 1 786 1 802 1 827 1 828 1 829 1 833 1 885 1 906 1 925 1 931 1 960 1 962 1 971 1 977 1 365 1 425 1 437 1 442 1 454 1 471 1 485 1 548 1 581 1 624 1 625 1 632 1 640 1 645 1 646 1 648 1 659 1 684 1 700 1 704 1 754 1 768 1 793 1 810 1 820 1 823 1 826 1 868 1 914 1 934 1 957 1 970 1 975 1 990 1 997 1 1000 1 1001 1 1003 1 1012 1 1014 1 1017 1 1018 1 1026 1 
1 212 13 1 22 1 23 1 29 1 51 1 138 1 140 1 147 1 151 1 164 1 186 1 188 1 198 1 201 1 209 1 215 1 216 1 241 1 274 1 289 2 300 1 314 1 317 1 334 1 357 1 8 1 30 1 65 1 76 1 86 1 88 1 95 1 105 1 113 1 115 1 153 1 204 1 205 1 247 1 282 1 311 1 363 1 374 1 410 2 412 1 447 1 481 1 483 1 485 1 489 1 526 1 529 1 547 1 560 1 569 1 581 1 595 1 601 1 624 1 662 2 689 1 694 1 701 1 769 1 786 1 806 1 818 1 819 1 833 1 851 1 861 1 883 1 889 1 921 1 928 1 944 1 954 2 959 1 973 1 370 1 384 1 399 1 407 1 422 1 437 1 480 1 501 1 509 1 515 1 522 1 523 1 535 1 558 1 611 1 615 1 654 1 675 1 735 1 740 1 751 1 763 1 768 1 774 1 839 1 855 1 863 1 868 1 873 1 892 1 908 1 922 1 937 1 998 1 1003 1 1006 1 
1 209 6 1 11 1 16 1 26 1 31 1 43 1 65 1 70 1 84 1 133 1 136 2 148 1 149 1 162 1 178 1 183 1 189 1 201 1 225 1 252 1 267 1 278 1 297 2 310 1 311 1 316 1 322 1 336 1 9 1 21 1 29 1 34 1 35 1 66 1 72 1 91 1 107 1 114 1 155 1 165 1 180 1 213 1 220 1 256 1 264 1 269 1 272 1 300 1 304 1 319 1 321 1 344 1 351 1 375 1 395 1 422 1 429 1 442 1 461 1 466 1 468 1 474 1 536 1 549 1 557 1 582 1 596 1 608 1 649 1 656 1 676 1 708 1 716 1 742 1 768 1 787 2 796 1 817 1 843 1 848 1 856 1 892 1 990 1 370 1 394 1 397 1 410 1 446 1 476 1 482 1 514 1 540 1 558 1 571 1 572 1 592 1 646 1 655 1 670 1 705 1 713 1 737 1 784 1 791 1 814 1 857 1 882 1 886 1 902 1 923 1 964 1 967 1 972 1 1012 1 
1 206 13 1 16 1 35 1 82 1 104 1 154 1 158 1 166 1 168 1 169 1 177 1 184 1 197 1 219 2 243 1 254 1 257 2 259 1 274 1 303 1 305 1 338 1 341 1 4 1 18 1 70 1 72 1 85 1 87 1 133 1 134 1 157 1 175 1 214 1 229 1 238 1 251 1 258 1 284 1 291 1 296 1 299 1 332 1 371 1 423 1 432 1 464 1 473 1 484 1 487 1 502 1 503 1 514 1 532 1 604 1 606 1 623 1 629 1 698 1 707 1 718 1 759 1 774 1 817 1 821 1 839 1 860 1 935 1 948 1 956 1 366 1 368 1 390 1 397 1 407 1 420 1 441 1 463 1 476 1 531 1 541 1 546 1 554 1 574 1 585 1 589 1 600 1 601 1 608 1 620 1 622 1 631 1 634 1 642 1 666 1 670 1 700 1 701 1 716 1 733 1 772 1 786 1 790 1 792 1 847 1 851 1 865 1 866 1 873 1 884 1 887 1 890 1 906 1 916 1 962 1 974 1 
1 207 8 1 29 1 45 1 59 1 96 2 106 1 113 1 118 1 146 1 176 1 185 1 200 1 227 1 241 1 262 2 296 1 344 1 345 1 350 1 360 1 4 1 28 1 32 1 69 1 103 1 141 1 194 1 195 1 218 1 259 1 273 1 276 1 317 1 329 1 349 1 354 1 365 1 383 1 386 1 389 1 447 1 468 1 469 1 473 1 507 1 510 1 522 1 527 1 543 1 557 1 625 1 658 1 685 1 698 1 716 1 717 1 745 1 782 1 793 1 812 1 822 1 826 1 855 1 861 1 864 1 868 1 873 2 877 1 883 1 898 1 922 1 927 1 958 1 961 1 972 1 983 1 1000 1 379 1 402 1 406 1 412 1 415 1 418 1 459 1 461 1 472 1 479 1 486 1 498 1 499 1 500 1 578 1 585 1 628 1 637 1 660 1 667 1 670 1 672 1 675 1 703 1 710 1 727 1 748 1 752 1 757 1 810 1 860 1 878 1 925 1 931 1 932 1 936 1 959 1 985 1 986 1 987 1 1001 1 1004 1 1005 1 1018 1 1019 1 
1 212 17 1 30 1 39 1 44 1 53 1 55 1 69 1 75 1 89 1 94 1 100 1 106 1 122 1 127 1 159 1 168 2 174 1 187 1 198 1 209 2 220 1 236 1 237 2 241 1 256 1 258 1 267 1 276 1 297 1 316 1 35 1 51 1 56 1 57 1 67 1 104 1 107 1 112 1 114 1 155 1 181 1 184 1 208 1 221 1 251 1 265 1 301 1 314 1 321 1 334 1 345 1 395 1 423 2 462 1 515 1 531 1 532 1 534 1 548 1 558 1 584 1 588 1 597 1 649 1 652 1 679 1 706 1 753 2 770 1 805 1 819 1 869 1 892 1 901 1 907 1 910 1 911 2 916 1 942 1 954 1 970 1 994 1 1001 1 386 1 400 1 418 1 421 1 429 1 435 1 440 1 444 1 465 1 466 1 467 1 476 1 498 1 539 1 581 1 613 1 616 1 669 1 674 1 682 1 732 1 755 1 758 1 768 1 788 1 865 1 880 1 900 1 925 1 930 1 931 1 964 1 987 1 1003 1 1015 1 1017 1 1018 1 1021 1 
1 210 28 1 65 1 73 1 76 1 78 1 91 1 106 1 131 1 148 1 199 1 211 2 213 1 224 1 238 1 239 1 253 1 258 1 309 1 315 1 340 1 351 1 363 1 5 1 10 1 32 1 67 1 81 1 99 1 101 1 113 1 125 1 136 1 144 1 152 1 184 1 193 1 207 1 276 1 281 1 300 1 327 1 334 1 359 1 444 1 451 1 453 1 454 1 485 1 501 1 555 1 609 1 631 1 640 1 652 1 658 2 696 1 703 1 711 1 720 1 732 1 738 2 745 1 746 1 757 1 761 1 838 1 871 1 878 1 926 1 947 1 953 1 955 1 988 1 381 1 393 1 421 1 424 1 426 1 461 1 520 1 564 1 574 1 581 1 582 1 587 1 588 1 603 1 628 1 633 1 638 1 639 1 645 1 662 1 681 1 699 1 717 1 719 1 724 1 788 1 822 1 828 1 858 1 866 1 867 1 872 1 874 1 882 1 887 1 900 1 916 1 936 1 952 1 958 1 959 1 975 1 983 1 989 1 996 1 1004 1 1005 1 1008 1 1012 1 1022 1 
1 211 45 1 49 1 81 1 92 1 95 1 100 1 103 1 112 2 139 1 167 1 173 1 186 1 204 1 221 1 240 1 278 1 314 1 315 1 346 1 353 1 357 1 359 1 5 1 23 1 31 1 66 1 82 1 93 1 102 1 154 1 166 1 211 1 212 1 245 1 258 1 267 1 320 1 362 1 366 1 366 1 375 1 376 1 385 1 394 1 417 1 419 1 459 1 463 1 470 1 493 1 500 1 512 1 520 1 523 1 546 1 564 1 570 1 582 1 592 1 600 1 624 1 633 1 640 1 645 1 682 1 693 1 696 1 699 1 721 1 738 1 752 1 755 1 787 1 792 1 801 1 841 1 846 1 850 2 851 2 902 1 914 1 929 2 957 1 965 1 987 1 991 1 992 1 367 1 400 1 427 1 432 1 448 1 452 1 469 1 480 1 492 1 505 1 551 1 558 1 578 1 605 1 612 1 643 1 659 1 739 1 786 1 791 1 812 1 869 1 894 1 899 1 922 1 932 1 938 1 943 1 951 1 968 1 1011 1 1019 1 1021 1 
1 212 11 1 15 1 31 1 41 1 51 1 58 1 71 1 73 1 96 1 111 1 121 1 145 1 157 1 166 1 182 1 184 1 208 1 219 1 226 1 235 1 252 1 263 1 315 1 324 1 6 1 20 1 39 1 40 1 52 1 59 1 64 1 72 1 113 1 123 1 132 1 155 1 170 1 191 1 211 1 255 1 256 1 260 1 262 1 310 1 338 1 341 1 345 1 366 1 369 1 382 1 383 1 393 1 410 1 458 1 480 1 517 1 536 1 574 1 589 1 641 1 671 1 721 1 725 1 757 1 764 1 774 2 813 2 841 1 854 1 859 1 860 1 865 1 882 1 884 1 904 1 907 1 940 1 947 1 982 1 988 1 998 1 404 1 416 1 417 1 425 1 448 1 501 1 505 1 514 1 520 1 555 1 562 1 608 1 609 1 618 1 626 1 630 1 633 1 686 1 742 1 748 1 769 1 778 1 819 1 830 1 831 1 844 1 849 1 889 1 905 1 951 1 954 1 956 1 983 1 1004 1 1005 1 1011 1 1025 1 
1 212 75 1 129 1 140 1 159 1 162 1 179 1 180 1 205 1 251 1 258 1 261 1 264 1 283 1 301 1 305 1 341 1 349 1 12 1 14 1 21 1 23 1 27 1 54 1 82 1 97 1 105 1 109 1 127 1 144 1 178 1 197 1 200 1 278 1 289 1 302 1 309 1 321 1 345 1 362 1 371 1 374 1 376 2 380 1 387 1 397 1 414 1 456 1 463 1 489 1 529 1 530 1 539 1 551 1 560 1 605 1 624 1 643 1 654 1 671 1 672 1 681 1 690 1 747 1 754 2 756 1 787 1 794 1 805 1 808 1 832 1 869 1 896 1 927 1 938 1 970 1 974 1 975 1 976 1 989 1 384 1 390 1 406 1 433 1 442 1 498 1 513 1 523 1 549 1 552 1 580 1 598 1 642 1 667 1 709 1 720 1 738 1 752 1 755 1 777 1 816 1 833 1 841 1 882 1 900 1 903 1 917 1 920 1 926 1 950 1 962 1 967 1 1026 1 
1 208 15 1 20 1 38 1 55 1 72 1 91 1 95 1 98 1 104 1 117 1 136 1 146 1 152 1 164 1 182 1 191 1 197 1 199 1 218 1 236 1 238 1 283 1 287 1 296 1 310 1 340 1 341 1 367 1 78 1 86 1 118 1 170 1 176 1 208 1 212 1 219 1 224 1 231 1 232 1 242 1 250 1 254 1 286 1 295 1 386 1 451 2 470 1 536 1 554 1 588 1 593 1 607 1 611 1 622 1 627 1 658 1 661 1 674 1 696 2 708 1 714 1 730 1 749 1 769 1 774 1 779 1 811 2 835 1 890 1 925 1 938 1 371 1 376 1 377 1 382 1 390 1 395 1 408 1 414 1 430 1 431 1 448 1 501 1 526 1 527 1 558 1 589 1 598 1 632 1 635 1 636 1 686 1 688 1 701 1 707 1 735 1 741 1 750 1 763 1 780 1 793 1 819 1 829 1 868 1 888 1 908 1 955 1 969 1 973 1 987 1 998 1 1010 1 1019 1 
1 214 8 1 49 1 65 1 104 1 108 1 121 1 130 2 133 1 135 1 137 1 144 1 145 1 178 1 184 1 196 1 200 1 225 1 236 1 252 1 266 1 283 1 285 1 309 1 352 1 1 1 75 1 79 1 88 1 123 1 124 1 131 1 150 1 152 1 156 1 158 1 164 1 167 1 193 1 232 1 233 1 259 1 304 1 318 1 325 1 330 1 342 1 360 1 361 1 375 1 400 1 406 1 436 1 437 1 461 1 472 1 498 1 546 1 548 1 549 1 554 1 615 1 664 1 672 1 675 1 682 2 701 1 743 1 746 1 758 1 778 1 781 1 788 1 797 1 821 1 865 1 877 1 897 2 898 1 904 1 919 1 922 1 924 1 961 1 969 1 978 2 994 1 997 1 433 1 486 1 536 1 542 1 578 1 609 1 625 1 647 1 648 1 657 1 665 1 679 1 735 1 736 1 741 1 749 1 795 1 837 1 857 1 867 1 870 1 880 1 901 1 957 1 981 1 986 1 1006 1 1013 1 1018 1 
1 210 13 1 20 1 35 1 44 1 51 1 64 1 88 1 102 1 121 1 143 1 151 1 165 1 187 1 222 1 224 1 231 1 251 1 255 1 301 1 304 1 323 1 338 1 349 1 354 2 362 1 368 1 19 1 33 1 37 1 40 1 92 1 100 1 122 1 169 1 178 1 194 1 237 1 242 1 280 1 296 1 317 1 322 1 346 1 369 1 380 2 397 1 402 1 409 1 441 1 465 1 475 1 480 1 484 1 505 1 506 1 511 1 517 1 543 1 574 1 611 1 677 1 692 1 698 1 701 1 715 2 734 1 738 1 762 1 769 1 775 1 809 1 827 1 843 1 857 1 867 1 877 1 897 1 901 1 930 1 933 1 934 1 939 1 941 1 946 2 949 1 964 1 981 1 983 1 992 2 376 1 403 1 408 1 451 1 472 1 524 1 540 1 555 1 558 1 564 1 631 1 642 1 658 1 720 1 729 1 747 1 800 1 807 1 829 1 846 1 863 1 870 1 872 1 915 1 919 1 948 1 961 1 972 1 989 1 1020 1 1027 1 
1 212 30 1 33 1 34 1 115 1 132 1 151 1 200 2 230 1 238 1 243 1 276 1 295 1 300 1 307 1 357 1 5 1 24 1 37 1 73 1 87 1 173 1 189 1 190 1 221 1 240 1 252 1 256 1 258 1 284 1 297 1 304 1 311 1 331 1 373 1 379 1 391 1 395 1 405 1 431 1 435 1 458 1 474 1 477 1 491 1 500 1 505 1 508 1 521 1 524 1 527 2 528 1 533 1 545 1 552 1 594 1 605 1 616 1 636 1 651 1 652 1 655 2 658 1 666 1 668 1 677 1 687 2 813 2 814 2 841 1 904 1 933 1 936 1 942 1 944 1 964 1 983 1 400 1 422 1 428 1 448 1 506 1 512 1 563 1 579 1 580 1 587 1 588 1 601 1 608 1 623 1 635 1 640 1 646 1 678 1 683 1 758 1 764 1 801 1 824 1 859 1 876 1 916 1 923 1 959 1 965 1 982 1 1013 1 
1 212 5 1 38 1 58 1 107 1 111 1 137 2 139 1 146 1 157 1 165 1 179 1 183 1 184 1 234 1 238 1 251 1 261 1 266 1 272 1 277 1 283 1 290 1 315 1 372 1 10 1 17 1 21 1 30 1 43 1 57 1 62 1 66 1 85 1 86 1 112 1 122 1 132 1 151 1 154 1 166 1 172 1 189 1 204 1 265 1 267 1 304 1 305 1 309 1 313 1 317 1 326 1 343 1 344 1 350 1 417 1 425 1 432 1 456 1 458 1 486 1 525 1 563 1 564 1 566 1 573 1 582 1 616 1 645 1 692 1 711 1 716 1 724 1 738 1 747 1 793 1 807 1 812 1 814 1 817 1 827 1 837 1 841 1 857 1 883 1 915 1 919 1 923 1 925 1 929 2 932 1 942 1 953 1 983 1 385 1 388 1 397 1 426 1 433 1 442 1 463 1 474 1 480 1 491 1 501 1 514 1 522 1 526 1 531 1 538 1 619 1 637 1 652 1 701 1 742 1 751 1 761 1 782 1 788 1 836 1 843 1 860 1 866 1 873 1 876 1 897 1 898 1 901 1 912 1 952 1 960 1 962 1 971 1 1004 1 
1 207 14 1 30 1 36 1 38 1 59 1 69 1 80 1 82 1 98 1 111 1 125 1 129 1 135 2 149 1 175 1 189 1 265 1 287 1 288 1 307 1 308 1 347 1 360 1 368 1 1 1 6 1 15 1 17 1 20 1 55 1 67 1 73 1 90 1 92 1 132 1 148 1 156 1 160 1 172 1 180 1 194 1 208 1 210 1 268 1 274 1 294 1 315 1 329 1 356 1 376 1 400 1 402 1 422 1 474 2 475 1 504 2 513 1 530 1 539 1 542 1 552 1 558 1 563 1 572 1 578 1 581 1 620 1 643 1 651 1 674 1 682 1 702 1 710 1 722 1 774 1 803 1 815 2 829 1 848 1 861 1 878 1 880 1 892 1 935 1 956 1 971 1 980 1 394 1 403 1 429 1 455 1 472 1 473 1 555 1 571 1 604 1 625 1 646 1 686 1 711 1 713 1 719 1 720 1 748 1 749 1 768 1 775 1 799 1 816 1 825 1 828 1 855 1 871 1 918 1 937 1 960 1 962 1 965 1 966 1 970 1 984 1 999 1 1025 1 
1 211 1 1 6 2 46 1 50 1 56 1 63 1 64 1 69 1 78 2 177 2 198 1 204 1 213 1 238 1 247 1 248 1 249 1 263 1 290 1 292 1 293 1 298 1 303 1 305 1 308 1 329 1 347 2 350 1 354 1 361 1 366 1 370 1 7 1 43 1 88 1 97 1 99 1 123 1 132 1 136 1 146 1 170 1 199 1 216 1 231 1 277 1 283 1 287 1 313 1 317 1 381 1 396 1 405 1 426 1 428 1 432 1 466 1 522 1 572 1 576 1 606 1 623 1 638 1 646 1 648 1 659 1 664 2 697 1 704 1 708 1 716 1 746 1 751 1 782 1 806 2 808 1 810 1 820 1 823 1 826 1 830 1 840 1 843 1 845 1 846 1 849 1 853 1 871 1 877 1 933 1 964 1 966 1 979 1 981 1 407 1 430 1 431 1 444 1 471 1 479 1 495 1 511 1 533 1 541 1 567 1 601 1 621 1 625 1 650 1 656 1 665 1 688 1 690 1 705 1 724 1 748 1 784 1 816 1 821 1 827 1 848 1 850 1 851 1 865 1 878 1 884 1 897 1 898 1 917 1 936 1 947 1 974 1 993 1 1009 1 1015 1 1016 1 1018 1 
1 208 5 1 11 1 52 1 76 1 96 1 97 1 101 1 116 1 134 1 162 1 169 1 193 1 197 1 206 1 217 1 228 1 235 1 243 1 280 1 286 1 294 1 314 1 320 1 325 1 338 1 342 1 343 1 366 1 368 2 374 1 15 1 60 1 66 1 73 1 91 1 104 1 122 1 124 1 136 1 155 1 158 1 164 1 171 1 200 1 201 1 254 1 272 1 282 1 317 1 332 1 350 1 352 1 369 1 371 1 394 1 422 1 434 1 436 1 449 1 454 1 520 1 528 1 543 1 546 1 556 1 558 1 597 1 627 1 635 1 645 1 647 1 649 1 717 1 752 1 784 1 791 1 832 1 836 1 837 1 848 1 852 1 881 1 887 1 891 1 922 1 935 1 948 1 949 1 963 1 976 1 384 1 397 1 424 1 432 1 456 1 459 1 465 1 478 1 530 1 541 1 559 1 561 1 582 1 598 1 602 1 607 1 623 1 630 1 632 1 659 1 664 1 685 1 714 1 748 1 770 1 776 1 849 1 859 1 902 1 961 1 971 1 996 1 1007 1 1024 1 
1 214 6 1 12 1 22 1 24 1 26 1 38 1 42 1 66 2 71 1 74 1 93 1 103 1 121 1 122 1 134 1 150 1 170 1 195 1 218 1 226 1 228 1 233 1 267 2 273 1 278 1 281 1 307 1 333 1 337 1 341 1 352 2 11 1 56 1 67 1 70 1 106 1 119 1 129 1 155 1 185 1 188 1 190 1 192 1 196 1 215 1 236 1 276 1 308 1 340 1 369 1 395 1 398 1 401 1 405 1 440 1 443 1 444 1 455 1 458 1 459 1 471 1 486 1 494 1 525 1 526 1 579 2 606 2 611 1 612 1 616 2 644 1 646 1 705 1 706 1 731 1 744 1 746 1 781 1 785 2 791 1 818 2 834 1 840 1 848 1 861 1 872 1 880 1 888 1 897 1 898 1 902 1 910 1 925 1 934 1 964 2 972 1 973 1 987 1 988 1 994 1 392 1 394 1 454 1 463 1 490 1 503 1 544 1 550 1 562 1 702 1 722 1 743 1 752 1 758 1 763 1 764 1 779 1 782 1 829 1 858 1 886 1 908 1 921 1 926 1 955 1 984 1 1010 1 1017 1 1023 1 1024 1 
1 209 7 1 13 1 32 1 36 1 50 1 62 2 87 1 89 1 92 1 100 1 159 1 167 1 168 1 170 1 176 1 190 1 235 1 240 1 245 1 277 2 296 1 299 1 300 1 325 1 332 1 349 1 359 1 4 1 9 1 11 1 22 1 30 1 35 1 67 1 86 1 109 1 127 1 154 1 160 1 216 1 244 1 262 1 271 1 308 1 335 1 339 1 344 1 357 1 379 1 428 1 430 1 431 1 453 2 470 1 482 1 528 1 531 1 537 1 562 1 576 1 605 1 619 1 630 1 631 1 648 1 657 1 707 1 708 1 780 1 785 1 792 1 797 1 808 1 830 1 842 1 851 1 856 2 866 1 900 1 915 1 942 1 952 1 968 1 979 1 986 1 987 2 383 1 436 1 439 1 449 1 458 1 487 1 491 1 499 1 548 1 572 1 583 1 589 1 594 1 614 1 642 1 679 1 688 1 692 1 698 1 713 1 744 1 778 1 782 1 833 1 892 1 895 1 905 1 917 1 918 1 933 1 975 1 1010 1 1014 1 1020 1 
1 209 5 1 14 1 39 1 42 1 44 1 54 1 78 1 97 1 98 1 109 1 141 1 146 1 156 1 158 1 162 1 222 1 282 1 306 1 325 2 372 1 378 1 9 1 13 1 32 1 43 1 66 1 71 1 120 1 154 1 174 1 223 1 227 1 262 1 287 1 294 1 340 1 344 1 363 1 380 1 404 1 405 1 411 1 440 1 443 2 466 1 470 1 498 1 502 2 508 1 550 1 561 1 573 2 612 1 637 1 676 1 682 1 710 1 723 1 740 2 773 1 785 1 807 1 860 1 874 1 911 1 927 1 939 1 960 1 964 1 422 1 431 1 458 1 468 1 480 1 490 1 517 1 518 1 539 1 571 1 593 1 617 1 628 1 630 1 635 1 721 1 770 1 788 1 792 1 795 1 816 1 827 1 873 1 894 1 900 1 946 1 958 1 963 1 970 1 980 1 985 1 1004 1 1005 1 1019 1 
1 211 2 1 18 1 35 1 45 1 46 1 47 1 52 1 59 1 78 1 90 1 98 1 99 1 109 1 117 1 129 2 130 2 137 1 157 1 163 1 169 1 193 1 207 1 235 1 241 1 258 1 270 1 274 1 317 1 368 1 371 2 379 1 3 1 22 1 87 1 94 1 105 1 107 1 112 1 165 1 183 1 191 1 276 1 280 1 281 1 298 1 301 1 312 1 334 1 389 2 416 1 423 1 430 1 452 1 460 1 470 1 503 1 537 1 542 1 574 1 577 1 585 1 595 1 627 1 629 1 636 1 641 1 651 1 669 1 670 1 678 1 697 1 722 1 743 1 763 1 766 1 784 1 788 1 795 1 800 1 806 1 808 2 825 1 860 1 871 1 889 1 901 1 908 1 911 1 926 1 946 1 997 1 491 1 507 1 508 1 546 1 576 1 606 1 609 1 662 1 673 1 695 1 775 1 776 1 797 1 850 1 851 1 867 1 879 1 916 1 953 1 966 1 969 1 974 1 983 1 992 1 1001 1 1020 1 
1 208 16 1 31 1 49 1 50 1 53 1 62 1 67 1 81 1 101 1 103 1 105 1 117 2 130 1 160 1 170 1 177 2 188 1 192 1 212 1 237 1 241 1 252 1 262 1 266 1 271 1 273 1 279 1 332 1 375 1 2 1 19 1 29 1 58 1 93 1 106 1 108 1 116 1 162 1 166 1 173 1 183 1 184 1 209 1 236 1 254 1 301 1 304 1 334 1 342 1 365 1 404 1 418 1 420 1 426 1 433 1 473 1 500 1 501 1 516 1 526 1 530 1 560 1 562 1 567 1 580 1 586 1 596 1 608 1 631 1 682 1 688 1 700 2 732 1 742 1 789 1 790 1 828 1 871 1 885 1 894 1 898 1 924 1 980 1 414 1 425 1 436 1 476 1 477 1 482 1 517 1 546 1 557 1 630 1 641 1 652 1 677 1 698 1 759 1 761 1 775 1 787 1 795 1 829 1 846 1 880 1 888 1 904 1 913 1 915 1 923 1 932 1 957 1 969 1 972 1 993 1 1001 1 1004 1 1007 1 
1 210 3 1 30 1 52 1 72 1 76 1 102 1 123 1 153 1 170 1 189 1 196 1 200 2 220 1 230 1 237 1 245 1 289 1 290 1 314 1 337 1 367 1 4 1 29 1 61 1 75 1 87 1 108 1 112 1 114 1 135 1 138 1 139 1 188 1 197 1 215 1 227 1 244 1 274 1 275 1 280 1 294 1 317 1 334 1 349 1 369 1 423 1 439 1 441 1 472 1 499 1 500 1 509 1 569 1 589 1 591 1 598 1 607 1 611 1 618 1 620 1 646 1 660 1 738 1 743 1 755 1 772 1 780 1 809 1 847 2 860 1 881 1 885 1 896 1 900 1 907 1 921 1 926 2 933 1 973 1 985 1 989 1 996 1 410 1 424 1 431 1 444 1 452 1 486 1 488 1 498 1 502 1 515 1 549 1 568 1 575 1 580 1 602 1 606 1 629 1 674 1 692 1 697 1 711 1 718 1 735 1 740 1 746 1 796 1 812 1 818 1 844 1 845 1 852 1 887 1 905 1 911 1 915 1 931 1 934 1 941 1 965 1 981 1 1015 1 1016 1 1023 1 1025 1 
1 210 20 1 47 1 50 1 80 1 86 1 102 1 116 1 131 1 173 1 174 1 176 1 189 1 210 1 214 1 217 1 284 1 318 1 324 1 331 1 344 1 351 1 363 1 367 1 5 1 6 1 7 1 28 1 57 1 61 1 76 1 96 1 111 1 129 1 149 1 172 1 175 1 188 1 194 1 215 1 225 1 229 1 230 1 240 1 268 1 294 1 303 1 306 1 327 1 343 1 378 1 384 1 406 1 449 1 518 1 532 1 542 1 545 1 598 1 605 1 622 1 633 1 634 1 645 1 672 1 676 1 745 1 749 1 755 1 768 2 774 1 784 1 807 1 844 1 853 1 859 1 865 1 912 1 925 1 948 1 951 1 958 1 962 1 422 1 426 1 451 1 458 1 463 1 489 1 491 1 514 1 515 1 531 1 546 1 560 1 561 1 571 1 573 1 594 1 604 1 609 1 627 1 648 1 691 1 692 1 693 1 719 1 772 1 836 1 856 1 860 1 871 1 895 1 922 1 965 1 985 1 992 1 1000 1 1012 1 
1 217 65 1 89 1 98 1 99 1 119 1 129 1 131 1 139 1 173 1 194 1 198 1 224 1 227 1 246 1 303 1 305 1 307 1 359 1 383 1 6 1 16 1 46 1 101 1 107 1 147 1 149 1 166 1 175 1 181 1 201 1 202 1 206 1 207 1 235 1 242 1 243 1 302 1 306 1 332 1 342 1 360 1 368 1 376 1 384 1 384 1 415 1 452 1 463 1 468 1 476 1 482 1 484 1 503 1 534 1 580 1 598 1 599 1 607 1 630 1 656 1 684 1 692 1 702 1 704 1 727 1 732 1 759 1 761 1 793 1 816 1 845 1 856 1 886 1 888 1 889 1 906 1 911 1 917 1 954 1 392 1 499 1 512 1 518 1 541 1 551 1 554 1 605 1 608 1 617 1 666 1 680 1 686 1 698 1 724 1 736 1 751 1 756 1 757 1 769 1 770 1 837 1 841 1 847 1 852 1 871 1 880 1 885 1 894 1 947 1 979 1 986 1 994 1 1004 1 1006 1 1011 1 1018 1 1019 1 1020 1 1022 1 1027 1 
1 207 33 1 43 1 74 1 83 1 92 1 102 1 134 1 145 1 154 1 155 1 163 1 217 1 266 1 286 1 300 1 366 1 22 1 30 1 63 1 91 1 98 1 110 1 114 1 186 1 200 1 218 1 230 1 255 1 258 1 288 1 317 1 319 1 322 1 336 1 373 1 404 1 445 1 452 1 454 1 476 1 574 1 586 1 604 1 635 1 645 1 650 1 657 1 659 1 664 1 695 1 698 1 704 1 719 1 727 1 739 1 772 1 776 1 779 2 790 1 827 1 836 1 841 1 852 1 854 1 869 1 871 1 917 1 922 1 926 1 931 1 938 1 401 1 413 1 436 1 443 1 448 1 453 1 460 1 468 1 518 1 521 1 538 1 610 1 623 1 633 1 680 1 681 1 706 1 717 1 737 1 740 1 748 1 756 1 773 1 808 1 809 1 829 1 875 1 888 1 893 1 895 1 902 1 912 1 927 1 939 1 941 1 953 1 997 1 1004 1 1005 1 1016 1 
1 213 4 1 6 1 10 1 33 1 91 1 98 1 119 1 138 1 156 2 172 1 178 1 181 2 207 1 241 1 282 2 306 1 314 1 363 1 369 1 5 1 43 1 46 1 60 1 65 1 71 1 122 1 194 1 203 1 251 1 253 1 283 1 317 1 329 1 335 1 353 1 364 1 391 1 449 1 477 1 501 1 546 1 548 1 580 1 584 1 588 1 589 2 621 1 623 1 653 1 664 1 723 1 747 1 760 1 790 1 791 1 812 1 814 1 836 1 845 1 851 1 858 1 863 1 891 1 893 2 894 1 900 1 909 1 934 1 956 1 970 1 400 1 413 1 415 1 522 1 534 1 538 1 557 1 563 1 651 1 662 1 667 1 676 1 684 1 687 1 694 1 710 1 728 1 745 1 765 1 766 1 768 1 832 1 882 1 905 1 907 1 912 1 914 1 930 1 935 1 937 1 955 1 971 1 980 1 994 1 1005 1 1007 1 1015 1 
1 208 11 2 101 1 143 1 161 1 204 1 210 1 211 1 223 1 228 1 229 1 270 1 325 1 334 1 337 1 368 1 20 1 25 1 48 1 52 1 62 1 70 1 112 1 113 1 127 1 186 1 251 1 262 1 279 1 320 1 328 1 332 1 400 1 438 1 441 1 462 1 466 1 485 1 486 1 488 1 495 1 513 1 525 1 526 1 529 1 541 1 552 1 579 1 585 1 597 1 600 1 617 1 673 1 729 1 737 1 767 2 807 1 831 1 843 1 893 1 913 1 917 1 946 1 953 2 955 2 966 1 973 1 977 1 388 1 444 1 446 1 475 1 496 1 521 1 558 1 572 1 587 1 588 1 592 1 607 1 638 1 641 1 674 1 678 1 723 1 736 1 738 1 743 1 765 1 768 1 790 1 829 1 862 1 875 1 895 1 916 1 947 1 961 1 1005 1 1010 1 1024 1 
1 212 5 1 12 1 19 1 46 1 47 1 60 1 83 1 85 1 116 1 126 1 128 1 139 1 197 1 202 1 256 1 269 1 271 1 275 1 280 1 292 1 313 1 319 1 323 1 330 1 6 1 28 1 57 1 74 1 78 1 101 1 102 1 172 1 193 1 204 1 205 1 215 1 234 1 255 1 264 1 281 1 285 1 321 1 336 1 340 1 352 1 373 1 387 1 398 1 421 1 430 1 439 1 457 1 460 1 468 1 472 1 483 2 512 1 514 2 564 1 570 1 602 1 606 1 618 1 632 1 633 1 692 1 706 1 736 1 739 1 742 1 743 1 745 1 748 1 803 1 840 1 843 1 848 1 850 1 906 1 926 1 939 1 956 1 988 1 424 1 428 1 445 1 452 1 473 1 498 1 540 1 543 1 556 1 569 1 649 1 662 1 665 1 679 1 683 1 685 1 688 1 698 1 710 1 784 1 792 1 813 1 859 1 867 1 881 1 907 1 924 1 930 1 932 1 943 1 963 1 985 1 1017 1 1021 1 
1 210 20 1 39 1 46 1 52 1 68 1 87 1 91 1 115 1 119 1 124 1 176 1 245 1 266 1 267 1 283 1 285 1 289 1 316 1 319 1 320 1 363 1 380 2 21 1 23 1 44 1 56 1 62 1 64 1 65 1 72 1 76 1 92 1 149 1 163 1 190 1 197 1 205 1 208 1 248 1 279 1 324 1 325 1 327 1 336 1 338 1 393 1 401 1 421 1 424 1 440 1 448 1 455 2 478 1 496 1 506 1 532 1 573 1 587 1 607 1 670 1 707 1 743 1 746 1 834 1 837 2 851 1 865 1 869 1 906 2 913 1 933 1 938 1 942 1 948 1 1001 2 405 1 420 1 464 1 504 1 511 1 531 1 533 1 534 1 547 1 549 1 550 1 569 1 577 1 608 1 616 1 631 1 638 1 673 1 696 1 723 1 736 1 738 1 739 1 759 1 806 1 822 1 843 1 856 1 863 1 864 1 877 1 939 1 971 1 994 1 1008 1 1013 1 1022 1 1023 1 
1 208 5 1 9 1 10 1 33 1 51 1 60 1 75 1 79 1 93 1 109 1 110 1 132 1 186 1 203 1 208 1 212 1 236 1 266 1 280 1 283 1 288 1 304 1 320 1 328 1 343 1 353 1 356 1 16 1 113 1 137 1 176 1 181 1 215 1 229 1 259 1 275 1 276 1 352 1 362 1 368 1 369 1 398 1 400 1 424 1 445 1 461 1 481 1 542 1 546 1 567 1 587 1 615 1 618 2 625 1 649 1 657 1 661 1 674 1 694 1 711 1 720 1 733 1 742 1 768 1 780 1 789 1 804 1 818 1 819 1 854 1 879 1 883 1 885 1 894 1 906 1 946 1 972 1 974 1 990 1 478 1 483 1 505 1 533 1 536 1 539 1 541 1 578 1 584 1 597 1 602 1 630 1 632 1 683 1 690 1 699 1 752 1 757 1 762 1 769 1 774 1 790 1 811 1 831 1 847 1 850 1 862 1 867 1 880 1 959 1 977 1 996 1 1011 1 1013 1 1027 1 
1 208 20 1 32 1 41 1 57 1 69 1 72 1 83 1 106 1 108 1 205 1 211 1 213 1 217 1 241 2 246 1 249 1 266 1 284 1 289 2 319 1 372 1 386 1 17 1 39 1 55 1 58 1 64 1 133 1 149 1 199 1 238 1 286 1 298 1 326 1 331 1 353 1 394 1 421 1 448 1 451 1 455 1 503 1 531 1 609 1 626 1 636 1 665 1 666 1 675 1 685 1 704 1 705 1 717 1 749 1 760 1 765 1 774 1 782 1 787 1 801 1 818 1 827 2 847 1 851 1 867 1 868 1 900 1 915 1 925 1 926 1 957 1 958 1 974 1 975 1 396 1 426 1 434 1 442 1 446 1 461 1 469 1 472 1 483 1 499 1 510 1 523 1 527 1 591 1 643 1 658 1 686 1 703 1 706 1 708 1 724 1 726 1 729 1 737 1 795 1 800 1 804 1 846 1 875 1 918 1 945 1 980 1 991 1 1002 1 1007 1 
1 208 14 1 37 1 38 1 52 1 72 1 82 1 88 1 108 1 109 1 140 1 179 1 183 1 190 1 226 1 238 1 260 1 262 1 264 1 268 1 295 1 297 1 358 1 8 1 49 1 53 1 59 1 87 1 105 1 113 1 118 1 130 1 160 1 246 1 250 1 263 1 275 1 286 1 294 1 307 1 318 1 325 1 327 1 328 1 348 1 377 1 384 1 392 1 392 1 411 1 421 1 452 1 465 1 466 1 485 1 488 1 506 1 510 1 530 1 533 1 535 1 556 1 562 1 601 1 610 1 623 1 648 1 654 1 678 1 693 1 694 1 765 1 768 1 775 1 790 1 807 1 816 1 823 1 858 1 859 1 882 1 929 1 946 1 971 2 980 1 981 1 984 1 990 1 996 1 424 1 448 1 478 1 487 1 501 1 505 1 571 1 580 1 591 1 617 1 668 1 690 1 702 1 705 1 714 1 722 1 731 1 784 1 792 1 825 1 835 1 875 1 907 1 920 1 940 1 961 1 964 1 982 1 1004 1 1021 1 
1 209 9 1 16 1 28 1 34 1 40 1 65 1 89 1 105 1 129 1 151 1 198 1 202 1 228 1 230 1 253 1 272 1 285 1 367 1 389 1 29 1 72 1 112 1 113 1 140 1 142 1 162 1 174 1 175 1 217 1 223 1 260 1 268 1 356 1 365 1 402 1 416 1 417 1 420 1 438 1 459 1 507 1 546 1 559 1 565 1 578 2 676 1 709 1 714 1 746 1 762 1 775 1 779 1 804 1 849 1 863 1 867 1 875 1 915 1 939 1 954 1 960 1 986 1 410 1 427 1 428 1 449 1 454 1 458 1 467 1 472 1 487 1 499 1 512 1 551 1 552 1 598 1 626 1 638 1 651 1 652 1 661 1 715 1 730 1 738 1 749 1 753 1 758 1 787 1 789 1 797 1 848 1 860 1 870 1 884 1 916 1 920 1 932 1 940 1 942 1 957 1 969 1 1006 1 1011 1 1023 1 
1 206 4 1 9 1 10 1 63 2 96 1 115 1 146 1 151 1 176 1 182 1 197 1 218 1 250 1 252 1 254 1 258 1 260 1 283 1 366 1 376 1 391 1 3 1 11 1 14 1 35 1 55 1 62 1 77 1 91 1 124 1 131 1 139 1 173 1 191 1 211 1 276 1 297 1 309 1 317 1 330 1 339 1 342 1 344 1 361 1 374 1 377 1 408 1 410 1 421 1 422 1 431 1 434 1 438 1 473 1 481 1 482 1 505 1 516 1 528 1 537 1 538 1 551 1 581 1 619 1 627 1 636 1 651 1 656 1 668 1 694 1 721 1 736 1 738 1 768 1 813 1 855 1 884 1 933 1 940 1 992 1 996 1 1002 1 456 1 491 1 508 1 509 1 519 1 530 1 560 1 567 1 574 1 597 1 604 1 614 1 633 1 642 1 688 1 691 1 697 1 701 1 714 1 733 1 752 1 756 1 762 1 779 1 782 1 825 1 831 1 849 1 930 1 954 1 977 1 995 1 1013 1 1017 1 
1 210 9 1 38 1 55 1 111 1 116 2 156 1 170 1 176 1 204 1 208 1 213 1 221 1 226 1 233 1 255 1 256 1 258 2 277 1 297 1 312 1 314 1 322 1 327 1 331 1 333 1 342 1 347 1 361 1 364 1 372 1 377 1 5 1 45 1 61 1 64 1 66 1 79 1 163 1 174 1 215 1 264 1 302 1 318 1 369 1 403 1 421 1 446 1 448 1 454 1 468 1 469 1 474 1 483 1 491 1 504 2 529 1 563 1 579 1 582 1 588 1 595 1 599 1 614 1 637 1 638 1 649 1 660 1 668 1 699 1 734 2 735 1 778 1 805 2 833 1 847 1 874 1 902 1 928 1 930 1 941 1 946 1 970 1 982 1 437 1 444 1 447 1 459 1 464 1 467 1 530 1 601 1 621 1 640 1 645 1 650 1 659 1 685 1 687 1 700 1 726 1 742 1 764 1 776 1 793 1 834 1 845 1 860 1 861 1 894 1 912 1 917 1 921 1 923 1 953 1 957 1 975 1 1005 1 1014 1 1019 1 1026 1 
1 210 24 1 34 1 40 1 72 1 108 2 118 1 121 1 154 1 176 1 210 1 251 1 308 1 357 1 375 1 5 1 6 1 43 1 52 1 66 1 98 1 130 1 132 1 159 1 161 1 178 1 192 1 235 1 319 1 333 1 341 1 346 1 391 1 397 1 415 1 423 1 484 1 493 1 497 1 519 1 521 2 539 1 555 2 565 1 572 1 591 1 606 2 619 1 641 1 672 1 690 1 704 1 706 1 734 1 735 1 790 1 797 1 800 1 803 1 809 1 838 1 840 1 842 1 844 1 860 1 865 1 878 1 881 1 889 1 894 2 896 1 943 1 969 1 973 2 400 1 404 1 459 1 462 1 468 1 481 1 494 1 530 1 538 1 586 1 593 1 623 1 633 1 680 1 684 1 703 1 710 1 737 1 746 1 749 1 765 1 781 1 792 1 807 1 808 1 832 1 848 1 854 1 864 1 874 1 933 1 947 1 990 1 1003 1 1004 1 1015 1 
1 211 5 1 17 1 24 1 51 1 92 1 100 1 107 2 139 1 148 1 157 1 161 1 181 1 214 1 217 2 222 1 226 1 237 1 238 1 261 1 286 1 301 1 339 1 346 1 357 1 368 1 371 1 396 1 6 1 20 1 53 1 60 1 78 1 81 1 95 1 153 1 175 1 178 1 201 1 235 1 278 1 305 1 334 1 350 1 352 1 361 1 362 1 373 1 376 1 406 1 444 1 483 1 529 1 546 1 594 1 663 1 684 1 686 1 689 1 692 1 714 1 724 1 731 1 740 1 780 1 790 1 799 1 805 1 813 1 817 1 827 1 838 1 858 1 880 1 927 1 964 1 989 1 418 1 425 1 443 1 445 1 447 1 455 1 470 1 491 1 506 1 508 1 540 1 569 1 584 1 585 1 625 1 642 1 666 1 670 1 743 1 756 1 769 1 772 1 776 1 784 1 804 1 857 1 875 1 884 1 888 1 906 1 912 1 917 1 979 1 1003 1 1005 1 1018 1 1027 1 
1 213 35 2 58 1 114 1 115 1 143 1 163 1 181 1 186 1 189 1 231 1 245 1 273 1 313 1 323 1 335 2 346 1 377 1 388 1 390 1 31 1 56 1 74 1 147 1 162 1 207 1 212 1 249 1 252 1 253 1 260 1 291 1 294 1 305 1 312 1 333 1 426 1 449 1 471 1 477 1 489 1 532 1 536 1 537 1 542 2 551 1 553 1 575 1 594 1 601 1 631 1 655 1 678 1 690 1 692 1 707 1 744 1 769 1 809 2 811 1 824 2 828 2 836 1 837 1 844 1 858 1 861 1 903 1 958 1 976 1 984 1 993 1 412 1 418 1 423 1 431 1 453 1 482 1 491 1 497 1 538 1 589 1 598 1 625 1 628 1 629 1 643 1 644 1 679 1 698 1 710 1 724 1 729 1 733 1 758 1 761 1 767 1 826 1 827 1 853 1 911 1 915 1 916 1 939 1 962 1 974 1 975 1 1005 1 1015 1 1016 1 1017 1 1021 1 
1 206 1 1 15 1 41 1 46 1 51 1 63 1 96 1 118 1 178 1 236 1 243 1 276 1 303 1 306 1 317 2 323 1 328 1 329 1 347 1 356 1 16 1 40 1 70 1 94 1 108 1 126 1 146 1 179 1 180 1 182 1 190 1 214 1 227 1 278 1 308 1 341 1 352 1 360 1 408 1 459 1 466 1 472 1 489 1 505 1 525 1 558 1 577 1 612 1 622 1 637 1 650 1 667 1 675 1 712 1 732 1 744 1 754 1 760 1 799 1 802 1 823 1 848 1 858 1 891 1 897 1 911 1 952 1 965 1 993 1 1002 1 440 1 463 1 471 1 481 1 486 1 495 1 506 1 524 1 530 1 579 1 589 1 600 1 621 1 668 1 685 1 691 1 695 1 698 1 700 1 726 1 735 1 746 1 765 1 767 1 784 1 813 1 859 1 877 1 879 1 884 1 913 1 937 1 956 1 995 1 1000 1 1003 1 1016 1 
1 217 12 1 25 2 49 1 67 1 135 1 171 1 185 1 186 1 194 1 222 1 243 1 252 1 283 1 298 1 308 1 320 1 323 1 341 1 357 1 370 1 374 1 387 1 390 1 9 1 21 1 47 1 50 1 53 1 56 1 60 1 101 1 128 1 130 1 158 1 162 1 184 1 201 1 202 1 207 1 219 1 236 1 250 1 279 1 284 1 289 1 309 1 322 1 332 1 340 1 344 1 364 1 366 1 372 1 386 1 396 1 430 1 472 1 479 1 488 1 502 1 512 1 516 1 570 1 603 1 613 1 625 1 643 1 653 1 674 1 688 1 689 1 762 1 780 1 807 1 812 1 814 1 833 1 843 1 853 1 888 1 938 1 955 1 959 1 964 1 991 1 412 1 414 1 415 1 420 1 424 1 443 1 447 1 459 1 462 1 523 1 534 1 572 1 591 1 621 1 654 1 661 1 671 1 680 1 733 1 776 1 781 1 793 1 794 1 808 1 841 1 850 1 868 1 899 1 980 1 990 1 1006 1 1008 1 1013 1 
1 210 49 1 53 1 68 1 102 1 205 1 233 1 263 1 273 1 313 1 317 1 328 1 329 1 330 1 337 1 340 1 342 1 350 1 377 1 389 1 26 1 38 1 90 1 119 1 122 1 150 1 163 1 181 1 183 1 195 1 246 1 252 1 265 1 298 1 301 1 345 1 385 1 441 1 455 2 458 1 474 1 483 1 499 1 516 2 533 1 545 1 553 1 614 1 627 1 631 1 638 1 656 1 669 1 700 1 732 1 785 1 798 1 803 1 822 1 823 1 831 1 847 1 873 1 889 1 900 1 943 1 950 1 953 1 962 1 969 1 971 1 977 1 406 1 411 1 420 1 424 1 426 1 440 1 536 1 539 1 641 1 642 1 653 1 687 1 708 1 710 1 727 1 735 1 768 1 777 1 784 1 872 1 892 1 896 1 903 1 910 1 916 1 933 1 976 1 980 1 981 1 982 1 986 1 1006 1 
1 204 12 1 16 1 35 1 50 1 103 1 129 1 140 1 150 1 153 1 163 1 179 1 186 1 211 1 215 1 219 1 223 1 225 1 238 1 251 1 276 2 329 1 335 1 352 2 371 1 374 1 393 1 64 1 72 1 81 1 92 1 101 1 105 1 116 1 117 1 120 1 128 1 149 1 166 1 174 1 198 1 202 1 217 1 241 1 255 1 258 1 292 1 316 1 340 1 343 1 353 1 363 1 408 1 438 1 443 1 466 1 484 1 487 1 491 1 519 1 527 1 535 1 542 1 561 1 598 1 600 1 609 1 631 1 648 1 667 1 672 1 676 1 686 1 691 1 701 1 747 1 774 1 784 1 802 1 811 1 822 1 826 1 830 1 861 1 867 1 873 2 878 1 880 1 889 1 910 1 920 1 944 1 954 1 961 1 980 1 992 1 994 2 407 1 440 1 449 1 451 1 458 1 468 1 497 1 577 1 660 1 671 1 709 1 723 1 729 1 730 1 731 1 740 1 742 1 782 1 795 1 800 1 844 1 854 1 869 1 903 1 922 1 928 1 933 1 985 1 1008 1 1011 1 
1 215 4 1 15 1 23 1 38 1 68 1 84 1 87 1 117 2 135 1 154 1 175 1 191 1 221 1 233 1 237 1 238 1 308 1 312 1 340 1 346 1 357 1 395 1 52 1 54 1 58 1 61 1 65 1 86 1 88 1 92 1 93 1 140 1 182 1 228 1 231 1 245 1 271 1 277 1 279 1 293 1 306 1 311 1 335 1 337 1 352 1 371 1 374 1 404 1 427 2 449 1 458 1 498 1 523 1 541 1 543 1 544 1 569 1 571 1 584 1 599 1 613 1 630 2 656 1 692 1 699 1 700 1 722 1 726 1 752 1 755 1 780 1 789 2 806 1 808 1 820 1 837 1 852 1 853 1 863 1 869 1 906 1 913 1 915 1 926 1 966 1 975 1 991 1 992 1 998 1 420 1 454 1 478 1 484 1 509 1 531 1 537 1 574 1 601 1 631 1 681 1 693 1 698 1 708 1 718 1 788 1 840 1 851 1 861 1 866 1 881 1 908 1 994 1 1006 1 1017 1 1024 1 1026 1 
1 209 1 1 45 1 46 1 50 2 56 1 61 1 130 1 142 1 230 1 235 1 236 1 257 1 259 1 261 1 277 1 284 1 299 1 305 1 317 1 322 1 334 1 344 1 350 1 379 1 381 1 385 1 403 1 13 1 36 1 80 1 102 1 106 1 114 1 164 1 205 1 218 1 221 1 227 1 228 1 241 1 279 1 282 1 289 1 300 1 309 1 321 1 323 1 326 1 333 1 367 1 396 1 421 1 424 1 426 1 488 1 506 1 528 1 537 1 558 1 583 1 614 1 624 1 669 1 681 2 685 1 710 1 712 1 768 1 790 1 863 2 906 1 914 1 926 1 932 1 941 2 952 1 954 1 957 1 962 2 975 1 978 1 983 1 994 1 409 1 464 1 473 1 510 1 543 1 561 1 562 1 570 1 577 1 587 1 603 1 650 1 687 1 690 1 700 1 722 1 814 1 877 1 882 1 891 1 921 1 951 1 992 1 1003 1 1005 1 1006 1 1011 1 
1 209 22 1 30 1 82 1 99 1 102 2 115 1 167 1 170 1 177 2 181 1 221 1 228 1 246 1 256 1 294 2 301 1 302 2 303 1 308 1 314 1 319 1 358 2 372 1 375 1 377 1 379 1 44 1 60 1 67 1 73 1 85 1 94 1 106 1 119 1 141 1 184 1 198 1 229 1 278 1 284 1 306 1 323 1 335 1 354 1 389 1 412 2 423 1 446 1 473 1 487 1 501 1 505 1 512 1 532 1 545 1 561 1 573 1 575 1 589 1 593 1 604 1 610 1 612 1 622 1 626 1 631 1 656 1 660 1 661 1 672 1 674 1 705 1 730 1 748 1 796 1 798 1 805 1 808 2 816 1 877 1 884 1 925 1 965 1 984 1 459 1 471 1 477 1 489 1 490 1 492 1 506 1 511 1 515 1 520 1 529 1 548 1 592 1 607 1 615 1 706 1 711 1 712 1 731 1 755 1 758 1 773 1 787 1 789 1 793 1 803 1 819 1 821 1 859 1 952 1 966 1 969 1 979 1 1000 1 1004 1 1014 1 1016 1 1021 1 
1 207 43 1 53 1 64 1 83 1 107 1 148 1 160 1 170 1 182 1 197 1 221 1 246 1 254 1 285 1 297 1 335 1 342 1 370 1 383 1 397 1 12 1 57 1 87 1 90 1 97 1 100 1 155 1 193 1 194 1 216 1 241 1 245 1 284 1 290 1 312 1 326 1 327 1 347 1 356 1 363 1 368 1 401 1 413 1 438 1 449 1 453 1 457 1 465 1 468 1 479 1 493 1 518 1 570 1 582 1 589 1 602 1 631 1 641 1 671 1 676 1 679 1 695 1 696 1 735 1 754 2 835 1 836 1 840 1 843 1 902 1 903 1 908 1 918 1 954 1 995 1 1001 1 412 1 428 1 436 1 439 1 459 1 487 1 505 1 539 1 572 1 585 1 588 1 611 1 617 1 626 1 634 1 659 1 672 1 693 1 694 1 715 1 746 1 748 1 773 1 776 1 777 1 781 1 782 1 791 1 801 1 830 1 846 1 863 1 875 1 888 1 911 1 917 1 926 1 937 1 950 1 960 1 989 1 1011 1 1016 1 
1 210 7 1 19 1 22 1 128 1 133 1 151 1 170 1 211 1 263 1 287 1 328 1 332 1 336 1 344 1 353 1 20 1 27 1 78 1 105 1 160 1 173 1 177 1 184 1 201 1 204 1 226 1 237 1 255 1 260 1 278 1 293 1 360 1 362 1 375 1 402 1 415 2 500 1 509 1 513 1 564 1 585 1 647 1 650 1 664 1 697 1 742 2 744 1 791 1 808 2 829 1 892 1 898 1 911 1 915 1 971 1 975 1 977 1 1002 1 439 1 467 1 472 1 473 1 480 1 482 1 490 1 498 1 503 1 525 1 544 1 558 1 571 1 625 1 626 1 678 1 680 1 709 1 711 1 716 1 737 1 747 1 749 1 752 1 772 1 782 1 783 1 787 1 805 1 809 1 842 1 866 1 867 1 887 1 895 1 897 1 948 1 958 1 994 1 997 1 1000 1 1008 1 1011 1 1027 1 
1 210 31 1 42 1 63 2 128 1 145 1 173 1 185 1 204 1 241 1 247 1 258 1 264 1 267 1 274 2 325 1 348 2 357 1 394 1 399 1 402 1 8 1 33 1 34 1 37 1 65 1 82 1 110 1 114 1 144 1 150 1 158 1 161 1 167 1 183 1 215 1 234 1 250 1 255 1 263 1 323 1 347 1 356 1 369 1 371 1 416 1 452 1 464 1 467 1 474 1 479 1 484 1 493 1 502 1 510 1 514 1 515 1 517 1 526 1 554 1 572 1 591 1 597 1 602 1 604 1 618 1 623 1 624 1 639 1 649 1 665 2 688 1 714 1 739 1 754 1 773 1 795 1 831 1 834 1 835 1 850 1 862 2 868 1 891 1 914 1 928 1 929 1 944 2 972 1 980 1 445 1 466 1 509 1 553 1 576 1 584 1 612 1 615 1 626 1 636 1 697 1 699 1 710 1 717 1 738 1 763 1 797 1 820 1 836 1 870 1 899 1 955 1 978 1 988 1 994 1 999 1 1009 1 
1 216 22 1 26 1 29 1 64 1 82 1 94 1 100 1 115 1 123 1 148 1 149 1 160 2 161 1 232 1 237 1 243 1 274 1 290 1 292 1 333 1 334 1 371 1 3 1 10 1 36 1 39 1 56 1 85 1 117 1 166 1 169 1 191 1 197 1 228 1 239 1 293 1 315 1 323 1 324 1 404 1 423 1 438 1 467 1 473 1 475 1 522 1 526 1 555 1 561 1 562 1 581 1 582 2 584 1 603 1 622 1 630 1 666 1 677 1 679 1 680 1 691 1 715 1 736 1 772 1 780 1 838 1 840 1 859 1 899 1 912 1 914 1 916 1 922 1 940 1 958 1 966 1 971 2 424 1 435 1 466 1 468 1 533 1 536 1 551 1 565 1 578 1 587 1 599 1 644 1 654 1 665 1 693 1 695 1 717 1 724 1 728 1 740 1 746 1 783 1 786 1 806 1 807 1 828 1 837 1 852 1 857 1 865 1 886 1 909 1 941 1 948 1 990 1 1001 1 1005 1 1007 1 1010 1 1014 1 1020 1 1022 1 1023 1 
1 208 9 1 62 1 65 1 74 1 85 1 90 1 112 1 114 1 115 1 120 1 127 1 140 1 146 1 162 1 164 1 172 1 178 1 179 1 183 2 184 1 200 1 222 1 235 1 256 1 260 1 289 1 291 1 293 1 296 1 297 1 302 1 349 1 351 1 352 1 360 2 367 1 394 1 5 1 37 1 54 1 55 1 143 1 151 1 155 1 208 1 241 1 263 1 304 1 310 1 312 1 330 1 345 1 361 1 382 1 393 1 410 1 410 1 414 1 426 1 429 1 452 1 477 1 489 1 507 1 511 1 541 1 548 1 553 1 578 2 609 1 619 1 632 1 635 1 638 1 640 1 650 1 669 1 682 1 685 1 695 1 709 1 739 1 751 1 779 1 796 2 813 1 832 1 854 1 865 1 890 1 909 1 943 1 967 1 977 1 437 1 461 1 466 1 469 1 482 1 483 1 485 1 532 1 556 1 589 1 606 1 610 1 660 1 667 1 671 1 672 1 673 1 761 1 775 1 828 1 855 1 891 1 904 1 922 1 937 1 946 1 951 1 961 1 975 1 995 1 1002 1 1016 1 1018 1 1026 1 
1 208 1 2 12 1 20 2 60 1 86 1 107 2 155 1 170 1 248 1 289 1 326 1 329 1 337 1 355 1 379 1 392 1 3 1 14 1 18 1 26 1 30 1 33 1 38 1 41 1 49 1 61 1 67 1 79 1 103 1 111 1 142 1 144 1 177 1 187 1 195 1 201 1 220 1 241 1 258 1 280 1 295 1 331 1 351 1 358 1 401 1 424 1 432 2 445 1 467 1 496 1 498 1 515 1 526 1 539 1 558 1 580 1 595 1 616 1 658 1 675 1 679 1 680 1 725 1 736 1 755 1 756 1 849 1 850 1 883 1 884 1 899 1 932 1 953 1 960 1 977 1 995 1 429 1 473 1 499 1 516 1 522 1 530 1 549 1 565 1 584 1 586 1 617 1 621 1 629 1 631 1 654 1 687 1 688 1 694 1 707 1 714 1 727 1 735 1 739 1 794 1 820 1 859 1 890 1 922 1 991 1 1003 1 1020 1 1022 1 
1 213 36 1 40 2 44 1 53 1 103 1 116 2 146 1 154 1 158 1 174 1 180 1 213 1 224 1 229 1 265 1 280 1 309 1 313 1 332 1 360 1 405 2 8 1 57 1 58 1 66 1 71 1 83 1 111 1 122 1 125 1 129 1 140 1 141 1 152 1 163 1 191 1 196 1 239 1 243 1 266 1 278 1 282 1 287 1 289 1 315 1 363 1 398 1 400 1 406 1 416 1 435 1 443 1 456 1 470 1 491 1 497 1 518 1 534 1 562 1 581 2 628 1 632 1 673 1 686 1 708 1 777 1 788 1 790 1 810 1 846 1 855 1 859 1 871 1 885 1 927 1 941 1 414 1 415 1 421 1 438 1 445 1 449 1 453 1 478 1 568 1 580 1 592 1 594 1 607 1 611 1 623 1 653 1 692 1 695 1 713 1 728 1 747 1 759 1 769 1 799 1 829 1 853 1 883 1 916 1 926 1 929 1 950 1 962 1 976 1 977 1 984 1 987 1 998 1 999 1 1000 1 1002 1 1005 1 1007 1 1026 1 
1 213 2 1 40 1 44 1 63 2 72 1 85 1 117 1 148 1 180 1 187 1 189 1 206 1 226 1 231 1 263 1 264 1 274 1 275 1 294 2 346 1 347 1 406 1 29 1 30 1 42 1 61 1 89 1 119 1 135 1 173 1 177 1 182 1 210 1 236 1 248 1 250 1 265 1 293 1 329 1 385 1 386 1 418 1 436 1 451 1 572 1 591 1 600 1 617 1 618 1 639 1 699 1 701 1 736 1 748 1 781 1 808 1 815 1 821 1 851 1 866 1 874 1 878 1 887 1 921 1 922 1 935 1 937 1 939 1 952 1 992 1 998 1 452 1 453 1 469 1 476 1 483 1 489 1 496 1 500 1 520 1 544 1 545 1 547 1 565 1 596 1 597 1 659 1 666 1 672 1 687 1 716 1 717 1 726 1 744 1 747 1 796 1 810 1 820 1 832 1 895 1 901 1 903 1 906 1 911 1 919 1 944 1 965 1 994 1 1001 1 1020 1 1023 1 1025 1 
1 217 13 1 16 1 25 1 36 1 38 1 73 1 83 1 88 1 94 2 99 1 116 1 125 1 137 1 146 1 178 1 186 1 232 1 260 1 270 1 275 1 289 1 290 1 319 1 326 1 327 1 344 1 354 1 368 1 410 1 19 1 59 1 68 1 80 1 85 1 97 1 139 1 182 1 194 1 206 1 214 1 221 1 236 1 257 1 279 1 285 1 304 1 310 1 369 1 381 1 400 1 412 1 415 1 443 1 524 1 525 1 541 1 558 1 575 1 615 1 620 1 625 1 642 1 651 1 658 1 670 1 694 1 711 1 712 1 715 1 718 1 725 1 760 1 769 1 805 1 821 1 866 1 895 1 899 1 902 1 905 1 908 1 909 1 929 1 944 1 982 1 993 1 997 1 419 1 420 1 438 1 448 1 507 1 554 1 586 1 602 1 606 1 609 1 612 1 654 1 688 1 691 1 693 1 701 1 734 1 762 1 800 1 807 1 817 1 828 1 831 1 832 1 833 1 850 1 892 1 922 1 943 1 990 1 995 1 1013 1 1016 1 1020 1 1024 1 1027 1 
1 211 13 2 18 1 41 1 46 1 57 2 75 1 96 1 108 1 124 1 125 2 165 1 179 1 204 1 219 1 242 1 247 1 263 1 271 1 277 1 281 1 298 1 305 1 334 1 384 1 396 1 407 2 414 1 14 1 17 1 20 1 32 1 48 1 79 1 101 1 104 1 109 1 119 1 134 1 147 1 168 1 193 1 213 1 262 1 278 1 326 1 332 1 353 1 363 1 386 1 400 1 412 1 419 1 437 1 448 1 458 1 473 1 477 1 494 1 525 1 544 1 583 1 620 1 647 2 657 1 709 2 711 1 756 1 787 1 827 1 864 1 866 1 878 1 924 1 936 1 950 1 964 1 973 1 981 1 990 1 992 1 425 1 439 1 451 1 463 1 471 1 486 1 503 1 511 1 526 1 532 1 555 1 573 1 612 1 631 1 677 1 696 1 698 1 707 1 739 1 815 1 862 1 923 1 959 1 968 1 969 1 976 1 980 1 1004 1 1010 1 1012 1 1018 1 1024 1 
1 210 9 1 31 1 49 1 92 1 130 1 152 1 183 1 192 1 195 1 217 1 255 1 257 1 259 1 263 1 265 1 269 1 277 1 297 2 307 1 310 1 338 1 359 2 380 1 393 1 408 1 412 1 1 1 57 1 59 1 65 1 76 1 78 1 190 1 193 1 300 1 330 1 339 1 345 1 346 1 367 1 418 1 430 1 452 1 480 1 482 1 494 1 507 1 517 1 523 1 534 1 546 1 563 1 565 1 566 1 567 1 584 1 595 1 608 1 640 1 658 1 663 1 668 1 670 1 676 2 683 1 688 1 716 1 744 1 757 1 760 1 779 1 780 1 787 1 790 1 811 1 879 1 899 1 908 1 918 1 931 1 947 1 986 1 421 1 437 1 462 1 467 1 473 1 476 1 477 1 484 1 509 1 592 1 603 1 604 1 606 1 609 1 695 1 704 1 719 1 750 1 820 1 828 1 844 1 886 1 909 1 912 1 956 1 1016 1 1017 1 
1 213 25 1 34 1 42 1 87 1 89 1 93 1 112 1 129 1 153 1 156 1 164 1 165 1 182 1 192 1 214 1 219 2 286 1 287 1 293 2 298 1 343 1 359 1 366 1 373 1 393 1 7 1 12 1 30 1 36 1 37 1 39 1 48 1 54 1 67 1 68 1 126 1 154 1 167 1 193 1 197 1 222 1 303 1 319 1 325 1 367 1 424 1 429 1 445 1 468 1 470 2 481 1 492 1 499 1 500 1 565 1 569 1 581 1 600 1 605 1 637 2 648 1 656 1 659 1 665 1 686 2 696 2 701 1 733 1 738 1 746 1 747 1 758 1 760 1 790 1 812 1 828 1 899 1 905 1 919 1 941 1 942 1 969 1 980 2 981 1 985 1 987 1 991 1 441 1 469 1 474 1 518 1 523 1 586 1 615 1 647 1 674 1 680 1 691 1 704 1 726 1 768 1 795 1 803 1 805 1 824 1 832 1 833 1 863 1 883 1 889 1 906 1 923 1 928 1 946 1 997 1 1018 1 1027 1 
1 211 4 1 25 1 26 1 77 1 92 1 93 1 112 1 140 1 158 1 161 1 167 1 173 1 174 1 216 1 218 1 248 1 281 1 309 1 381 1 413 1 416 1 19 1 30 1 41 1 44 1 48 1 74 1 87 1 103 1 121 1 131 1 184 1 192 1 200 1 221 1 237 1 251 1 280 1 292 1 319 1 323 1 329 1 363 1 364 1 397 1 398 1 461 1 504 1 551 1 559 1 588 1 589 1 601 1 603 1 609 1 620 1 621 1 648 1 661 1 691 1 692 1 708 1 739 2 776 1 786 1 808 2 809 1 850 1 861 1 867 1 899 1 963 1 985 1 992 1 437 1 446 1 456 1 478 1 483 1 513 1 521 1 565 1 576 1 602 1 607 1 611 1 652 1 655 1 694 1 698 1 700 1 709 1 750 1 756 1 784 1 790 1 801 1 818 1 880 1 906 1 924 1 936 1 945 1 947 1 952 1 962 1 965 1 970 1 975 1 1004 1 1005 1 
1 210 32 1 71 1 118 1 144 1 145 1 176 1 185 1 189 1 190 1 204 1 222 1 235 1 249 1 293 2 307 2 313 1 330 1 338 1 366 1 415 1 18 1 38 1 40 1 55 1 76 1 116 1 136 1 155 1 173 1 191 1 212 1 228 1 243 1 244 1 294 1 312 1 315 1 322 1 352 1 414 1 491 1 511 2 514 1 535 1 544 1 564 1 575 1 579 1 603 1 613 2 647 1 649 1 661 1 677 1 704 1 710 1 754 1 763 1 772 1 777 2 783 1 790 1 809 1 814 2 820 1 833 1 835 1 836 1 865 1 868 1 872 1 878 1 894 1 915 1 945 1 973 1 991 1 441 1 448 1 464 1 478 1 486 1 508 1 512 1 527 1 540 1 556 1 558 1 562 1 590 1 591 1 610 1 612 1 617 1 620 1 624 1 625 1 707 1 713 1 724 1 765 1 776 1 801 1 853 1 862 1 864 1 918 1 943 1 948 1 992 1 1011 1 1027 1 
1 204 13 1 29 1 35 1 46 1 83 1 171 1 190 1 207 1 210 1 227 1 228 2 229 1 236 2 270 1 278 1 286 1 335 1 357 1 381 1 393 1 26 1 48 1 71 1 81 1 84 1 99 1 102 1 106 1 158 1 172 1 177 1 181 1 184 1 212 1 223 1 254 1 256 1 266 1 276 1 292 1 305 1 307 1 317 1 339 1 353 1 362 1 389 1 400 1 401 1 403 1 414 1 439 1 442 1 454 1 462 1 463 1 490 1 500 1 509 1 535 1 557 1 569 1 572 1 575 1 596 1 597 1 643 1 666 1 684 1 692 1 699 1 736 1 739 1 748 1 749 1 767 1 799 1 810 1 847 1 849 1 854 1 871 1 885 1 886 1 894 1 900 1 908 1 952 1 961 2 984 1 995 1 438 1 450 1 460 1 473 1 499 1 529 1 533 1 542 1 549 1 554 1 563 1 584 1 628 1 652 1 683 1 694 1 711 1 774 1 777 1 789 1 818 1 825 1 839 1 858 1 888 1 911 1 918 1 919 1 963 1 1027 1 
1 210 4 1 32 1 60 1 75 1 111 1 120 1 127 1 132 1 142 1 184 1 186 1 206 1 226 1 235 1 248 1 277 1 285 1 289 1 322 1 331 1 388 1 389 1 391 1 392 1 394 1 395 1 404 1 22 1 28 1 31 1 40 1 41 1 42 1 97 1 100 1 149 1 161 1 168 1 175 1 183 1 192 1 195 1 210 1 242 1 264 1 290 1 300 1 320 1 364 1 365 1 412 1 416 1 430 1 434 1 452 1 470 1 487 1 499 1 514 1 531 1 545 1 559 1 569 1 582 1 587 1 644 1 654 1 664 1 693 1 711 1 712 1 726 1 761 1 763 1 799 1 818 1 824 1 830 1 850 1 853 1 863 1 870 1 890 1 948 1 986 1 989 1 510 1 535 1 540 1 584 1 601 1 619 1 625 1 658 1 687 1 709 1 717 1 772 1 812 1 815 1 856 1 866 1 867 1 920 1 944 1 972 1 993 1 1001 1 1003 1 1007 1 1008 1 1013 1 1015 1 1016 1 
1 208 38 1 41 1 66 1 74 1 78 1 110 1 112 1 118 1 127 1 128 1 141 1 173 1 176 1 184 1 230 2 238 1 255 1 262 1 266 1 293 1 298 1 300 1 308 1 318 1 347 1 359 1 361 1 374 1 376 1 394 1 2 1 11 1 44 1 63 1 79 1 139 1 164 1 204 1 209 1 234 1 247 1 268 1 270 1 282 1 288 1 295 1 313 1 357 1 360 1 372 1 379 1 383 1 437 1 438 1 439 1 459 1 474 2 486 1 496 1 498 1 562 1 575 1 576 1 581 1 599 1 648 1 668 1 680 1 682 1 715 1 720 1 732 1 744 1 785 1 786 1 791 1 815 1 821 1 839 1 853 1 860 1 892 1 927 1 958 1 966 1 967 1 976 1 986 1 431 1 441 1 447 1 450 1 453 1 484 1 510 1 532 1 548 1 556 1 568 1 593 1 612 1 658 1 662 1 683 1 708 1 728 1 743 1 793 1 799 1 846 1 851 1 869 1 872 1 908 1 912 1 936 1 954 1 962 1 969 1 987 1 1005 1 1018 1 1026 1 
1 216 67 1 77 1 81 1 89 1 118 1 143 1 144 1 149 1 152 1 153 1 157 1 176 1 187 1 198 1 205 1 223 1 308 1 310 1 362 1 364 2 380 1 382 1 396 1 405 1 409 1 8 1 22 1 61 1 69 1 90 1 155 1 163 1 170 1 175 1 192 1 255 1 267 1 269 1 278 1 306 1 307 1 313 1 314 1 325 1 326 1 398 1 433 1 491 1 504 1 515 1 518 1 528 1 542 1 586 1 595 1 600 1 626 1 633 1 642 1 650 1 651 1 665 1 668 2 689 1 702 1 721 1 793 1 811 1 852 1 856 1 865 1 869 1 870 1 875 1 885 1 903 1 912 1 921 1 923 1 934 1 943 1 944 1 949 1 969 1 988 1 424 1 431 1 434 1 469 1 476 1 487 1 488 1 498 1 526 1 552 1 554 1 563 1 566 1 598 1 616 1 620 1 627 1 634 1 641 1 648 1 691 1 705 1 728 1 767 1 783 1 876 1 879 1 890 1 891 1 892 1 908 1 917 1 1001 1 1010 1 1011 1 1013 1 1026 1 
1 209 14 1 20 1 58 1 87 1 89 1 103 1 174 1 182 1 211 1 226 1 235 1 240 1 247 1 258 1 286 1 334 1 339 1 389 1 390 1 404 1 411 1 417 1 5 1 10 1 21 1 35 1 64 1 69 1 142 1 150 1 165 1 175 1 193 1 236 1 252 1 287 1 306 1 327 1 329 1 365 1 376 1 382 1 388 1 392 1 400 1 401 1 409 1 423 1 427 1 458 1 473 1 479 1 495 1 509 1 515 2 516 1 520 1 539 1 546 1 553 1 570 1 585 1 608 1 615 1 639 1 651 2 709 1 712 1 746 2 767 1 776 1 819 1 864 1 866 1 907 1 918 1 945 1 950 1 973 1 429 1 432 1 434 1 444 1 454 1 460 1 461 1 477 1 487 1 500 1 501 1 503 1 511 1 519 1 521 1 535 1 540 1 563 1 566 1 575 1 600 1 609 1 618 1 734 1 740 1 744 1 813 1 823 1 871 1 904 1 919 1 924 1 951 1 970 1 991 1 998 1 1003 1 1012 1 1027 1 
1 208 27 1 37 1 44 1 59 1 63 1 67 2 80 1 108 1 133 1 187 1 261 1 284 1 293 1 301 1 322 2 341 1 373 1 2 1 16 1 22 1 74 1 102 1 142 1 146 1 157 1 163 1 191 1 197 1 204 1 211 1 232 1 243 1 253 1 272 1 279 1 294 1 305 1 306 1 319 1 345 1 359 1 367 1 381 1 397 1 415 1 436 1 470 1 515 1 526 1 531 1 570 1 576 1 585 1 592 1 601 1 628 1 630 1 638 1 645 1 664 1 667 1 689 1 697 1 710 1 711 1 714 1 728 1 746 1 750 1 771 1 813 1 827 1 830 1 917 1 918 1 929 1 931 1 937 1 946 1 970 1 974 1 982 1 440 1 458 1 486 1 518 1 520 1 523 1 544 1 581 1 587 1 593 1 594 1 604 1 622 1 625 1 633 1 678 1 699 1 700 1 706 1 716 1 730 1 737 1 757 1 764 1 767 1 774 1 778 1 795 1 801 1 812 1 817 1 822 1 825 1 839 1 863 1 886 1 909 1 930 1 986 1 987 1 1003 1 1006 1 1009 1 1018 1 
1 211 56 1 62 1 70 1 140 1 165 1 202 1 238 2 244 1 252 1 280 1 317 1 345 1 375 1 381 1 398 1 404 1 410 1 16 1 38 1 44 1 46 1 57 1 94 1 193 1 194 1 208 1 227 1 228 1 262 1 275 1 286 1 305 1 320 1 337 1 341 1 344 1 348 1 353 1 355 1 365 1 373 1 383 1 391 1 401 1 433 1 435 1 444 1 447 2 448 1 460 1 465 1 478 1 490 1 500 1 503 1 511 1 540 1 541 1 548 1 569 1 580 1 591 1 604 1 605 1 612 1 651 2 668 1 688 1 712 1 714 1 715 1 738 1 744 1 763 1 786 1 809 1 813 1 828 1 831 1 842 1 865 1 872 1 891 1 906 1 907 1 991 1 993 1 996 1 1001 1 452 1 464 1 498 1 517 1 542 1 546 1 567 1 576 1 581 1 619 1 634 1 652 1 676 1 689 1 691 1 696 1 758 1 788 1 799 1 812 1 829 1 846 1 858 1 873 1 886 1 942 1 983 1 1003 1 1005 1 1018 1 
1 210 34 1 47 1 55 1 57 1 77 1 119 1 135 1 143 1 148 1 150 1 151 1 164 1 165 1 173 1 198 1 207 1 214 1 215 1 216 1 224 1 299 1 301 1 352 1 403 2 424 1 16 1 37 1 51 1 61 1 65 1 82 1 117 1 120 1 180 1 209 1 213 1 247 1 255 1 263 1 328 1 331 1 332 1 366 1 393 1 429 1 445 1 473 1 505 1 510 1 515 1 547 1 572 1 573 1 583 1 609 1 615 1 672 1 683 2 685 1 697 1 705 1 707 1 728 1 729 1 730 1 735 1 745 1 754 1 759 1 773 1 813 1 817 1 819 2 843 1 871 1 885 1 903 1 916 1 942 2 943 1 945 1 966 1 973 1 984 1 992 1 443 1 462 1 465 1 487 1 491 1 519 1 522 1 546 1 565 1 574 1 590 1 593 1 595 1 614 1 626 1 667 1 698 1 701 1 702 1 781 1 782 1 799 1 826 1 836 1 848 1 902 1 911 1 923 1 935 1 940 1 950 1 965 1 979 1 981 1 1018 1 1021 1 
1 209 16 1 21 1 53 1 66 1 69 1 72 1 81 1 99 1 119 1 134 1 168 1 187 1 196 1 226 1 228 1 289 1 297 2 319 1 347 2 375 1 378 1 2 1 24 1 38 1 52 1 61 1 76 1 89 1 97 1 111 1 158 1 176 1 180 1 209 1 213 1 224 1 235 1 239 1 287 1 290 1 305 1 372 1 388 1 393 1 406 1 435 1 440 1 441 1 473 1 475 1 504 1 511 1 515 1 519 1 581 1 587 1 631 1 647 1 655 1 694 1 725 1 765 1 766 1 769 1 774 1 795 1 808 1 823 1 826 1 833 1 841 1 846 1 861 1 866 1 873 1 878 1 890 1 906 1 907 1 951 1 977 1 991 1 999 1 437 1 439 1 445 1 449 1 455 1 456 1 466 1 530 1 541 1 549 1 566 1 602 1 605 1 634 1 656 1 663 1 664 1 715 1 734 1 777 1 820 1 843 1 885 1 920 1 931 1 940 1 942 1 976 1 985 1 1014 1 1017 1 
1 209 15 2 67 1 78 1 114 1 119 1 132 1 164 1 174 1 195 1 206 1 213 1 228 1 266 1 279 1 292 1 294 1 312 1 317 1 326 1 361 1 410 1 417 1 427 1 3 1 20 1 69 1 74 1 93 1 157 1 169 1 171 1 194 1 218 1 221 1 235 1 255 1 269 1 304 1 332 1 342 1 349 1 364 1 374 1 411 1 424 1 430 1 443 1 461 1 466 1 495 2 496 1 508 1 523 1 527 1 536 1 561 1 564 1 595 1 612 1 627 1 663 2 671 1 677 1 681 1 693 1 696 1 709 2 722 1 745 1 749 1 765 1 767 1 773 1 783 1 803 1 806 1 836 1 838 1 849 1 852 1 866 1 885 1 947 1 450 1 459 1 471 1 483 1 530 1 545 1 557 1 598 1 632 1 637 1 698 1 741 1 761 1 763 1 769 1 780 1 797 1 817 1 821 1 858 1 867 1 871 1 874 1 911 1 992 1 1012 1 
1 210 28 1 37 1 60 1 68 2 127 1 159 1 171 1 186 1 194 1 196 1 206 1 222 1 223 1 232 1 240 1 249 1 280 1 294 1 315 1 328 1 341 1 378 1 380 1 388 1 400 1 416 1 421 1 429 1 34 1 73 1 78 1 105 1 117 1 125 1 139 1 141 1 150 1 274 1 307 1 337 1 342 1 345 1 350 1 369 1 375 1 454 1 456 1 465 2 497 1 505 1 506 1 516 1 519 1 538 2 548 1 554 1 558 1 559 1 588 1 636 1 645 1 654 1 657 1 673 1 675 1 705 1 741 1 763 1 771 1 778 1 793 1 843 1 846 1 849 1 866 1 905 1 914 1 949 1 971 1 1001 1 445 1 460 1 523 1 527 1 555 1 574 1 587 1 601 1 605 1 627 1 649 1 669 1 681 1 682 1 694 1 696 1 714 1 717 1 720 1 721 1 734 1 736 1 754 1 775 1 829 1 837 1 854 1 860 1 888 1 889 1 900 1 941 1 946 1 951 1 965 1 990 1 1002 1 1005 1 1008 1 1019 1 
1 209 9 1 13 1 34 1 59 1 61 1 63 1 77 1 81 1 82 2 130 1 131 1 137 1 182 1 190 1 193 1 197 1 204 1 230 1 232 1 239 1 255 1 260 1 315 1 318 1 372 1 378 1 394 1 5 1 21 1 36 1 57 1 95 1 99 1 108 1 113 1 162 1 167 1 198 1 246 1 286 1 302 1 358 1 369 1 375 1 379 1 382 1 398 1 422 1 423 1 457 1 505 1 514 1 517 1 543 1 551 1 556 1 570 1 601 1 608 1 613 1 623 1 627 1 629 1 633 1 642 1 652 1 668 1 679 1 702 1 709 1 720 1 729 2 736 1 749 1 783 1 796 1 809 1 820 1 841 1 850 1 877 1 908 1 920 1 936 1 950 1 972 1 973 1 976 1 501 1 528 1 542 1 544 1 545 1 555 1 584 1 587 1 595 1 616 1 619 1 626 1 698 1 744 1 771 1 778 1 797 1 871 1 905 1 912 1 916 1 967 1 979 1 983 1 1013 1 1018 1 
1 218 14 1 20 1 28 1 37 1 38 1 55 1 58 1 68 1 77 1 78 1 87 1 91 1 97 1 100 1 118 1 144 1 193 1 206 1 214 2 220 1 229 1 273 2 278 1 282 1 286 1 290 1 298 1 309 1 314 1 343 1 345 1 362 1 373 1 375 1 411 2 9 1 24 1 43 1 45 1 51 1 64 1 70 1 96 1 99 1 101 1 112 1 123 1 125 1 157 1 165 1 168 1 176 1 209 1 219 1 228 1 275 1 284 1 316 1 358 1 366 1 376 1 424 1 436 1 443 1 463 1 484 1 493 1 504 1 514 1 538 1 598 1 604 1 609 1 627 1 721 1 726 1 727 1 744 1 748 1 776 1 807 1 824 1 891 1 900 1 910 1 950 1 958 1 975 1 1000 1 433 1 446 1 482 1 535 1 552 1 579 1 588 1 688 1 702 1 718 1 735 1 747 1 788 1 812 1 818 1 838 1 848 1 851 1 854 1 858 1 886 1 892 1 928 1 941 1 942 1 981 1 1010 1 1019 1 
1 212 6 1 10 1 19 1 59 1 98 1 108 1 115 1 122 1 123 1 133 2 205 1 243 1 251 1 277 1 278 1 283 1 307 1 342 1 347 1 348 1 357 1 381 1 423 1 426 1 29 1 51 1 66 1 93 1 94 1 107 1 153 1 156 1 178 1 194 1 220 1 228 1 259 1 274 1 286 1 311 1 312 1 355 1 368 1 370 1 373 1 432 1 452 1 467 1 477 1 479 1 494 1 514 1 569 1 572 1 578 1 606 2 614 1 622 1 633 1 636 1 643 2 651 1 667 1 674 1 688 1 689 1 694 1 697 1 707 1 712 1 723 1 799 1 821 1 825 1 826 1 862 1 916 2 948 1 435 1 497 1 508 1 513 1 534 1 547 1 570 1 611 1 627 1 650 1 690 1 722 1 728 1 730 1 760 1 762 1 764 1 767 1 777 1 793 1 806 1 818 1 842 1 848 1 867 1 893 1 897 1 902 1 913 1 936 1 942 1 946 1 966 1 979 1 985 1 993 1 1003 1 1010 1 1017 1 1021 1 1024 1 
1 213 13 1 79 1 83 1 102 1 113 1 169 1 188 1 206 1 223 1 232 1 263 1 272 1 293 1 299 1 313 1 317 1 323 1 327 1 349 1 376 1 394 1 421 1 19 1 45 1 50 1 54 1 68 1 85 1 93 1 111 1 119 1 120 1 156 1 225 1 236 1 241 1 284 1 302 1 338 1 391 1 423 1 424 1 502 1 524 1 544 1 554 1 559 1 577 1 615 1 645 1 665 1 676 1 697 2 704 1 707 1 726 1 730 1 732 2 733 2 735 1 750 2 751 1 764 1 795 1 822 1 831 1 861 1 869 1 880 1 910 1 918 1 922 2 934 1 935 1 941 1 955 1 959 1 965 1 976 1 986 1 454 1 459 1 520 1 541 1 560 1 599 1 630 1 684 1 703 1 705 1 748 1 756 1 771 1 788 1 815 1 819 1 823 1 824 1 827 1 855 1 863 1 870 1 891 1 904 1 937 1 940 1 945 1 998 1 1004 1 1007 1 1016 1 1020 1 1023 1 1026 1 
1 216 4 1 56 1 59 1 89 1 102 1 111 2 114 1 157 1 174 1 184 1 206 1 212 1 220 1 251 1 257 1 261 1 282 1 297 1 299 1 303 1 372 1 412 1 426 1 428 1 28 1 35 1 37 1 48 1 68 1 71 1 76 1 125 1 129 1 134 1 135 1 141 1 234 1 236 1 242 1 265 1 267 1 290 1 317 1 323 1 364 1 409 1 433 1 457 1 472 1 490 1 513 2 531 1 542 1 544 1 545 1 558 1 565 1 568 2 573 1 676 1 710 2 715 1 718 1 733 1 735 1 737 1 772 1 775 1 777 1 802 1 813 1 819 1 820 1 829 1 830 1 848 1 853 1 870 1 881 2 896 1 913 1 942 1 958 2 974 1 994 1 442 1 515 1 577 1 619 1 623 1 660 1 680 1 689 1 697 1 722 1 723 1 753 1 797 1 818 1 832 1 856 1 861 1 862 1 874 1 883 1 898 1 900 1 911 1 932 1 962 1 964 1 997 1 1019 1 1025 1 1026 1 
1 207 14 1 22 1 35 1 42 1 50 1 51 1 54 1 60 1 89 1 91 2 118 1 131 1 239 1 253 1 265 1 266 1 312 1 321 1 370 1 376 1 413 1 425 1 432 1 25 1 61 1 72 1 87 1 103 1 110 1 138 1 160 1 209 1 211 1 213 1 277 1 289 1 290 1 332 1 333 1 357 1 378 1 381 1 385 1 406 1 447 1 457 1 468 1 478 1 548 1 552 1 561 1 563 1 565 1 583 1 587 1 606 1 611 1 612 1 616 2 647 1 676 1 723 1 754 1 758 1 763 1 863 1 871 1 876 1 903 1 904 1 908 1 939 1 975 1 442 1 469 1 495 1 518 1 520 1 525 1 530 1 531 1 559 1 571 1 617 1 620 1 633 1 672 1 690 1 691 1 719 1 765 1 769 1 796 1 811 1 833 1 840 1 849 1 856 1 869 1 910 1 932 1 952 1 953 1 955 1 966 1 993 1 1012 1 1014 1 
1 212 7 1 21 1 29 1 42 1 63 2 71 1 78 1 85 1 109 1 116 2 162 1 191 1 198 1 212 1 221 1 268 1 273 1 282 1 285 1 343 1 370 1 415 1 422 1 3 1 44 1 55 1 60 1 65 1 77 1 133 1 180 1 183 1 188 1 192 1 195 1 199 1 250 1 311 1 352 1 356 1 359 1 360 1 395 1 410 1 416 1 418 1 428 1 459 1 463 1 470 1 517 1 518 1 536 2 554 1 557 1 595 1 596 1 597 1 605 1 614 1 663 1 678 1 686 1 708 1 713 1 728 1 731 1 757 1 814 1 828 1 836 1 842 1 849 1 859 1 879 1 891 2 918 1 927 1 939 1 942 2 984 1 986 1 1000 1 447 1 458 1 462 1 466 1 474 1 477 1 481 1 484 1 520 1 525 1 548 1 577 1 578 1 579 1 590 1 651 1 685 1 697 1 714 1 740 1 800 1 823 1 845 1 860 1 871 1 882 1 922 1 949 1 992 1 1009 1 1014 1 1017 1 1018 1 
1 213 23 1 37 2 61 1 63 1 68 1 146 1 157 1 161 1 165 1 190 1 211 1 216 1 220 1 226 1 238 1 256 1 259 1 311 1 334 1 346 1 387 1 393 1 394 1 402 1 406 1 409 1 422 1 24 1 28 1 29 1 59 1 66 1 69 1 95 1 113 1 122 1 125 1 167 1 175 1 196 1 198 1 202 1 208 1 227 1 229 1 240 1 244 1 263 1 293 1 299 1 321 1 326 1 350 1 358 1 412 1 414 1 420 1 452 1 509 1 513 1 540 1 544 1 553 2 569 1 577 1 586 1 616 1 650 1 707 1 708 1 718 1 724 1 736 1 741 2 771 1 775 1 780 1 791 1 824 1 841 1 849 1 873 1 925 1 948 2 451 1 482 1 499 1 503 1 534 1 543 1 607 1 621 1 623 1 660 1 686 1 704 1 728 1 743 1 749 1 754 1 756 1 767 1 788 1 795 1 818 1 850 1 852 1 860 1 864 1 909 1 913 1 917 1 919 1 922 1 958 1 999 1 1002 1 1009 1 1019 1 
1 209 8 1 19 1 33 1 45 1 53 1 78 2 109 1 149 1 178 1 183 1 188 1 190 1 218 1 220 1 222 1 255 1 274 2 313 1 315 1 319 1 320 1 322 1 339 1 358 1 382 1 388 1 420 1 422 1 17 1 25 1 26 1 93 1 105 1 111 1 116 1 118 1 123 1 131 1 138 1 221 1 225 1 230 1 232 1 252 1 256 1 260 1 271 1 289 1 290 1 306 1 307 1 316 1 378 1 406 1 407 1 415 1 428 1 440 1 448 1 471 1 509 2 521 1 557 1 568 1 575 1 583 1 592 2 605 1 668 1 677 1 686 1 697 1 712 1 724 1 726 1 727 1 730 1 733 1 745 1 746 1 771 1 776 1 781 1 799 1 841 1 851 1 857 1 883 1 898 1 939 1 942 1 947 1 973 1 984 1 990 1 476 1 484 1 493 1 495 1 498 1 539 1 547 1 555 1 571 1 581 1 585 1 614 1 624 1 625 1 629 1 631 1 650 1 657 1 666 1 692 1 713 1 718 1 757 1 759 1 775 1 789 1 811 1 816 1 821 1 830 1 844 1 866 1 888 1 905 1 908 1 911 1 917 1 928 1 972 1 993 1 1016 1 1026 1 
1 208 47 1 48 1 105 1 114 1 161 1 164 1 180 1 215 1 217 1 241 2 243 1 268 1 270 1 281 1 303 1 308 2 325 1 327 1 338 1 339 1 346 2 356 1 377 1 379 1 389 1 428 1 439 1 2 1 7 1 36 1 40 1 53 1 67 1 72 1 74 1 84 1 86 1 119 1 193 1 200 1 212 1 238 1 239 1 240 1 247 1 256 1 262 1 265 1 284 1 296 1 298 1 307 1 348 1 364 1 399 1 401 1 402 1 425 1 457 1 480 1 558 1 590 1 602 1 618 1 630 1 647 1 650 1 675 1 766 1 774 1 804 1 805 1 858 1 870 1 892 1 908 1 914 1 930 1 946 1 961 1 967 1 970 1 982 1 988 1 441 1 471 1 472 1 474 1 477 1 496 1 530 1 533 1 536 1 556 1 566 1 571 1 573 1 584 1 644 1 645 1 651 1 658 1 683 1 694 1 697 1 743 1 755 1 798 1 824 1 825 1 834 1 836 1 871 1 873 1 894 1 910 1 933 1 935 1 937 1 941 1 947 1 968 1 973 1 1010 1 1021 1 
1 208 1 1 23 1 50 1 51 1 68 1 70 1 82 1 102 1 117 1 178 1 205 1 235 1 275 1 279 1 282 1 285 2 320 1 347 1 353 1 371 1 382 1 387 1 401 1 428 1 32 1 95 1 115 1 116 1 124 1 131 1 135 1 148 1 155 1 182 1 190 1 195 1 269 1 271 1 277 1 338 1 342 1 362 1 417 1 419 1 422 1 440 1 449 1 455 1 457 1 488 1 499 1 526 1 544 1 560 1 568 1 587 1 589 1 592 1 600 1 626 1 629 1 630 2 631 1 645 1 678 1 680 1 681 1 686 1 695 2 705 1 780 2 799 1 812 1 817 1 858 1 865 2 867 1 877 1 921 1 923 2 928 1 955 1 973 1 974 1 989 1 445 1 456 1 480 1 507 1 524 1 542 1 547 1 558 1 564 1 569 1 576 1 579 1 596 1 622 1 635 1 649 1 685 1 692 1 702 1 828 1 836 1 837 1 840 1 845 1 881 1 886 1 925 1 952 1 963 1 965 1 966 1 986 1 1019 1 1024 1 
1 210 1 1 16 1 29 1 49 2 60 1 64 1 86 1 96 1 134 1 137 1 171 1 189 1 208 1 210 1 242 1 274 1 276 1 289 2 316 1 354 1 361 1 420 1 12 1 30 1 51 1 61 1 69 1 88 1 99 1 117 1 125 1 132 1 160 1 185 1 199 1 202 1 266 1 294 1 302 1 339 1 349 1 359 1 368 1 373 1 391 1 435 1 436 1 456 2 461 1 471 1 485 1 491 1 495 1 506 1 519 1 526 1 528 1 549 2 571 1 578 1 612 1 655 1 672 1 682 1 707 1 722 1 751 1 757 1 805 1 807 1 811 1 816 1 837 1 840 1 853 1 855 1 881 1 890 1 943 1 968 1 981 1 993 2 494 1 497 1 499 1 508 1 531 1 538 1 540 1 544 1 607 1 637 1 667 1 693 1 714 1 717 1 734 1 748 1 753 1 755 1 768 1 800 1 860 1 864 1 877 1 883 1 899 1 918 1 929 1 936 1 944 1 969 1 970 1 983 1 1008 1 1013 1 1022 1 1023 1 1025 1 
1 204 28 1 42 1 51 1 84 1 103 1 115 1 120 1 141 2 180 1 186 2 188 1 203 1 212 1 239 1 290 1 312 1 317 1 348 1 349 1 377 1 379 2 402 1 412 1 414 1 429 1 432 1 35 1 52 1 55 1 62 1 64 1 80 1 93 1 100 1 111 1 116 1 125 1 170 1 172 1 184 1 202 1 225 1 240 1 244 1 258 1 279 1 280 1 282 1 287 1 315 1 322 1 341 1 385 1 397 1 400 1 427 1 444 1 453 1 509 1 512 1 561 1 602 1 605 1 621 1 626 1 631 1 646 1 649 1 689 1 704 1 706 1 709 1 724 1 732 1 745 1 760 1 763 1 768 1 809 1 811 2 822 1 835 1 879 1 884 1 906 1 909 1 910 1 918 1 931 1 946 1 465 1 471 1 475 1 508 1 522 1 529 1 567 1 601 1 624 1 633 1 636 1 651 1 656 1 668 1 690 1 696 1 713 1 714 1 764 1 786 1 799 1 826 1 839 1 840 1 882 1 962 1 977 1 1002 1 1018 1 
1 214 6 1 43 1 75 1 115 1 132 1 142 2 155 1 167 1 177 1 247 1 254 1 261 1 307 1 338 1 344 1 350 1 365 1 377 1 397 1 426 1 443 1 1 1 7 1 42 1 48 1 97 1 121 1 124 1 138 1 143 1 174 1 207 1 239 1 243 1 277 1 305 1 325 1 330 1 331 1 364 1 375 1 382 1 387 1 395 1 424 1 449 1 471 1 473 1 492 1 513 1 521 1 535 1 536 1 576 1 581 1 637 2 647 1 656 1 662 1 699 1 704 1 725 1 726 1 763 1 842 1 845 1 889 1 911 1 930 2 931 1 938 2 941 1 957 1 965 1 966 1 971 1 989 1 990 1 448 1 457 1 549 1 570 1 582 1 585 1 590 1 591 1 592 1 598 1 608 1 612 1 635 1 640 1 642 1 655 1 675 1 682 1 694 1 702 1 711 1 715 1 723 1 735 1 811 1 818 1 829 1 843 1 853 1 881 1 896 1 913 1 914 1 953 1 978 1 983 1 987 1 1007 1 1008 1 1012 1 1017 1 1022 1 
1 207 14 1 21 1 30 1 36 1 71 1 76 2 87 1 89 1 119 1 133 1 136 2 158 1 162 1 171 1 188 1 194 1 251 1 255 1 281 1 301 1 305 1 311 1 315 1 322 1 357 1 359 1 385 1 390 1 411 1 417 1 427 1 3 1 13 1 17 1 50 1 55 1 59 1 70 1 88 1 95 1 97 1 101 1 104 1 151 1 154 1 156 1 230 1 241 1 249 1 267 1 280 1 287 1 292 1 298 1 319 1 331 1 349 1 388 1 397 1 408 1 412 1 428 1 430 1 441 1 468 1 494 1 554 1 588 1 628 2 646 1 655 1 664 1 681 1 701 1 712 1 717 1 726 1 760 1 779 1 786 1 788 1 799 1 869 1 878 1 879 1 888 1 920 1 958 1 969 1 986 1 481 1 485 1 526 1 553 1 578 1 600 1 609 1 643 1 644 1 672 1 677 1 700 1 709 1 730 1 746 1 765 1 801 1 806 1 822 1 825 1 834 1 877 1 899 1 912 1 913 1 916 1 922 1 957 1 973 1 975 1 1007 1 1011 1 1013 1 
1 206 39 1 42 1 48 1 83 1 123 1 132 1 162 1 175 1 232 1 233 1 237 1 260 1 292 1 299 1 319 2 332 1 395 1 405 1 7 1 13 1 23 1 35 1 50 1 61 1 77 1 81 1 85 1 89 1 149 1 164 1 168 1 189 1 201 1 203 1 263 1 289 1 361 1 387 1 391 1 418 1 432 1 461 1 476 1 480 1 484 1 509 1 514 1 518 1 522 1 533 1 586 2 589 1 616 1 658 1 668 1 675 1 685 1 688 1 693 1 700 1 710 1 715 1 729 1 772 1 776 1 796 1 799 1 802 1 805 1 810 1 820 1 835 1 836 1 874 1 900 1 904 2 957 1 970 1 987 1 450 1 489 1 492 1 495 1 497 1 499 1 515 1 531 1 554 1 556 1 559 1 596 1 603 1 606 1 607 1 634 1 645 1 687 1 690 1 704 1 744 1 750 1 764 1 800 1 812 1 840 1 888 1 931 1 959 1 964 1 971 1 972 1 976 1 992 1 996 1 1017 1 
1 212 1 1 2 1 35 1 68 1 69 1 93 1 123 1 135 1 142 1 158 1 159 1 165 1 222 1 224 1 227 1 228 1 229 1 244 1 326 1 349 1 360 1 363 1 426 2 436 1 34 1 50 1 73 1 77 1 101 1 137 1 141 1 210 1 259 1 262 1 263 1 270 1 272 1 299 1 300 1 301 1 323 1 325 1 351 1 395 1 397 1 400 1 422 1 437 1 468 1 471 1 476 1 487 1 492 1 496 1 514 1 522 1 532 1 566 1 587 1 610 1 661 1 684 1 714 1 737 1 756 1 781 1 842 1 847 1 871 1 872 1 880 1 896 1 939 1 947 1 984 1 997 1 1002 1 448 1 452 1 494 1 497 1 524 1 568 1 580 1 588 1 589 1 597 1 648 1 751 1 754 1 807 1 832 1 843 1 846 1 874 1 897 1 910 1 940 1 944 1 966 1 995 1 1005 1 
1 207 1 1 8 1 15 1 16 1 38 1 39 1 79 1 90 1 92 1 97 1 186 1 205 1 209 1 219 1 251 1 256 1 257 1 283 1 301 1 329 1 332 1 347 1 349 1 389 1 391 1 395 1 415 1 426 1 439 1 5 1 13 1 18 1 71 1 86 1 87 1 124 1 143 1 144 1 155 1 162 1 225 1 232 1 236 1 271 1 290 1 311 1 327 1 335 1 339 1 366 1 367 1 369 1 372 1 385 1 392 1 414 1 419 1 444 1 447 1 450 1 463 1 484 1 490 1 513 1 524 2 560 1 563 1 571 1 574 1 575 1 579 1 596 2 607 1 615 2 628 1 642 1 647 1 650 1 715 1 749 1 788 2 801 1 808 1 824 1 831 2 844 1 909 1 924 1 951 1 977 1 458 1 465 1 471 1 480 1 506 1 511 1 532 1 533 1 556 1 608 1 614 1 670 1 704 1 733 1 754 1 767 1 813 1 846 1 852 1 863 1 881 1 929 1 957 1 974 1 1008 1 1009 1 1012 1 1024 1 
1 208 34 1 36 1 41 1 49 1 51 1 64 1 89 1 121 1 128 1 130 1 132 1 137 1 148 1 162 1 237 1 256 1 258 1 276 1 300 1 376 1 383 1 386 1 398 1 403 1 406 1 441 1 444 1 53 1 56 1 57 1 72 1 82 1 100 1 129 1 169 1 172 1 186 1 188 1 199 1 235 1 269 1 301 1 343 1 351 1 353 1 356 1 378 1 393 1 402 1 412 1 428 1 494 1 544 1 564 1 566 1 568 1 614 1 620 1 642 1 651 1 654 1 666 1 686 1 721 1 724 1 738 1 747 1 748 1 778 1 789 1 795 2 816 1 835 1 853 1 876 1 884 1 891 1 901 1 943 1 948 1 969 1 982 1 467 1 473 1 481 1 496 1 497 1 525 1 527 1 532 1 537 1 552 1 586 1 592 1 609 1 637 1 735 1 737 1 754 1 777 1 781 1 784 1 811 1 814 1 831 1 878 1 893 1 909 1 922 1 945 1 968 1 975 1 997 1 1004 1 1010 1 1027 1 
1 211 11 1 30 1 45 1 48 1 76 1 95 1 121 1 160 1 168 1 180 1 185 1 195 1 232 1 242 1 270 1 274 1 276 1 282 1 300 1 307 1 313 2 323 1 335 1 346 1 448 1 4 1 52 1 59 1 86 1 116 1 125 1 138 1 139 1 145 1 156 1 176 1 182 1 198 1 209 1 213 1 255 1 257 1 343 1 420 1 422 1 429 1 446 1 458 1 481 1 491 1 499 1 507 1 513 1 517 1 525 1 533 1 551 1 555 1 574 1 576 1 589 1 626 1 637 1 644 1 648 1 670 1 671 1 685 1 709 1 719 1 738 1 741 1 768 1 781 1 787 1 791 1 814 1 815 1 827 1 835 1 911 1 917 1 928 1 932 1 943 1 948 1 950 1 459 1 460 1 489 1 498 1 524 1 528 1 531 1 535 1 569 1 588 1 599 1 619 1 693 1 711 1 722 1 736 1 737 1 739 1 774 1 792 1 864 1 867 1 871 1 874 1 880 1 908 1 936 1 939 1 953 1 967 1 968 1 975 1 981 1 983 1 987 1 1006 1 1010 1 1013 1 1016 1 
1 210 11 1 12 1 24 1 27 1 31 1 42 1 52 1 58 1 64 1 71 1 116 1 157 1 166 1 183 1 187 1 189 1 215 1 235 1 248 2 249 1 251 1 278 1 281 1 287 1 322 2 365 1 369 2 391 1 413 1 1 1 119 1 148 1 191 1 217 1 219 1 226 1 243 1 244 1 247 1 283 1 285 1 288 1 311 1 343 1 371 1 383 1 402 1 415 1 438 1 470 1 475 1 483 1 490 1 494 1 495 1 525 1 574 1 607 1 609 1 616 1 653 1 663 1 715 1 717 1 746 1 756 1 762 1 787 1 819 1 847 1 881 1 901 1 915 1 922 1 923 1 926 1 947 1 953 1 958 1 963 1 980 1 994 1 1000 1 478 1 502 1 527 1 543 1 580 1 600 1 619 1 623 1 641 1 658 1 682 1 684 1 692 1 693 1 708 1 731 1 763 1 768 1 788 1 830 1 839 1 840 1 851 1 880 1 889 1 897 1 913 1 914 1 955 1 974 1 975 1 997 1 1002 1 1008 1 1015 1 1019 1 1021 1 1027 1 
1 208 7 1 10 1 27 1 39 1 46 1 78 1 82 1 85 1 86 1 92 1 102 1 113 1 140 1 147 1 149 1 165 1 176 1 179 1 192 2 215 1 240 1 253 1 268 1 300 1 314 1 380 1 384 1 385 1 392 1 408 1 410 1 416 1 421 1 433 1 438 1 22 1 47 1 59 1 73 1 94 1 103 1 104 1 124 1 139 1 168 1 172 1 173 1 229 1 230 1 260 1 275 1 285 1 310 1 313 1 321 1 339 1 366 1 382 1 388 1 413 1 426 1 447 1 505 1 537 1 538 1 598 1 638 1 669 1 687 1 713 1 787 1 793 1 796 1 799 1 803 1 812 1 822 1 841 1 849 1 859 1 875 1 877 1 891 1 906 1 922 1 933 2 456 1 478 1 500 1 544 1 578 1 580 1 582 1 589 1 614 1 682 1 691 1 698 1 706 1 727 1 751 1 753 1 764 1 818 1 842 1 856 1 873 1 881 1 931 1 939 1 943 1 946 1 954 1 971 1 985 1 997 1 1013 1 1020 1 
1 209 29 1 78 1 88 1 117 1 181 1 200 1 208 1 211 1 243 1 250 2 254 1 257 2 264 1 308 1 357 2 365 1 378 2 406 1 443 1 7 1 15 1 17 1 28 1 94 1 144 1 164 1 169 1 171 1 177 1 183 1 198 1 217 1 229 1 234 1 236 1 277 1 306 1 316 1 343 1 385 1 398 1 412 1 413 1 422 1 484 1 487 1 517 1 565 2 567 1 584 1 618 1 622 1 656 1 657 1 686 1 694 2 697 1 709 2 713 1 717 1 720 2 724 1 746 1 750 1 773 1 795 1 860 1 868 2 881 1 885 1 890 1 912 1 924 1 937 1 990 1 457 1 475 1 488 1 492 1 498 1 525 1 536 1 585 1 598 1 646 1 692 1 704 1 708 1 752 1 781 1 783 1 807 1 846 1 899 1 903 1 909 1 917 1 935 1 938 1 972 1 1000 1 1003 1 1004 1 1008 1 
1 211 18 1 60 1 62 1 72 1 105 1 106 1 133 1 143 1 155 1 163 1 192 1 204 1 227 1 244 1 251 1 261 1 264 1 266 1 267 2 304 1 305 1 308 1 313 1 365 1 376 1 385 1 395 1 420 1 430 1 6 1 16 1 25 1 37 1 80 1 98 1 111 1 142 1 161 1 182 1 183 1 190 1 203 1 222 1 359 1 377 1 393 1 403 1 424 1 434 1 494 1 513 1 530 1 538 1 551 1 555 1 590 1 598 1 631 1 652 1 654 1 655 1 667 1 675 1 683 1 721 1 732 2 734 1 737 1 740 1 756 1 783 1 798 1 804 1 815 1 855 1 922 1 975 1 990 1 460 1 466 1 475 1 480 1 505 1 515 1 525 1 558 1 574 1 577 1 593 1 633 1 637 1 645 1 666 1 680 1 687 1 697 1 708 1 712 1 718 1 736 1 744 1 751 1 758 1 777 1 780 1 782 1 822 1 890 1 938 1 951 1 953 1 971 1 978 1 982 1 989 1 1013 1 1020 1 1025 1 
1 213 2 1 3 1 23 1 30 1 56 1 58 1 102 1 153 1 157 1 167 1 178 1 192 1 195 1 211 1 212 1 251 1 270 1 325 1 329 1 332 1 377 1 389 2 391 1 401 2 441 1 11 1 19 1 26 1 44 1 45 1 62 1 68 1 69 1 108 1 130 1 148 1 150 1 183 1 216 1 281 1 323 1 330 1 374 1 397 1 428 1 468 1 485 1 511 1 542 1 550 2 551 1 562 1 606 1 607 1 617 1 620 1 641 1 645 1 662 1 685 1 697 1 721 1 727 1 743 1 748 1 757 1 768 1 779 1 795 1 805 1 861 1 913 1 924 1 931 1 939 1 947 1 980 1 982 1 983 1 459 1 463 1 478 1 494 1 498 1 504 1 552 1 574 1 592 1 603 1 623 1 652 1 657 1 659 1 661 1 669 1 673 1 678 1 700 1 701 1 723 1 725 1 726 1 742 1 788 1 803 1 837 1 854 1 855 1 875 1 880 1 898 1 919 1 922 1 944 1 955 1 956 1 1012 1 1016 1 
1 205 8 1 15 1 16 1 17 1 40 1 43 1 105 1 114 1 119 1 129 1 139 1 142 1 159 1 174 1 191 1 214 1 225 1 226 1 297 1 299 2 300 1 307 1 319 1 330 1 347 1 356 1 368 1 373 1 412 1 430 1 442 2 2 1 22 1 30 1 51 1 97 1 110 1 123 1 131 1 135 1 138 1 190 1 198 1 224 1 253 1 278 1 281 1 332 1 351 1 376 1 394 1 418 1 428 1 441 1 452 1 456 1 456 1 502 1 505 1 521 1 535 2 576 1 585 1 596 1 639 1 666 1 680 1 682 1 701 1 723 1 725 1 776 1 784 1 815 1 831 1 833 1 834 1 837 1 905 1 941 1 945 1 953 2 986 1 459 1 465 1 468 1 519 1 526 1 532 1 534 1 578 1 588 1 635 1 645 1 703 1 727 1 744 1 768 1 769 1 780 1 793 1 805 1 825 1 861 1 863 1 889 1 904 1 954 1 969 1 980 1 981 1 1020 1 
1 206 6 1 17 1 26 1 42 1 50 1 63 1 95 1 110 1 111 1 115 1 167 1 172 1 186 1 217 1 239 1 303 1 308 1 312 1 327 1 355 1 388 1 406 1 431 1 435 1 436 1 440 1 441 1 16 1 38 1 51 1 55 1 80 1 98 1 140 1 175 1 178 1 211 1 220 1 226 1 235 1 241 1 269 1 281 1 304 1 322 1 325 1 329 1 348 1 352 1 444 1 453 1 458 1 464 2 529 1 555 1 566 1 592 1 594 2 648 1 665 1 674 1 679 1 721 1 726 1 739 1 788 2 794 1 799 1 803 1 827 1 830 1 833 1 871 1 882 1 903 1 910 1 919 1 920 1 946 1 952 1 966 1 471 1 487 1 517 1 521 1 543 1 558 1 570 1 574 1 583 1 621 1 641 1 656 1 663 1 669 1 675 1 688 1 691 1 708 1 727 1 750 1 801 1 810 1 822 1 824 1 846 1 896 1 959 1 971 1 974 1 975 1 999 1 1002 1 1006 1 1010 1 
1 208 4 1 17 1 21 1 35 1 74 1 82 2 100 1 101 1 105 1 107 1 112 1 117 1 129 1 153 1 197 1 204 1 234 1 236 1 237 1 247 1 248 1 251 1 268 1 315 1 337 1 345 1 347 1 367 1 372 1 373 1 377 1 401 1 403 1 415 1 424 1 450 1 457 1 7 1 25 1 47 1 131 1 158 1 182 1 191 1 249 1 281 1 286 1 334 1 343 1 355 1 378 1 379 1 383 1 393 1 402 1 425 1 437 1 448 1 460 2 473 1 474 1 477 1 521 1 522 1 540 1 556 1 558 1 579 1 584 1 627 1 631 1 656 1 664 1 674 1 680 1 683 1 722 1 725 1 729 1 738 1 746 1 766 1 792 1 795 1 816 1 820 1 821 1 824 1 874 1 877 1 937 1 940 1 955 1 995 1 469 1 481 1 505 1 506 1 592 1 595 1 613 1 629 1 632 1 643 1 673 1 719 1 731 1 759 1 780 1 814 1 818 1 819 1 885 1 893 1 899 1 923 1 926 1 985 1 999 1 1009 1 
1 203 12 1 69 1 72 1 83 1 94 1 103 1 132 1 179 1 183 1 200 1 285 1 299 1 302 2 311 1 323 1 340 1 366 1 377 1 393 1 399 1 422 1 437 1 14 1 15 1 37 1 57 1 63 1 64 1 67 1 86 1 87 1 90 1 95 1 101 1 130 1 154 1 186 1 187 1 191 1 225 1 228 1 242 1 260 1 270 1 290 1 301 1 324 1 327 1 356 1 357 1 358 1 363 1 376 1 395 1 396 1 400 1 405 1 406 1 429 1 434 1 450 1 455 1 456 1 514 1 542 1 561 1 576 1 594 1 601 1 602 1 603 1 617 1 646 1 658 1 672 2 689 1 700 1 704 1 733 1 753 1 765 1 777 1 803 1 845 1 851 1 903 2 914 1 916 1 932 1 935 1 937 1 938 1 949 1 963 1 1001 1 462 1 473 1 476 1 505 1 534 1 609 1 615 1 624 1 662 1 664 1 666 1 725 1 728 1 774 1 776 1 825 1 832 1 855 1 858 1 865 1 913 1 931 1 939 1 956 1 973 1 988 1 1017 1 1023 1 
1 208 11 1 14 1 30 1 39 1 87 1 91 1 99 1 109 1 156 2 165 2 183 1 210 1 219 1 253 1 258 1 277 1 330 2 343 1 352 1 380 1 388 1 426 1 458 2 8 1 18 1 28 1 33 1 47 1 55 1 83 1 96 1 100 1 123 1 150 1 180 1 184 1 203 1 207 1 296 1 337 1 348 1 385 1 420 1 424 1 430 1 450 1 454 1 461 2 466 1 477 1 487 1 506 1 537 1 561 1 567 1 577 1 598 1 610 1 660 1 661 1 688 1 691 1 696 1 703 1 717 1 718 1 722 1 746 1 763 1 770 1 783 1 804 1 840 1 881 1 890 1 892 1 901 1 944 1 972 1 992 1 1002 1 474 1 491 1 494 1 516 1 520 1 568 1 578 1 579 1 600 1 606 1 631 1 698 1 712 1 715 1 729 1 745 1 751 1 762 1 764 1 862 1 871 1 872 1 886 1 912 1 917 1 1010 1 1024 1 
1 208 21 1 24 1 30 1 92 1 128 1 134 1 159 1 169 1 207 1 216 1 230 1 306 1 314 1 336 1 351 1 355 1 361 1 370 1 390 1 418 1 429 1 442 1 446 1 460 2 11 1 23 1 58 1 147 1 168 1 176 1 194 1 249 1 251 1 261 1 279 1 296 1 363 1 365 1 391 1 410 1 424 1 465 2 470 1 491 1 496 1 499 1 514 1 517 1 527 1 557 2 654 1 659 1 665 2 678 1 727 1 746 1 750 1 787 1 800 1 824 1 832 1 834 1 863 2 934 1 937 1 962 1 970 1 497 1 510 1 524 1 536 1 593 1 645 1 646 1 651 1 653 1 673 1 686 1 703 1 704 1 707 1 712 1 714 1 725 1 751 1 762 1 794 1 802 1 803 1 831 1 840 1 854 1 864 1 871 1 911 1 928 1 935 1 948 1 949 1 965 1 1017 1 1022 1 1026 1 
1 212 34 1 62 1 92 1 98 2 104 1 106 1 141 1 159 2 164 1 166 1 180 1 192 1 208 1 212 1 216 1 243 1 245 1 263 1 266 1 299 1 325 1 330 1 357 1 364 1 387 1 420 1 32 1 36 1 47 1 64 1 80 1 118 1 130 1 152 1 191 1 209 1 253 1 278 1 281 1 285 1 291 1 307 1 309 1 322 1 348 1 349 1 396 1 400 1 416 1 427 1 437 1 459 1 477 1 485 1 519 1 535 1 565 1 572 1 573 1 586 1 625 1 628 1 682 1 687 1 701 1 711 1 739 1 751 1 770 1 835 1 863 1 904 1 961 1 966 1 970 1 994 1 468 1 495 1 514 1 515 1 544 1 560 1 570 1 592 1 602 1 608 1 626 1 655 1 664 1 667 1 710 1 721 1 728 1 737 1 754 1 768 1 781 1 784 1 838 1 852 1 864 1 891 1 901 1 908 1 919 1 923 1 960 1 976 1 998 1 1004 1 1006 1 1027 1 
1 208 7 1 15 1 31 1 69 1 91 1 96 1 103 1 120 1 121 1 128 1 144 1 147 1 164 1 174 2 188 1 190 1 201 1 204 1 207 1 208 1 212 1 241 1 242 1 248 1 262 1 296 1 313 1 322 1 366 1 368 1 384 1 420 1 432 1 437 1 448 1 3 1 16 1 37 1 61 1 137 1 171 1 172 1 221 1 237 1 251 1 259 1 272 1 278 1 350 1 362 1 373 1 377 1 383 1 399 1 415 1 455 1 485 2 497 1 588 1 603 1 618 1 620 1 624 1 632 1 657 1 684 1 687 1 715 1 723 1 743 1 747 1 749 1 798 1 843 1 875 1 904 1 944 1 949 1 951 1 956 1 981 2 983 1 991 2 997 1 464 1 466 1 476 1 492 1 530 1 531 1 567 1 594 1 608 1 611 1 630 1 658 1 678 1 691 1 698 1 712 1 736 1 762 1 764 1 784 1 806 1 826 1 847 1 848 1 869 1 873 1 883 1 928 1 930 1 950 1 974 1 995 1 1004 1 
1 216 8 1 31 1 37 1 54 1 170 1 176 1 193 1 241 1 245 1 260 1 266 1 334 1 362 1 408 1 457 2 29 1 33 1 34 1 56 1 69 1 75 1 84 1 87 1 111 1 157 1 172 1 184 1 199 1 207 1 211 1 254 1 259 1 287 1 308 1 340 1 356 1 389 1 395 1 404 1 419 1 426 1 463 1 466 1 468 1 473 1 487 1 522 2 611 1 634 1 683 1 710 1 719 1 755 1 765 1 798 1 818 1 851 1 856 1 897 1 919 1 931 1 942 1 951 1 953 1 961 1 980 1 983 1 985 1 996 1 1000 1 472 1 488 1 493 1 518 1 523 1 535 1 584 1 586 1 598 1 601 1 605 1 619 1 638 1 654 1 662 1 664 1 692 1 729 1 731 1 740 1 762 1 778 1 807 1 811 1 932 1 943 1 948 1 975 1 982 1 987 1 1006 1 1026 1 
1 209 20 1 29 1 41 1 46 1 61 1 82 1 88 1 96 1 97 1 121 1 162 1 164 1 165 1 215 1 226 1 237 1 255 1 306 1 308 1 346 1 371 1 392 1 406 1 426 1 430 2 461 2 10 1 43 1 49 1 53 1 62 1 85 1 90 1 123 1 143 1 159 1 161 1 168 1 240 1 243 1 247 1 262 1 272 1 276 1 294 1 312 1 325 1 338 1 345 1 354 1 364 1 376 1 427 1 443 1 448 1 456 1 480 1 485 1 502 2 510 2 543 1 546 1 554 1 557 1 560 1 562 1 582 1 595 1 607 1 608 1 633 1 667 1 679 2 683 1 691 1 733 1 745 1 747 1 748 1 759 2 805 1 807 1 810 1 813 1 833 1 865 1 885 1 923 1 930 2 991 1 481 1 511 1 526 1 541 1 592 1 601 1 610 1 682 1 701 1 709 1 769 1 784 1 797 1 814 1 831 1 876 1 892 1 896 1 897 1 927 1 961 1 962 1 968 1 1008 1 1017 1 
1 209 8 1 21 1 36 1 47 1 48 1 63 1 79 1 90 1 127 1 141 1 155 1 171 1 193 1 208 1 267 1 288 1 290 1 306 1 308 1 329 1 334 1 357 1 361 1 375 1 379 1 387 1 392 1 399 1 402 1 429 1 460 1 464 1 77 1 101 1 103 1 110 1 124 1 139 1 175 1 200 1 201 1 206 1 228 1 247 1 258 1 318 1 321 1 333 1 345 1 355 1 364 1 408 1 409 1 410 1 428 1 437 1 454 1 463 1 480 1 505 1 519 1 534 1 554 1 555 1 566 1 598 1 621 1 665 1 667 1 672 1 683 1 690 1 693 1 714 1 716 1 727 1 744 1 745 1 770 1 795 1 818 1 821 1 860 1 875 1 876 1 881 1 918 1 937 1 956 1 971 1 990 1 991 1 1001 1 483 1 492 1 508 1 514 1 530 1 535 1 538 1 572 1 592 1 596 1 627 1 655 1 662 1 679 1 701 1 709 1 732 1 752 1 768 1 792 1 903 1 905 1 950 1 953 1 966 1 1008 1 1012 1 1021 1 
1 210 23 1 25 1 29 1 38 1 44 1 58 1 90 1 97 1 108 1 110 1 116 1 120 1 174 1 199 1 206 1 229 1 273 1 274 1 284 1 286 1 290 1 308 1 318 1 325 1 348 1 352 1 355 1 408 1 409 1 411 1 433 1 4 1 42 1 54 1 96 1 104 1 119 1 124 1 200 1 217 1 242 1 262 1 301 1 312 1 350 1 364 1 393 1 395 1 407 1 416 1 449 1 491 1 520 1 585 1 635 1 653 1 665 1 686 1 691 1 695 1 700 1 719 2 741 1 745 1 751 1 753 1 757 2 785 1 808 1 812 1 839 1 857 1 887 2 893 1 897 1 925 1 927 1 960 1 963 1 975 1 981 1 985 1 986 1 487 1 501 1 515 1 532 1 543 1 558 1 563 1 589 1 592 1 634 1 716 1 720 1 735 1 752 1 756 1 777 1 803 1 852 1 863 1 878 1 882 1 898 1 910 1 911 1 942 1 954 1 970 1 994 1 1024 1 
1 206 18 1 45 1 54 1 67 1 77 1 148 1 161 1 171 1 181 1 256 1 276 1 287 1 296 1 320 1 325 1 339 1 351 1 354 1 361 1 363 1 384 1 388 1 395 1 406 1 417 1 436 1 445 1 447 1 455 1 464 1 44 1 92 1 101 1 105 1 124 1 127 1 147 1 164 1 175 1 217 1 246 1 248 1 259 1 271 1 291 1 292 1 302 1 304 1 309 1 314 1 337 1 379 1 385 1 396 1 402 1 409 1 456 1 462 1 468 1 468 1 487 1 497 2 521 1 528 1 551 1 561 1 600 1 621 1 629 1 650 1 696 1 708 1 717 1 736 1 752 1 764 1 765 1 817 1 886 1 890 1 901 1 918 1 919 1 936 1 962 1 964 1 1001 2 471 1 483 1 504 1 511 1 524 1 535 1 536 1 577 1 590 1 615 1 685 1 691 1 775 1 809 1 814 1 826 1 830 1 840 1 844 1 858 1 874 1 916 1 929 1 931 1 949 1 971 1 973 1 984 1 986 1 1012 1 1020 1 
1 212 16 1 17 1 26 1 61 1 85 1 100 1 130 1 141 1 143 1 193 1 210 1 212 1 221 1 236 1 247 1 253 1 287 1 289 1 290 1 309 1 334 1 352 1 356 1 363 1 395 1 4 1 9 1 37 1 44 1 73 1 75 1 154 1 161 1 174 1 206 1 214 1 222 1 240 1 251 1 328 1 366 1 391 1 410 1 413 1 417 1 423 1 436 1 458 1 477 1 525 1 570 1 599 1 601 1 641 2 643 1 658 1 677 1 681 1 702 1 715 1 720 1 742 1 772 1 783 1 799 1 812 1 813 1 830 1 842 1 846 1 873 1 895 1 902 1 910 1 934 1 946 1 952 1 954 1 957 1 968 1 985 1 473 1 489 1 515 1 517 1 554 1 559 1 595 1 645 1 649 1 655 1 678 1 707 1 722 1 779 1 788 1 793 1 800 1 804 1 806 1 828 1 861 1 864 1 869 1 886 1 899 1 911 1 913 1 941 1 959 1 960 1 965 1 998 1 1002 1 
1 208 22 2 38 1 65 1 81 1 132 2 135 1 138 1 191 2 208 1 209 1 211 2 231 1 250 1 258 1 260 1 291 1 296 1 312 1 345 1 348 1 366 1 369 1 378 1 379 1 380 1 412 1 417 2 421 1 425 1 437 1 451 1 461 1 10 1 20 1 21 1 63 1 74 1 90 1 102 1 136 1 139 1 149 1 176 1 181 1 188 1 270 1 303 1 397 1 470 1 470 1 482 1 501 1 523 1 525 1 558 1 560 1 563 1 574 1 581 1 588 1 605 1 628 1 631 1 646 1 647 1 650 1 668 1 681 1 696 1 699 1 708 1 712 1 745 1 748 1 764 1 788 1 797 1 837 1 861 1 925 1 948 1 966 1 973 1 994 1 998 1 484 1 513 1 515 1 519 1 606 1 612 1 639 1 648 1 672 1 677 1 680 1 690 1 704 1 739 1 742 1 749 1 757 1 784 1 815 1 820 1 835 1 843 1 853 1 865 1 888 1 903 1 919 1 921 1 922 1 943 1 944 1 947 1 955 1 961 1 971 1 981 1 
1 212 8 1 13 1 14 1 24 1 25 1 49 1 58 1 73 2 88 1 90 2 96 1 128 2 157 1 168 1 199 1 229 1 256 1 282 1 377 1 398 1 439 1 442 1 444 1 447 1 10 1 39 1 61 1 118 1 132 1 144 1 200 1 216 1 217 1 227 1 231 1 237 1 255 1 334 1 359 1 375 1 399 1 405 1 415 1 429 1 440 1 443 1 448 1 457 1 468 1 517 1 541 1 547 1 556 1 577 1 582 1 588 1 596 1 600 1 608 1 617 1 638 1 641 1 661 1 662 1 666 1 676 1 704 1 713 1 734 1 747 1 761 1 766 1 798 1 816 1 851 1 874 1 896 2 900 1 909 2 925 1 952 1 957 1 967 1 483 1 485 1 490 1 496 1 528 1 539 1 566 1 567 1 592 1 597 1 615 1 618 1 632 1 659 1 665 1 710 1 723 1 743 1 749 1 750 1 751 1 765 1 771 1 780 1 781 1 791 1 793 1 812 1 838 1 839 1 858 1 878 1 892 1 895 1 932 1 949 1 977 1 995 1 1018 1 1025 1 
1 211 64 1 124 1 127 1 129 1 133 1 145 1 149 1 154 1 178 1 208 1 216 1 218 1 220 1 236 1 294 1 295 1 311 1 314 1 352 1 353 2 358 1 370 1 382 1 388 1 399 1 400 1 435 1 5 1 25 1 52 1 99 1 103 1 108 1 136 1 146 1 150 1 163 1 167 1 233 1 235 1 237 1 242 1 269 1 285 1 291 1 341 1 344 1 363 1 371 1 374 1 391 1 393 1 407 1 440 1 464 1 507 1 534 1 564 1 619 1 663 1 713 1 733 2 737 2 746 1 749 1 754 1 764 1 768 1 778 1 843 1 847 1 849 1 851 1 865 1 872 1 914 1 928 1 944 1 972 1 978 1 983 1 986 1 995 1 997 1 998 1 494 1 498 1 538 1 547 1 552 1 557 1 566 1 620 1 655 1 659 1 686 1 726 1 776 1 799 1 839 1 845 1 863 1 869 1 887 1 897 1 952 1 985 1 999 1 1006 1 1023 1 1024 1 
1 204 10 1 13 1 20 1 33 1 49 1 53 1 66 1 85 1 99 1 111 1 145 1 185 1 205 1 215 1 228 1 248 1 249 1 284 2 290 1 299 1 306 1 310 1 328 1 329 1 340 1 344 1 356 1 362 1 363 1 381 1 394 1 405 1 409 1 415 1 424 1 427 1 428 1 444 1 458 1 464 1 15 1 42 1 68 1 80 1 131 1 139 1 150 1 156 1 186 1 193 1 200 1 208 1 236 1 239 1 260 1 282 1 286 1 292 1 357 1 374 1 388 1 404 1 407 1 411 1 416 1 420 1 449 1 459 1 469 1 474 1 500 1 518 1 522 1 525 1 538 1 564 1 569 1 590 1 600 1 615 1 633 1 647 1 655 1 666 1 712 1 713 1 742 1 747 1 750 1 751 1 811 1 819 1 866 1 867 1 868 1 878 1 893 1 934 1 957 1 968 2 488 1 498 1 507 1 550 1 556 1 601 1 663 1 672 1 677 1 693 1 695 1 710 1 717 1 720 1 731 1 754 1 757 1 782 1 804 1 806 1 823 1 846 1 862 1 865 1 886 1 892 1 896 1 922 1 961 1 989 1 1010 1 
1 210 1 1 11 1 24 1 39 1 41 1 48 1 69 1 80 1 125 1 146 1 150 1 177 1 208 1 223 1 234 1 240 1 255 1 289 1 343 1 344 1 361 1 372 1 374 2 395 1 401 1 408 1 422 2 458 1 473 1 6 1 30 1 34 1 43 1 59 1 70 1 72 1 119 1 121 1 129 1 137 1 153 1 214 1 218 1 236 1 250 1 257 1 261 1 287 1 290 1 333 1 350 1 354 1 373 1 417 1 437 1 440 1 460 1 491 1 501 1 511 1 532 1 538 1 558 1 561 1 596 1 597 1 609 1 614 1 635 1 641 1 649 2 659 2 674 1 675 1 709 1 718 1 724 1 795 1 796 1 798 1 803 1 805 1 812 1 820 1 823 2 839 1 853 1 869 1 937 1 974 1 982 1 992 1 1001 1 492 1 514 1 533 1 563 1 564 1 612 1 613 1 615 1 643 1 655 1 679 1 704 1 737 1 738 1 749 1 784 1 807 1 821 1 824 1 827 1 833 1 842 1 862 1 879 1 895 1 911 1 929 1 965 1 999 1 1009 1 1013 1 1022 1 1023 1 1027 1 
1 208 17 1 53 1 72 1 88 1 108 1 140 1 170 1 190 1 208 1 220 1 240 2 247 1 268 1 269 2 271 1 283 1 292 1 318 1 319 1 320 1 358 1 371 1 374 1 409 1 428 1 451 1 18 1 26 1 28 1 40 1 63 1 117 1 129 1 146 1 172 1 224 1 254 1 279 1 288 1 289 1 293 1 311 1 312 1 337 1 345 1 352 1 387 1 443 1 453 1 454 1 479 1 488 1 500 1 544 1 573 1 618 1 633 1 635 1 692 1 695 1 696 1 733 1 749 1 752 1 757 1 769 1 790 1 796 2 800 1 819 1 884 1 896 1 908 1 922 1 931 1 951 1 991 1 510 1 516 1 525 1 543 1 562 1 591 1 592 1 599 1 610 1 639 1 664 1 688 1 717 1 773 1 787 1 793 1 807 1 834 1 849 1 867 1 904 1 917 1 941 1 943 1 955 1 961 1 967 1 969 1 1003 1 1018 1 1022 1 1026 1 
1 207 8 1 13 1 53 1 77 1 84 2 93 1 104 1 109 1 202 1 203 1 207 1 215 1 226 1 236 1 247 1 273 1 276 1 278 1 296 1 337 1 347 1 353 1 384 1 385 1 446 1 447 1 72 1 97 1 127 1 142 1 147 1 152 1 153 1 227 1 282 1 297 1 303 1 325 1 329 1 332 1 336 1 361 1 362 1 364 1 381 1 413 1 416 1 423 1 439 1 459 1 463 1 476 1 476 1 480 1 485 1 505 1 514 1 517 1 540 1 547 1 571 1 580 1 608 1 609 1 624 1 627 1 630 1 704 1 707 1 731 1 752 1 772 1 773 1 785 1 805 2 813 1 819 1 820 1 851 1 877 1 882 1 891 1 895 1 915 2 933 1 975 1 978 1 484 1 499 1 537 1 544 1 561 1 567 1 568 1 583 1 590 1 593 1 606 1 618 1 623 1 636 1 637 1 644 1 661 1 708 1 716 1 722 1 734 1 754 1 756 1 793 1 804 1 814 1 821 1 838 1 841 1 853 1 900 1 936 1 939 1 955 1 960 1 962 1 968 1 994 1 1001 1 1011 1 1019 1 
1 207 20 1 23 1 25 1 37 1 46 1 63 1 70 1 99 1 100 1 137 1 148 1 191 1 192 1 195 1 232 2 256 1 264 1 283 1 303 1 322 1 357 2 372 1 386 1 398 1 410 1 415 1 433 1 458 1 460 1 462 1 469 1 17 1 19 1 32 1 51 1 80 1 81 1 82 1 90 1 119 1 145 1 151 1 155 1 166 1 169 1 171 1 185 1 204 1 209 1 210 1 213 1 223 1 236 1 237 1 319 1 333 1 343 1 347 1 351 1 381 1 405 1 416 1 424 1 437 1 440 1 500 1 508 2 509 1 517 1 524 1 525 1 545 1 552 1 558 1 570 1 581 1 588 1 605 1 650 1 709 1 725 1 727 1 793 1 817 1 838 1 862 1 873 1 877 1 926 1 976 1 478 1 491 1 521 1 541 1 593 1 608 1 609 1 611 1 643 1 645 1 678 1 682 1 718 1 721 1 722 1 741 1 752 1 755 1 816 1 820 1 871 1 897 1 899 1 905 1 936 1 948 1 964 1 974 1 1026 1 
1 208 33 1 55 1 81 1 84 1 85 1 101 1 142 1 159 1 196 1 201 1 205 1 236 1 249 2 256 1 259 1 260 1 281 1 333 1 335 1 389 1 426 1 436 1 26 1 41 1 45 1 71 1 95 1 100 1 107 1 117 1 171 1 187 1 189 1 193 1 225 1 240 1 261 1 283 1 329 1 336 1 376 1 390 1 392 1 403 1 412 1 418 1 419 1 451 1 452 1 455 1 477 1 488 1 514 1 539 1 551 1 560 1 562 1 565 1 586 1 599 1 624 1 641 1 653 1 658 1 669 1 704 1 710 1 735 1 751 1 764 1 792 1 807 1 809 1 860 1 881 1 896 1 939 1 950 1 988 1 996 1 505 1 543 1 552 1 581 1 619 1 634 1 690 1 701 1 712 1 719 1 767 1 772 1 776 1 781 1 784 1 788 1 798 1 799 1 803 1 822 1 835 1 864 1 867 1 870 1 903 1 910 1 920 1 927 1 951 1 982 1 994 1 1018 1 1019 1 
1 210 16 1 19 1 30 2 71 1 95 1 111 1 132 2 135 1 182 1 184 1 207 1 215 1 246 1 266 1 287 1 302 1 324 1 340 1 400 1 406 1 408 1 424 1 433 1 475 1 10 1 87 1 99 1 125 1 159 1 185 1 197 1 214 1 267 1 284 1 288 1 293 1 297 1 301 1 328 1 331 1 356 1 363 1 375 1 479 1 479 1 493 1 505 1 506 1 511 1 519 1 524 1 540 1 560 1 607 1 628 1 642 1 643 1 652 1 684 1 691 2 710 1 753 1 757 1 763 1 806 1 810 1 811 1 845 1 847 1 858 1 860 1 866 1 887 1 894 2 896 1 902 1 917 1 978 1 492 1 533 1 609 1 636 1 638 1 647 1 648 1 677 1 681 1 706 1 715 1 725 1 733 1 746 1 778 1 783 1 788 1 819 1 833 1 835 1 875 1 877 1 904 1 930 1 968 1 991 1 1004 1 1005 1 1013 1 
1 208 71 1 75 1 77 1 80 1 86 2 90 1 138 1 152 1 156 1 193 1 215 1 240 1 255 1 287 1 317 1 347 1 367 1 371 1 416 1 440 1 446 1 465 1 466 1 476 1 56 1 69 1 102 1 114 1 116 1 128 1 157 1 158 1 181 1 207 1 210 1 218 1 295 1 301 1 312 1 326 1 339 1 360 1 366 1 373 1 379 1 407 1 441 1 448 1 454 1 502 1 509 1 513 1 518 1 533 1 546 1 551 2 573 1 627 1 661 1 705 1 778 1 795 1 813 1 837 1 847 1 858 2 864 1 872 1 882 1 891 1 895 1 911 1 934 1 949 1 952 1 960 1 966 1 970 1 986 1 489 1 494 1 544 1 552 1 554 1 567 1 589 1 598 1 636 1 658 1 662 1 665 1 666 1 725 1 754 1 773 1 790 1 815 1 818 1 823 1 840 1 843 1 868 1 890 1 924 1 955 1 994 1 
1 207 4 1 17 1 20 2 32 1 33 1 35 1 78 1 110 1 117 1 118 2 122 1 123 1 128 1 129 1 152 1 163 1 177 2 188 1 190 1 201 1 227 1 253 2 302 1 329 1 354 1 360 1 390 1 394 1 417 1 450 1 2 1 21 1 30 1 37 1 38 1 41 1 111 1 151 1 168 1 171 1 199 1 215 1 218 1 226 1 234 1 256 1 285 1 303 1 315 1 319 1 320 1 330 1 343 1 346 1 348 1 396 1 399 1 437 1 445 1 449 1 458 1 465 1 537 1 573 1 581 1 602 1 620 1 627 1 641 1 659 1 672 1 686 1 713 1 714 1 718 1 725 1 743 1 755 1 780 1 795 1 817 1 864 1 870 1 884 1 893 1 916 1 917 1 946 1 958 1 960 1 965 1 977 1 989 1 504 1 506 1 509 1 522 1 542 1 569 1 570 1 600 1 605 1 647 1 657 1 682 1 694 1 734 1 742 1 756 1 814 1 816 1 830 1 835 1 841 1 873 1 889 1 892 1 894 1 931 1 940 1 987 1 1022 1 
1 215 14 1 24 1 73 1 76 1 105 1 132 1 145 1 174 1 216 1 243 1 247 1 267 1 309 1 325 2 335 1 378 1 384 1 394 1 416 1 470 1 31 1 34 1 94 1 122 1 163 1 178 1 181 1 182 1 197 1 205 1 213 1 225 1 235 1 242 1 244 1 321 1 344 1 346 1 361 1 381 1 398 1 407 1 410 1 432 1 438 1 505 1 520 1 560 1 562 1 593 1 626 1 632 1 661 1 664 1 678 1 697 1 699 1 706 1 708 1 716 1 734 1 748 1 796 1 800 2 832 1 838 1 848 1 881 1 901 1 915 1 925 1 929 1 930 1 972 1 979 1 985 1 992 1 528 1 548 1 550 1 565 1 588 1 605 1 609 1 621 1 645 1 651 1 653 1 671 1 674 1 713 1 770 1 825 1 850 1 856 1 857 1 876 1 914 1 918 1 926 1 960 1 991 1 996 1 1005 1 1006 1 1010 1 1017 1 
1 211 15 1 22 1 29 1 30 1 53 1 58 1 68 1 101 1 134 1 147 1 150 1 172 1 208 2 210 1 214 2 228 2 278 1 279 1 292 1 302 1 309 1 324 1 331 1 344 1 360 1 388 2 395 1 397 1 401 1 451 1 16 1 46 1 64 1 82 1 87 1 95 1 99 1 145 1 173 1 177 1 243 1 259 1 280 1 304 1 307 1 328 1 350 1 356 1 390 1 391 1 410 1 413 1 418 1 429 1 466 1 468 1 471 1 501 1 503 1 525 1 531 1 562 1 570 1 579 1 587 1 603 1 616 1 618 1 620 1 621 1 622 1 633 1 650 1 664 1 697 1 737 1 751 1 770 1 810 1 835 1 859 1 877 1 885 1 896 1 904 1 920 1 930 1 960 1 975 1 976 1 978 1 996 1 504 1 505 1 516 1 526 1 534 1 565 1 588 1 635 1 639 1 678 1 686 1 695 1 749 1 827 1 838 1 866 1 875 1 907 1 926 1 938 1 981 1 985 1 1005 1 1017 1 1026 1 
1 208 9 1 66 1 68 1 85 1 170 1 178 1 182 2 198 1 200 1 203 2 216 1 218 1 221 1 238 1 274 1 279 1 283 1 315 1 327 1 353 1 362 1 371 1 384 1 396 1 402 1 408 1 432 1 446 1 448 1 453 1 2 1 6 1 10 1 29 1 35 1 54 1 55 1 107 1 137 1 153 1 252 1 254 1 269 1 294 1 321 1 324 1 332 1 403 1 416 1 422 1 437 1 439 1 470 1 476 1 489 1 493 1 507 1 523 1 540 1 558 1 562 1 579 1 584 1 587 2 622 1 638 1 644 1 679 1 685 2 697 1 716 1 719 1 731 1 732 1 738 1 740 1 745 1 747 1 774 1 776 1 784 1 785 1 813 2 815 1 835 1 847 1 848 1 944 1 950 1 980 1 502 1 520 1 521 1 531 1 569 1 573 1 615 1 629 1 653 1 673 1 757 1 830 1 839 1 857 1 858 1 893 1 914 1 994 1 1012 1 1018 1 
1 213 21 1 25 1 40 1 45 1 73 2 82 1 98 1 116 1 131 1 134 1 198 1 200 1 230 1 237 1 239 1 247 1 261 1 270 1 328 1 329 1 332 2 339 1 343 1 348 1 360 1 365 1 387 1 392 1 442 1 455 1 462 1 463 2 465 1 476 1 15 1 27 1 41 1 69 1 132 1 159 1 169 1 227 1 244 1 262 1 295 1 351 1 359 1 410 1 445 1 471 1 508 1 510 1 543 1 559 1 571 1 591 1 597 1 612 1 628 1 643 1 647 1 675 2 702 1 706 1 723 1 725 1 732 1 754 1 767 1 780 1 787 1 815 2 816 1 822 1 827 1 840 1 857 1 886 1 895 1 908 1 924 1 963 1 968 1 980 1 990 1 489 1 496 1 536 1 557 1 580 1 583 1 644 1 656 1 674 1 692 1 711 1 715 1 724 1 726 1 731 1 777 1 783 1 795 1 843 1 858 1 869 1 885 1 897 1 907 1 1002 1 1019 1 1020 1 1021 1 
1 211 3 1 35 1 47 1 66 1 88 1 103 1 134 2 147 1 152 1 171 1 173 1 243 2 244 1 245 1 251 1 258 1 280 1 342 1 345 1 373 1 377 1 387 1 422 1 13 1 20 1 21 1 31 1 37 1 100 1 114 1 132 1 156 1 164 1 167 1 174 1 224 1 260 1 267 1 268 1 288 1 298 1 301 1 315 1 327 1 331 1 333 1 363 1 370 1 382 1 399 1 415 1 419 1 425 1 487 1 522 1 532 1 535 1 549 1 552 1 556 1 572 1 587 1 600 1 620 1 626 1 663 1 669 1 680 1 698 1 710 1 718 1 730 1 740 1 743 1 747 1 781 1 799 1 844 1 891 1 927 1 946 1 949 1 985 1 492 1 507 1 514 1 533 1 540 1 557 1 581 1 592 1 629 1 630 1 632 1 651 1 684 1 707 1 731 1 734 1 737 1 748 1 768 1 803 1 818 1 830 1 832 1 882 1 951 1 963 1 966 1 968 1 970 1 974 1 981 1 1009 1 1021 1 
1 214 84 1 89 1 94 1 99 1 114 1 117 1 139 1 173 2 204 1 224 1 242 1 244 2 245 1 263 1 297 1 362 1 402 1 405 1 421 1 447 1 453 1 460 1 464 1 468 1 486 1 2 1 47 1 55 1 65 1 110 1 197 1 214 1 215 1 235 1 264 1 270 1 309 1 315 1 326 1 338 1 378 1 392 1 393 1 406 1 423 1 424 1 427 1 457 1 467 1 494 1 509 1 527 1 548 2 585 1 627 1 629 2 630 1 632 1 639 1 646 1 687 1 690 1 697 1 699 1 702 2 706 1 709 2 738 1 753 1 760 1 802 1 807 1 814 1 830 1 853 1 888 1 921 1 943 1 955 1 960 1 968 1 990 1 991 1 994 1 995 1 505 1 507 1 519 1 538 1 540 1 567 1 591 1 616 1 631 1 641 1 703 1 726 1 748 1 815 1 849 1 876 1 899 1 905 1 908 1 915 1 1008 1 1016 1 1018 1 1024 1 1026 1 
1 213 1 2 20 1 51 1 56 1 73 1 75 1 79 1 115 1 124 1 131 1 147 1 165 1 178 1 180 1 191 1 198 1 210 1 243 1 262 1 263 1 298 1 311 1 316 1 323 1 332 1 349 1 387 1 392 1 400 1 404 1 441 1 475 1 478 1 13 1 26 1 33 1 61 1 68 1 71 1 104 1 173 1 175 1 179 1 187 1 188 1 195 1 201 1 305 1 322 1 348 1 382 1 423 1 453 1 464 1 473 1 497 1 529 1 533 1 535 1 557 1 567 1 568 1 585 1 618 1 642 1 665 2 682 1 690 1 716 1 717 1 723 1 751 1 755 1 760 1 769 1 794 1 805 1 832 2 844 1 851 1 876 1 881 2 884 1 911 1 915 2 935 1 940 1 949 1 951 1 961 1 963 2 976 1 994 1 489 1 503 1 507 1 581 1 614 1 640 1 656 1 660 1 669 1 671 1 672 1 693 1 699 1 737 1 743 1 750 1 762 1 807 1 826 1 839 1 853 1 903 1 936 1 944 1 1004 1 1008 1 1012 1 1020 1 1025 1 
1 211 2 1 63 1 67 1 108 1 110 1 113 1 136 1 141 2 167 1 184 1 185 1 217 1 227 1 239 1 284 1 291 1 295 1 305 1 309 1 315 1 344 1 345 1 353 1 357 1 360 1 368 1 398 1 399 1 410 1 484 1 23 1 27 1 44 1 75 1 83 1 89 1 127 1 134 1 149 1 152 1 168 1 177 1 183 1 193 1 195 1 213 1 214 1 237 1 240 1 286 1 322 1 328 1 338 1 383 1 405 1 413 1 446 1 450 1 469 1 480 1 485 1 488 1 544 1 550 2 552 2 556 1 563 1 578 1 602 1 615 1 623 1 628 1 631 1 637 1 638 1 641 2 650 1 668 1 676 1 692 1 715 1 720 1 724 1 727 1 753 1 766 1 777 1 786 1 808 1 819 1 831 1 834 1 845 1 852 1 855 1 897 1 910 1 911 1 919 1 929 1 936 1 946 1 953 1 982 1 992 2 998 1 493 1 542 1 566 1 601 1 622 1 624 1 643 1 646 1 652 1 696 1 707 1 740 1 744 1 765 1 813 1 820 1 821 1 829 1 830 1 869 1 882 1 886 1 916 1 925 1 958 1 962 1 1011 1 1013 1 1015 1 1027 1 
1 212 22 1 37 1 43 1 56 1 80 1 91 1 97 1 117 1 156 1 176 1 202 1 205 1 207 1 213 1 224 2 225 1 252 1 280 1 300 1 309 1 346 1 353 1 420 1 426 1 435 1 448 1 451 1 36 1 40 1 54 1 68 1 73 1 77 1 85 1 94 1 105 1 112 1 126 1 130 1 131 1 134 1 170 1 180 1 196 1 264 1 274 1 321 1 354 1 377 1 379 1 405 1 407 1 471 1 525 1 555 1 594 1 652 1 665 1 671 1 674 1 683 1 701 1 705 1 706 2 708 1 710 1 754 1 778 1 784 2 800 1 832 1 848 1 861 2 865 1 897 1 898 1 927 1 930 1 940 1 944 1 966 1 981 1 491 1 512 1 516 1 536 1 556 1 557 1 580 1 609 1 622 1 655 1 687 1 699 1 711 1 715 1 726 1 744 1 768 1 806 1 828 1 857 1 859 1 864 1 874 1 910 1 957 1 959 1 995 1 1008 1 1011 1 1012 1 1016 1 1017 1 1021 1 1026 1 
1 209 14 1 32 1 37 1 40 1 49 1 54 1 62 1 93 1 97 1 114 1 143 1 153 1 164 1 167 1 179 1 231 1 236 2 246 1 248 1 308 1 313 1 314 1 334 1 345 1 372 1 395 1 402 1 412 1 419 1 423 1 442 1 450 1 461 1 467 1 474 1 2 1 15 1 16 1 87 1 94 1 105 1 109 1 118 1 124 1 128 1 141 1 149 1 204 1 221 1 258 1 259 1 272 1 277 1 280 1 321 1 342 1 354 1 373 1 378 1 380 1 383 1 394 1 397 1 398 1 427 1 460 1 477 1 490 1 510 1 575 2 586 2 597 1 606 1 610 1 654 1 684 1 718 1 739 1 741 1 757 1 769 1 771 1 800 1 802 1 821 1 823 2 849 1 882 1 918 1 923 1 930 1 933 1 966 1 983 1 996 1 500 1 501 1 515 1 526 1 578 1 594 1 607 1 643 1 671 1 690 1 699 1 717 1 736 1 755 1 784 1 789 1 798 1 805 1 811 1 813 1 825 1 848 1 858 1 861 1 887 1 915 1 922 1 925 1 948 1 973 1 1016 1 
1 215 5 1 12 1 17 1 34 1 51 1 52 1 56 1 70 1 83 1 92 1 101 1 117 1 127 1 128 1 139 1 149 1 153 1 184 1 189 1 240 1 249 1 266 1 268 1 306 1 317 1 325 1 339 1 344 1 345 1 417 1 444 1 447 1 7 1 9 1 24 1 39 1 88 1 120 1 194 1 197 1 198 1 261 1 293 1 295 1 326 1 328 1 343 1 351 1 366 1 405 1 446 1 453 1 463 1 466 1 474 1 479 1 486 1 495 1 500 1 520 1 526 1 541 1 548 1 579 1 593 2 608 1 630 1 640 1 670 1 679 1 700 1 737 1 756 1 765 1 797 1 830 1 838 2 845 1 863 1 892 1 914 1 947 1 951 1 979 1 497 1 502 1 532 1 533 1 540 1 557 1 614 1 633 1 643 1 678 1 687 1 697 1 733 1 748 1 752 1 770 1 800 1 813 1 870 1 880 1 921 1 940 1 946 1 970 1 1003 1 1008 1 1013 1 1020 1 
1 208 6 1 17 1 26 1 49 1 51 1 59 1 60 1 69 1 106 1 131 1 133 1 167 1 180 1 181 1 233 1 236 1 285 1 318 1 327 1 328 1 329 1 333 1 338 1 352 1 366 1 396 1 406 1 408 1 432 1 479 1 484 1 21 1 28 1 35 1 62 1 88 1 98 1 111 1 136 1 163 1 193 1 194 1 246 1 250 1 263 1 294 1 301 1 308 1 319 1 346 1 351 1 353 1 439 1 464 1 489 1 512 1 533 1 540 1 544 1 584 1 609 1 618 2 637 1 672 1 674 1 681 1 697 1 703 1 705 1 712 1 718 1 720 1 795 1 800 1 814 1 829 1 894 1 907 1 913 1 915 1 938 1 970 1 973 1 974 1 976 1 992 1 1001 1 520 1 530 1 558 1 564 1 579 1 601 1 633 1 661 1 680 1 709 1 717 1 749 1 809 1 820 1 821 1 865 1 872 1 883 1 892 1 926 1 931 1 985 1 990 1 999 1 1000 1 1016 1 
1 208 2 1 40 1 43 1 57 1 58 1 77 1 97 1 102 1 118 1 147 2 172 2 203 1 239 2 249 1 253 1 266 1 275 1 303 2 321 1 322 1 377 1 415 1 416 1 433 1 445 1 449 1 451 1 454 1 487 1 23 1 35 1 48 1 54 1 59 1 76 1 92 1 126 1 136 1 151 1 153 1 187 1 213 1 224 1 326 1 396 1 442 1 447 1 455 1 460 1 472 1 480 1 513 1 531 1 551 1 553 1 561 1 562 1 574 1 585 1 611 1 618 1 692 1 694 1 748 1 755 1 791 1 806 1 807 1 820 1 827 1 838 1 847 1 849 1 853 1 866 1 898 1 931 1 995 1 1001 1 540 1 542 1 546 1 579 1 597 1 678 1 757 1 759 1 761 1 767 1 799 1 811 1 851 1 876 1 879 1 888 1 910 1 922 1 946 1 977 1 1004 1 
1 208 19 1 22 1 62 1 71 1 92 1 115 1 117 1 124 1 138 1 142 2 160 1 177 1 196 2 202 1 219 1 220 1 223 1 232 1 244 1 248 1 254 1 278 1 282 1 294 1 323 1 387 1 424 1 429 2 442 1 451 1 492 1 12 1 13 1 39 1 68 1 118 1 120 1 128 1 166 1 179 1 180 1 186 1 187 1 191 1 193 1 200 1 233 1 252 1 276 1 296 1 349 1 351 1 375 1 399 1 436 1 439 1 446 1 462 1 500 1 514 1 525 1 530 1 577 2 592 1 611 1 618 1 621 1 629 1 639 1 688 1 689 1 697 1 718 1 760 1 761 1 762 1 793 1 817 1 819 1 831 1 851 1 853 1 895 1 920 1 931 2 986 1 996 1 1002 1 499 1 515 1 544 1 562 1 597 1 613 1 614 1 648 1 652 1 685 1 749 1 775 1 806 1 807 1 809 1 811 1 837 1 850 1 881 1 899 1 904 1 919 1 994 1 1021 1 1022 1 
1 212 4 1 12 1 46 1 52 1 69 1 91 1 116 1 123 1 136 1 145 1 146 2 164 1 188 1 198 1 223 1 256 1 281 1 289 1 300 1 305 1 310 1 316 1 325 1 389 1 411 1 422 1 429 1 447 1 461 1 18 1 42 1 112 1 154 1 172 1 184 1 190 1 232 1 244 1 271 1 280 1 297 1 301 1 322 1 334 1 338 1 355 1 387 1 413 1 440 1 449 1 471 1 485 1 522 1 524 1 538 1 543 1 556 1 575 1 609 1 637 1 649 1 652 1 667 1 672 1 674 1 693 1 694 1 739 1 772 1 777 1 791 1 814 1 816 1 838 1 894 1 920 1 958 1 960 1 965 1 971 1 972 1 509 1 518 1 521 1 570 1 574 1 596 1 599 1 612 1 614 1 617 1 716 1 717 1 729 1 761 1 764 1 769 1 773 1 806 1 820 1 834 1 839 1 868 1 887 1 897 1 953 1 963 1 1006 1 1009 1 1012 1 1026 1 
1 205 20 1 77 1 82 1 146 1 149 1 178 1 179 1 181 1 183 1 203 1 205 1 220 1 250 1 251 1 253 1 254 1 265 1 288 1 289 1 295 1 300 1 307 1 316 1 339 1 343 1 396 1 412 1 430 1 463 1 468 2 488 1 6 1 13 1 17 1 36 1 54 1 71 1 96 1 102 1 103 1 106 1 131 1 153 1 169 1 184 1 209 1 212 1 229 1 277 1 286 1 310 1 312 1 318 1 320 1 337 1 351 1 398 1 402 1 433 1 442 1 446 1 447 1 449 1 461 1 492 1 502 1 511 1 526 1 528 1 532 1 539 1 547 1 577 1 580 1 586 1 606 1 615 1 626 1 649 1 667 1 668 1 675 1 683 1 694 1 728 1 735 1 749 2 764 2 787 1 816 1 838 1 852 1 860 1 872 1 892 1 921 1 944 1 960 1 996 1 503 1 521 1 523 1 575 1 590 1 697 1 747 1 753 1 767 1 801 1 820 1 822 1 844 1 883 1 938 1 948 1 973 1 989 1 
1 214 7 1 23 1 27 1 38 1 40 1 41 1 96 1 138 1 144 1 191 1 208 1 250 1 263 1 276 1 294 2 299 1 329 1 330 1 370 1 379 1 403 1 411 1 422 1 5 1 29 1 52 1 58 1 90 1 97 1 99 1 107 1 148 1 170 1 176 1 213 1 249 1 261 1 269 1 307 1 350 1 363 1 364 1 368 1 382 1 388 1 407 1 423 1 426 1 439 1 450 1 453 1 455 1 472 1 473 1 503 1 505 1 512 1 529 1 559 1 579 1 603 1 614 1 631 1 699 1 704 1 723 1 731 1 736 2 775 1 783 1 788 1 812 1 824 2 838 1 842 1 868 1 919 1 945 1 979 1 994 1 999 1 502 1 510 1 580 1 595 1 609 1 638 1 676 1 695 1 696 1 715 1 735 1 763 1 793 1 803 1 805 1 821 1 828 1 833 1 850 1 874 1 875 1 910 1 927 1 942 1 978 1 1001 1 1006 1 1012 1 1014 1 1023 1 1025 1 
1 210 41 1 77 1 148 2 157 1 216 1 256 1 278 1 290 1 293 1 303 2 309 1 312 1 318 1 329 1 330 1 340 1 350 1 382 1 401 1 417 1 421 1 441 1 450 1 461 1 17 1 31 1 46 1 71 1 90 1 112 1 134 1 140 1 160 1 170 1 196 1 237 1 249 1 287 1 291 1 315 1 343 1 348 1 355 1 363 1 378 1 384 1 391 1 393 1 411 1 420 1 438 1 442 1 446 1 476 1 495 1 504 1 524 1 533 2 549 1 550 1 563 1 576 1 598 2 600 1 603 1 638 1 657 1 658 1 659 1 660 1 663 1 665 1 717 1 795 1 797 1 827 1 859 2 861 1 868 1 872 1 873 1 898 1 919 1 930 1 973 1 977 1 981 2 1002 1 517 1 535 1 560 1 569 1 593 1 599 1 620 1 648 1 679 1 720 1 739 1 750 1 765 1 768 1 826 1 831 1 835 1 838 1 869 1 881 1 894 1 895 1 905 1 959 1 992 1 1004 1 1007 1 1015 1 1019 1 1024 1 
1 205 19 1 21 1 49 1 73 1 87 1 99 1 119 1 137 1 142 1 153 1 158 1 192 1 261 1 276 1 298 1 300 1 322 1 342 1 358 1 366 1 372 1 381 1 382 1 407 1 417 1 420 1 426 1 473 1 475 1 477 1 492 1 495 1 1 1 14 1 25 1 37 1 43 1 74 1 83 1 138 1 177 1 178 1 186 1 211 1 219 1 235 1 245 1 250 1 328 1 348 1 363 1 413 1 424 1 452 1 491 1 502 1 530 1 538 1 552 1 570 1 593 1 618 1 628 1 630 1 652 2 662 2 663 1 665 1 670 1 689 1 703 1 712 1 717 1 721 1 804 1 811 1 819 1 824 1 877 1 886 1 913 1 914 2 925 1 939 1 953 1 998 1 527 1 547 1 582 1 622 1 625 1 693 1 709 1 722 1 754 1 792 1 799 1 807 1 810 1 822 1 841 1 889 1 892 1 898 1 912 1 954 1 966 1 975 1 996 1 1009 1 1026 1 
1 205 18 1 27 1 86 2 158 1 201 1 213 1 294 1 329 2 330 1 354 1 365 1 381 1 386 1 405 1 470 1 474 1 483 1 3 1 24 1 102 1 103 1 224 1 226 1 236 1 243 1 256 1 282 1 285 1 311 1 319 1 320 1 325 1 340 1 341 1 344 1 349 1 360 1 367 1 369 1 373 1 392 1 424 1 431 1 467 1 491 1 523 1 527 2 535 1 537 1 550 1 590 1 591 1 606 1 614 1 621 2 629 1 672 1 681 1 689 1 704 1 723 1 749 1 757 1 759 1 773 1 789 1 809 1 812 1 834 1 836 1 871 1 931 1 945 1 965 1 973 1 976 1 992 1 1000 1 1002 1 511 1 518 1 552 1 556 1 558 1 586 1 592 1 596 1 603 1 643 1 662 1 663 1 665 1 695 1 752 1 760 1 785 1 825 1 843 1 893 1 897 1 933 1 934 1 936 1 953 1 964 1 967 1 971 1 972 1 983 1 1005 1 1019 1 1024 1 
1 208 13 1 29 1 32 1 56 1 91 1 94 1 97 1 98 1 116 1 163 1 193 1 200 1 245 1 289 1 314 1 331 1 335 1 353 1 362 1 379 2 400 1 408 1 434 1 456 1 465 2 480 1 497 1 500 1 24 1 38 1 44 1 65 1 158 1 173 1 177 1 210 1 218 1 226 1 230 1 232 1 252 1 259 1 263 1 265 1 290 1 322 1 333 1 336 1 345 1 382 1 451 1 484 1 492 1 498 1 513 1 531 1 596 1 605 1 608 1 630 1 637 1 655 1 669 1 675 1 678 2 691 1 699 1 702 1 736 1 754 2 766 1 780 1 781 1 788 1 791 1 794 1 856 1 866 1 929 1 506 1 517 1 529 1 538 1 567 1 569 1 579 1 589 1 597 1 602 1 644 1 659 1 673 1 677 1 683 1 688 1 696 1 726 1 742 1 750 1 753 1 804 1 815 1 838 1 843 1 861 1 875 1 895 1 915 1 921 1 931 1 956 1 1004 1 1011 1 1027 1 
1 211 9 1 10 1 41 1 83 1 113 1 116 1 128 1 141 1 164 1 228 1 250 1 269 1 276 1 283 1 289 1 344 2 345 1 355 1 362 1 380 1 384 1 391 1 426 1 483 1 498 1 12 1 22 1 30 1 53 1 67 1 68 1 86 1 111 1 131 1 138 1 152 1 216 1 225 1 245 1 248 1 249 1 260 1 263 1 266 1 272 1 274 1 284 1 329 1 377 1 407 1 415 1 424 1 438 1 488 1 497 1 511 1 566 1 568 2 591 1 635 1 655 1 659 1 665 1 671 1 694 1 703 1 705 1 707 1 737 1 741 1 751 1 774 1 775 1 779 1 835 1 908 1 912 2 935 1 972 1 974 1 995 1 508 1 532 1 533 1 553 1 583 1 595 1 618 1 653 1 654 1 680 1 718 1 762 1 781 1 782 1 802 1 821 1 825 1 846 1 850 1 856 1 867 1 873 1 884 1 898 1 920 1 926 1 939 1 940 1 944 1 967 1 973 1 1003 1 1019 1 
1 209 65 1 74 1 92 1 104 1 105 1 136 1 142 1 150 1 226 1 231 1 251 1 263 1 264 1 274 1 293 1 306 1 334 1 338 1 344 1 374 2 395 2 418 1 423 1 428 1 432 1 499 1 4 1 15 1 42 1 52 1 71 1 119 1 129 1 144 1 149 1 162 1 170 1 173 1 184 1 188 1 205 1 214 1 216 1 232 1 234 1 238 1 240 1 247 1 250 1 253 1 273 1 315 1 337 1 389 1 455 1 468 1 481 1 483 1 508 1 521 2 541 1 549 1 567 1 578 1 601 1 645 1 661 1 677 1 699 2 703 1 708 1 731 1 778 1 791 1 793 1 794 1 842 1 843 1 886 1 935 1 953 1 957 1 962 2 985 1 994 1 995 1 996 1 1002 1 506 1 551 1 609 1 631 1 656 1 658 1 666 1 674 1 679 1 689 1 709 1 713 1 729 1 756 1 761 1 766 1 772 1 795 1 801 1 811 1 835 1 836 1 838 1 846 1 879 1 887 1 907 1 914 1 988 1 1001 1 1005 1 1024 1 
1 213 36 1 43 1 52 1 57 1 82 1 121 1 134 1 171 1 183 1 199 1 204 1 211 1 223 1 226 1 227 1 237 1 250 1 304 1 314 1 337 1 371 1 372 1 394 1 399 1 405 1 427 1 430 1 431 1 452 1 456 1 466 1 476 1 479 1 482 1 498 1 33 1 39 1 71 1 75 1 102 1 112 1 126 1 145 1 180 1 189 1 225 1 248 1 280 1 284 1 292 1 308 1 326 1 335 1 343 1 366 1 367 1 390 1 392 1 406 1 454 1 458 1 459 1 478 1 483 1 487 1 519 1 534 1 558 1 608 1 622 1 629 1 708 1 722 1 818 1 836 1 856 2 864 1 866 1 874 1 892 1 896 1 904 1 911 2 936 1 959 1 982 1 517 1 523 1 537 1 562 1 563 1 574 1 576 1 603 1 624 1 653 1 704 1 710 1 735 1 778 1 781 1 786 1 795 1 894 1 948 1 950 1 953 1 987 1 1006 1 1016 1 1018 1 
1 208 2 1 7 1 10 1 27 1 47 1 50 2 53 1 55 1 93 1 94 1 144 1 148 1 244 1 258 1 290 1 292 1 294 1 323 2 355 1 371 1 389 1 392 1 404 1 430 1 442 1 460 1 479 1 6 1 41 1 48 1 49 1 68 1 73 1 78 1 102 1 122 1 133 1 159 1 162 1 171 1 189 1 197 1 231 1 241 1 242 1 267 1 301 1 322 1 327 1 372 1 397 1 399 1 405 1 448 1 458 1 481 1 502 1 504 1 518 1 549 1 551 1 553 1 559 1 583 1 589 1 641 1 643 1 676 1 692 1 717 1 768 1 770 1 789 1 806 1 807 1 812 1 815 1 831 1 854 1 913 1 925 1 972 1 978 1 510 1 521 1 580 1 596 1 601 1 616 1 626 1 628 1 678 1 685 1 690 1 753 1 777 1 782 1 793 1 827 1 896 1 941 1 971 1 980 1 994 1 1000 1 1006 1 1012 1 1024 1 
1 207 5 1 15 1 17 1 25 1 53 1 70 1 80 1 91 1 94 1 119 1 154 1 158 1 161 1 198 1 201 1 212 1 287 1 298 1 305 1 363 1 393 1 410 1 416 1 450 1 472 1 484 1 19 1 34 1 41 1 89 1 93 1 109 1 146 1 165 1 179 1 180 1 206 1 262 1 266 1 270 1 303 1 347 1 380 1 414 1 441 1 473 1 486 1 487 1 488 1 507 1 507 1 510 1 511 1 517 1 564 1 586 1 621 1 622 1 658 2 688 1 695 1 699 1 704 1 717 1 742 1 746 1 784 1 789 1 805 1 811 1 825 1 843 1 865 1 872 1 876 1 892 1 895 1 898 1 932 1 947 2 950 1 954 1 972 1 988 1 990 1 993 1 524 1 534 1 539 1 547 1 553 1 554 1 560 1 588 1 625 1 642 1 663 1 680 1 705 1 716 1 739 1 749 1 752 1 769 1 813 1 820 1 834 1 918 1 921 1 968 1 969 1 1001 1 1017 1 1023 1 1026 1 
1 206 16 1 43 1 49 1 59 1 63 1 105 1 110 1 118 1 130 2 156 1 168 1 186 1 187 1 239 1 241 1 249 1 265 1 304 1 324 1 348 1 372 1 379 1 429 1 477 2 485 1 504 1 46 1 71 1 87 1 96 1 121 1 122 1 125 1 129 1 133 1 158 1 172 1 221 1 231 1 260 1 282 1 283 1 380 1 394 1 397 1 419 1 433 1 442 1 443 1 466 1 503 1 530 1 531 1 534 1 535 2 547 1 570 1 571 2 574 1 580 1 611 1 615 1 620 1 648 1 685 1 688 1 727 1 729 1 737 1 738 1 744 1 774 1 775 1 787 2 822 1 845 1 866 1 936 1 972 1 514 1 517 1 522 1 536 1 551 1 552 1 623 1 631 1 644 1 655 1 667 1 684 1 693 1 788 1 819 1 858 1 891 1 894 1 897 1 907 1 908 1 915 1 916 1 920 1 934 1 940 1 960 1 967 1 969 1 984 1 1003 1 1006 1 1008 1 1010 1 
1 210 38 1 50 1 51 1 92 1 107 1 120 1 147 1 171 1 179 1 190 1 196 1 212 1 247 2 264 1 272 1 276 1 293 1 302 1 309 1 335 1 347 1 382 1 407 1 420 1 424 1 438 1 439 2 443 1 446 1 477 1 480 1 487 1 1 1 13 1 45 1 152 1 176 1 226 1 230 1 243 1 244 1 265 1 269 1 355 1 360 1 394 1 403 1 408 1 416 1 481 1 496 1 535 1 539 1 547 1 581 2 586 1 597 1 665 1 667 1 668 1 670 1 680 1 685 1 717 1 721 1 776 1 796 1 827 1 838 1 846 1 857 1 870 2 888 1 893 1 918 1 932 1 954 1 955 1 995 1 998 1 1000 1 548 1 554 1 566 1 592 1 602 1 618 1 632 1 638 1 646 1 720 1 730 1 734 1 744 1 748 1 769 1 770 1 773 1 812 1 821 1 840 1 874 1 880 1 913 1 919 1 920 1 963 1 1009 1 1011 1 1023 1 
1 210 10 1 15 1 18 1 24 1 47 1 50 1 70 1 91 1 100 1 105 2 124 1 150 1 162 1 168 1 208 1 234 1 248 1 258 1 270 1 280 1 292 2 293 1 324 2 347 1 352 1 363 1 392 1 408 1 427 1 465 2 485 1 491 1 507 1 1 1 27 1 36 1 41 1 48 1 78 1 97 1 129 1 180 1 182 1 219 1 232 1 235 1 294 1 332 1 339 1 391 1 404 1 421 1 422 1 461 1 475 1 498 1 506 1 518 1 540 1 553 1 568 1 602 1 628 1 640 1 699 1 703 1 707 1 721 2 722 1 744 1 749 1 752 1 756 1 786 1 797 1 816 2 817 1 822 2 841 1 850 2 873 1 879 1 885 1 890 1 980 1 981 1 983 1 987 1 992 1 995 1 520 1 542 1 569 1 586 1 600 1 618 1 657 1 737 1 741 1 765 1 775 1 780 1 792 1 819 1 826 1 834 1 840 1 852 1 888 1 891 1 897 1 908 1 927 1 930 1 944 1 990 1 1014 1 1024 1 1026 1 
1 210 3 1 5 1 7 1 26 1 72 1 102 1 106 1 112 1 115 1 132 1 147 1 149 2 168 1 175 1 176 1 192 1 193 1 221 1 225 1 240 1 242 1 251 1 261 1 284 1 289 1 343 1 371 1 410 1 419 2 426 1 428 1 455 1 474 1 479 1 497 1 503 1 507 1 15 1 37 1 45 1 51 1 77 1 81 1 88 1 92 1 105 1 208 1 215 1 219 1 222 1 224 1 231 1 250 1 268 1 344 1 375 1 389 1 405 1 415 1 424 1 448 1 465 1 468 1 501 1 511 1 511 1 515 1 518 1 528 1 536 1 559 1 566 1 627 1 672 1 683 1 699 1 704 1 731 1 789 1 801 1 810 1 855 1 863 1 916 1 917 2 927 1 950 1 978 1 982 1 997 1 513 1 516 1 565 1 598 1 610 1 653 1 656 1 657 1 661 1 713 1 727 1 740 1 750 1 792 1 796 1 802 1 859 1 864 1 871 1 891 1 912 1 926 1 939 1 940 1 962 1 984 1 992 1 1000 1 1008 1 1016 1 1019 1 
1 210 24 1 27 1 46 1 88 1 94 1 96 1 97 1 103 1 106 1 112 1 113 1 155 1 191 1 196 1 212 1 214 1 232 1 242 1 275 1 278 1 300 1 304 1 318 1 342 1 348 1 366 1 388 1 400 1 405 1 443 1 493 1 498 1 16 1 23 1 26 1 32 1 40 1 62 1 95 1 120 1 141 1 142 1 143 1 159 1 183 1 209 1 215 1 216 1 221 1 224 1 231 1 241 1 271 1 279 1 282 1 315 1 319 1 335 1 347 1 351 1 372 1 384 1 393 1 419 1 490 1 515 1 526 1 532 1 536 1 553 1 561 1 565 1 574 1 626 1 628 1 701 1 734 1 750 1 762 1 789 1 796 2 828 1 860 1 899 1 935 1 953 1 999 1 525 1 550 1 575 1 598 1 632 1 649 1 653 1 738 1 777 1 780 1 790 1 800 1 804 1 811 1 852 1 879 1 894 1 905 1 927 1 930 1 986 1 997 1 1010 1 1014 1 1023 1 
1 208 2 1 8 1 10 1 42 1 43 1 57 1 96 1 110 1 112 1 130 1 134 1 164 1 165 1 178 1 180 1 192 1 205 2 220 1 273 1 274 1 339 1 343 1 358 1 374 1 387 1 407 1 435 2 438 1 444 1 448 1 450 1 454 1 480 1 494 1 502 1 21 1 23 1 41 1 49 1 53 1 61 1 95 1 106 1 206 1 224 1 258 1 259 1 289 1 351 1 368 1 418 1 433 1 470 1 511 1 535 1 555 1 559 1 566 1 569 1 585 1 590 1 598 1 613 1 626 1 653 1 680 1 695 1 705 1 723 1 733 1 755 1 765 1 782 1 804 1 833 1 869 1 898 1 900 1 903 1 906 1 932 1 947 1 952 1 953 2 955 1 966 1 980 1 993 1 540 1 549 1 561 1 594 1 623 1 672 1 687 1 698 1 701 1 710 1 720 1 724 1 740 1 748 1 766 1 777 1 781 1 811 1 883 1 884 1 885 1 887 1 909 1 920 1 941 1 943 1 965 1 974 1 976 1 1020 1 1023 1 1024 1 
1 211 4 1 7 1 28 1 30 1 35 1 42 2 54 1 61 1 62 1 74 1 91 1 97 1 99 1 120 1 138 1 147 1 170 1 210 1 223 1 243 1 271 1 284 1 289 1 293 1 297 1 311 1 314 1 342 1 362 1 388 2 408 1 419 1 421 1 431 1 432 1 433 1 446 1 447 1 459 1 461 1 476 1 478 1 495 1 15 1 20 1 29 1 55 1 63 1 72 1 98 1 103 1 142 1 159 1 185 1 187 1 202 1 214 1 236 1 239 1 307 1 330 1 353 1 361 1 367 1 373 1 383 1 462 1 466 1 474 1 486 1 508 1 544 1 545 1 603 1 604 1 620 1 626 1 628 1 640 1 647 1 665 1 688 1 691 1 694 1 729 1 758 1 764 1 769 1 793 1 853 1 858 1 865 1 894 1 896 1 897 1 910 1 924 1 947 1 956 1 981 1 519 1 522 1 582 1 630 1 653 1 659 1 664 1 698 1 707 1 765 1 768 1 783 1 787 1 820 1 825 1 834 1 835 1 856 1 907 1 928 1 984 1 986 1 991 1 1007 1 1015 1 1019 1 1025 1 
1 211 33 1 49 1 52 1 53 1 134 1 167 1 170 1 175 1 183 1 192 1 203 1 209 1 231 1 245 1 246 1 251 1 278 1 279 1 283 1 285 1 287 1 292 1 300 1 337 1 347 1 357 1 364 1 408 1 411 1 423 1 424 2 425 1 427 1 428 1 511 1 512 1 23 1 44 1 55 1 77 1 93 1 104 1 123 1 182 1 196 1 199 1 204 1 215 1 222 1 223 1 234 1 242 1 265 1 275 1 281 1 302 1 313 1 324 1 327 1 360 1 382 1 383 1 405 1 435 1 446 1 454 1 462 1 467 1 469 1 470 1 491 1 495 1 530 2 572 1 585 1 621 1 630 1 632 1 681 1 782 1 783 1 789 1 813 1 818 1 822 1 832 1 839 1 842 1 883 1 922 1 955 1 975 1 987 1 991 1 995 1 560 1 575 1 620 1 637 1 660 1 662 1 676 1 692 1 709 1 736 1 737 1 760 1 785 1 804 1 810 1 815 1 826 1 830 1 831 1 852 1 882 1 885 1 888 1 917 1 936 1 977 1 998 1 1019 1 
1 208 5 1 28 2 29 1 36 1 66 1 75 1 94 1 109 1 120 1 159 1 165 2 198 1 200 1 202 1 205 2 252 1 278 1 283 1 310 1 335 1 381 1 394 1 400 1 401 2 424 1 430 1 25 1 72 1 102 1 119 1 185 1 195 1 219 1 227 1 244 1 261 1 274 1 315 1 346 1 347 1 354 1 411 1 460 1 475 1 483 1 490 1 511 1 518 1 562 1 572 1 593 1 648 1 666 1 696 1 712 1 722 1 731 1 736 1 760 1 763 1 764 1 765 1 779 1 810 1 838 1 847 1 900 1 919 1 949 1 968 1 988 1 519 1 551 1 559 1 565 1 568 1 587 1 589 1 594 1 598 1 608 1 633 1 641 1 656 1 676 1 692 1 700 1 758 1 773 1 785 1 812 1 813 1 879 1 893 1 897 1 909 1 912 1 914 1 921 1 924 1 925 1 928 1 931 1 933 1 953 1 972 1 1004 1 1005 1 1013 1 1015 1 1019 1 1023 1 
1 212 28 1 33 1 43 1 47 1 53 1 59 1 96 1 106 1 118 1 122 1 149 1 159 1 202 1 225 2 230 1 250 1 273 1 281 1 291 1 294 1 367 1 371 1 408 1 416 1 431 1 437 1 450 1 453 1 461 1 471 1 476 1 477 1 507 1 16 1 46 1 83 1 86 1 93 1 124 1 150 1 166 1 186 1 192 1 201 1 213 1 241 1 261 1 268 1 283 1 339 1 358 1 379 1 381 1 426 1 457 1 469 1 499 1 502 1 505 1 508 1 519 1 537 1 574 1 604 1 606 1 607 2 611 1 619 1 625 1 645 1 680 1 723 1 766 1 816 1 834 1 839 1 855 1 857 1 858 1 902 1 905 1 912 1 920 2 931 1 935 1 944 1 951 1 958 1 962 1 995 1 996 1 1000 1 1002 1 554 1 563 1 599 1 657 1 663 1 674 1 676 1 677 1 691 1 706 1 728 1 793 1 798 1 803 1 819 1 841 1 881 1 886 1 894 1 934 1 960 1 961 1 982 1 987 1 1005 1 1009 1 1017 1 1018 1 1022 1 
1 208 20 1 58 1 73 1 110 1 174 1 208 1 210 1 240 1 264 2 316 1 326 1 348 1 383 1 406 1 412 1 423 1 437 1 446 1 473 1 480 1 506 1 510 1 511 1 516 1 7 1 55 1 60 1 77 1 104 1 120 1 122 1 125 1 127 1 153 1 155 1 164 1 167 1 181 1 206 1 217 1 221 1 222 1 249 1 251 1 260 1 288 1 290 1 295 1 299 1 322 1 351 1 355 1 379 1 384 1 385 1 417 1 425 1 436 1 464 1 496 1 501 1 553 1 561 1 567 1 594 1 612 1 642 1 653 1 704 1 722 1 737 1 751 1 780 1 791 1 818 1 849 1 884 1 921 1 947 1 958 1 974 1 983 2 984 1 987 1 529 1 554 1 563 1 593 1 628 1 638 1 644 1 670 1 677 1 679 1 683 1 692 1 720 1 742 1 747 1 759 1 770 1 831 1 836 1 868 1 882 1 895 1 910 1 925 1 928 1 934 1 951 1 1007 1 1010 1 1022 1 
1 209 9 1 59 1 81 1 98 1 102 1 125 1 130 1 137 1 148 1 154 1 155 1 179 1 181 1 186 1 208 1 227 1 239 1 247 2 280 1 284 1 287 1 299 1 306 2 313 1 319 1 326 1 327 1 328 1 329 1 346 1 357 1 359 1 396 1 402 1 428 1 430 1 442 1 462 1 466 1 479 1 505 1 517 1 2 1 3 1 10 1 18 1 23 1 27 1 31 1 33 1 45 1 91 1 107 1 108 1 114 1 158 1 166 1 191 1 201 1 226 1 234 1 266 1 275 1 279 1 286 1 293 1 320 1 336 1 394 1 424 1 427 1 456 1 470 1 487 1 514 1 516 1 540 1 559 1 595 1 625 1 663 1 681 2 684 1 696 1 702 1 705 2 752 1 755 1 765 1 776 1 787 1 835 1 839 1 848 1 872 1 874 1 881 1 910 1 922 1 929 1 931 1 950 1 975 1 984 1 992 2 995 1 538 1 549 1 561 1 579 1 585 1 655 1 656 1 665 1 691 1 721 1 723 1 737 1 777 1 778 1 779 1 811 1 827 1 853 1 862 1 873 1 897 1 908 1 924 1 942 1 964 1 966 1 974 1 1011 1 1022 1 1026 1 1027 1 
1 211 6 1 14 1 27 2 34 1 58 1 96 1 106 1 120 1 145 1 209 1 216 1 232 1 238 1 311 1 314 1 321 1 325 1 345 1 366 1 376 1 424 1 467 1 482 1 492 1 33 1 53 1 60 1 90 1 115 1 139 1 180 1 181 1 205 1 224 1 226 1 246 1 273 1 283 1 303 1 304 1 309 1 320 1 338 1 349 1 365 1 367 1 405 1 413 1 425 1 434 1 436 1 437 1 460 1 484 1 493 1 510 1 532 1 553 1 568 1 592 1 610 1 616 2 623 1 626 1 652 1 664 1 695 1 696 1 702 1 717 1 734 1 822 1 859 2 860 1 879 1 886 1 896 1 906 1 913 1 927 1 931 1 932 1 954 1 973 1 981 1 984 1 989 1 546 1 559 1 563 1 569 1 619 1 622 1 631 1 661 1 690 1 713 1 729 1 740 1 750 1 753 1 775 1 832 1 833 1 839 1 864 1 867 1 872 1 876 1 936 1 1002 1 1012 1 1027 1 
1 212 4 1 21 1 41 1 61 1 72 1 96 1 145 1 164 1 167 1 203 1 242 1 304 1 372 1 396 2 439 1 444 1 456 1 458 1 468 1 504 2 74 1 75 1 83 1 86 1 95 1 98 1 106 1 154 1 174 1 204 1 216 1 217 1 226 1 231 1 234 1 236 1 257 1 272 1 282 1 314 1 316 1 318 1 346 1 350 1 385 1 387 1 418 1 424 1 457 1 477 1 484 1 496 1 497 1 506 1 532 1 536 2 537 1 546 1 587 1 618 1 655 2 662 1 665 1 678 1 686 1 703 1 707 2 708 1 745 1 769 1 778 1 786 1 826 1 839 1 840 1 847 1 866 1 881 1 896 1 907 1 923 1 933 1 936 1 939 2 966 1 983 1 553 1 558 1 568 1 577 1 582 1 622 1 623 1 634 1 653 1 713 1 742 1 757 1 760 1 764 1 765 1 771 1 772 1 773 1 792 1 793 1 885 1 901 1 904 1 955 1 998 1 1014 1 1019 1 1023 1 
1 207 20 1 57 1 78 1 120 1 137 2 179 1 180 1 183 1 203 1 223 2 244 1 256 1 257 2 277 1 285 2 333 1 358 1 359 1 363 1 375 1 409 1 446 1 447 1 458 1 464 2 473 1 486 1 496 1 10 1 12 1 19 1 23 1 26 1 41 1 42 1 53 1 54 1 65 1 73 1 103 1 143 1 151 1 184 1 185 1 190 1 237 1 269 1 303 1 327 1 328 1 345 1 350 1 360 1 373 1 386 1 411 1 427 1 443 1 481 1 508 1 514 1 536 1 557 1 574 1 614 1 637 1 642 1 646 1 679 1 684 1 693 1 697 1 718 1 787 1 798 1 841 1 867 1 869 1 876 1 890 1 914 1 924 1 940 1 943 1 977 1 981 2 523 1 556 1 592 1 599 1 630 1 644 1 685 1 689 1 699 1 705 1 709 1 721 1 769 1 775 1 799 1 808 1 815 1 840 1 847 1 868 1 883 1 889 1 909 1 919 1 956 1 995 1 1005 1 1012 1 
1 208 3 1 21 1 74 1 85 1 88 1 99 1 109 1 116 2 120 1 128 1 167 1 177 1 194 1 211 1 226 1 236 1 272 1 308 1 321 1 323 1 350 1 357 1 366 1 403 1 416 1 429 1 470 1 484 1 501 1 18 1 24 1 27 1 58 1 78 1 82 1 89 1 110 1 137 1 145 1 163 1 174 1 189 1 213 1 242 1 249 1 252 1 295 1 317 1 335 1 351 1 360 1 368 1 391 1 400 1 417 1 425 1 430 1 464 1 497 1 505 1 522 1 578 1 583 1 585 1 598 1 643 1 657 1 659 1 660 1 664 1 667 1 696 1 718 1 739 1 754 1 766 2 767 1 772 1 773 1 836 1 854 1 859 1 862 1 875 1 915 1 930 1 934 1 949 1 950 1 959 1 975 1 988 1 1002 1 527 1 559 1 561 1 606 1 669 1 688 1 693 1 698 1 741 1 742 1 765 1 786 1 790 1 821 1 823 1 840 1 855 1 873 1 879 1 882 1 909 1 954 1 980 1 985 1 992 1 997 1 1001 1 1003 1 1006 1 1007 1 
1 210 2 1 14 1 23 1 74 1 76 1 81 1 85 1 98 1 110 1 128 1 136 1 163 1 171 1 172 1 192 1 232 1 237 1 238 1 261 1 276 1 288 1 302 1 321 1 322 2 357 1 372 1 414 1 434 1 448 2 477 1 479 1 496 1 499 1 13 1 21 1 35 1 64 1 80 1 100 1 101 1 104 1 117 1 130 1 135 1 143 1 169 1 173 1 214 1 215 1 273 1 290 1 354 1 371 1 399 1 441 1 447 1 450 1 461 1 468 1 507 1 531 1 542 1 553 1 564 2 616 2 664 1 679 1 692 1 694 1 710 1 718 1 727 1 741 1 756 1 764 1 768 1 771 1 778 1 809 1 813 1 819 1 829 1 841 1 866 1 900 1 915 2 985 1 989 1 996 1 527 1 530 1 549 1 557 1 560 1 607 1 624 1 648 1 724 1 740 1 747 1 779 1 919 1 934 1 947 1 954 1 961 1 971 1 984 1 992 1 997 1 1014 1 
1 213 20 1 63 1 75 2 88 1 105 1 118 1 140 2 155 2 170 1 187 1 219 1 226 1 240 1 257 1 279 1 293 1 300 1 306 1 373 1 377 1 387 1 399 1 414 1 415 1 450 1 451 1 469 1 470 1 473 1 477 1 483 1 490 1 495 1 33 1 53 1 104 1 117 1 122 1 127 1 129 1 137 1 191 1 221 1 223 1 252 1 281 1 295 1 335 1 358 1 407 1 436 1 437 1 449 1 453 1 454 1 475 1 512 1 525 1 525 1 530 1 532 1 560 1 644 1 650 1 658 2 672 1 727 1 788 1 795 1 839 1 854 1 860 1 866 1 868 1 871 1 881 1 931 1 938 1 940 1 956 1 984 1 987 1 535 1 552 1 585 1 596 1 639 1 653 1 661 1 701 1 743 1 748 1 759 1 766 1 769 1 801 1 812 1 814 1 846 1 867 1 874 1 900 1 947 1 952 1 965 1 972 1 975 1 1004 1 1014 1 1026 1 
1 210 4 1 12 1 33 1 43 1 45 1 67 1 74 1 101 1 131 1 153 1 161 1 164 1 187 1 216 1 218 1 255 1 272 1 282 2 301 1 312 1 316 1 332 1 352 1 360 1 377 1 381 1 387 1 408 1 409 1 411 1 425 1 441 1 442 1 492 1 497 1 512 1 71 1 104 1 105 1 123 1 135 1 152 1 160 1 205 1 207 1 236 1 244 1 252 1 258 1 311 1 357 1 369 1 373 1 415 1 423 1 445 1 456 1 465 1 483 1 491 1 549 1 571 1 585 1 612 1 708 1 709 1 759 1 761 2 788 1 789 1 812 1 816 1 828 1 855 1 872 1 874 1 909 1 917 1 923 1 951 1 959 1 960 1 962 1 979 1 983 1 534 1 556 1 564 1 570 1 574 1 598 1 608 1 610 1 611 1 613 1 639 1 688 1 774 1 779 1 808 1 809 1 818 1 837 1 842 1 907 1 908 1 912 1 941 1 964 1 985 1 1017 1 
1 210 2 1 9 1 24 1 71 1 73 1 82 1 96 1 132 1 151 1 160 1 174 1 192 2 200 1 210 2 221 1 239 1 246 1 269 1 273 1 280 1 285 1 310 1 326 1 330 2 331 1 348 1 363 1 372 2 402 1 429 1 461 1 487 1 501 2 10 1 56 1 84 1 95 1 104 1 109 1 114 1 170 1 179 1 203 1 207 1 212 1 229 1 242 1 249 1 255 1 256 1 259 1 287 1 290 1 320 1 323 1 341 1 343 1 356 1 369 1 391 1 419 1 430 1 449 1 451 1 500 1 523 1 524 1 527 1 527 1 530 1 531 1 538 1 568 1 569 1 582 1 585 1 589 1 626 1 637 1 643 2 660 1 666 1 673 1 688 1 705 1 732 1 747 1 748 1 792 1 810 1 842 1 908 2 918 1 962 1 983 1 991 1 547 1 565 1 610 1 624 1 630 1 648 1 655 1 659 1 669 1 675 1 685 1 690 1 694 1 698 1 710 1 736 1 745 1 754 1 789 1 809 1 827 1 906 1 938 1 942 1 951 1 963 1 1021 1 1025 1 1026 1 
1 209 3 1 17 1 31 2 48 1 74 1 86 1 98 1 101 1 121 1 134 1 173 1 185 1 203 1 216 1 233 1 238 1 265 1 288 1 295 1 299 1 319 1 320 1 324 1 338 1 341 2 352 1 372 1 376 1 378 1 394 1 404 1 423 1 442 1 468 1 497 1 511 1 6 1 51 1 56 1 92 1 118 1 165 1 193 1 194 1 210 1 214 1 217 1 244 1 271 1 358 1 431 1 450 1 471 1 482 1 594 1 630 1 640 1 656 1 683 1 684 1 687 1 692 1 694 1 698 1 715 1 718 1 722 1 723 1 760 1 763 1 777 2 804 1 846 1 852 1 881 1 917 1 918 2 919 1 925 1 936 1 963 1 970 1 972 1 982 1 990 2 997 1 558 1 563 1 564 1 570 1 590 1 612 1 613 1 622 1 624 1 628 1 658 1 669 1 670 1 672 1 685 1 696 1 709 1 712 1 741 1 742 1 787 1 802 1 821 1 849 1 853 1 858 1 864 1 872 1 886 1 903 1 905 1 950 1 995 1 1001 1 1012 1 1018 1 1022 1 1024 1 1027 1 
1 217 20 1 22 1 24 1 37 1 45 1 51 1 52 1 112 1 117 1 119 1 129 1 138 1 146 1 156 1 165 1 167 1 169 2 189 1 195 1 200 1 217 1 221 1 267 1 289 1 292 1 297 1 300 1 302 1 360 1 368 1 387 1 395 1 397 1 457 1 488 1 498 1 25 1 75 1 95 1 102 1 120 1 121 1 122 1 137 1 142 1 170 1 192 1 196 1 199 1 248 1 285 1 290 1 314 1 321 1 339 1 405 1 420 1 443 1 502 1 518 1 614 1 629 1 630 1 631 1 668 1 726 1 744 1 750 1 764 1 767 1 777 1 781 1 785 1 796 1 829 1 845 1 850 1 867 1 893 1 904 1 917 1 924 1 938 1 987 1 538 1 548 1 573 1 578 1 589 1 600 1 718 1 732 1 734 1 739 1 775 1 776 1 827 1 841 1 851 1 859 1 875 1 897 1 911 1 918 1 984 1 986 1 1007 1 1010 1 1014 1 1026 1 
1 206 12 1 32 1 57 1 77 1 79 1 85 1 100 1 102 1 118 1 127 1 134 1 172 1 178 2 179 1 183 1 188 1 195 1 201 1 203 1 238 1 239 1 251 1 264 1 297 1 327 1 350 1 368 1 374 1 381 1 392 1 454 1 495 1 500 1 508 1 515 2 525 1 527 1 2 1 21 1 33 1 52 1 130 1 133 1 139 1 140 1 146 1 160 1 163 1 232 1 252 1 253 1 295 1 310 1 326 1 376 1 394 1 395 1 396 1 399 1 411 1 428 1 429 1 436 1 440 1 463 1 466 1 493 1 524 1 547 1 550 1 555 1 575 1 585 1 601 1 604 1 626 1 653 1 683 1 692 2 698 1 704 1 705 1 726 1 731 1 747 1 777 1 780 1 803 1 804 1 816 1 820 2 834 1 839 1 881 2 887 1 896 1 899 1 904 1 928 1 936 1 974 1 536 1 557 1 589 1 612 1 614 1 617 1 662 1 684 1 685 1 712 1 721 1 729 1 743 1 761 1 789 1 805 1 813 1 819 1 847 1 864 1 935 1 986 1 1000 1 1006 1 1008 1 1017 1 
1 215 39 1 57 1 79 1 89 1 128 1 132 1 143 1 181 1 182 1 203 1 223 1 233 1 244 1 247 1 259 1 271 1 356 1 364 1 378 1 391 1 421 1 425 1 435 1 483 1 494 1 502 1 508 1 524 1 527 1 3 1 24 1 27 1 37 1 115 1 124 1 150 1 167 1 173 1 174 1 175 1 186 1 215 1 220 1 263 1 274 1 340 1 362 1 373 1 383 1 389 1 403 1 436 1 442 1 446 1 450 1 463 1 484 1 537 1 548 2 557 1 583 1 594 1 601 1 638 2 647 1 650 1 657 1 658 1 678 1 716 1 723 1 735 1 769 1 782 1 794 1 821 1 828 1 834 1 836 1 850 1 916 1 926 1 928 1 959 1 967 1 987 1 551 1 565 1 570 1 575 1 586 1 588 1 593 1 599 1 652 1 656 1 660 1 666 1 697 1 726 1 739 1 745 1 747 1 773 1 791 1 816 1 845 1 859 1 862 1 867 1 868 1 877 1 879 1 919 1 934 1 948 1 957 1 983 1 988 1 1008 1 1010 1 1014 1 1015 1 
1 209 27 1 34 1 44 1 70 1 97 1 118 1 141 1 154 1 160 1 171 1 173 1 175 1 193 1 213 1 214 1 228 2 272 1 282 1 302 1 311 1 337 1 362 1 364 1 383 1 389 1 398 1 405 1 447 1 474 1 486 1 497 1 512 1 520 1 521 1 525 1 10 1 17 1 36 1 39 1 41 1 43 1 61 1 104 1 106 1 116 1 120 1 137 1 157 1 183 1 196 1 198 1 235 1 250 1 259 1 276 1 287 1 304 1 322 1 323 1 326 1 352 1 410 1 415 1 422 1 448 1 449 1 456 1 467 1 492 1 503 1 541 1 567 1 574 1 577 1 584 1 593 1 598 1 616 1 618 1 653 2 655 1 665 1 710 1 771 1 777 1 821 1 852 1 860 1 871 1 941 1 999 1 551 1 557 1 571 1 579 1 580 1 587 1 597 1 601 1 637 1 650 1 687 1 695 1 699 1 707 1 723 1 742 1 778 1 789 1 793 1 826 1 827 1 828 1 832 1 841 1 904 1 912 1 922 1 947 1 956 1 1015 1 1019 1 
1 211 49 1 58 1 62 1 118 1 131 2 135 1 140 1 143 1 161 1 190 1 195 1 215 1 294 1 336 1 372 1 392 1 401 1 446 1 450 1 480 1 488 1 493 1 499 2 13 1 57 1 88 1 102 1 104 1 114 1 127 1 136 1 146 1 185 1 206 1 224 1 248 1 259 1 263 1 287 1 297 1 322 1 354 1 375 1 389 1 390 1 409 1 420 1 440 1 448 1 474 1 479 1 486 1 492 1 503 1 544 1 547 1 553 1 558 1 569 1 593 1 610 1 617 1 625 2 635 1 648 1 655 2 679 1 699 1 707 1 714 1 729 1 736 1 739 1 773 1 778 1 780 1 783 1 791 1 819 1 827 1 852 1 879 1 908 1 917 1 946 1 952 1 551 1 568 1 591 1 596 1 700 1 720 1 723 1 728 1 747 1 753 1 757 1 762 1 764 1 767 1 790 1 797 1 838 1 841 1 844 1 853 1 888 1 892 1 938 1 951 1 965 1 975 1 989 1 990 1 1004 1 1006 1 1010 1 1014 1 1027 1 
1 208 3 1 25 1 28 1 37 1 39 1 41 1 69 1 88 1 95 1 149 1 169 1 183 1 192 1 196 1 198 1 216 1 248 1 261 1 269 1 277 2 280 1 287 1 294 1 311 1 314 1 338 1 364 1 384 1 412 1 416 1 466 1 472 1 505 1 508 1 22 1 118 1 122 1 129 1 146 1 173 1 226 1 253 1 276 1 283 1 290 1 297 1 301 1 315 1 319 1 327 1 332 1 336 1 341 1 357 1 386 1 389 1 400 1 433 1 438 1 456 1 459 1 483 1 507 1 526 1 553 1 603 1 617 1 631 1 653 1 655 1 659 1 662 1 672 1 720 1 759 1 765 1 818 1 861 1 869 1 878 1 899 1 914 1 929 1 930 1 931 1 932 1 944 1 959 1 961 1 969 1 973 1 1000 1 536 1 555 1 587 1 600 1 606 1 621 1 634 1 651 1 661 1 673 1 747 1 760 1 768 1 770 1 797 1 822 1 825 1 830 1 853 1 913 1 948 1 957 1 965 1 982 1 989 1 1002 1 1021 1 1024 1 
1 207 57 1 66 1 71 1 108 1 110 1 119 1 136 1 161 1 166 1 208 1 216 1 233 1 235 1 281 1 289 1 294 1 307 1 312 1 331 1 334 1 353 1 354 1 392 1 402 1 419 1 420 1 444 1 456 2 462 1 486 1 488 1 501 1 508 2 509 1 513 1 6 1 11 1 21 1 38 1 45 1 53 1 80 1 131 1 167 1 176 1 230 1 277 1 283 1 290 1 298 1 328 1 360 1 421 1 424 1 432 1 450 1 464 1 466 1 468 1 499 1 525 1 552 1 567 1 580 1 601 1 603 1 642 1 688 1 692 1 731 1 742 1 752 2 770 2 777 1 798 1 860 1 882 1 897 1 913 1 959 2 1001 1 547 1 553 1 561 1 572 1 593 1 600 1 606 1 623 1 631 1 651 1 652 1 685 1 690 1 709 1 727 1 760 1 821 1 851 1 855 1 875 1 890 1 896 1 898 1 928 1 953 1 970 1 980 1 1010 1 1017 1 1019 1 
1 212 14 2 25 1 60 1 82 1 96 1 116 1 129 1 153 1 221 1 225 1 243 1 251 1 278 1 283 1 289 1 319 1 321 1 324 1 361 1 367 1 369 1 398 1 429 1 437 2 444 1 511 1 512 1 521 2 522 1 22 1 112 1 120 1 150 1 155 1 169 1 181 1 206 1 214 1 244 1 275 1 293 1 311 1 317 1 320 1 339 1 370 1 390 1 401 1 409 1 440 1 453 1 461 1 468 1 485 1 490 1 508 1 530 1 534 1 536 1 536 1 540 1 542 1 551 1 577 1 584 1 592 1 611 1 635 1 648 1 684 1 703 1 704 1 730 1 757 1 759 1 801 1 808 1 814 1 815 1 819 1 831 1 862 1 883 1 897 1 922 1 923 1 934 1 956 1 957 1 977 1 987 1 995 1 556 1 576 1 588 1 591 1 594 1 613 1 617 1 628 1 632 1 642 1 644 1 646 1 670 1 708 1 746 1 758 1 776 1 779 1 780 1 785 1 806 1 810 1 823 1 829 1 871 1 901 1 910 1 935 1 944 1 959 1 1015 1 
1 209 2 1 7 1 8 1 10 1 79 1 90 1 95 1 106 1 125 1 147 1 164 1 247 1 255 1 262 1 269 1 300 1 306 1 314 1 317 1 320 1 329 1 335 1 353 1 355 1 378 1 380 1 394 1 398 1 404 1 452 1 460 1 481 1 501 1 517 1 521 1 531 1 13 1 14 1 22 1 32 1 62 1 69 1 77 1 97 1 98 1 105 1 108 1 153 1 215 1 239 1 257 1 284 1 310 1 324 1 327 1 352 1 354 1 403 1 449 1 476 1 505 1 560 1 574 1 611 1 623 1 633 1 636 1 659 2 675 1 693 1 708 1 713 1 736 1 737 1 753 1 780 1 783 1 785 1 795 1 807 1 817 1 859 1 868 1 873 1 887 1 893 1 907 1 942 1 968 1 969 1 971 1 982 2 995 1 996 1 562 1 569 1 572 1 609 1 647 1 657 1 658 1 673 1 717 1 723 1 728 1 733 1 741 1 764 1 771 1 776 1 788 1 810 1 880 1 890 1 914 1 919 1 947 1 964 1 970 1 991 1 1003 1 1007 1 1010 1 1012 1 1025 1 
1 215 58 1 101 1 104 1 108 1 112 1 148 1 159 1 167 1 176 1 182 1 185 2 188 1 198 1 202 1 215 1 231 1 247 1 293 1 323 1 344 1 354 1 358 1 394 1 430 2 432 1 452 1 454 1 473 1 474 1 496 1 500 1 527 1 30 1 32 1 67 1 71 1 114 1 119 1 133 1 151 1 222 1 234 1 237 1 246 1 265 1 298 1 315 1 348 1 353 1 373 1 385 1 386 1 396 1 398 1 442 1 466 1 472 1 487 1 502 1 519 1 529 1 551 1 559 1 567 1 571 1 572 1 642 1 644 1 648 1 682 1 692 1 714 1 717 1 753 2 757 1 770 1 807 1 811 1 813 1 820 1 828 1 837 1 849 1 859 1 896 2 953 1 958 1 987 1 995 1 1000 1 539 1 558 1 578 1 579 1 602 1 607 1 612 1 622 1 634 1 671 1 728 1 733 1 780 1 784 1 798 1 799 1 801 1 817 1 839 1 843 1 894 1 905 1 918 1 920 1 925 1 937 1 947 1 997 1 1006 1 1018 1 1023 1 1027 1 
1 207 1 1 24 1 30 1 54 1 91 2 92 1 113 1 128 1 129 2 172 1 209 1 210 1 219 1 234 1 249 1 251 1 264 1 286 1 290 1 320 1 368 1 374 1 396 1 411 1 424 1 478 1 497 1 509 1 11 1 19 1 27 1 28 1 57 1 60 1 75 1 90 1 130 1 139 1 168 1 173 1 211 1 212 1 275 1 294 1 306 1 355 1 364 1 379 1 390 1 401 1 406 1 439 1 471 1 507 1 538 1 544 1 567 1 599 1 620 1 627 1 691 1 709 1 719 1 762 1 777 1 787 1 789 1 796 1 827 1 832 1 861 1 887 1 907 1 933 1 936 1 939 1 979 1 983 1 995 1 543 1 563 1 613 1 643 1 656 1 677 1 693 1 695 1 698 1 706 1 710 1 745 1 751 1 754 1 759 1 768 1 798 1 813 1 816 1 821 1 828 1 830 1 837 1 882 1 885 1 917 1 941 1 954 1 990 1 
1 215 11 1 20 1 25 1 34 1 68 1 104 1 114 1 151 1 158 1 180 1 183 1 199 1 201 1 220 1 261 1 270 1 280 2 296 1 306 1 336 2 342 1 426 1 438 1 458 1 476 1 479 1 484 1 493 1 510 1 519 1 536 1 8 1 45 1 57 1 58 1 62 1 67 1 69 1 79 1 93 1 113 1 115 1 117 1 148 1 185 1 230 1 245 1 247 1 274 1 284 1 299 1 320 1 327 1 333 1 361 1 371 1 388 1 397 1 419 1 421 1 424 1 442 1 486 1 487 1 492 1 494 1 513 1 583 1 591 1 617 1 621 1 658 1 672 1 680 1 693 1 705 1 714 1 716 1 729 1 737 1 753 1 760 1 766 1 771 1 777 1 788 2 833 1 836 1 883 1 894 1 902 1 913 1 947 1 954 1 972 1 977 1 993 1 543 1 546 1 571 1 590 1 674 1 694 1 754 1 756 1 775 1 783 1 792 1 810 1 825 1 840 1 851 1 852 1 877 1 920 1 939 1 958 1 974 1 982 1 1007 1 1012 1 1013 1 1025 1 
1 209 38 1 83 1 106 1 118 1 125 1 126 1 130 1 157 1 160 1 243 1 269 1 274 1 310 1 311 1 321 1 339 1 351 1 358 1 387 1 403 1 410 1 414 1 426 1 471 1 492 1 504 1 532 1 28 1 39 1 41 1 64 1 77 1 100 1 132 1 136 1 138 1 142 1 156 1 171 1 174 1 192 1 221 1 223 1 257 1 260 1 266 1 275 1 283 1 289 1 298 1 300 1 313 1 362 1 375 1 376 1 384 1 390 1 428 1 434 1 465 1 477 1 558 1 565 1 615 1 627 1 632 1 633 2 649 1 682 2 685 1 731 1 742 1 745 1 764 1 768 2 808 1 816 1 852 1 876 1 884 1 890 1 934 1 973 1 560 1 568 1 586 1 631 1 654 1 665 1 670 1 688 1 706 1 710 1 723 1 740 1 746 1 780 1 787 1 790 1 800 1 823 1 826 1 882 1 887 1 901 1 948 1 968 1 991 1 1003 1 1018 1 
1 216 13 1 30 1 45 1 65 2 137 1 139 1 177 1 181 1 186 1 191 1 194 2 195 1 230 1 248 1 249 1 290 2 316 1 317 1 351 1 374 1 380 1 383 1 390 1 398 2 402 1 423 1 435 1 455 1 459 1 524 1 536 1 34 1 56 1 82 1 99 1 107 1 155 1 210 1 237 1 268 1 277 1 282 1 293 1 328 1 341 1 370 1 420 1 426 1 431 1 441 1 481 1 489 1 494 1 510 1 546 1 554 1 570 1 572 1 606 1 650 1 707 1 823 1 826 1 827 1 828 1 829 1 850 1 855 1 874 1 879 1 885 1 898 1 926 1 967 1 971 1 982 1 577 1 582 1 584 1 591 1 599 1 614 1 629 1 636 1 645 1 648 1 652 1 696 1 705 1 706 1 715 1 722 1 741 1 754 1 766 1 794 1 830 1 840 1 845 1 891 1 895 1 897 1 907 1 927 1 933 1 939 1 977 1 983 1 989 1 1018 1 1020 1 
1 212 12 1 30 1 38 1 45 1 61 1 100 1 103 1 111 1 131 1 132 1 136 1 143 1 154 1 161 1 181 1 190 1 194 1 209 1 278 1 279 1 291 1 308 1 320 1 325 1 327 1 343 1 363 1 371 1 376 1 403 1 431 1 465 1 485 1 496 1 4 1 19 1 28 1 48 1 86 1 107 1 120 1 127 1 147 1 150 1 164 1 170 1 182 1 189 1 197 1 207 1 213 1 262 1 270 1 276 1 277 1 280 1 288 1 313 1 319 1 337 1 388 1 404 1 438 1 451 1 457 1 467 1 475 1 478 1 539 1 540 1 550 1 567 1 574 1 589 1 593 1 595 1 606 1 650 1 729 1 732 1 743 1 768 2 798 1 806 1 816 1 826 2 830 1 841 1 852 1 874 1 909 1 921 1 923 1 969 1 971 1 983 1 576 1 578 1 581 1 594 1 608 1 610 1 616 1 617 1 626 1 679 1 745 1 749 1 756 1 757 1 764 1 773 1 791 1 857 1 861 1 866 1 882 1 908 1 937 1 942 1 943 1 952 1 953 1 972 1 988 1 1015 1 1017 1 1019 1 1022 1 
1 213 6 1 11 1 47 1 59 1 90 1 163 1 214 1 217 1 246 1 250 1 256 1 258 1 271 1 286 1 288 1 290 1 321 1 403 1 415 1 419 1 434 1 435 1 438 1 441 1 449 1 475 1 489 1 493 1 514 1 533 1 539 1 1 1 32 1 48 1 60 1 65 1 92 1 99 1 107 1 139 1 162 1 169 1 188 1 199 1 209 1 210 1 211 1 278 1 287 1 313 1 337 1 346 1 352 1 377 1 407 1 413 1 425 1 431 1 442 1 452 1 462 1 476 1 480 1 495 1 545 1 570 1 630 1 633 2 635 1 638 1 644 1 652 1 691 1 706 1 713 1 743 1 749 1 766 1 774 1 852 1 866 1 874 1 888 1 919 2 942 1 943 1 951 1 975 1 555 1 559 1 575 1 585 1 588 1 604 1 610 1 611 1 634 1 714 1 725 1 764 1 805 1 824 1 830 1 850 1 855 1 869 1 875 1 879 1 905 1 973 1 980 1 1011 1 1014 1 
1 213 2 1 5 1 11 1 12 1 67 1 131 1 151 1 177 2 182 1 193 1 197 1 218 1 222 1 228 1 236 1 248 1 253 1 260 1 274 1 303 1 315 1 372 1 383 1 401 1 405 1 421 1 435 1 477 1 514 1 544 1 25 1 33 1 69 1 81 1 87 1 93 1 102 1 115 1 130 1 136 1 140 1 176 1 240 1 251 1 264 1 279 1 292 1 306 1 311 1 325 1 326 1 331 1 338 1 340 1 346 1 413 1 429 1 431 1 611 1 656 1 679 1 690 1 691 1 711 1 713 1 728 1 753 1 772 1 782 1 808 1 815 1 827 1 839 1 846 1 862 1 868 1 909 1 910 2 970 2 974 1 547 1 550 1 553 1 555 1 561 1 588 1 591 1 594 1 631 1 649 1 650 1 660 1 695 1 708 1 726 1 738 1 768 1 813 1 834 1 883 1 892 1 899 1 917 1 923 1 954 1 961 1 1009 1 1013 1 1021 1 1026 1 
1 215 28 1 65 1 96 1 103 1 130 1 133 1 154 2 155 1 160 1 183 1 198 1 202 1 233 1 239 1 240 1 246 1 295 1 297 1 312 2 313 2 314 1 366 1 370 1 376 1 386 1 390 1 393 1 397 1 416 1 424 1 465 1 480 1 521 1 542 1 8 1 31 1 52 1 94 1 114 1 132 1 156 1 166 1 182 1 189 1 216 1 218 1 269 1 324 1 335 1 348 1 353 1 362 1 380 1 381 1 383 1 426 1 427 1 494 1 520 1 540 1 562 1 600 1 611 1 629 1 637 1 657 1 669 1 702 1 707 1 772 1 778 1 791 1 813 2 815 1 820 1 824 1 826 1 834 1 841 1 852 1 854 1 873 1 920 1 925 1 937 1 961 1 965 1 558 1 567 1 571 1 582 1 605 1 622 1 633 1 634 1 699 1 700 1 722 1 733 1 773 1 784 1 796 1 801 1 808 1 819 1 836 1 838 1 843 1 844 1 859 1 895 1 907 1 915 1 931 1 951 1 957 1 1010 1 1018 1 1022 1 1025 1 
1 210 16 1 17 1 37 1 66 1 86 1 136 1 145 1 154 1 198 1 218 2 231 1 275 1 297 1 337 1 360 1 427 1 471 1 476 1 497 1 508 1 509 1 530 1 533 1 27 1 32 1 33 1 35 1 43 1 51 1 53 1 76 1 166 1 213 1 220 1 228 1 241 1 280 1 287 1 298 1 299 1 320 1 321 1 339 1 389 1 413 1 433 1 439 1 441 1 472 1 500 1 507 1 527 1 535 1 545 1 562 1 569 1 584 1 590 1 615 1 618 1 636 1 664 2 689 1 725 1 732 1 760 1 797 1 844 1 854 1 858 2 899 1 918 1 923 1 941 1 979 1 988 1 991 1 581 1 583 1 585 1 608 1 612 1 651 1 661 1 665 1 670 1 677 1 690 1 707 1 710 1 719 1 749 1 756 1 763 1 806 1 818 1 819 1 865 1 898 1 913 1 936 1 937 1 959 1 962 1 983 1 985 1 999 1 1004 1 1026 1 
1 213 12 1 13 1 41 2 59 1 64 1 70 1 79 1 112 1 128 1 196 1 200 1 205 1 228 1 233 1 241 1 245 1 253 1 256 1 268 1 285 1 295 1 314 1 324 1 331 1 357 1 364 1 370 1 386 1 410 1 426 1 430 1 436 1 487 2 492 1 531 2 11 1 77 1 108 1 116 1 132 1 146 1 152 1 155 1 160 1 165 1 171 1 184 1 197 1 214 1 223 1 231 1 240 1 250 1 298 1 300 1 310 1 325 1 342 1 345 1 347 1 349 1 352 1 359 1 378 1 405 1 422 1 437 1 482 1 509 1 529 1 575 1 588 1 648 1 655 1 658 1 674 1 681 1 734 1 798 1 800 1 816 1 818 1 821 1 822 1 831 1 843 1 873 1 890 1 901 1 908 1 957 1 967 1 980 1 995 2 998 1 555 1 567 1 584 1 594 1 610 1 620 1 625 1 649 1 664 1 714 1 733 1 741 1 743 1 758 1 765 1 791 1 797 1 815 1 841 1 856 1 879 1 893 1 913 1 924 1 925 1 1004 1 1006 1 1007 1 1008 1 1018 1 1022 1 
1 212 14 1 22 1 33 1 46 1 68 1 78 1 83 1 95 1 96 1 103 1 105 1 116 1 124 1 145 1 185 1 200 1 215 2 227 1 277 1 294 1 302 1 304 1 313 1 331 1 340 1 361 1 370 1 442 2 486 1 499 1 504 1 506 1 526 1 15 1 36 1 45 1 58 1 99 1 133 1 149 1 195 1 198 1 213 1 228 1 267 1 268 1 271 1 289 1 307 1 310 1 343 1 350 1 368 1 382 1 389 1 411 1 420 1 428 1 444 1 513 1 519 1 524 1 552 1 566 1 598 2 600 1 603 1 658 1 660 1 668 1 701 1 707 1 732 1 762 1 767 1 780 1 793 1 812 1 827 2 843 1 858 1 920 1 933 1 957 1 974 1 988 1 989 1 559 1 564 1 584 1 607 1 611 1 624 1 628 1 644 1 662 1 748 1 749 1 785 1 789 1 809 1 817 1 831 1 835 1 857 1 861 1 865 1 872 1 881 1 900 1 945 1 956 1 972 1 973 1 1018 1 1019 1 1026 1 
1 212 3 1 12 1 62 1 78 1 86 1 92 1 102 1 116 1 126 1 163 1 175 1 197 1 203 1 214 1 216 1 218 1 224 1 232 1 242 1 244 1 265 1 335 1 336 1 338 1 346 1 379 1 455 2 489 2 499 1 501 1 530 1 543 1 41 1 46 1 75 1 101 1 113 1 118 1 119 1 160 1 192 1 202 1 215 1 225 1 239 1 255 1 258 1 264 1 305 1 324 1 356 1 377 1 389 1 473 1 482 1 512 1 545 1 565 1 568 1 585 1 617 1 619 1 623 1 629 1 631 1 651 1 652 1 679 1 687 1 691 1 729 1 739 1 741 1 754 1 788 1 799 1 820 1 830 1 843 1 855 1 956 1 981 1 984 1 992 1 1000 1 560 1 567 1 581 1 590 1 602 1 613 1 620 1 636 1 638 1 644 1 655 1 675 1 779 1 786 1 797 1 863 1 875 1 877 1 888 1 899 1 915 1 931 1 941 1 959 1 971 1 972 1 977 1 982 1 1004 1 1023 1 
1 211 19 1 28 1 36 1 39 1 41 1 51 1 59 1 61 1 105 1 118 1 120 1 137 1 140 1 141 1 149 1 187 1 199 1 208 2 212 1 218 1 224 1 233 1 259 1 288 2 296 1 314 1 346 1 350 1 368 1 394 1 398 1 418 1 431 1 450 1 454 1 455 1 468 1 478 1 480 2 494 1 506 1 536 1 538 1 15 1 40 1 79 1 87 1 96 1 143 1 162 1 214 1 215 1 221 1 241 1 245 1 246 1 261 1 291 1 297 1 303 1 308 1 317 1 339 1 352 1 355 1 366 1 384 1 393 1 409 1 504 1 508 1 516 1 531 1 532 1 533 1 553 1 567 1 577 1 586 1 613 1 656 1 689 1 723 1 780 1 795 1 800 2 809 1 825 1 828 1 840 1 897 1 904 1 906 1 933 1 569 1 585 1 595 1 663 1 684 1 738 1 758 1 833 1 835 1 861 1 866 1 877 1 902 1 924 1 926 1 991 1 1005 1 1006 1 1007 1 1013 1 1015 1 1026 1 
1 210 11 1 18 1 21 1 39 1 67 1 86 1 102 1 107 1 115 1 133 1 174 1 187 1 213 1 215 1 221 1 237 1 277 1 321 1 327 1 358 1 372 1 374 1 387 1 436 1 477 1 486 1 489 2 500 1 535 1 549 1 22 1 33 1 81 1 93 1 147 1 158 1 178 1 183 1 205 1 283 1 285 1 290 1 307 1 311 1 322 1 368 1 393 1 423 1 432 1 449 1 455 1 472 1 478 1 480 1 501 1 508 1 525 1 556 1 563 1 580 1 612 1 613 1 622 1 630 1 656 1 686 1 741 1 743 1 806 1 819 1 826 1 830 1 833 1 845 1 846 1 849 1 877 2 896 1 901 1 948 1 958 1 564 1 573 1 574 1 618 1 633 1 640 1 652 1 670 1 680 1 692 1 707 1 734 1 735 1 749 1 778 1 824 1 841 1 851 1 863 1 864 1 875 1 926 1 944 1 960 1 961 1 975 1 998 1 1012 1 1015 1 1016 1 1025 1 
1 208 8 1 29 1 52 1 56 1 70 1 96 1 100 1 102 1 126 1 134 1 136 1 173 1 175 1 187 1 193 1 218 1 233 1 276 1 312 1 315 1 319 1 320 1 329 1 332 1 345 1 398 1 401 1 410 1 424 1 438 2 494 1 506 1 510 1 512 1 518 1 520 1 524 1 533 1 534 1 551 1 40 1 61 1 78 1 103 1 161 1 190 1 206 1 212 1 271 1 298 1 301 1 338 1 342 1 408 1 445 1 503 1 507 1 521 1 535 1 545 1 577 1 588 1 596 1 642 1 674 1 686 1 688 1 696 1 702 1 703 1 712 1 727 1 737 1 752 1 754 1 785 1 832 1 834 1 844 1 853 1 875 1 876 1 882 1 902 1 930 1 951 1 978 1 991 1 565 1 570 1 611 1 612 1 661 1 676 1 697 1 706 1 711 1 715 1 726 1 740 1 751 1 755 1 766 1 773 1 791 1 798 1 806 1 824 1 887 1 891 1 910 1 920 1 949 1 952 1 955 1 977 1 1009 1 1010 1 
1 211 21 1 32 2 60 1 63 1 64 1 71 1 72 1 73 2 89 1 95 1 124 2 147 1 156 1 164 1 179 1 225 1 274 1 305 1 326 1 330 1 359 1 369 1 370 1 408 1 430 1 434 1 437 1 445 1 465 1 466 1 542 1 15 1 37 1 80 1 106 1 131 1 143 1 145 1 171 1 172 1 186 1 194 1 198 1 204 1 247 1 280 1 322 1 362 1 384 1 414 1 420 1 423 1 446 1 469 1 480 1 507 1 509 1 517 1 518 1 556 1 563 1 564 1 602 1 604 1 607 1 625 1 634 1 655 1 667 1 668 1 692 1 693 1 695 1 715 1 728 1 732 1 750 1 758 1 759 1 803 1 819 1 837 1 948 1 986 1 573 1 579 1 583 1 591 1 599 1 609 1 619 1 622 1 666 1 687 1 714 1 753 1 754 1 788 1 888 1 901 1 920 1 932 1 937 1 940 1 955 1 1000 1 1003 1 1013 1 
1 205 4 1 7 1 42 1 95 1 108 1 128 2 129 1 132 1 139 1 186 1 203 1 209 1 215 2 230 1 234 1 292 1 314 2 316 1 319 1 358 1 365 1 396 2 409 1 450 1 454 1 457 1 466 1 490 1 513 1 530 1 15 1 35 1 65 1 101 1 127 1 168 1 173 1 176 1 182 1 196 1 201 1 206 1 224 1 245 1 258 1 270 1 317 1 367 1 371 1 374 1 415 1 430 1 431 1 439 1 534 1 544 1 545 1 548 1 558 1 564 1 594 1 623 1 639 1 643 1 667 1 681 1 687 1 696 1 704 1 724 1 732 1 739 1 740 1 741 1 764 1 767 1 783 1 798 2 806 1 822 1 825 1 838 1 842 1 852 1 854 2 874 1 882 1 883 1 891 1 906 1 910 1 556 1 577 1 583 1 588 1 598 1 624 1 626 1 641 1 666 1 686 1 713 1 717 1 726 1 727 1 737 1 756 1 759 1 760 1 785 1 836 1 839 1 880 1 884 1 915 1 995 1 1002 1 1012 1 1015 1 1018 1 
1 211 8 1 28 1 46 1 59 1 140 1 153 1 159 1 168 2 190 1 195 1 220 2 241 1 250 1 273 1 284 1 290 1 310 1 322 1 327 1 332 1 376 1 392 1 431 1 458 1 471 1 486 1 489 1 496 1 552 1 554 1 14 1 20 1 43 1 57 1 132 1 147 1 170 1 197 1 200 1 206 1 213 1 215 1 248 1 251 1 275 1 286 1 292 1 302 1 307 1 348 1 388 1 410 1 419 1 422 1 440 1 446 1 448 1 473 1 490 1 501 1 522 1 526 1 536 1 555 1 609 1 614 1 624 1 633 1 661 1 666 1 701 1 716 1 719 1 774 1 778 1 784 1 835 1 839 1 842 1 921 1 931 1 948 1 951 1 984 2 993 1 573 1 587 1 619 1 620 1 643 1 669 1 670 1 680 1 697 1 711 1 725 1 744 1 756 1 761 1 777 1 790 1 792 1 806 1 813 1 843 1 858 1 864 1 905 1 908 1 909 1 913 1 932 1 935 1 972 1 1008 1 1021 1 
1 210 36 1 41 1 42 1 50 1 55 1 134 1 141 1 162 1 163 1 165 1 172 1 173 1 190 1 193 2 226 1 248 1 264 1 273 1 280 1 286 1 306 1 318 1 330 1 341 1 356 1 361 1 363 1 420 1 437 1 439 1 461 2 465 1 488 1 522 1 531 1 3 1 21 1 37 1 54 1 113 1 116 1 180 1 184 1 189 1 230 1 259 1 265 1 301 1 343 1 346 1 348 1 351 1 381 1 386 1 429 1 472 1 485 1 486 1 490 1 492 1 524 1 530 1 532 1 566 1 568 1 575 1 629 1 636 2 667 1 700 1 706 1 711 2 719 1 731 1 741 1 758 1 783 1 789 1 819 1 860 1 865 1 868 1 876 1 885 1 886 1 887 1 906 1 919 1 964 1 970 1 976 1 558 1 585 1 599 1 608 1 624 1 637 1 659 1 677 1 693 1 695 1 736 1 739 1 745 1 751 1 772 1 802 1 824 1 858 1 867 1 904 1 916 1 917 1 923 1 935 1 941 1 956 1 978 1 999 1 1003 1 1008 1 1018 1 1019 1 1021 1 
1 218 22 1 53 1 66 1 87 1 89 1 94 1 136 1 144 1 147 1 152 2 184 1 206 1 221 1 233 1 237 1 281 1 318 1 326 1 334 1 364 1 374 1 376 1 399 1 404 1 411 1 414 1 430 1 435 1 440 1 458 1 470 1 474 1 477 1 484 1 505 1 533 1 541 1 555 1 16 1 18 1 28 1 34 1 75 1 118 1 120 1 140 1 164 1 186 1 187 1 202 1 223 1 299 1 304 1 315 1 331 1 350 1 358 1 360 1 361 1 366 1 369 1 371 1 387 1 407 1 419 1 441 1 454 1 457 1 467 1 493 1 501 1 521 1 528 1 538 1 546 1 557 1 569 2 601 1 611 1 634 1 638 1 673 1 711 1 776 1 797 1 803 1 807 1 827 1 836 1 853 1 895 1 914 1 939 1 964 2 971 1 978 1 993 2 570 1 575 1 603 1 635 1 646 1 663 1 680 1 732 1 764 1 772 1 775 1 882 1 898 1 927 1 965 1 992 1 1010 1 1014 1 1016 1 1018 1 
1 209 4 1 6 1 9 1 18 1 47 1 53 2 66 1 80 1 93 1 125 1 144 1 171 1 194 2 199 2 202 1 204 1 238 1 242 1 250 1 267 1 288 1 355 1 393 1 418 1 421 1 430 1 434 1 485 1 498 1 506 1 511 1 513 1 519 1 538 1 40 1 51 1 91 1 112 1 131 1 155 1 195 1 219 1 221 1 226 1 229 1 230 1 245 1 248 1 249 1 268 1 292 1 313 1 330 1 341 1 353 1 376 1 436 1 446 1 469 1 516 1 520 1 523 1 544 1 549 1 565 1 567 2 594 2 672 1 673 1 678 1 695 1 715 2 741 1 761 1 769 1 773 1 805 1 814 1 830 1 838 1 866 1 876 1 885 1 886 1 901 1 934 1 953 1 957 1 974 1 999 1 606 1 616 1 630 1 639 1 653 1 654 1 663 1 687 1 754 1 755 1 768 1 772 1 778 1 787 1 796 1 815 1 823 1 837 1 852 1 860 1 923 1 933 1 958 1 969 1 972 1 981 1 991 1 1019 1 1021 1 
1 210 37 1 38 1 83 1 87 1 92 1 110 1 132 1 150 1 166 1 168 1 173 1 199 1 224 1 228 1 276 2 302 1 304 1 310 1 313 1 316 1 360 1 368 1 381 1 441 1 448 1 465 1 470 1 478 1 479 1 482 1 525 1 537 1 6 1 17 1 22 1 64 1 74 1 75 1 96 1 145 1 162 1 178 1 190 1 193 1 194 1 198 1 235 1 247 1 265 1 305 1 341 1 383 1 394 1 434 1 462 1 499 1 507 1 515 1 524 1 541 1 550 1 567 1 580 1 595 1 598 1 605 2 649 1 683 2 714 2 721 2 728 1 745 1 747 1 750 1 767 1 778 2 779 2 819 1 824 1 825 1 831 1 852 1 858 1 863 1 874 1 895 2 931 1 950 1 955 1 960 1 981 1 983 1 993 1 640 1 689 1 701 1 712 1 713 1 718 1 723 1 754 1 766 1 775 1 803 1 809 1 845 1 854 1 889 1 966 1 969 1 986 1 987 1 1015 1 1023 1 1026 1 1027 1 
1 207 18 1 23 1 48 1 84 1 95 1 102 1 137 1 139 1 165 1 170 1 176 1 186 1 187 2 198 1 207 1 217 1 226 1 280 1 291 1 306 1 344 1 350 1 379 1 402 1 405 1 409 1 429 1 436 1 443 1 459 1 460 1 468 1 474 1 494 1 512 1 518 1 5 1 29 1 45 1 49 1 53 1 70 1 80 1 108 1 236 1 238 1 243 1 246 1 264 1 292 1 305 1 310 1 339 1 376 1 383 1 404 1 476 1 513 1 519 1 523 1 535 1 545 1 563 1 566 1 567 2 571 1 619 1 660 1 690 1 707 1 739 1 765 1 830 1 846 1 865 1 866 1 868 1 874 1 916 1 943 1 947 1 971 1 993 1 997 1 590 1 605 1 633 1 654 1 666 1 696 1 699 1 749 1 756 1 780 1 783 1 794 1 804 1 828 1 857 1 861 1 887 1 889 1 927 1 928 1 938 1 951 1 962 1 969 1 982 1 1002 1 
1 208 3 1 4 1 26 1 35 1 36 1 39 1 41 1 54 1 57 1 68 1 90 1 91 1 105 1 109 1 119 1 138 1 146 2 147 1 160 1 186 1 211 1 240 1 264 1 288 1 303 1 340 1 347 1 378 1 381 1 392 1 409 1 412 1 422 1 455 1 465 1 478 1 482 1 483 1 484 1 494 1 516 1 546 1 547 1 14 1 25 1 30 1 40 1 51 1 55 1 97 1 130 1 168 1 175 1 178 1 205 1 218 1 233 1 248 1 256 1 271 1 293 1 295 1 317 1 320 1 367 1 377 1 404 1 419 1 475 1 495 1 505 1 537 1 563 1 583 1 591 1 628 1 637 1 638 1 687 1 690 1 707 1 719 1 735 1 761 1 769 1 777 1 786 1 792 1 809 1 844 1 932 1 938 1 964 1 982 1 575 1 596 1 654 1 662 1 673 1 688 1 698 1 700 1 710 1 751 1 759 1 832 1 837 1 859 1 871 1 889 1 944 1 970 1 974 1 975 1 989 1 1009 1 1016 1 
1 210 10 1 12 1 13 1 43 1 46 1 55 1 69 1 78 1 93 1 100 1 122 1 170 1 171 1 198 2 220 1 233 1 301 1 302 1 373 1 374 1 395 1 416 1 436 1 448 1 470 1 489 1 499 1 552 1 554 1 561 1 562 1 25 1 38 1 48 1 67 1 111 1 141 1 185 1 192 1 204 1 211 1 262 1 317 1 321 1 337 1 357 1 372 1 386 1 420 1 423 1 424 1 467 1 474 1 505 1 517 1 518 1 520 1 528 1 539 1 573 1 576 1 580 1 588 2 623 1 663 1 664 1 696 1 714 1 721 1 768 1 776 1 803 1 828 1 833 1 843 1 867 2 872 1 888 1 895 1 897 1 900 1 905 2 909 1 917 1 933 1 952 1 960 1 961 1 992 1 996 2 590 1 600 1 626 1 656 1 691 1 720 1 724 1 733 1 734 1 740 1 771 1 781 1 782 1 789 1 825 1 861 1 896 1 915 1 927 1 930 1 931 1 950 1 973 1 1013 1 
1 207 3 1 12 1 23 1 24 1 35 1 87 2 88 2 95 1 105 1 115 1 119 1 145 1 170 2 172 1 204 1 205 1 212 1 269 1 286 1 288 1 304 1 307 1 347 1 366 1 373 1 388 1 407 1 419 1 429 1 449 1 472 1 473 1 507 1 524 2 554 1 555 1 26 1 29 1 67 1 76 1 134 1 184 1 193 1 201 1 232 1 251 1 289 1 297 1 311 1 323 1 365 1 371 1 441 1 474 1 493 1 526 1 528 1 549 1 552 1 568 1 623 1 627 1 629 1 634 1 635 1 636 1 655 1 665 1 669 1 673 1 747 2 804 1 810 1 825 1 831 1 863 1 864 1 876 1 886 1 894 1 898 1 932 1 944 1 951 1 974 1 570 1 576 1 624 1 650 1 717 1 743 1 745 1 777 1 781 1 782 1 794 1 815 1 826 1 837 1 855 1 902 1 945 1 950 1 952 1 954 1 973 1 1001 1 1007 1 1021 1 1024 1 
1 213 7 1 65 1 88 1 92 1 114 1 157 1 189 1 204 1 224 1 227 1 272 1 305 1 309 1 313 1 318 1 339 1 345 1 393 1 396 1 416 1 417 1 435 1 436 1 453 2 462 1 478 1 512 1 541 1 550 1 559 1 8 1 22 1 37 1 55 1 69 1 104 1 121 1 125 1 131 1 154 1 161 1 168 1 196 1 206 1 218 1 220 1 223 1 256 1 343 1 346 1 409 1 411 1 413 1 418 1 427 1 482 1 483 1 511 1 516 1 527 1 531 1 553 1 566 1 587 1 621 1 623 1 681 1 684 1 715 1 761 1 778 1 817 1 828 1 829 1 850 1 875 1 886 1 892 1 938 1 950 1 991 2 583 1 603 1 632 1 648 1 666 1 698 1 701 1 717 1 726 1 728 1 773 1 777 1 815 1 822 1 865 1 868 1 879 1 895 1 924 1 961 1 972 1 1012 1 1021 1 1027 1 
1 208 4 1 35 1 54 1 74 2 80 1 90 1 106 2 136 2 144 1 159 1 183 1 185 1 202 1 211 1 221 1 226 1 251 1 262 1 298 1 348 1 373 1 416 1 447 1 449 1 457 1 466 1 503 1 511 1 513 1 549 1 557 1 561 1 565 1 3 1 7 1 10 1 63 1 68 1 99 1 132 1 148 1 181 1 189 1 190 1 199 1 203 1 239 1 254 1 255 1 278 1 282 1 291 1 317 1 349 1 355 1 423 1 424 1 428 1 440 1 471 1 472 1 489 1 509 1 620 1 625 1 626 1 633 1 638 1 647 1 668 1 672 1 730 1 761 2 773 1 777 1 779 1 786 1 839 1 842 2 849 1 851 1 860 1 875 2 900 1 901 1 951 1 977 1 991 1 581 1 619 1 627 1 628 1 649 1 656 1 695 1 701 1 711 1 717 1 742 1 767 1 769 1 770 1 782 1 817 1 846 1 847 1 897 1 913 1 922 1 933 1 943 1 944 1 950 1 1005 1 1022 1 
1 208 27 1 47 1 56 1 59 1 86 2 90 1 94 1 109 2 140 2 148 1 159 1 166 1 189 1 192 1 219 1 220 1 224 1 255 1 260 1 271 1 272 1 299 1 334 1 381 1 390 1 416 1 453 1 460 1 488 1 504 1 518 1 532 1 535 1 538 1 539 1 543 1 551 1 559 2 560 1 561 2 7 1 36 1 105 1 122 1 126 1 130 1 157 1 195 1 216 1 297 1 305 1 318 1 322 1 336 1 337 1 349 1 375 1 394 1 426 1 443 1 463 1 471 1 476 1 480 1 487 1 502 1 546 1 548 1 550 1 577 1 600 1 609 1 611 1 628 1 635 1 639 2 661 1 702 1 747 1 787 1 788 1 798 1 809 1 832 1 881 2 923 1 928 1 931 1 934 1 960 1 978 1 993 1 569 1 636 1 642 1 668 1 700 1 703 1 726 1 758 1 824 1 827 1 867 1 868 1 905 1 929 1 1005 1 1007 1 1015 1 1021 1 
1 213 11 1 12 1 28 1 30 1 35 1 42 1 58 1 65 1 79 1 91 1 94 1 127 1 160 1 171 1 173 1 216 1 245 1 250 1 261 1 268 1 288 1 290 1 295 2 318 1 340 1 346 1 435 2 439 1 441 1 449 1 488 1 503 2 510 1 520 1 527 1 550 1 557 1 564 1 22 1 37 1 45 1 51 1 72 1 122 1 135 1 137 1 149 1 182 1 232 1 243 1 254 1 308 1 351 1 382 1 412 1 422 1 447 1 460 1 476 1 516 1 521 1 533 1 541 1 601 1 646 1 647 1 654 1 697 1 706 1 715 1 720 1 723 1 749 1 759 1 771 1 781 1 782 1 805 1 809 1 811 1 821 1 822 1 840 1 842 1 931 1 949 1 961 1 981 1 983 1 995 1 581 1 603 1 679 1 689 1 703 1 747 1 750 1 751 1 756 1 814 1 829 1 851 1 861 1 867 1 886 1 925 1 934 1 941 1 943 1 1001 1 1005 1 1009 1 1023 1 1027 1 
1 209 32 1 40 1 64 1 77 1 131 1 160 2 162 1 165 2 175 1 190 1 204 1 210 1 214 1 240 1 247 1 251 1 271 1 281 1 290 1 332 1 345 1 350 1 356 1 357 1 360 1 382 1 403 1 417 1 420 1 421 1 426 1 433 1 438 1 473 1 513 1 527 1 533 1 547 1 558 2 23 1 25 1 61 1 79 1 89 1 91 1 115 1 158 1 170 1 173 1 177 1 201 1 226 1 227 1 228 1 245 1 264 1 286 1 334 1 341 1 388 1 389 1 397 1 441 1 450 1 481 1 484 1 499 1 502 1 510 1 520 1 537 1 551 1 567 1 573 1 579 1 580 1 585 1 586 1 605 1 616 1 622 1 634 1 657 1 664 1 680 1 687 1 691 1 693 1 700 1 709 1 793 1 808 1 830 1 836 1 844 1 905 1 920 2 937 1 973 1 982 1 996 1 998 2 572 1 588 1 590 1 618 1 619 1 670 1 703 1 751 1 783 1 815 1 817 1 866 1 874 1 911 1 942 1 960 1 964 1 968 1 980 1 989 1 1003 1 1006 1 1008 1 1011 1 1019 1 
1 207 13 1 19 1 23 1 38 1 49 1 109 1 128 1 185 2 201 1 209 1 213 1 216 1 231 1 258 1 268 1 276 1 289 1 302 1 324 1 335 1 346 1 347 1 352 1 366 1 388 1 400 1 406 1 424 1 425 1 431 1 469 1 477 1 483 1 500 1 508 1 542 1 544 1 16 1 42 1 57 1 139 1 155 1 168 1 193 1 199 1 254 1 314 1 343 1 344 1 350 1 404 1 433 1 444 1 457 1 462 1 481 1 496 1 526 1 528 1 531 1 553 1 558 1 564 1 572 1 593 1 594 1 603 1 606 1 636 1 677 1 689 1 710 1 711 1 719 1 728 1 749 1 754 1 791 1 826 1 840 1 872 1 880 1 911 1 962 1 598 1 626 1 681 1 686 1 692 1 695 1 713 1 717 1 738 1 758 1 765 1 769 1 788 1 792 1 797 1 835 1 848 1 913 1 917 1 924 1 941 1 950 1 957 1 982 1 1001 1 1013 1 
1 211 4 1 8 1 29 1 70 2 77 1 113 1 136 1 143 1 155 1 178 1 192 1 204 1 231 1 241 1 242 1 258 1 302 1 319 2 351 1 359 1 403 1 442 1 448 1 476 1 485 1 508 2 526 1 538 1 561 1 12 1 27 1 32 1 36 1 43 1 49 1 78 1 87 1 124 1 130 1 208 1 211 1 215 1 222 1 251 1 279 1 301 1 316 1 324 1 333 1 345 1 354 1 358 1 361 1 374 1 379 1 383 1 392 1 407 1 436 1 439 1 440 1 532 1 540 1 546 1 585 1 588 1 614 1 616 1 622 1 627 1 679 1 681 1 682 1 718 1 756 1 763 1 808 1 837 1 856 1 861 2 895 1 957 1 628 1 674 1 676 1 685 1 710 1 729 1 758 1 765 1 792 1 795 1 800 1 804 1 806 1 841 1 855 1 869 1 882 1 941 1 987 1 990 1 993 1 1008 1 1016 1 1027 1 
1 210 9 1 10 1 16 2 34 1 40 1 65 1 77 2 94 1 111 1 127 1 139 1 230 1 231 1 258 1 307 1 326 1 333 1 351 1 374 1 375 1 396 1 408 1 413 1 420 1 427 1 433 1 462 1 486 1 515 1 516 1 538 1 542 1 570 1 6 1 30 1 53 1 64 1 70 1 87 1 115 1 123 1 153 1 168 1 188 1 213 1 248 1 255 1 260 1 270 1 285 1 286 1 314 1 330 1 334 1 346 1 349 1 361 1 378 1 387 1 400 1 406 1 466 1 535 1 537 1 569 1 575 1 587 1 621 1 630 1 634 1 685 1 690 1 694 1 716 1 717 1 718 1 747 1 755 1 761 1 771 1 780 1 785 1 792 1 795 1 797 1 816 1 846 2 856 1 859 1 880 1 905 1 919 1 943 1 945 1 962 1 968 1 972 1 985 1 588 1 592 1 655 1 702 1 720 1 738 1 740 1 748 1 781 1 788 1 800 1 810 1 843 1 852 1 862 1 882 1 902 1 921 1 926 1 958 1 964 1 992 1 1007 1 1010 1 1021 1 
1 206 8 1 15 1 73 1 82 1 87 1 166 1 168 1 174 1 203 1 211 1 266 1 293 1 299 1 321 1 342 1 353 1 373 1 379 2 389 1 405 1 427 1 435 1 462 1 475 1 480 1 481 1 563 1 569 1 29 1 39 1 47 1 57 1 95 1 147 1 164 1 191 1 223 1 232 1 234 1 246 1 254 1 255 1 260 1 272 1 288 1 292 1 330 1 336 1 338 1 383 1 415 1 440 1 484 1 529 1 552 1 554 1 556 1 584 1 605 1 607 1 621 1 631 1 641 1 649 1 653 2 669 1 692 1 696 1 698 1 705 1 722 1 753 1 758 1 772 1 788 1 789 1 804 1 808 1 817 1 824 1 836 1 882 1 905 1 928 1 954 1 955 1 981 2 576 1 610 1 626 1 643 1 656 1 678 1 756 1 786 1 811 1 822 1 825 1 839 1 847 1 887 1 889 1 893 1 947 1 984 1 998 1 1003 1 1025 1 
1 211 5 1 17 1 40 1 58 1 75 1 79 1 87 1 95 1 99 2 104 1 113 1 146 1 165 1 167 1 172 1 197 1 200 1 207 1 212 1 221 1 233 1 239 1 253 1 283 1 293 1 330 1 352 1 359 1 367 1 371 1 380 1 385 1 448 1 450 1 451 1 470 1 494 1 508 1 512 1 517 1 522 1 532 1 537 1 543 1 50 1 66 1 74 1 76 1 89 1 102 1 110 1 121 1 126 1 132 1 145 1 163 1 168 1 189 1 196 1 219 1 298 1 362 1 365 1 394 1 403 1 427 1 430 1 454 1 455 1 457 1 496 1 505 1 526 1 552 1 574 1 574 1 583 1 585 1 595 1 600 1 603 1 621 1 628 1 705 1 706 1 729 1 748 1 753 1 785 1 790 1 801 1 805 2 832 1 867 1 902 1 905 1 928 1 941 1 948 1 965 1 978 1 994 1 597 1 622 1 631 1 667 1 713 1 730 1 744 1 770 1 775 1 788 1 815 1 839 1 845 1 853 1 866 1 872 1 887 1 920 1 926 1 956 1 961 1 989 1 1003 1 1006 1 1009 1 1021 1 1027 1 
1 208 7 1 34 1 42 1 118 1 129 1 131 1 141 1 194 1 209 1 214 2 216 1 218 1 227 1 242 1 263 1 266 1 290 1 298 1 307 1 334 1 343 1 398 1 405 1 414 1 419 1 420 1 422 1 439 1 448 1 491 2 496 1 530 1 548 1 557 1 572 1 4 1 51 1 57 1 66 1 85 1 88 1 98 1 105 1 110 1 149 1 169 1 196 1 207 1 231 1 245 1 264 1 316 1 325 1 335 1 354 1 382 1 424 1 497 1 512 1 515 1 531 1 544 1 558 1 562 1 583 1 604 1 612 1 626 1 640 1 660 1 701 1 740 1 750 1 763 1 786 1 800 1 855 1 860 1 869 1 883 1 943 1 951 1 952 1 967 1 973 1 581 1 610 1 617 1 636 1 639 1 674 1 676 1 696 1 697 1 713 1 722 1 748 1 771 1 776 1 780 1 825 1 836 1 851 1 862 1 875 1 879 1 889 1 891 1 927 1 928 1 982 1 997 1 1016 1 
1 213 4 1 26 1 45 1 79 1 129 1 147 1 148 2 155 1 163 1 191 1 206 2 211 1 224 1 234 1 240 1 242 1 243 1 246 1 247 1 285 1 291 1 318 1 336 1 354 1 375 1 378 1 422 1 425 1 444 1 450 1 456 1 459 1 499 1 563 1 98 1 120 1 123 1 161 1 164 1 189 1 194 1 204 1 207 1 210 1 233 1 300 1 303 1 305 1 330 1 348 1 355 1 380 1 408 1 418 1 426 1 441 1 505 1 536 1 543 1 564 1 573 1 604 1 609 1 630 1 635 1 636 1 640 1 642 1 653 1 661 1 666 1 687 1 711 1 714 1 765 1 812 1 821 2 836 1 844 1 900 1 944 1 947 2 948 1 950 1 993 1 585 1 601 1 628 1 696 1 707 1 720 1 739 1 744 1 746 1 759 1 793 1 864 1 868 1 872 1 889 1 890 1 891 1 914 1 925 1 960 1 972 1 987 1 1003 1 1005 1 1012 1 1014 1 1020 1 1023 1 
1 206 22 1 38 1 44 1 107 1 125 1 141 1 149 1 159 1 170 2 171 1 197 1 199 1 202 1 226 1 235 1 258 2 263 1 307 1 346 1 380 1 399 1 434 1 438 1 460 1 471 1 495 2 497 1 532 1 536 1 551 1 553 1 567 1 9 1 28 1 40 1 45 1 55 1 76 1 82 1 136 1 151 1 152 1 189 1 224 1 275 1 279 1 299 1 352 1 389 1 402 1 404 1 435 1 437 1 454 1 468 1 521 1 542 1 555 1 611 1 629 1 632 1 634 1 645 1 682 1 684 1 711 1 741 1 765 1 828 1 843 1 892 1 910 1 923 1 948 1 962 1 988 1 585 1 596 1 630 1 637 1 663 1 675 1 679 1 735 1 751 1 788 1 789 1 798 1 799 1 817 1 863 1 873 1 877 1 886 1 914 1 916 1 953 1 956 1 974 1 986 1 1014 1 1017 1 1022 1 
1 211 7 1 8 1 27 1 30 1 61 1 65 1 72 1 85 1 97 1 139 1 149 1 151 1 178 1 189 1 227 1 258 1 266 1 285 1 313 1 335 1 338 1 374 1 393 2 410 2 433 1 442 1 489 1 504 1 523 1 22 1 23 1 52 1 62 1 71 1 79 1 80 1 104 1 115 1 118 1 125 1 132 1 150 1 152 1 167 1 175 1 202 1 225 1 230 1 234 1 244 1 245 1 250 1 277 1 305 1 311 1 355 1 363 1 366 1 370 1 390 1 409 1 437 1 445 1 452 1 456 1 460 1 491 1 529 1 538 1 543 1 578 1 578 1 608 2 609 1 625 1 627 1 647 1 650 2 667 1 720 1 722 2 753 1 783 1 785 1 812 1 814 1 822 1 823 1 835 1 851 2 863 1 864 1 872 1 925 1 948 1 952 1 962 1 979 1 996 1 596 1 614 1 634 1 637 1 652 1 654 1 662 1 664 1 694 1 729 1 731 1 743 1 749 1 769 1 836 1 841 1 853 1 871 1 887 1 924 1 937 1 938 1 942 1 966 1 993 1 1017 1 1026 1 
1 207 53 1 54 2 64 1 79 1 84 1 106 1 127 1 150 1 167 1 191 1 212 1 231 1 254 1 256 1 277 1 299 1 301 1 324 1 347 1 377 2 387 1 395 1 419 1 448 1 458 1 483 1 484 1 492 1 498 1 569 1 25 1 37 1 48 1 59 1 121 1 128 1 137 1 161 1 197 1 203 1 219 1 226 1 252 1 307 1 335 1 343 1 372 1 399 1 432 1 437 1 441 1 460 1 493 1 494 1 502 1 519 1 532 1 538 1 554 1 589 1 677 2 678 1 684 1 708 1 735 1 786 1 805 1 819 1 822 1 833 1 851 1 866 2 870 1 872 1 884 1 890 1 899 1 902 1 906 1 926 1 969 1 987 1 604 1 607 1 632 1 634 1 637 1 645 1 658 1 662 1 689 1 690 1 728 1 729 1 757 1 775 1 814 1 887 1 896 1 900 1 913 1 979 1 994 1 1014 1 
1 212 35 1 36 1 56 1 64 1 91 1 118 1 133 1 138 1 146 1 149 1 203 1 205 1 224 1 332 1 381 1 384 1 386 1 411 1 426 1 476 1 497 1 508 1 535 1 552 1 560 1 563 1 569 1 42 1 65 1 87 1 117 1 120 1 121 1 125 1 148 1 158 1 159 1 161 1 166 1 199 1 213 1 229 1 230 1 245 1 247 1 264 1 269 1 273 1 294 1 295 1 310 1 312 1 329 1 350 1 355 1 368 1 372 1 382 1 392 1 412 1 447 1 451 1 452 1 485 1 490 1 498 1 506 1 532 1 584 1 596 1 602 1 622 1 637 1 642 1 663 1 680 1 685 2 712 1 735 1 746 1 772 1 785 1 790 1 792 1 825 1 842 1 871 1 891 1 895 1 898 1 900 1 925 1 927 1 966 1 968 1 971 1 973 1 974 1 985 1 989 1 1001 1 605 1 667 1 668 1 679 1 697 1 702 1 707 1 715 1 723 1 731 1 733 1 758 1 759 1 776 1 823 1 902 1 903 1 920 1 945 1 950 1 959 1 972 1 990 1 1007 1 1009 1 1011 1 1027 1 
1 210 1 1 25 1 34 1 55 2 58 1 101 1 102 1 107 1 110 1 121 1 126 1 150 1 154 1 162 1 182 1 192 2 209 1 235 1 241 1 262 1 270 1 291 1 315 2 319 1 358 1 360 1 374 1 394 1 409 1 412 2 417 1 422 1 428 1 444 1 470 1 477 1 481 1 509 2 10 1 13 1 23 1 37 1 64 1 72 1 73 1 77 1 112 1 117 1 156 1 183 1 195 1 231 1 237 1 242 1 287 1 308 1 324 1 340 1 352 1 359 1 364 1 365 1 425 1 426 1 439 1 478 1 486 1 488 1 543 1 547 1 550 1 566 1 568 1 575 1 597 1 640 1 668 1 698 1 709 1 751 1 761 1 764 1 775 1 791 1 816 2 856 1 870 1 888 1 897 1 921 1 940 1 953 2 955 1 988 1 996 2 998 1 585 1 598 1 618 1 635 1 645 1 669 1 671 1 686 1 705 1 716 1 722 1 734 1 750 1 755 1 763 1 765 1 780 1 819 1 823 1 844 1 874 1 934 1 938 1 942 1 993 1 1012 1 1013 1 1015 1 1020 1 
1 214 11 1 18 1 20 1 24 1 89 1 113 2 129 1 138 1 172 1 181 1 202 1 204 1 206 1 221 2 248 1 254 1 281 1 300 1 307 1 309 1 329 1 361 1 366 1 373 1 395 1 406 1 409 2 421 1 465 1 471 1 527 1 30 1 32 1 38 1 66 1 68 1 74 1 104 1 119 1 125 1 132 1 137 1 143 1 174 1 215 1 231 1 234 1 238 1 253 1 258 1 259 1 262 1 284 1 328 1 346 1 356 1 365 1 376 1 444 1 452 1 500 1 514 1 521 1 542 1 546 1 593 1 607 1 608 1 672 1 729 1 731 1 732 1 755 1 758 1 763 1 812 1 851 1 858 1 885 1 906 1 908 1 926 1 935 1 946 1 961 1 963 1 982 1 603 1 610 1 621 1 683 1 699 1 726 1 771 1 774 1 775 1 783 1 807 1 835 1 843 1 889 1 897 1 912 1 932 1 936 1 941 1 997 1 1001 1 1002 1 1007 1 1008 1 1015 1 1026 1 
1 216 4 1 53 1 70 1 111 1 121 1 122 1 132 1 157 1 160 1 164 1 178 1 210 1 214 1 219 1 247 1 281 1 290 1 312 1 314 1 339 2 359 1 404 1 415 1 427 1 436 1 439 1 506 1 523 1 531 1 540 1 562 1 574 1 575 1 5 1 17 1 19 1 21 1 40 1 54 1 64 1 78 1 80 1 135 1 171 1 188 1 199 1 205 1 211 1 237 1 242 1 264 1 271 1 286 1 287 1 337 1 344 1 347 1 356 1 378 1 457 1 476 1 485 1 503 1 547 1 554 1 555 1 565 1 599 1 647 1 659 1 670 1 675 1 684 1 686 1 707 1 737 1 739 1 741 1 779 1 791 1 802 1 819 2 827 1 877 1 879 1 887 1 889 1 936 1 939 1 945 1 961 1 969 1 987 1 998 1 602 1 652 1 669 1 689 1 692 1 694 1 704 1 711 1 720 1 725 1 746 1 751 1 784 1 804 1 805 1 809 1 814 1 833 1 836 1 847 1 858 1 860 1 884 1 909 1 924 1 940 1 1005 1 1013 1 1015 1 1018 1 1021 1 1023 1 1025 1 1027 1 
1 208 17 1 30 1 38 1 39 2 69 1 99 1 101 1 106 1 108 1 117 1 123 1 146 1 168 1 176 1 186 1 188 1 200 1 241 1 267 1 279 1 293 1 306 1 314 1 337 1 364 1 386 1 403 1 409 1 416 1 453 1 458 1 484 1 493 1 532 1 536 1 547 1 573 1 580 1 1 1 34 1 85 1 96 1 103 1 114 1 148 1 149 1 160 1 175 1 218 1 225 1 259 1 262 1 326 1 340 1 390 1 397 1 408 1 411 1 420 1 421 1 431 1 440 1 464 1 542 1 548 1 549 1 584 1 584 1 596 1 599 1 621 1 630 1 643 1 647 1 649 1 673 1 677 1 695 1 720 1 739 1 754 1 873 1 880 1 883 1 886 1 896 1 910 1 920 1 925 1 930 2 946 1 951 1 983 1 1000 1 601 1 622 1 629 1 672 1 703 1 712 1 719 1 724 1 786 1 797 1 804 1 830 1 841 1 842 1 847 1 853 1 865 1 878 1 914 1 935 1 995 1 998 1 1016 1 
1 217 9 1 43 1 56 1 70 1 86 2 97 1 157 1 158 1 161 1 177 1 209 1 227 1 233 1 248 1 296 1 340 1 350 1 356 1 380 1 387 1 407 1 424 1 425 1 456 1 467 1 487 1 488 1 494 1 513 1 515 1 523 1 526 1 527 1 530 1 550 1 569 1 571 1 574 1 4 1 50 1 60 1 65 1 79 1 90 1 116 1 145 1 198 1 204 1 218 1 220 1 229 1 259 1 272 1 300 1 319 1 320 1 341 1 358 1 362 1 363 1 397 1 406 1 439 1 444 1 453 1 519 1 525 1 544 1 547 1 551 1 557 1 576 1 577 1 581 1 590 1 602 1 640 1 667 1 679 1 689 1 702 1 704 1 713 1 726 1 744 1 748 1 898 1 922 1 942 1 958 1 977 1 597 1 617 1 632 1 652 1 729 1 731 1 732 1 747 1 764 1 787 1 794 1 806 1 868 1 874 1 876 1 889 1 921 1 927 1 945 1 957 1 990 1 993 1 1006 1 1007 1 1010 1 1017 1 1020 1 
1 205 9 1 23 1 41 1 61 1 101 1 109 1 139 2 165 1 171 1 186 1 200 1 212 1 213 1 242 1 243 1 256 1 257 1 268 1 313 1 315 1 321 1 357 1 381 1 385 1 423 1 438 1 446 2 462 1 478 1 491 2 497 1 507 1 509 1 551 1 569 1 1 1 7 1 10 1 12 1 63 1 85 1 115 1 136 1 170 1 264 1 344 1 396 1 411 1 414 1 417 1 449 1 464 1 501 1 510 1 531 1 541 1 589 1 596 1 634 1 641 1 649 1 650 1 658 1 665 1 670 1 730 1 745 1 752 1 858 1 862 1 873 1 875 1 876 2 882 1 895 1 926 1 958 1 966 1 968 1 969 1 978 1 588 1 623 1 627 1 633 1 661 1 679 1 702 1 704 1 717 1 771 1 781 1 791 1 807 1 819 1 843 1 870 1 893 1 912 1 917 1 923 1 948 1 987 1 1001 1 1021 1 
1 211 9 1 21 1 35 1 65 1 84 1 118 1 150 1 169 1 192 1 223 1 233 1 251 1 265 1 281 1 301 1 320 1 328 1 339 1 344 1 389 1 390 1 421 1 428 1 436 1 441 1 447 1 483 1 484 2 486 1 521 1 565 1 572 1 26 1 39 1 68 1 75 1 92 1 146 1 164 1 167 1 174 1 180 1 182 1 189 1 198 1 229 1 268 1 305 1 307 1 310 1 312 1 337 1 349 1 365 1 372 1 387 1 404 1 409 1 425 1 430 1 431 1 516 1 532 1 534 1 556 1 593 1 608 1 624 1 635 1 644 1 669 1 680 1 682 2 709 1 716 1 726 1 741 1 745 1 746 1 748 1 753 1 759 1 776 1 784 1 831 1 843 1 852 1 855 2 860 1 884 1 885 1 890 1 927 1 928 1 949 1 956 1 957 1 960 1 972 1 1002 1 614 1 632 1 650 1 666 1 668 1 692 1 696 1 762 1 800 1 808 1 809 1 811 1 816 1 880 1 893 1 901 1 914 1 932 1 945 1 979 1 1009 1 1015 1 1017 1 1024 1 1025 1 1027 1 
1 207 5 1 71 1 84 1 121 1 125 1 134 1 166 1 175 2 210 1 216 1 273 1 275 1 306 1 330 1 331 1 364 1 369 1 386 1 395 1 418 1 430 1 445 1 463 1 470 1 471 1 477 1 548 1 553 1 563 2 571 1 3 1 7 1 106 1 113 1 135 1 167 1 185 1 188 1 208 1 218 1 245 1 255 1 259 1 283 1 296 1 301 1 323 1 324 1 365 1 372 1 387 1 406 1 432 1 447 1 450 1 456 1 482 1 483 1 507 1 531 1 536 1 544 1 545 1 555 1 569 1 572 1 586 1 604 1 609 1 623 1 672 1 688 1 704 1 724 1 738 1 760 1 762 1 770 1 827 1 844 1 845 1 855 1 857 1 886 1 924 1 940 1 947 1 953 1 956 1 969 1 998 1 1000 1 610 1 616 1 680 1 710 1 728 1 735 1 749 1 768 1 783 1 816 1 842 1 861 1 912 1 914 1 960 1 961 1 979 1 992 1 1004 1 1010 1 1019 1 
1 211 9 1 10 1 20 1 51 1 54 1 64 1 93 1 94 1 103 1 105 1 118 1 151 1 155 1 176 1 220 1 237 1 248 1 262 1 276 1 285 1 295 1 314 1 332 1 367 1 382 1 386 2 405 1 406 1 418 1 441 1 446 1 450 1 506 1 527 1 543 1 579 1 586 1 19 1 38 1 43 1 69 1 83 1 85 1 102 1 108 1 111 1 131 1 157 1 178 1 246 1 257 1 271 1 301 1 308 1 350 1 362 1 369 1 378 1 398 1 399 1 410 1 447 1 452 1 467 1 480 1 502 1 516 1 529 1 530 1 593 1 594 1 626 1 648 1 664 2 712 1 734 1 737 1 756 1 790 1 836 1 837 1 851 1 868 2 873 1 879 1 894 1 913 1 918 2 928 1 611 1 612 1 621 1 635 1 643 1 668 1 693 1 701 1 778 1 791 1 802 1 819 1 829 1 866 1 872 1 878 1 885 1 997 1 1010 1 1023 1 1025 1 
1 207 31 1 40 1 47 1 48 1 51 1 62 1 106 1 136 1 205 1 232 1 241 1 249 1 266 1 270 1 284 1 329 1 336 1 341 1 358 1 440 1 454 1 473 1 501 1 513 1 547 1 585 1 27 1 57 1 59 1 98 1 101 1 103 1 117 1 154 1 155 1 170 1 187 1 207 1 211 1 216 1 229 1 230 1 239 1 257 1 262 1 285 1 301 1 305 1 309 1 312 1 316 1 332 1 351 1 419 1 427 1 437 1 444 1 468 1 476 1 497 1 528 1 540 1 550 1 561 1 563 1 569 1 608 1 611 1 615 1 627 1 655 1 657 1 663 1 680 1 691 1 779 1 786 1 794 1 814 1 851 1 864 1 907 1 956 1 964 1 990 1 1001 1 593 1 598 1 619 1 625 1 637 1 653 1 684 1 698 1 732 1 771 1 785 1 799 1 836 1 843 1 853 1 854 1 870 1 881 1 894 1 909 1 922 1 940 1 944 1 947 1 949 1 981 1 1015 1 
1 212 43 1 63 1 85 1 97 1 110 1 137 1 138 1 148 1 149 1 150 1 152 2 155 1 161 1 167 1 179 1 188 1 196 1 216 1 222 1 251 1 275 1 276 1 278 1 324 1 327 1 344 1 353 1 357 1 382 1 396 1 408 1 413 1 426 1 485 1 501 1 503 1 540 1 562 1 2 1 3 1 16 1 20 1 22 1 78 1 107 1 111 1 126 1 133 1 185 1 197 1 247 1 252 1 257 1 261 1 268 1 279 1 281 1 282 1 297 1 307 1 391 1 392 1 400 1 419 1 444 1 475 1 487 1 533 1 536 1 542 1 545 1 554 1 607 1 611 1 659 1 661 1 668 2 671 1 677 1 691 1 729 1 761 1 775 1 811 1 840 1 878 1 889 1 905 1 916 2 966 1 971 1 979 1 989 1 600 1 603 1 623 1 625 1 627 1 629 1 635 1 649 1 650 1 675 1 695 1 701 1 712 1 719 1 726 1 742 1 750 1 792 1 808 1 835 1 859 1 873 1 882 1 902 1 978 1 992 1 1002 1 1006 1 1007 1 1008 1 1012 1 1022 1 
1 206 10 1 24 1 32 1 35 1 52 1 80 1 96 1 104 1 109 1 114 1 115 2 121 1 123 1 174 1 242 1 272 1 274 1 280 2 288 1 292 1 300 1 304 1 366 1 425 1 439 2 441 1 457 1 495 1 520 1 536 1 8 1 12 1 34 1 45 1 61 1 73 1 74 1 75 1 78 1 105 1 138 1 178 1 189 1 197 1 205 1 225 1 230 1 238 1 248 1 252 1 263 1 279 1 309 1 326 1 334 1 338 1 339 1 361 1 387 1 405 1 412 1 416 1 444 1 449 1 455 1 458 1 462 1 465 1 466 1 467 1 471 1 475 1 486 1 501 1 509 1 522 1 572 1 599 1 608 1 622 1 650 1 654 1 678 1 708 1 710 1 718 1 730 1 734 1 787 1 794 1 808 1 847 1 852 1 865 2 886 1 926 1 943 1 947 1 990 1 999 1 604 1 632 1 639 1 649 1 680 1 695 1 723 1 724 1 725 1 733 1 756 1 777 1 790 1 822 1 848 1 900 1 909 1 936 1 958 1 976 1 977 1 1007 1 1014 1 
1 211 26 1 29 1 86 1 94 1 103 1 126 1 131 1 133 1 171 1 173 2 178 1 179 1 190 1 194 1 205 1 211 1 246 1 262 1 298 1 317 1 322 1 330 1 331 1 369 1 405 1 482 1 492 2 500 1 516 1 532 1 533 1 543 1 570 1 582 1 587 1 589 1 1 1 24 1 37 1 40 1 51 1 66 1 72 1 151 1 192 1 238 1 244 1 248 1 254 1 258 1 266 1 268 1 299 1 301 1 342 1 354 1 379 1 396 1 422 1 425 1 427 1 454 1 461 1 476 1 477 1 499 1 518 1 531 1 535 1 590 1 600 1 611 1 626 1 650 1 669 1 677 1 697 1 718 1 730 1 738 1 790 1 849 1 858 1 863 1 867 1 905 1 935 1 954 1 972 2 980 1 984 1 988 1 606 1 615 1 637 1 647 1 649 1 679 1 690 1 729 1 733 1 747 1 784 1 798 1 802 1 821 1 838 1 855 1 865 1 882 1 909 1 924 1 942 1 949 1 973 1 1007 1 1009 1 1019 1 1023 1 
1 214 13 1 19 2 21 1 33 1 40 1 50 2 62 1 91 1 95 2 124 1 137 1 153 2 156 2 195 1 211 1 228 1 237 2 277 1 289 1 306 1 315 2 321 1 334 1 356 1 372 1 397 1 398 1 457 2 459 1 490 1 518 1 528 1 531 1 555 1 559 2 570 1 589 1 7 1 10 1 11 1 31 1 39 1 51 1 59 1 129 1 145 1 174 1 178 1 189 1 197 1 303 1 350 1 358 1 378 1 383 1 412 1 425 1 463 1 491 1 513 1 516 1 536 1 543 1 545 1 548 1 604 1 609 1 611 1 622 1 632 1 659 1 688 1 690 1 699 1 707 1 716 1 749 1 753 1 754 1 764 1 766 1 769 1 771 1 785 1 786 1 803 1 823 1 842 1 860 1 878 2 881 1 899 1 918 1 927 1 950 1 965 1 995 1 1001 1 638 1 663 1 728 1 758 1 778 1 800 1 812 1 859 1 898 1 910 1 916 1 931 1 946 1 957 1 974 1 988 1 993 1 1004 1 1006 1 1008 1 1017 1 1025 1 
1 211 18 1 19 1 27 1 37 1 50 1 71 1 78 1 83 1 94 1 96 1 145 1 163 1 165 1 191 1 205 2 208 1 212 1 224 1 254 1 281 1 293 1 330 1 359 1 360 1 380 1 395 1 411 1 416 1 423 1 429 1 437 1 465 1 519 1 543 1 560 1 574 1 32 1 60 1 79 1 90 1 137 1 160 1 167 1 170 1 173 1 179 1 180 1 187 1 216 1 240 1 248 1 282 1 287 1 308 1 316 1 317 1 427 1 431 1 458 1 469 1 498 1 503 1 551 1 606 1 611 1 613 1 623 1 631 1 696 1 697 1 709 2 742 1 752 1 753 1 761 1 771 2 779 1 793 2 797 1 799 1 804 1 813 1 917 1 949 1 961 1 971 1 999 1 634 1 640 1 650 1 654 1 668 1 699 1 705 1 717 1 726 1 768 1 770 1 787 1 826 1 828 1 855 1 857 1 858 1 873 1 911 1 929 1 960 1 975 1 980 1 1003 1 1006 1 1018 1 1022 1 
1 213 30 1 48 1 64 1 69 1 101 1 128 1 149 1 152 1 172 1 177 1 189 1 208 1 215 1 255 1 278 1 286 1 305 1 310 1 321 1 324 1 347 1 356 1 361 1 381 1 420 1 437 1 448 2 456 1 471 1 474 1 502 1 553 1 580 1 584 1 586 1 8 1 27 1 40 1 74 1 86 1 95 1 114 1 117 1 121 1 140 1 170 1 274 1 358 1 413 1 441 1 446 1 466 1 496 1 501 1 506 1 525 1 533 1 562 1 577 1 578 1 636 1 690 1 693 1 699 1 703 1 720 1 728 1 733 1 741 1 746 1 781 1 783 1 802 1 805 1 821 1 837 1 841 1 853 1 864 1 867 1 886 1 891 1 898 1 934 1 935 1 973 1 627 1 642 1 655 1 667 1 678 1 684 1 692 1 714 1 715 1 738 1 788 1 824 1 827 1 834 1 842 1 843 1 863 1 870 1 892 1 899 1 920 1 924 1 927 1 936 1 946 1 956 1 960 1 993 1 1004 1 1005 1 
1 210 17 1 28 1 31 1 38 1 56 2 59 1 88 1 102 1 109 1 132 1 137 2 161 1 164 1 206 1 260 2 266 1 273 1 275 1 324 1 340 1 356 1 364 1 376 1 387 1 408 1 420 1 437 1 474 1 485 1 491 1 509 1 581 1 7 1 30 1 49 1 81 1 85 1 95 1 113 1 116 1 121 1 131 1 136 1 142 1 152 1 193 1 196 1 200 1 202 1 212 1 216 1 229 1 255 1 279 1 280 1 321 1 338 1 344 1 358 1 390 1 394 1 413 1 447 1 471 1 494 1 495 1 502 1 532 1 574 1 585 1 613 1 617 1 624 2 633 1 638 1 640 1 667 1 696 1 711 1 721 1 745 1 760 1 771 1 794 1 812 1 840 1 856 1 896 1 900 1 940 1 944 1 954 1 958 2 982 1 996 1 602 1 607 1 618 1 622 1 625 1 626 1 692 1 700 1 724 1 738 1 751 1 755 1 784 1 814 1 815 1 817 1 829 1 849 1 860 1 867 1 881 1 902 1 907 1 929 1 943 1 964 1 998 1 1005 1 1009 1 1010 1 1020 1 
1 206 10 1 45 1 61 1 109 1 128 1 134 1 161 1 166 1 178 1 207 1 227 1 250 1 289 1 338 1 342 1 345 1 351 1 382 1 383 1 384 1 402 1 432 1 452 1 454 1 460 1 466 1 499 2 513 1 523 1 532 1 549 2 560 1 24 1 50 1 53 1 90 1 91 1 107 1 113 1 117 1 143 1 162 1 164 1 189 1 200 1 228 1 235 1 240 1 249 1 259 1 273 1 276 1 281 1 307 1 326 1 346 1 358 1 368 1 369 1 376 1 393 1 398 1 423 1 429 1 444 1 453 1 464 1 480 1 511 1 512 1 516 1 526 1 555 1 570 1 581 1 590 1 623 1 633 1 644 1 651 1 672 1 722 1 724 1 725 1 728 1 739 1 777 1 779 1 797 1 812 1 841 1 845 1 850 1 855 1 865 1 916 1 926 1 927 1 942 1 964 1 967 1 975 1 977 1 996 1 613 1 669 1 694 1 696 1 733 1 759 1 760 1 763 1 774 1 780 1 800 1 815 1 840 1 857 1 875 1 876 1 924 1 929 1 961 1 982 1 986 1 1026 1 1027 1 
1 212 2 1 17 1 73 1 91 1 105 1 115 1 116 1 120 1 218 1 228 1 232 1 235 1 239 1 266 2 299 1 338 1 355 1 384 1 395 1 403 1 422 1 469 1 478 1 539 1 583 1 584 1 592 1 23 1 29 1 53 1 56 1 84 1 136 1 151 1 168 1 172 1 186 1 209 1 220 1 222 1 240 1 252 1 256 1 264 1 284 1 297 1 310 1 347 1 409 1 434 1 450 1 475 1 496 1 499 1 517 1 522 1 531 1 542 1 554 1 557 1 606 1 635 1 643 1 668 1 738 1 740 1 754 1 758 1 778 2 786 1 800 1 809 1 817 1 846 1 857 1 927 1 975 1 984 1 600 1 611 1 654 1 671 1 700 1 707 1 733 1 746 1 748 1 751 1 753 1 797 1 798 1 806 1 816 1 849 1 864 1 873 1 897 1 905 1 922 1 929 1 940 1 948 1 957 1 974 1 978 1 979 1 1005 1 1016 1 1017 1 1021 1 1027 1 
1 210 54 1 108 1 125 1 131 1 142 1 174 1 194 1 201 1 232 1 245 1 247 1 270 1 274 1 293 1 300 1 318 2 331 1 366 1 387 1 402 1 413 1 417 1 423 1 441 1 468 1 471 1 473 1 486 1 499 1 546 1 549 1 567 1 574 1 593 1 8 1 27 1 28 1 31 1 33 1 41 1 60 1 106 1 107 1 126 1 130 1 139 1 151 1 225 1 230 1 231 1 250 1 268 1 269 1 297 1 302 1 312 1 325 1 329 1 339 1 344 1 362 1 399 1 424 1 445 1 451 1 460 1 481 1 510 1 529 1 534 1 535 1 563 1 591 1 599 1 605 1 606 1 621 1 634 1 657 1 660 1 732 1 741 1 751 1 786 1 803 1 831 1 841 1 926 1 948 1 957 1 962 1 963 1 969 1 979 1 989 1 990 1 1000 1 616 1 640 1 652 1 653 1 696 1 701 1 705 1 714 1 773 1 789 1 852 1 860 1 871 1 905 1 911 1 917 1 954 1 959 1 961 1 986 1 1010 1 1012 1 
1 216 15 1 60 2 63 1 77 1 90 1 127 1 183 1 197 1 232 1 276 1 283 1 327 1 352 1 360 1 392 1 398 1 418 1 425 1 431 1 459 1 469 1 504 1 530 1 531 1 535 1 558 1 568 1 6 1 18 1 22 1 34 1 39 1 40 1 43 1 48 1 64 1 76 1 107 1 118 1 135 1 141 1 146 1 149 1 166 1 167 1 169 1 177 1 180 1 220 1 221 1 235 1 249 1 303 1 326 1 362 1 372 1 375 1 395 1 403 1 421 1 430 1 443 1 464 1 465 1 473 1 489 1 493 1 506 1 532 1 576 1 584 1 617 1 624 1 635 1 638 1 639 1 668 1 691 1 755 1 773 1 784 1 786 2 788 1 799 1 801 2 808 1 839 1 863 2 943 1 955 1 1002 1 604 1 630 1 634 1 655 1 660 1 677 1 682 1 684 1 703 1 712 1 745 1 758 1 780 1 845 1 855 1 869 1 870 1 881 1 910 1 915 1 930 1 931 1 935 1 979 1 1004 1 1009 1 1027 1 
1 211 7 1 33 2 45 1 56 1 62 1 68 1 83 1 98 1 122 1 150 1 155 1 173 1 176 1 186 1 211 1 217 2 230 1 264 1 272 1 273 1 276 1 283 1 284 1 288 1 310 1 333 1 359 1 388 1 406 1 408 1 440 1 443 1 459 1 481 1 489 1 510 1 554 1 580 1 585 1 22 1 44 1 78 1 94 1 109 1 130 1 134 1 138 1 177 1 179 1 198 1 199 1 207 1 209 1 218 1 245 1 269 1 280 1 281 1 293 1 336 1 376 1 382 1 390 1 414 1 418 1 428 1 462 1 502 1 509 1 538 1 550 1 583 1 597 1 609 2 652 2 711 1 738 1 748 1 768 1 777 1 789 1 793 1 795 1 832 2 851 1 884 1 945 1 954 1 963 1 971 1 641 1 643 1 653 1 660 1 669 1 685 1 692 1 703 1 708 1 709 1 730 1 754 1 769 1 781 1 804 1 812 1 833 1 834 1 845 1 861 1 892 1 896 1 905 1 913 1 940 1 988 1 998 1 1011 1 1014 1 
1 210 2 1 12 1 26 1 84 1 85 1 104 1 116 1 149 1 150 1 168 1 214 1 235 1 267 1 280 1 288 2 290 1 311 1 318 1 323 1 336 1 400 1 409 1 418 1 419 1 459 1 463 1 483 1 498 1 499 1 514 1 534 1 535 1 549 1 570 1 574 1 55 1 59 1 119 1 121 1 123 1 135 1 148 1 157 1 165 1 166 1 169 1 176 1 217 1 238 1 239 1 260 1 281 1 293 1 297 1 339 1 365 1 404 1 416 1 446 1 455 1 501 1 505 1 558 1 565 1 568 1 582 1 591 1 638 1 639 1 662 1 675 1 696 1 718 1 720 1 730 1 762 1 770 1 783 1 796 1 819 1 828 1 832 1 868 1 877 1 895 1 908 1 909 1 911 1 914 1 960 1 962 1 974 1 980 1 992 1 993 2 622 1 641 1 680 1 687 1 808 1 814 1 818 1 824 1 834 1 838 1 896 1 917 1 921 1 963 1 988 1 1010 1 1013 1 
1 212 27 1 48 1 55 1 89 2 125 1 203 2 213 1 215 1 225 1 233 1 237 1 245 1 247 1 274 1 299 1 335 1 362 1 385 1 405 1 408 1 426 1 432 1 514 1 517 1 530 1 554 1 575 1 576 1 588 1 594 1 14 1 17 1 30 1 43 1 44 1 67 1 69 1 76 1 84 1 109 1 117 1 143 1 146 1 149 1 166 1 178 1 181 1 201 1 285 1 351 1 374 1 383 1 394 1 416 1 425 1 544 1 579 1 592 1 601 1 608 1 671 1 684 1 696 1 708 1 709 1 747 1 756 1 764 1 816 1 818 1 826 1 853 1 861 1 875 2 898 1 903 1 928 1 978 1 981 1 612 1 614 1 618 1 644 1 668 1 697 1 701 1 712 1 719 1 730 1 758 1 788 1 806 1 825 1 832 1 847 1 899 1 912 1 922 1 931 1 936 1 983 1 994 1 1003 1 1008 1 1014 1 1020 1 1025 1 
1 212 37 1 39 1 49 1 50 1 52 1 54 1 70 1 77 2 92 1 97 1 108 1 122 1 127 1 159 1 224 1 232 1 234 1 263 1 274 1 285 1 297 1 301 1 352 1 368 1 372 1 378 1 383 1 417 1 426 1 437 1 439 1 443 1 470 1 477 1 502 1 560 2 569 1 573 1 600 1 6 1 29 1 55 1 84 1 91 1 107 1 115 1 118 1 141 1 152 1 170 1 290 1 291 1 334 1 349 1 366 1 384 1 428 1 430 1 464 1 481 1 482 1 546 1 561 1 580 1 614 1 615 1 622 1 627 1 635 1 654 1 676 2 685 1 694 1 719 1 726 1 745 1 751 1 754 1 761 1 766 1 799 1 807 1 824 1 832 1 836 1 866 1 873 1 880 1 924 2 925 1 927 1 955 1 965 1 616 1 666 1 695 1 782 1 835 1 867 1 917 1 926 1 931 1 961 1 963 1 974 1 988 1 992 1 1005 1 1006 1 1009 1 1012 1 1023 1 
1 212 21 1 57 2 104 1 116 1 119 1 123 2 134 1 167 1 182 1 245 1 256 1 283 1 330 1 346 1 362 1 375 1 377 2 388 1 396 2 433 2 436 1 455 1 491 1 497 1 501 1 517 1 542 1 543 1 570 1 595 1 599 1 600 1 3 1 37 1 51 1 84 1 87 1 89 1 106 1 133 1 164 1 169 1 199 1 206 1 232 1 271 1 302 1 306 1 345 1 347 1 380 1 382 1 410 1 414 1 416 1 446 1 460 1 470 1 476 1 523 1 534 1 535 1 559 1 593 1 641 1 671 1 695 1 706 1 709 1 718 1 719 1 722 1 729 2 743 1 786 1 807 1 817 1 831 1 840 1 856 1 857 1 864 2 897 1 932 1 958 1 975 1 988 1 619 1 626 1 635 1 657 1 663 1 701 1 715 1 754 1 763 1 776 1 792 1 814 1 826 1 836 1 865 1 869 1 886 1 895 1 902 1 936 1 974 1 1006 1 1013 1 1019 1 1021 1 
1 205 2 1 10 1 18 1 60 1 65 1 79 1 105 2 110 1 127 1 138 1 164 1 192 1 195 1 197 2 212 1 239 1 250 1 258 1 259 1 296 1 319 1 347 1 369 1 382 1 384 1 389 1 448 1 451 1 455 1 465 1 479 1 517 2 554 1 573 1 582 1 591 1 8 1 25 1 36 1 45 1 52 1 57 1 123 1 135 1 140 1 154 1 202 1 221 1 226 1 242 1 266 1 299 1 312 1 332 1 376 1 387 1 405 1 412 1 418 1 438 1 442 1 446 1 491 1 524 1 538 1 549 1 579 1 597 1 610 1 640 1 656 1 714 1 750 1 756 1 792 1 806 1 816 1 817 1 825 1 838 1 851 1 890 1 899 1 903 1 944 1 615 1 632 1 642 1 729 1 748 1 811 1 821 1 834 1 846 1 879 1 938 1 947 1 952 1 967 1 
1 210 34 2 63 1 77 1 80 1 88 1 95 1 123 1 159 1 180 1 181 1 208 1 209 1 220 1 225 1 244 1 249 1 326 1 361 1 381 1 416 1 424 1 431 1 465 1 471 1 476 1 492 1 502 1 505 1 578 2 582 1 587 1 590 1 592 1 604 1 18 1 75 1 112 1 113 1 153 1 170 1 177 1 189 1 192 1 197 1 205 1 226 1 260 1 261 1 262 1 277 1 288 1 301 1 319 1 320 1 330 1 337 1 346 1 362 1 367 1 372 1 384 1 389 1 444 1 448 1 462 1 463 1 477 1 516 1 526 1 543 1 547 1 557 1 619 1 708 1 714 1 740 1 760 1 765 1 787 1 803 1 828 1 851 1 865 1 872 1 893 1 903 1 906 1 945 1 958 1 977 1 627 1 717 1 744 1 753 1 756 1 773 1 783 1 788 1 798 1 829 1 830 1 834 1 835 1 841 1 849 1 887 1 894 1 918 1 930 1 973 1 999 1 1008 1 1014 1 
1 213 27 1 32 1 76 1 111 1 126 1 147 1 165 1 172 2 194 1 199 1 226 1 227 1 249 1 277 1 286 1 318 1 365 1 391 1 402 1 410 1 418 1 427 1 432 1 451 1 474 1 476 1 493 1 496 1 556 1 567 1 576 1 578 1 588 1 594 1 602 2 16 1 47 1 56 1 66 1 100 1 109 1 150 1 203 1 204 1 255 1 259 1 263 1 272 1 298 1 316 1 343 1 349 1 367 1 370 1 380 1 383 1 414 1 416 1 424 1 445 1 449 1 459 1 477 1 479 1 482 1 490 1 498 1 504 1 537 1 554 1 637 1 642 1 650 1 680 1 693 1 733 1 740 1 773 1 798 2 829 1 839 1 846 1 851 1 854 1 856 1 873 1 891 1 949 1 953 1 955 1 967 1 997 1 615 1 620 1 638 1 651 1 674 1 678 1 749 1 767 1 768 1 789 1 792 1 830 1 841 1 884 1 901 1 956 1 966 1 968 1 987 1 992 1 1010 1 1011 1 1012 1 1013 1 1022 1 1023 1 
1 216 16 1 22 1 33 1 51 1 65 1 74 1 98 1 136 1 145 1 159 1 167 1 184 1 191 1 193 1 197 1 203 1 204 1 213 1 222 1 247 1 309 1 330 1 348 1 353 1 358 2 392 1 405 1 447 1 460 1 491 1 520 1 533 1 607 1 23 1 36 1 37 1 119 1 183 1 206 1 208 1 221 1 231 1 232 1 242 1 249 1 261 1 266 1 274 1 312 1 317 1 325 1 327 1 331 1 335 1 385 1 410 1 419 1 465 1 475 1 511 1 526 1 527 1 543 1 544 1 548 1 573 1 575 1 582 1 588 1 616 1 677 1 719 1 761 1 763 1 808 1 810 1 814 1 842 1 850 1 855 1 900 1 905 1 923 1 948 1 949 1 957 1 966 1 971 1 973 1 654 1 682 1 692 1 698 1 710 1 716 1 718 1 727 1 728 1 729 1 730 1 753 1 754 1 766 1 768 1 783 1 805 1 818 1 823 1 844 1 847 1 851 1 890 1 902 1 944 1 958 1 960 1 997 1 1003 1 1008 1 1012 1 1022 1 1025 1 1027 1 
1 207 30 1 79 1 92 2 94 1 111 1 130 1 145 1 151 1 176 1 178 1 196 1 203 1 210 1 212 1 228 1 271 1 309 1 322 1 369 1 371 1 377 1 382 1 436 1 464 1 494 1 495 1 508 1 517 1 536 1 537 1 545 1 546 1 558 1 567 1 577 1 590 1 591 1 593 1 594 1 595 1 2 1 24 1 50 1 56 1 57 1 128 1 136 1 137 1 153 1 161 1 204 1 216 1 273 1 307 1 308 1 316 1 346 1 360 1 406 1 412 1 418 1 433 1 463 1 477 1 526 1 544 1 549 1 553 1 589 1 599 1 615 1 622 1 631 1 632 1 651 1 660 1 668 1 676 1 680 1 685 1 695 1 699 1 707 1 717 1 762 1 784 1 794 1 796 1 821 2 825 1 849 1 871 1 883 1 897 1 900 1 916 1 938 1 963 1 983 1 616 1 626 1 633 1 645 1 669 1 736 1 766 1 789 1 803 1 817 1 867 1 877 1 910 1 949 1 971 1 976 1 979 1 989 1 997 1 1006 1 1020 1 
1 211 12 1 56 1 57 1 74 1 104 1 146 1 157 1 163 1 229 1 244 2 301 1 345 1 357 1 377 1 379 1 399 1 405 1 426 1 429 1 436 1 442 1 485 1 518 1 526 1 552 1 575 1 2 1 7 1 42 1 45 1 55 1 105 1 128 1 154 1 167 1 185 1 192 1 203 1 225 1 235 1 241 1 273 1 303 1 308 1 313 1 318 1 346 1 347 1 366 1 408 1 414 1 415 1 419 1 422 1 444 1 470 1 474 1 496 1 528 1 530 1 538 1 547 1 553 1 589 1 604 1 632 1 669 1 674 1 682 1 700 1 709 1 726 1 743 1 748 1 755 1 759 1 764 1 765 1 766 1 772 1 782 1 785 1 797 1 801 1 829 1 846 1 856 1 860 1 875 1 884 1 893 1 917 1 921 1 941 1 943 1 963 1 633 1 640 1 649 1 650 1 667 1 720 1 723 1 736 1 737 1 740 1 749 1 802 1 831 1 837 1 853 1 869 1 883 1 906 1 910 1 914 1 959 1 965 1 969 1 979 1 985 1 993 1 1006 1 1015 1 1022 1 1026 1 
1 212 28 1 44 1 52 1 68 1 69 1 77 1 85 1 127 1 134 2 142 1 148 1 152 1 158 1 168 1 174 1 187 1 202 1 271 1 277 1 295 1 309 1 312 1 326 1 337 1 345 1 347 1 400 1 403 1 419 2 431 1 513 1 551 1 552 1 595 1 597 1 2 1 16 1 25 1 27 1 33 1 50 1 70 1 81 1 91 1 97 1 167 1 169 1 220 1 221 1 275 1 286 1 297 1 302 1 349 1 351 1 364 1 458 1 474 1 495 1 526 1 528 1 536 1 539 1 550 1 598 1 634 1 647 1 666 1 683 1 689 1 700 1 728 1 758 1 763 1 770 1 795 1 824 1 834 1 837 1 843 2 850 1 857 1 862 1 898 1 899 1 914 1 926 1 932 1 990 1 620 1 633 1 636 1 672 1 677 1 678 1 721 1 724 1 725 1 789 1 799 1 811 1 818 1 831 1 858 1 863 1 877 1 895 1 897 1 913 1 920 1 955 1 960 1 981 1 1008 1 1012 1 1017 1 1022 1 1025 1 1026 1 
1 210 13 1 15 1 34 1 52 1 109 1 114 1 119 1 170 1 225 2 233 1 247 1 269 1 296 1 301 1 311 1 314 1 346 1 395 1 401 1 404 1 433 1 437 1 449 1 474 1 498 1 501 1 522 1 529 1 556 1 571 1 605 1 10 1 14 1 27 1 67 1 68 1 132 1 149 1 155 1 191 1 192 1 201 1 204 1 212 1 221 1 222 1 293 1 294 1 343 1 378 1 394 1 427 1 439 1 448 1 452 1 488 1 492 1 495 1 496 1 530 1 542 1 578 1 587 1 604 1 615 1 661 1 710 1 716 1 732 1 795 1 839 1 848 1 855 1 856 1 864 1 878 1 908 1 938 1 945 1 953 1 981 1 1001 1 617 1 626 1 706 1 728 1 737 1 747 1 769 1 779 1 786 1 790 1 820 1 834 1 866 1 874 1 891 1 895 1 899 1 918 1 930 1 951 1 954 1 972 1 999 1 1002 1 1007 1 1011 1 1021 1 1024 1 
1 212 14 1 24 1 47 1 73 1 92 1 133 1 151 1 153 1 235 1 237 1 285 1 290 1 318 1 370 1 390 1 414 1 424 1 427 1 434 1 448 2 473 1 489 1 497 1 508 1 541 1 547 1 590 1 605 1 611 1 614 1 22 1 25 1 34 1 81 1 84 1 102 1 109 1 135 1 168 1 178 1 185 1 205 1 214 1 231 1 259 1 287 1 288 1 312 1 337 1 341 1 360 1 405 1 408 1 417 1 459 1 468 1 471 1 474 1 484 1 593 1 607 1 609 1 627 1 648 1 654 1 670 1 675 2 697 1 764 1 774 1 799 1 811 1 843 1 846 1 856 1 885 1 914 1 915 1 929 1 973 1 981 1 621 1 657 1 687 1 699 1 709 1 718 1 726 1 733 1 734 1 735 1 757 1 769 1 775 1 793 1 803 1 824 1 845 1 861 1 868 1 869 1 923 1 946 1 964 1 975 1 990 1 998 1 1004 1 1020 1 1021 1 1022 1 1023 1 1027 1 
1 212 5 1 12 1 78 2 114 1 126 1 138 1 139 1 141 1 143 1 148 1 157 2 175 2 224 1 230 1 241 1 246 1 248 1 298 1 335 1 372 1 373 1 377 2 411 1 436 2 438 1 446 1 451 1 483 1 520 2 524 2 532 1 569 1 571 1 610 1 68 1 118 1 120 1 123 1 125 1 152 1 165 1 188 1 239 1 264 1 275 1 276 1 301 1 310 1 311 1 339 1 364 1 389 1 423 1 431 1 487 1 506 1 543 1 559 1 588 1 600 1 605 1 611 1 630 1 636 1 660 1 666 1 687 1 709 1 713 1 722 1 727 1 742 2 749 1 768 1 815 1 847 1 871 1 896 1 898 1 906 1 926 1 956 2 977 1 996 1 639 1 668 1 671 1 696 1 697 1 715 1 756 1 780 1 791 1 795 1 797 1 799 1 807 1 821 1 825 1 827 1 838 1 840 1 846 1 848 1 883 1 944 1 975 1 979 1 1003 1 1004 1 1011 1 1012 1 1021 1 1023 1 
1 211 8 1 38 1 46 1 64 1 71 1 75 1 86 1 88 1 93 1 125 1 134 1 143 1 145 1 146 1 150 1 157 1 188 2 193 1 206 1 208 1 216 1 219 1 240 1 252 1 265 1 267 1 286 1 298 2 322 1 387 1 413 1 455 1 459 1 471 1 533 1 534 1 540 1 550 1 597 1 601 1 9 1 15 1 18 1 26 1 29 1 32 1 117 1 168 1 199 1 224 1 238 1 243 1 258 1 259 1 268 1 276 1 284 1 312 1 344 1 379 1 384 1 392 1 406 1 411 1 419 1 436 1 496 1 530 1 536 1 543 1 575 1 585 1 614 1 627 1 660 1 665 1 679 1 701 1 711 2 721 1 748 1 767 1 779 1 798 1 800 1 820 1 833 1 846 1 848 1 937 1 955 1 990 1 628 1 633 1 650 1 654 1 692 1 714 1 739 1 762 1 773 1 789 1 817 1 830 1 854 1 868 1 887 1 928 1 944 1 963 1 975 1 979 1 1002 1 1004 1 1007 1 
1 206 5 1 15 1 20 1 29 1 30 1 31 1 38 2 49 1 61 1 80 1 89 1 96 1 99 1 127 1 137 1 160 1 168 1 171 1 180 1 207 2 224 1 232 1 254 1 269 1 272 1 284 1 300 1 306 1 331 1 333 1 334 1 382 1 388 1 390 2 408 1 413 1 440 1 453 1 463 1 475 1 483 1 488 1 493 2 494 1 495 1 500 1 521 1 532 1 547 1 43 1 82 1 95 1 111 1 125 1 143 1 146 1 164 1 197 1 225 1 227 1 243 1 244 1 250 1 262 1 268 1 276 1 280 1 289 1 349 1 367 1 424 1 471 1 476 1 503 1 509 1 510 1 552 1 569 1 581 1 597 1 604 1 632 1 636 1 647 1 655 1 659 1 676 1 702 1 712 1 726 1 737 1 739 1 753 1 780 1 841 1 847 1 857 1 873 1 880 1 885 1 903 1 916 1 923 1 942 1 949 1 952 1 953 1 985 1 988 1 640 1 646 1 652 1 656 1 706 1 708 1 743 1 752 1 763 1 818 1 828 1 846 1 898 1 914 1 919 1 944 1 960 1 964 1 966 1 967 1 980 1 1003 1 
1 205 27 1 51 1 68 1 79 1 95 1 168 1 175 2 180 1 189 1 195 1 234 2 255 1 277 1 325 2 334 1 343 2 378 1 394 1 396 1 410 1 472 1 517 1 550 1 561 1 608 1 131 1 186 1 197 1 213 1 264 1 267 1 279 1 282 1 287 1 307 1 333 1 351 1 373 1 421 1 426 1 431 1 435 1 450 1 451 1 464 1 478 1 520 1 554 1 556 1 566 1 569 1 590 1 606 1 633 1 654 1 670 2 705 2 719 1 720 1 724 1 779 1 798 1 856 1 858 1 870 1 872 1 881 1 886 1 942 1 946 1 967 1 994 1 997 1 998 1 640 1 646 1 662 1 675 1 695 1 714 1 725 1 755 1 756 1 760 1 781 1 784 1 785 1 791 1 792 1 793 1 800 1 823 1 831 1 848 1 849 1 857 1 891 1 909 1 920 1 921 1 929 1 945 1 950 1 955 1 996 1 1017 1 1022 1 1024 1 
1 208 3 1 40 1 46 1 49 1 70 1 87 1 101 1 119 1 121 1 138 1 140 1 169 1 174 1 218 1 232 1 263 1 284 1 332 1 342 1 349 1 374 1 382 1 414 1 415 1 418 1 449 1 455 1 463 1 481 1 483 1 486 1 508 1 514 1 539 1 566 1 16 1 45 1 56 1 78 1 130 1 137 1 166 1 181 1 213 1 217 1 223 1 234 1 244 1 254 1 255 1 262 1 264 1 293 1 297 1 309 1 314 1 315 1 324 1 362 1 419 1 423 1 436 1 472 1 499 1 515 1 548 1 550 1 556 1 609 1 613 1 622 1 639 1 647 1 667 1 677 1 686 1 707 1 723 1 729 1 796 1 868 1 871 1 919 1 926 1 934 1 936 1 949 1 964 1 986 1 989 1 998 1 630 1 641 1 645 1 666 1 683 1 700 1 725 1 755 1 760 1 762 1 772 1 800 1 803 1 867 1 869 1 908 1 925 1 937 1 942 1 945 1 950 1 959 1 968 1 976 1 993 1 1005 1 1025 1 
1 205 48 1 89 1 95 1 98 1 116 1 121 1 130 1 148 1 155 1 162 2 189 2 205 1 233 1 249 1 267 1 297 2 315 1 322 1 325 1 328 1 337 1 342 1 386 1 418 1 443 1 466 1 468 1 483 1 495 1 501 2 507 1 515 1 540 1 565 1 572 1 573 1 574 1 584 1 600 1 6 1 29 1 31 1 59 1 67 1 70 1 105 1 156 1 168 1 185 1 197 1 274 1 275 1 291 1 313 1 321 1 375 1 395 1 399 1 400 1 411 1 438 1 457 1 482 1 534 1 582 1 589 1 615 1 621 1 621 1 637 1 642 2 693 1 701 1 721 2 741 1 745 1 753 2 769 1 776 1 793 1 839 1 869 1 883 1 914 1 931 2 933 1 941 1 942 1 964 1 969 1 691 1 696 1 768 1 775 1 844 1 855 1 857 1 871 1 918 1 940 1 946 1 974 1 976 1 985 1 
1 214 75 1 80 1 109 1 128 1 144 1 148 1 204 1 245 1 252 1 273 1 278 1 282 1 289 1 290 1 324 1 326 1 342 1 344 1 369 1 383 1 399 1 405 1 409 1 433 1 453 1 483 1 484 1 505 1 507 1 552 1 569 1 571 1 580 1 592 1 594 1 605 1 611 1 620 1 16 1 73 1 83 1 93 1 98 1 140 1 152 1 174 1 177 1 186 1 232 1 239 1 267 1 270 1 304 1 315 1 343 1 356 1 362 1 425 1 441 1 489 1 490 1 500 1 520 1 521 1 528 1 538 1 546 1 554 1 574 1 584 1 597 1 603 1 651 1 657 1 728 1 747 1 771 1 782 1 785 1 802 1 835 1 888 1 898 2 901 1 920 1 926 1 958 2 993 1 997 1 624 1 642 1 653 1 661 1 672 1 700 1 722 1 725 1 729 1 738 1 778 1 792 1 798 1 820 1 828 1 847 1 874 1 935 1 937 1 971 1 974 1 980 1 1004 1 1005 1 1009 1 1011 1 1014 1 1021 1 
1 213 20 1 21 1 23 1 54 1 78 1 87 1 114 1 132 1 152 1 156 1 185 1 220 1 233 1 272 1 282 1 290 1 297 1 328 1 335 1 355 1 359 2 362 1 375 1 386 1 392 1 408 1 431 1 489 1 520 1 537 1 550 1 555 1 563 1 564 1 565 1 588 1 595 1 598 1 12 1 19 1 26 1 27 1 38 1 44 1 50 1 53 1 75 1 111 1 121 1 125 1 127 1 160 1 165 1 168 1 174 1 235 1 257 1 261 1 332 1 372 1 376 1 385 1 396 1 412 1 435 1 438 1 451 1 455 1 476 1 508 1 513 1 521 1 535 1 586 1 591 1 628 1 643 1 687 1 688 1 737 1 742 1 766 1 775 1 788 1 823 2 847 1 863 1 888 1 922 1 927 1 948 1 974 2 990 1 1000 1 642 1 656 1 694 1 709 1 712 1 736 1 740 1 744 1 749 1 752 1 758 1 782 1 789 1 795 1 806 1 816 1 819 1 850 1 895 1 904 1 936 1 949 1 953 1 962 1 977 1 1008 1 1015 1 1019 1 
1 211 62 2 66 1 73 1 74 1 83 1 84 1 126 1 132 1 166 2 170 1 206 1 243 1 256 1 262 1 272 2 278 1 291 1 304 1 328 1 360 1 366 1 368 1 404 1 408 1 463 1 476 1 478 1 556 1 587 1 597 2 601 1 1 1 40 1 47 1 99 1 109 1 119 1 128 1 130 1 141 1 154 1 155 1 158 1 162 1 176 1 178 1 182 1 187 1 191 1 195 1 216 1 259 1 267 1 301 1 317 1 323 1 324 1 359 1 419 1 439 1 443 1 459 1 489 1 505 1 524 1 527 1 528 1 549 1 555 1 557 1 564 1 622 1 639 1 685 1 709 1 715 1 742 1 755 1 775 1 849 1 861 1 903 1 932 1 941 1 963 1 970 1 978 1 980 1 627 1 634 1 635 1 702 1 703 1 714 1 721 1 738 1 758 1 765 1 789 1 796 1 805 1 850 1 857 1 894 1 914 1 930 1 933 1 988 1 997 1 998 1 1021 1 1027 1 
1 211 19 2 20 1 32 1 52 2 70 1 138 1 160 1 167 1 172 1 216 1 239 1 261 1 317 1 319 1 324 1 331 1 363 1 390 1 400 1 414 1 462 1 517 1 519 1 533 2 554 1 566 1 578 1 15 1 35 1 36 1 50 1 73 1 78 1 92 1 130 1 141 1 174 1 186 1 202 1 210 1 222 1 224 1 238 1 302 1 338 1 359 1 370 1 374 1 375 1 397 1 398 1 407 1 419 1 421 1 425 1 439 1 500 1 507 1 548 1 590 1 591 1 597 1 644 1 651 1 652 1 669 1 698 1 742 1 776 1 785 1 871 1 888 1 889 1 894 1 925 1 943 1 950 1 977 1 993 1 647 1 656 1 670 1 675 1 694 1 696 1 697 1 719 1 731 1 749 1 754 1 757 1 774 1 778 1 798 1 801 1 823 1 829 1 836 1 840 1 849 1 850 1 855 1 857 1 863 1 881 1 906 1 907 1 909 1 911 1 929 1 961 1 962 1 971 1 986 1 991 1 998 1 1008 1 1017 1 1018 1 
1 206 22 2 56 1 69 1 81 1 99 1 160 1 176 1 200 1 212 1 224 1 255 1 276 1 282 2 288 1 291 1 292 1 325 1 326 1 335 1 391 1 405 1 423 1 441 1 443 1 450 1 482 1 486 1 497 1 512 1 513 1 514 1 520 1 527 1 530 1 566 1 575 1 589 1 593 1 24 1 25 1 45 1 60 1 61 1 62 1 64 1 85 1 132 1 208 1 232 1 236 1 238 1 246 1 275 1 277 1 284 1 296 1 307 1 323 1 340 1 356 1 367 1 393 1 406 1 407 1 408 1 427 1 431 1 462 1 506 1 543 1 555 1 563 1 570 1 573 1 597 1 606 1 611 1 614 1 632 1 646 1 651 1 667 1 675 1 677 1 697 1 701 1 715 1 718 1 724 1 729 1 742 1 751 1 767 1 777 1 794 1 799 1 821 2 839 2 874 1 898 1 929 1 939 1 968 1 984 1 650 1 671 1 672 1 685 1 707 1 708 1 723 1 738 1 748 1 753 1 779 1 780 1 785 1 826 1 833 1 859 1 907 1 917 1 965 1 981 1 1014 1 1023 1 
1 212 16 1 19 1 33 1 52 1 85 1 121 1 133 1 160 1 164 2 172 1 179 1 197 1 210 1 229 1 230 1 234 1 249 1 259 1 277 2 342 1 350 1 359 1 369 1 376 1 380 1 394 1 401 1 429 1 431 1 432 1 458 1 476 1 480 1 481 1 487 1 511 1 539 1 541 1 564 1 571 1 578 1 590 1 605 1 615 1 617 1 9 1 49 1 63 1 94 1 104 1 110 1 151 1 161 1 183 1 190 1 192 1 195 1 211 1 245 1 269 1 280 1 284 1 297 1 301 1 308 1 339 1 347 1 357 1 383 1 423 1 430 1 433 1 466 1 566 1 586 1 591 1 596 1 608 1 624 1 633 1 644 1 653 1 668 1 700 1 712 1 756 1 765 1 784 1 788 1 790 1 792 1 821 1 830 1 852 1 874 1 941 1 950 1 989 1 999 1 658 1 660 1 667 1 686 1 707 1 719 1 782 1 819 1 823 1 832 1 840 1 845 1 878 1 882 1 884 1 898 1 912 1 943 1 946 1 962 1 971 1 996 1 1005 1 1008 1 
1 206 7 1 28 1 35 1 38 1 112 1 132 1 136 1 152 1 161 1 188 1 192 1 210 2 234 1 288 1 314 1 326 1 358 1 412 1 425 1 445 2 448 1 462 1 470 1 479 1 485 1 489 1 500 1 510 1 512 1 514 1 562 1 567 1 574 1 623 1 19 1 44 1 64 1 86 1 96 1 98 1 129 1 142 1 149 1 158 1 159 1 169 1 171 1 179 1 185 1 217 1 229 1 253 1 263 1 276 1 281 1 301 1 304 1 322 1 341 1 343 1 355 1 363 1 365 1 379 1 398 1 420 1 506 1 518 1 528 1 536 1 549 1 566 1 571 1 576 1 617 1 629 1 633 1 642 1 661 1 675 1 693 1 717 1 733 1 738 1 745 2 765 1 792 1 793 1 794 2 818 1 841 1 847 1 856 1 895 1 911 1 941 1 969 2 982 1 666 1 681 1 695 1 705 1 716 1 772 1 785 1 806 1 807 1 808 1 825 1 827 1 869 1 879 1 888 1 890 1 908 1 909 1 922 1 937 1 990 1 1004 1 1018 1 
1 207 15 1 74 1 81 1 93 1 164 1 174 1 176 1 202 1 203 1 212 2 220 1 226 1 235 1 239 1 296 1 302 1 308 1 321 1 327 2 362 1 380 1 431 1 441 1 468 1 487 2 495 1 501 1 505 1 529 1 546 1 550 1 557 1 564 1 577 1 628 1 23 1 39 1 64 1 87 1 104 1 134 1 154 1 157 1 205 1 215 1 228 1 237 1 295 1 313 1 315 1 317 1 320 1 328 1 358 1 382 1 398 1 411 1 439 1 458 1 484 1 486 1 542 1 584 1 591 1 635 1 636 1 648 1 657 1 678 1 716 1 743 1 759 1 765 1 768 1 772 1 775 1 828 2 830 1 873 1 875 1 887 2 936 1 953 1 964 1 665 1 666 1 718 1 727 1 738 1 749 1 758 1 761 1 789 1 806 1 834 1 847 1 851 1 866 1 868 1 898 1 899 1 909 1 940 1 952 1 977 1 996 1 1013 1 1017 1 1023 1 
1 210 7 1 39 1 47 1 67 1 76 1 102 1 114 1 120 1 170 1 174 1 204 1 228 1 231 1 236 1 242 1 262 1 288 1 326 1 378 1 384 1 403 2 409 1 425 1 440 1 441 2 476 1 487 1 492 1 500 1 502 1 515 1 528 1 529 1 544 1 552 1 572 1 576 1 584 1 616 1 36 1 37 1 54 1 63 1 86 1 122 1 134 1 151 1 161 1 171 1 177 1 210 1 221 1 223 1 260 1 277 1 284 1 324 1 367 1 376 1 379 1 381 1 390 1 434 1 463 1 486 1 514 1 522 1 527 1 559 1 577 1 601 1 620 1 638 1 640 1 661 1 716 1 726 1 730 1 747 1 785 1 796 2 809 1 813 1 899 1 907 1 954 1 959 1 967 1 986 1 1001 1 647 1 660 1 689 1 714 1 715 1 764 1 765 1 772 1 773 1 776 1 781 1 789 1 791 1 795 1 799 1 837 1 917 1 931 1 941 1 951 1 988 1 1017 1 1022 1 
1 207 12 1 16 1 37 1 39 1 70 1 97 1 111 1 122 1 155 1 173 1 200 1 229 1 268 1 276 1 312 1 327 1 351 1 365 1 378 1 381 1 398 1 401 1 402 1 405 1 406 1 428 1 441 1 443 1 454 1 458 1 470 1 489 1 498 1 529 1 534 1 550 1 573 1 595 1 611 1 31 1 32 1 48 1 86 1 95 1 112 1 121 1 130 1 145 1 157 1 160 1 163 1 180 1 182 1 247 1 249 1 257 1 260 1 264 1 273 1 282 1 289 1 294 1 357 1 362 1 371 1 389 1 403 1 411 1 415 1 439 1 460 1 487 1 504 1 508 1 520 1 535 1 541 1 545 1 574 1 637 1 648 1 657 1 659 1 679 1 688 1 691 1 710 1 736 1 762 1 774 1 785 1 830 1 848 1 860 1 864 1 869 1 909 2 914 1 991 1 652 1 698 1 699 1 712 1 720 1 787 1 805 1 837 1 871 1 891 1 892 1 933 1 952 1 957 1 970 1 1006 1 1014 1 1024 1 
1 210 1 1 27 1 38 1 60 1 121 1 164 1 174 1 192 1 219 1 241 1 243 1 248 1 289 1 306 1 331 1 388 1 410 1 412 1 463 1 482 1 487 1 515 1 541 1 577 1 594 1 611 1 612 1 618 1 626 1 6 1 11 1 18 1 21 1 54 1 96 1 99 1 101 1 109 1 129 1 140 1 190 1 204 1 211 1 213 1 218 1 236 1 250 1 277 1 290 1 297 1 304 1 326 1 329 1 357 1 359 1 369 1 376 1 390 1 429 1 458 1 471 1 486 1 509 1 512 1 536 1 565 1 579 1 585 1 587 1 592 1 607 1 635 1 651 1 661 1 663 2 670 1 728 1 737 1 744 1 746 1 751 1 755 1 768 1 769 1 771 1 774 1 778 1 794 1 807 1 815 1 869 1 870 1 878 1 890 1 909 1 915 1 945 1 638 1 667 1 674 1 694 1 696 1 698 1 707 1 731 1 758 1 781 1 806 1 841 1 848 1 857 1 865 1 886 1 892 1 921 1 933 1 957 1 1014 1 1021 1 
1 208 4 1 15 1 20 1 24 1 32 1 37 1 62 1 68 1 86 1 90 1 103 1 146 1 167 1 214 1 219 1 225 1 247 1 250 1 253 1 264 1 272 1 290 1 302 1 331 1 347 1 357 1 366 1 383 1 388 1 423 1 431 1 433 1 465 1 473 1 475 1 483 1 537 1 541 2 544 2 556 1 566 1 597 1 598 1 619 1 627 1 628 1 3 1 25 1 83 1 93 1 135 1 165 1 170 1 174 1 192 1 194 1 201 1 202 1 238 1 242 1 262 1 299 1 339 1 342 1 354 1 365 1 367 1 385 1 394 1 396 1 425 1 436 1 443 1 454 1 492 1 493 1 516 1 546 1 552 1 561 1 586 1 611 1 612 1 613 1 617 1 695 1 699 1 706 1 709 1 711 1 718 1 730 1 758 1 769 1 831 1 843 1 859 1 863 1 867 1 876 1 894 1 928 1 935 1 956 1 963 1 973 1 788 1 806 1 840 1 846 1 877 1 887 1 938 1 947 1 995 1 999 1 1007 1 
1 206 16 1 56 1 59 1 60 1 67 1 74 1 77 1 84 1 92 2 97 1 102 1 187 1 212 1 273 1 279 1 285 1 287 2 304 1 317 1 321 1 323 2 329 2 337 1 383 1 464 1 554 1 558 1 564 1 569 1 572 1 577 1 586 1 600 1 613 1 35 1 38 1 58 1 70 1 78 1 114 1 121 1 125 1 131 1 159 1 162 1 230 1 266 1 282 1 290 1 293 1 342 1 345 1 362 1 406 1 423 1 426 1 428 1 446 1 467 1 478 1 521 1 534 1 538 1 544 1 546 1 578 1 579 1 595 1 601 1 624 1 640 1 665 1 707 1 729 2 747 1 769 1 841 1 862 1 870 1 881 1 888 1 889 1 896 1 918 1 930 1 965 1 976 1 635 1 650 1 704 1 710 1 755 1 803 1 804 1 821 1 824 1 833 1 855 1 883 1 916 1 940 1 941 1 945 1 987 1 1006 1 1009 1 
1 209 9 1 28 1 33 1 37 1 43 1 198 1 225 1 279 1 285 1 298 1 299 1 304 1 311 1 314 1 315 1 335 1 376 1 385 1 410 1 467 1 474 1 475 1 503 1 533 1 536 1 544 1 564 1 567 1 576 1 587 1 599 1 601 1 605 1 629 1 632 1 10 1 14 1 46 1 106 1 154 1 165 1 203 1 241 1 252 1 296 1 305 1 310 1 356 1 369 1 372 1 379 1 441 1 444 1 456 1 483 1 558 1 581 1 589 1 591 1 606 1 624 1 634 1 643 1 697 1 701 1 723 1 746 1 751 1 759 1 763 1 825 1 871 1 873 1 882 1 887 2 928 1 933 1 976 1 978 1 979 1 645 1 650 1 669 1 676 1 677 1 679 1 705 1 707 1 708 1 736 1 755 1 782 1 790 1 792 1 813 1 820 1 827 1 860 1 869 1 890 1 916 1 919 1 920 1 926 1 935 1 957 1 965 1 967 1 997 1 1007 1 1016 1 1023 1 1024 1 
1 213 16 2 22 1 24 1 29 1 40 1 46 1 50 1 51 1 62 1 64 1 78 1 105 1 107 2 136 1 138 1 145 1 157 1 160 1 193 2 201 1 231 1 232 1 233 1 263 1 286 1 328 1 343 1 372 1 380 1 391 1 394 1 430 1 433 1 537 1 547 1 557 2 564 1 570 1 576 1 596 1 616 1 618 1 629 1 35 1 38 1 96 1 98 1 110 1 113 1 153 1 154 1 159 1 179 1 225 1 254 1 265 1 296 1 309 1 325 1 369 1 408 1 443 1 476 1 479 1 480 1 542 1 550 1 567 1 575 1 613 1 671 1 672 1 681 1 684 1 693 1 707 2 710 1 719 1 744 1 779 1 781 1 784 1 788 1 791 1 801 2 868 1 877 1 953 1 969 1 982 1 984 2 991 2 997 1 1001 1 665 1 682 1 705 1 722 1 739 1 745 1 761 1 766 1 773 1 815 1 880 1 917 1 933 1 958 1 975 1 980 1 988 1 1006 1 1019 1 1021 1 1026 1 
1 206 4 1 10 2 38 1 57 1 62 1 84 1 90 1 112 1 118 1 126 1 133 1 144 1 171 1 215 1 265 1 266 1 294 1 316 1 319 1 322 1 338 1 347 2 379 1 395 1 399 1 417 2 444 2 450 1 489 1 493 1 496 1 502 1 522 1 527 1 546 1 562 1 580 1 609 1 621 1 631 1 34 1 46 1 65 1 74 1 96 1 149 1 166 1 176 1 183 1 209 1 211 1 254 1 259 1 274 1 275 1 277 1 299 1 323 1 355 1 363 1 373 1 429 1 442 1 449 1 454 1 476 1 515 1 532 1 557 1 577 1 578 1 579 1 590 1 593 1 644 1 660 1 682 1 687 1 714 1 720 1 772 1 804 1 809 1 854 1 858 1 915 1 920 1 928 1 955 1 1002 1 666 1 669 1 700 1 703 1 706 1 722 1 725 1 821 1 826 1 871 1 872 1 890 1 891 1 908 1 940 1 976 1 994 1 1001 1 1015 1 1016 1 
1 208 7 1 31 1 32 1 61 1 83 1 85 1 144 1 171 1 172 1 175 1 201 1 204 1 251 1 268 1 272 1 277 1 290 1 301 1 323 1 330 1 338 1 358 1 375 1 395 1 401 1 410 1 425 1 452 1 471 1 484 1 489 1 499 1 531 2 544 1 558 1 562 1 566 1 597 1 601 1 603 1 630 1 1 1 9 1 41 1 106 1 208 1 243 1 253 1 282 1 292 1 357 1 365 1 387 1 389 1 393 1 464 1 479 1 498 1 509 1 518 1 550 1 594 1 609 1 632 1 643 1 651 1 670 1 684 1 749 1 757 1 779 1 820 1 831 1 839 1 842 1 852 1 853 1 962 1 965 1 644 1 645 1 664 1 667 1 687 1 696 1 739 1 759 1 767 1 781 1 796 1 809 1 819 1 827 1 851 1 881 1 885 1 904 1 909 1 915 1 964 1 971 1 1009 1 1026 1 
1 213 6 1 14 1 16 1 38 1 53 1 72 1 101 1 109 1 110 1 136 1 145 1 167 1 195 2 234 1 258 1 267 1 273 1 276 1 277 1 291 1 302 1 305 1 318 1 332 1 348 2 408 1 413 1 424 1 456 1 487 1 495 1 555 1 567 2 601 1 603 1 620 1 624 1 31 1 40 1 47 1 50 1 66 1 74 1 87 1 148 1 192 1 194 1 244 1 246 1 331 1 337 1 365 1 470 1 475 1 483 1 525 1 526 1 559 1 575 1 592 1 616 1 657 2 667 1 687 1 698 2 702 1 706 1 742 1 753 1 757 1 771 2 795 2 800 1 804 1 815 1 833 1 844 1 865 1 889 1 899 1 937 1 945 1 969 1 651 1 662 1 671 1 672 1 679 1 722 1 728 1 744 1 780 1 818 1 825 1 826 1 828 1 830 1 836 1 862 1 888 1 940 1 955 1 970 1 985 1 992 1 997 1 1004 1 1007 1 1010 1 1022 1 1024 1 1027 1 
1 210 4 2 57 1 68 1 72 1 81 1 88 1 103 2 108 1 130 1 132 1 136 1 144 1 162 1 192 1 197 1 237 1 253 1 261 1 264 1 291 1 299 1 310 1 346 1 365 1 366 1 410 1 416 1 492 1 510 1 514 1 528 1 575 1 576 1 581 1 585 1 597 1 607 1 630 1 634 1 12 1 15 1 31 1 55 1 62 1 73 1 102 1 125 1 134 1 155 1 178 1 203 1 222 1 225 1 244 1 257 1 270 1 284 1 314 1 318 1 342 1 356 1 359 1 372 1 395 1 444 1 488 1 552 1 560 1 595 1 600 1 612 1 618 1 619 1 647 1 657 1 672 1 679 1 715 2 719 1 732 1 750 1 764 1 766 2 784 1 791 2 806 1 822 1 832 1 847 1 848 1 855 1 919 1 927 1 957 1 1002 1 656 1 661 1 698 1 730 1 760 1 779 1 835 1 868 1 881 1 887 1 895 1 903 1 905 1 988 1 1000 1 1011 1 1024 1 
1 207 2 1 11 1 24 1 56 1 58 1 72 1 79 1 87 1 89 1 93 1 138 1 154 1 172 1 181 1 209 1 214 1 225 1 244 1 254 1 268 2 301 1 317 1 367 1 380 1 396 1 406 1 455 1 469 2 471 1 474 1 478 1 481 1 489 2 506 1 573 1 586 1 606 1 33 1 38 1 41 1 46 1 50 1 74 1 98 1 99 1 113 1 117 1 175 1 182 1 185 1 189 1 215 1 245 1 250 1 253 1 288 1 290 1 327 1 328 1 344 1 356 1 358 1 381 1 387 1 401 1 423 1 451 1 457 1 487 1 516 1 555 1 602 1 603 1 620 1 641 1 641 1 655 1 657 1 663 1 685 1 697 1 704 1 709 1 726 1 744 2 747 1 755 2 758 1 771 1 805 1 831 1 847 1 876 1 893 1 948 1 957 1 976 1 984 1 1000 1 647 1 648 1 712 1 715 1 729 1 733 1 735 1 741 1 760 1 776 1 800 1 811 1 852 1 856 1 858 1 869 1 874 1 879 1 886 1 943 1 947 1 953 1 959 1 983 1 1009 1 1014 1 1023 1 
1 211 1 1 8 1 27 2 40 2 41 1 52 1 73 1 79 1 88 1 90 1 103 1 116 1 120 1 130 1 132 1 152 1 173 1 174 1 178 1 185 1 186 1 230 1 244 1 245 1 247 1 252 1 269 1 284 1 287 1 341 1 414 1 423 1 431 1 448 1 449 1 479 1 488 1 518 1 522 1 535 1 538 1 553 1 576 1 580 1 609 1 621 2 628 1 19 1 35 1 75 1 93 1 97 1 108 1 114 1 133 1 169 1 203 1 240 1 246 1 248 1 250 1 254 1 264 1 282 1 302 1 330 1 334 1 357 1 362 1 368 1 371 1 378 1 394 1 397 1 401 1 444 1 507 1 536 1 567 1 596 1 607 1 622 1 623 1 661 1 662 1 670 1 672 1 683 1 684 1 727 2 772 1 790 1 808 1 811 1 833 1 843 1 861 1 893 1 895 1 903 1 904 1 919 1 923 1 975 1 979 1 650 1 654 1 659 1 671 1 673 1 714 1 722 1 730 1 745 1 809 1 824 1 840 1 907 1 935 1 938 1 952 1 970 1 985 1 1007 1 1021 1 1026 1 
1 208 3 1 27 1 30 1 46 1 80 2 105 1 127 1 155 1 185 1 225 1 257 1 287 1 321 1 322 1 332 1 341 1 353 1 368 1 374 1 400 1 420 1 433 2 469 1 479 1 485 1 506 1 523 1 527 2 555 1 584 1 599 1 623 1 635 1 638 1 7 1 57 1 59 1 95 1 148 1 184 1 188 1 192 1 239 1 252 1 286 1 317 1 320 1 336 1 339 1 342 1 345 1 366 1 391 1 398 1 445 1 458 1 474 1 477 1 489 1 491 1 492 1 501 1 539 1 556 1 573 1 589 1 602 1 683 1 696 2 721 1 730 1 748 1 771 2 789 1 820 1 826 1 840 1 864 1 866 1 871 1 881 1 889 1 894 1 926 1 967 1 969 1 976 2 979 1 646 1 687 1 702 1 720 1 734 1 756 1 784 1 791 1 800 1 838 1 884 1 892 1 893 1 923 1 925 1 944 1 964 1 991 1 994 1 1018 1 1026 1 
1 208 8 1 14 1 17 1 31 1 97 1 108 1 112 1 153 1 161 1 163 1 187 1 198 1 237 1 292 1 295 2 299 1 301 1 303 1 320 1 325 1 345 1 377 1 421 1 450 1 484 1 525 1 538 1 544 1 587 1 598 1 625 1 627 1 637 1 10 1 22 1 33 1 38 1 43 1 51 1 56 1 60 1 109 1 110 1 151 1 200 1 219 1 231 1 254 1 263 1 285 1 290 1 298 1 307 1 344 1 351 1 358 1 398 1 409 1 440 1 445 1 476 1 485 1 502 1 508 1 518 1 522 1 536 1 549 1 550 1 604 1 638 1 645 1 663 1 682 1 693 1 694 1 695 1 699 1 739 1 767 1 770 1 780 1 806 1 810 1 822 1 823 1 829 1 831 1 868 1 876 1 906 1 907 1 926 1 933 1 949 1 963 1 969 1 672 1 684 1 702 1 712 1 756 1 781 1 782 1 794 1 795 1 858 1 915 1 953 1 966 1 974 1 978 1 1002 1 1004 1 1012 1 1022 1 1027 1 
1 209 27 1 48 1 50 1 78 1 146 1 178 1 182 1 243 1 244 1 255 1 256 1 276 1 286 1 289 1 302 1 311 1 366 1 373 1 376 1 383 1 385 1 425 1 430 1 434 1 441 1 455 1 504 1 517 1 577 1 644 1 9 1 20 1 26 1 29 1 36 1 51 1 80 1 84 1 91 1 114 1 118 1 124 1 134 1 142 1 147 1 149 1 165 1 177 1 180 1 204 1 238 1 241 1 246 1 251 1 257 1 279 1 304 1 307 1 314 1 359 1 365 1 395 1 440 1 446 1 454 1 456 1 461 1 469 1 477 1 482 1 542 1 579 1 581 1 611 1 620 1 635 1 638 1 647 1 654 1 690 1 698 1 706 1 709 1 776 1 781 2 782 1 808 1 821 2 845 1 849 1 858 2 871 1 884 1 935 1 956 1 989 1 992 1 1001 1 657 1 661 1 674 1 695 1 731 1 732 1 733 1 748 1 772 1 800 1 818 1 820 1 834 1 859 1 888 1 917 1 920 1 960 1 986 1 995 1 1008 1 1015 1 
1 206 4 1 20 1 61 1 64 1 70 1 95 1 110 1 124 1 163 1 177 1 188 1 202 1 209 1 222 1 249 1 258 2 260 1 268 1 269 1 282 1 290 2 313 1 318 1 322 1 348 1 375 1 377 1 382 1 443 1 445 1 459 1 470 1 487 1 522 1 568 1 626 1 8 1 89 1 91 1 98 1 100 1 113 1 129 1 133 1 153 1 164 1 196 1 215 1 216 1 244 1 302 1 359 1 361 1 372 1 374 1 453 1 461 1 489 1 509 1 536 1 558 1 618 1 619 1 643 1 671 1 673 1 700 1 715 1 734 1 740 1 745 1 780 1 804 1 811 1 820 1 840 1 845 1 852 1 857 1 900 1 908 1 914 1 918 1 919 1 935 1 952 1 956 1 959 1 961 1 729 1 752 1 789 1 798 1 806 1 834 1 863 1 962 1 968 1 979 1 984 1 998 1 1006 1 1012 1 
1 213 4 1 94 1 97 1 100 1 112 1 119 1 121 1 135 1 151 1 185 1 248 1 252 2 269 1 285 1 290 1 293 1 311 1 312 1 315 1 330 1 349 1 376 1 407 1 415 2 419 1 428 1 436 1 440 1 444 1 448 1 470 1 473 1 485 1 514 1 531 1 566 1 568 1 578 1 583 1 584 1 613 1 618 1 620 1 640 1 645 1 14 1 116 1 126 1 134 1 144 1 147 1 160 1 167 1 169 1 179 1 198 1 215 1 220 1 247 1 274 1 276 1 289 1 297 1 301 1 342 1 357 1 358 1 370 1 417 1 479 1 481 1 537 1 593 1 625 1 630 1 641 1 673 1 680 1 691 1 740 2 771 1 783 1 846 1 847 1 877 1 883 1 892 1 895 1 930 1 931 1 940 1 942 1 953 1 975 1 984 1 995 1 671 1 681 1 717 1 741 1 744 1 750 1 827 1 874 1 893 1 900 1 915 1 972 1 974 1 987 1 1001 1 1004 1 1011 1 1014 1 1017 1 
1 215 16 1 37 1 172 1 195 1 200 1 202 1 218 1 239 1 270 1 278 1 299 1 317 1 339 1 352 2 357 1 375 1 378 1 392 1 402 1 417 1 418 1 422 1 450 1 457 1 508 1 516 1 533 1 536 1 538 1 548 1 589 1 615 1 629 1 631 1 2 1 5 1 40 1 54 1 57 1 61 1 88 1 93 1 105 1 114 1 130 1 138 1 142 1 149 1 209 1 222 1 269 1 284 1 328 1 335 1 355 1 359 1 370 1 383 1 423 1 447 1 470 1 479 1 495 1 499 1 524 1 527 1 542 1 565 1 641 1 696 1 733 1 735 1 776 1 861 1 882 1 903 1 946 1 951 1 954 1 962 1 967 2 678 1 683 1 684 1 689 1 690 1 716 1 745 1 751 1 763 1 773 1 802 1 846 1 888 1 891 1 897 1 919 1 944 1 968 1 1001 1 1006 1 1009 1 1020 1 1025 1 
1 206 25 1 77 1 88 1 97 1 99 1 108 1 123 1 145 1 176 1 181 1 201 1 230 1 245 1 274 1 281 1 291 1 292 1 315 1 318 1 361 1 364 1 376 1 390 1 395 1 408 1 419 1 443 1 474 2 496 1 497 1 541 1 560 1 573 1 584 1 586 1 1 1 34 1 49 1 54 1 82 1 86 1 103 1 136 1 147 1 152 1 175 1 185 1 187 1 189 1 205 1 207 1 250 1 255 1 278 1 295 1 316 1 334 1 341 1 388 1 430 1 441 1 469 1 512 1 545 1 548 1 566 1 591 1 592 1 593 1 612 1 653 1 662 1 674 1 712 1 713 1 715 1 770 1 782 1 791 1 794 1 803 1 813 1 819 1 827 1 862 1 866 1 878 1 888 1 909 1 913 1 919 1 937 1 953 1 960 1 972 1 985 1 999 1 652 1 668 1 673 1 679 1 681 1 690 1 707 1 753 1 776 1 780 1 781 1 795 1 800 1 802 1 817 1 821 1 848 1 868 1 874 1 875 1 876 1 891 1 902 1 903 1 941 1 954 1 961 1 995 1 997 1 1012 1 1017 1 
1 212 26 1 40 1 60 1 67 1 68 1 91 1 93 1 113 1 126 1 141 1 182 1 191 1 192 1 244 1 248 1 291 1 292 1 296 1 307 1 343 1 348 1 385 1 399 1 407 1 410 1 423 1 438 1 440 1 448 1 468 1 470 1 477 1 483 1 489 1 525 1 531 1 542 1 543 1 578 2 586 1 592 1 593 1 609 1 7 1 27 1 53 1 74 1 79 1 95 1 96 1 105 1 108 1 118 1 121 1 184 1 235 1 242 1 256 1 286 1 328 1 375 1 395 1 404 1 433 1 439 1 532 1 545 1 564 1 587 1 591 1 595 1 612 1 617 1 626 1 634 1 635 1 642 1 677 1 711 1 723 1 752 1 757 1 770 1 777 1 797 1 801 1 806 1 809 1 829 1 845 1 877 1 894 1 903 1 908 1 911 1 914 1 927 1 986 1 992 1 656 1 658 1 681 1 708 1 725 1 727 1 734 1 739 1 744 1 769 1 796 1 800 1 817 1 835 1 837 1 844 1 872 1 874 1 905 1 919 1 925 1 931 1 934 1 940 1 978 1 980 1 994 1 1008 1 1021 1 1023 1 
1 210 2 2 17 1 19 1 56 1 69 1 80 1 85 2 92 1 103 1 125 1 174 1 175 1 209 1 212 1 233 1 248 1 290 1 306 1 317 1 337 1 347 1 372 1 374 1 380 1 394 1 414 1 423 1 424 2 426 2 433 1 449 1 550 1 598 1 611 1 622 1 625 1 626 1 632 1 638 1 18 1 29 1 37 1 38 1 57 1 58 1 78 1 93 1 102 1 107 1 108 1 116 1 180 1 190 1 263 1 280 1 281 1 300 1 312 1 313 1 316 1 345 1 386 1 393 1 437 1 440 1 443 1 461 1 482 1 486 1 534 1 535 1 547 1 609 1 639 1 654 1 695 1 735 1 738 1 744 1 759 1 766 2 777 1 826 1 837 1 841 1 842 1 863 1 883 1 908 1 910 1 965 1 973 1 979 1 993 1 699 1 711 1 732 1 818 1 882 1 912 1 939 1 947 1 987 1 1005 1 1015 1 1023 1 
1 205 15 1 23 1 42 2 52 1 59 1 75 1 106 1 113 1 152 1 177 1 178 1 180 1 223 1 240 1 244 1 276 1 287 1 298 1 321 1 341 2 364 1 365 1 372 1 431 1 454 1 479 1 490 1 496 1 500 2 520 1 544 1 550 1 602 2 625 1 14 1 38 1 54 1 74 1 117 1 159 1 165 1 171 1 175 1 183 1 200 1 214 1 218 1 219 1 242 1 259 1 269 1 309 1 343 1 345 1 354 1 356 1 373 1 381 1 393 1 418 1 420 1 426 1 455 1 489 1 495 1 531 1 535 1 542 1 552 1 578 1 583 1 585 1 600 1 618 1 631 1 649 1 659 1 693 1 733 1 757 1 765 1 818 1 864 1 865 1 867 1 872 2 881 1 899 1 902 1 917 1 923 1 932 1 938 2 959 1 669 1 675 1 704 1 706 1 719 1 740 1 761 1 788 1 789 1 799 1 832 1 838 1 847 1 874 1 879 1 898 1 908 1 910 1 925 1 930 1 981 1 987 1 1026 1 
1 213 1 1 8 1 52 1 63 1 74 1 80 1 112 1 161 1 171 1 181 1 182 1 194 1 233 2 256 1 279 1 296 1 304 1 305 1 333 1 343 1 386 1 400 1 451 1 467 1 478 1 513 1 518 1 530 1 532 2 534 1 573 2 576 1 627 1 649 1 30 1 38 1 39 1 71 1 93 1 94 1 115 1 130 1 132 1 137 1 199 1 214 1 257 1 287 1 298 1 307 1 318 1 357 1 401 1 412 1 461 1 482 1 484 1 503 1 505 1 511 1 512 1 514 1 521 1 525 1 559 1 590 1 600 1 602 1 622 1 653 1 653 1 666 1 690 1 705 1 710 1 724 1 755 1 756 1 768 1 792 1 793 1 797 2 806 1 811 1 817 1 855 1 860 1 868 1 904 1 906 1 907 1 940 1 656 1 692 1 709 1 731 1 739 1 758 1 762 1 764 1 773 1 816 1 849 1 867 1 919 1 930 1 941 1 949 1 979 1 998 1 1004 1 1015 1 1016 1 1019 1 1020 1 
1 204 4 1 6 1 12 1 21 1 24 1 28 1 55 1 58 1 64 1 69 1 73 1 82 1 120 1 133 1 134 1 140 1 155 1 166 1 195 1 207 1 263 1 274 1 291 1 299 1 302 1 322 1 344 1 346 1 351 1 357 1 368 1 392 1 421 1 430 1 449 1 454 1 461 1 491 1 568 1 592 1 605 1 615 1 619 1 645 1 651 1 59 1 79 1 115 1 119 1 156 1 167 1 188 1 193 1 228 1 261 1 265 1 276 1 279 1 285 1 324 1 331 1 337 1 360 1 400 1 409 1 411 1 414 1 464 1 503 1 541 1 559 1 561 1 562 1 578 1 595 1 599 1 610 1 617 1 642 1 659 1 684 1 685 1 716 1 743 1 765 1 766 1 783 1 822 1 829 1 855 1 870 2 872 1 904 1 939 1 956 1 977 1 982 1 656 1 660 1 667 1 676 1 700 1 704 1 722 1 757 1 792 1 797 1 799 1 821 1 828 1 834 1 849 1 863 1 885 1 889 1 906 1 911 1 925 1 929 1 969 1 999 1 1012 1 
1 207 16 1 72 1 82 1 111 1 116 1 132 1 146 1 150 1 151 1 183 1 229 1 249 1 252 1 261 1 272 2 277 1 285 1 300 1 311 1 313 1 338 1 346 1 372 2 398 1 428 1 442 1 445 1 454 1 473 1 502 1 503 1 521 2 532 1 533 2 534 1 548 1 554 1 564 1 590 1 618 1 641 1 6 1 23 1 25 1 31 1 35 1 39 1 48 1 73 1 97 1 100 1 107 1 172 1 220 1 256 1 328 1 340 1 361 1 418 1 444 1 462 1 466 1 469 1 472 1 474 1 490 1 508 1 519 1 527 1 550 1 572 1 596 1 601 1 665 1 699 1 706 1 718 1 721 2 745 1 780 1 792 1 795 1 823 1 829 1 848 1 860 1 871 1 877 1 887 1 910 1 980 1 1001 1 666 1 709 1 743 1 768 1 791 1 805 1 806 1 807 1 840 1 855 1 868 1 895 1 932 1 935 1 951 1 954 1 962 1 964 1 976 1 985 1 996 1 1025 1 
1 209 7 1 24 1 28 1 121 1 128 1 134 1 145 1 148 1 183 1 202 2 229 1 238 1 241 1 259 1 265 1 285 1 317 1 355 1 356 2 361 1 384 1 394 1 401 1 403 1 405 1 417 1 444 1 453 1 458 1 528 1 545 1 551 1 552 1 607 1 19 1 23 1 42 1 76 1 102 1 129 1 131 1 137 1 144 1 147 1 160 1 161 1 173 1 196 1 204 1 218 1 247 1 275 1 279 1 289 1 311 1 313 1 319 1 331 1 375 1 428 1 443 1 457 1 485 1 488 1 504 1 511 1 516 1 519 1 531 1 539 1 563 1 566 1 573 1 618 1 623 1 625 1 640 1 650 1 653 1 654 1 674 1 689 1 703 1 712 1 722 1 732 1 762 1 780 1 791 1 796 1 828 1 829 1 830 1 856 1 861 1 872 1 879 1 886 1 890 1 899 1 925 1 962 1 965 1 992 1 658 1 688 1 692 1 727 1 740 1 779 1 799 1 803 1 804 1 814 1 820 1 848 1 854 1 858 1 885 1 916 1 918 1 935 1 942 1 973 1 996 1 1001 1 1023 1 
1 207 3 1 40 1 44 1 53 1 55 2 96 1 103 1 152 1 164 1 165 1 168 1 181 1 187 1 201 1 206 1 237 1 239 1 283 1 318 1 329 1 341 1 378 1 385 1 390 1 415 1 430 1 453 1 463 1 499 1 523 1 531 1 546 1 569 1 590 1 600 1 622 1 629 1 631 1 639 2 640 1 641 1 41 1 67 1 91 1 117 1 130 1 134 1 141 1 156 1 180 1 188 1 202 1 242 1 291 1 299 1 313 1 321 1 325 1 342 1 351 1 370 1 439 1 455 1 481 1 510 1 511 1 517 1 537 1 606 1 615 1 645 1 673 1 679 1 689 1 698 1 709 1 716 1 726 1 739 1 742 1 745 1 762 2 838 1 845 1 856 1 885 1 904 1 942 1 943 1 976 1 676 1 696 1 704 1 706 1 760 1 768 1 778 1 796 1 802 1 810 1 827 1 882 1 883 1 902 1 913 1 919 1 951 1 985 1 988 1 998 1 1001 1 1026 1 
1 210 20 1 38 2 44 1 66 1 79 1 103 1 157 1 172 1 187 1 189 1 215 1 222 1 252 1 288 1 291 1 340 1 347 1 350 1 363 1 365 2 369 1 372 1 411 1 414 1 416 1 446 1 459 1 469 1 478 1 499 1 507 2 525 2 531 1 540 1 548 1 549 1 586 1 3 1 6 1 68 1 129 1 135 1 171 1 182 1 195 1 210 1 212 1 226 1 237 1 240 1 260 1 264 1 309 1 310 1 315 1 329 1 344 1 352 1 371 1 391 1 421 1 422 1 440 1 451 1 463 1 480 1 504 1 528 1 537 1 579 1 627 1 650 1 656 1 685 1 687 1 689 2 696 1 700 1 717 1 734 1 748 1 786 1 803 1 811 1 815 1 828 1 889 1 938 1 957 1 973 2 976 1 986 1 990 1 1001 1 671 1 707 1 713 1 722 1 735 1 746 1 760 1 770 1 783 1 790 1 817 1 829 1 848 1 854 1 866 1 895 1 917 1 919 1 921 1 925 1 945 1 979 1 997 1 1006 1 1009 1 1020 1 1027 1 
1 208 15 1 18 1 52 1 59 1 64 1 91 1 122 1 152 1 156 1 169 1 182 2 228 2 230 1 232 1 237 1 249 1 250 2 260 1 266 1 273 1 300 2 312 1 335 2 346 1 348 1 356 1 375 1 385 1 417 1 461 1 474 2 481 1 499 1 503 1 523 1 534 1 537 2 583 1 591 1 594 1 618 1 631 1 652 1 654 1 33 1 43 1 70 1 95 1 100 1 165 1 187 1 206 1 218 1 233 1 235 1 244 1 252 1 293 1 298 1 320 1 322 1 323 1 358 1 359 1 366 1 376 1 395 1 406 1 413 1 455 1 471 1 472 1 502 1 514 1 527 1 557 1 642 1 662 1 678 1 680 1 681 1 706 1 714 1 715 1 727 1 728 1 737 1 759 1 813 1 878 1 888 1 909 1 912 1 943 1 946 1 962 1 972 1 988 1 991 2 679 1 684 1 689 1 697 1 704 1 707 1 712 1 734 1 769 1 774 1 790 1 811 1 827 1 857 1 899 1 908 1 933 1 944 1 954 1 1021 1 1026 1 
1 213 67 1 93 1 94 1 107 1 144 1 150 1 154 1 173 1 207 1 209 1 251 1 282 1 303 1 315 1 317 1 334 1 382 1 395 1 405 1 460 1 499 1 523 1 527 1 549 1 561 1 575 1 600 1 611 1 616 1 617 1 637 1 5 1 9 1 24 1 99 1 104 1 190 1 192 1 202 1 203 1 221 1 226 1 228 1 232 1 241 1 246 1 248 1 263 1 279 1 286 1 307 1 314 1 327 1 328 1 339 1 347 1 363 1 402 1 410 1 435 1 438 1 488 1 515 1 531 1 545 1 601 1 602 1 627 1 630 1 654 1 680 1 698 1 711 1 726 1 744 1 757 1 772 1 825 1 839 1 841 1 852 1 855 1 877 1 916 1 917 1 918 1 924 1 936 1 994 1 997 1 663 1 673 1 678 1 695 1 720 1 729 1 768 1 811 1 812 1 865 1 873 1 884 1 888 1 900 1 907 1 941 1 951 1 954 1 957 1 973 1 977 1 1010 1 1012 1 1018 1 1020 1 
1 211 25 1 26 1 37 1 55 1 84 1 99 1 104 1 109 1 116 1 121 1 131 1 142 1 147 1 158 1 172 1 174 1 195 1 210 1 217 1 264 1 265 1 274 1 284 1 287 1 314 1 369 1 390 1 405 1 418 1 419 1 447 1 460 1 471 1 480 1 482 1 504 1 556 1 567 1 576 1 591 1 614 1 628 1 630 1 632 1 642 1 28 1 53 1 66 1 68 1 108 1 125 1 130 1 167 1 185 1 186 1 211 1 220 1 266 1 295 1 302 1 316 1 328 1 393 1 400 1 455 1 476 1 493 1 511 1 520 1 525 1 534 1 547 1 553 1 586 1 622 1 640 1 645 1 700 1 701 1 705 1 713 1 722 1 736 1 748 1 782 1 810 1 864 1 880 1 881 1 891 1 892 1 931 1 947 1 956 1 964 1 992 1 664 1 677 1 733 1 737 1 758 1 780 1 790 1 795 1 836 1 847 1 853 1 859 1 953 1 979 1 983 1 1003 1 1006 1 1010 1 
1 208 2 1 79 1 118 1 120 1 125 1 142 1 168 1 191 1 216 1 221 1 226 1 227 1 241 1 268 1 275 1 281 1 292 1 293 1 298 1 332 1 333 1 360 2 444 1 455 1 471 1 500 2 521 1 534 1 603 1 642 1 649 1 659 1 17 1 32 1 86 1 90 1 115 1 150 1 180 1 187 1 202 1 210 1 222 1 244 1 245 1 254 1 296 1 312 1 336 1 340 1 365 1 380 1 386 1 388 1 422 1 459 1 464 1 466 1 480 1 501 1 515 1 530 1 549 1 562 1 578 1 579 1 619 1 639 1 678 1 699 1 700 1 707 1 708 1 746 1 749 1 750 1 765 1 800 1 814 1 823 1 826 1 827 1 831 2 895 1 907 1 932 1 976 1 977 1 982 1 998 1 666 1 686 1 692 1 714 1 718 1 736 1 737 1 742 1 778 1 787 1 797 1 850 1 865 1 875 1 916 1 927 1 962 1 984 1 1005 1 1009 1 1019 1 
1 205 23 1 39 1 43 1 66 1 84 1 89 1 95 1 109 1 120 1 127 1 129 1 156 1 161 1 176 1 210 1 226 1 231 1 238 1 248 1 264 1 311 1 312 1 330 1 353 1 397 1 416 1 429 2 437 1 451 1 472 1 486 1 499 1 500 1 519 1 563 1 580 1 590 1 632 2 641 1 644 1 16 1 54 1 55 1 57 1 81 1 88 1 112 1 135 1 141 1 143 1 151 1 191 1 197 1 242 1 269 1 326 1 331 1 336 1 428 1 457 1 473 1 501 1 507 1 517 1 551 1 558 1 559 1 577 1 594 1 606 1 660 1 672 1 701 1 730 1 744 1 745 1 751 2 763 1 803 1 807 2 842 1 852 1 856 1 861 1 874 1 905 1 908 1 923 1 931 1 936 1 944 1 950 1 960 1 973 1 994 1 999 1 1001 1 675 1 699 1 702 1 709 1 721 1 732 1 734 1 761 1 770 1 782 1 791 1 792 1 863 1 870 1 934 1 940 1 955 1 959 1 987 1 989 1 997 1 
1 211 22 1 85 1 104 1 108 1 114 1 121 1 156 1 168 1 171 1 202 1 224 1 235 1 252 1 253 1 262 1 273 1 274 1 304 1 315 1 324 1 326 1 329 1 351 1 355 1 370 1 375 2 385 1 386 1 407 1 421 1 425 1 445 1 458 1 482 1 483 1 520 1 523 1 524 1 547 2 563 1 569 1 589 2 4 1 17 1 21 1 32 1 90 1 129 1 133 1 223 1 259 1 283 1 332 1 347 1 376 1 428 1 459 1 462 1 464 1 475 1 514 1 548 1 578 1 638 1 661 1 677 1 683 1 704 1 723 1 746 1 761 1 769 1 798 1 809 1 849 1 863 1 878 1 890 1 898 1 916 1 950 1 957 1 964 1 973 1 979 1 988 1 680 1 686 1 700 1 735 1 777 1 784 1 850 1 866 1 904 1 924 1 931 1 952 1 958 1 966 1 970 1 984 1 990 1 998 1 1005 1 1014 1 1024 1 
1 208 5 1 7 1 18 1 44 1 53 1 76 1 98 1 110 1 117 1 122 1 127 1 144 1 157 1 165 1 173 1 174 1 195 1 211 1 241 1 284 1 311 1 333 1 356 1 391 1 408 2 417 1 423 1 434 1 457 1 461 2 466 1 467 1 488 2 490 1 499 1 500 1 503 1 509 1 514 1 521 1 532 1 564 1 586 1 617 1 634 1 655 1 32 1 37 1 41 1 48 1 97 1 111 1 113 1 130 1 134 1 154 1 208 1 209 1 252 1 277 1 288 1 323 1 324 1 330 1 370 1 375 1 388 1 409 1 471 1 480 1 501 1 519 1 541 1 547 1 629 1 636 1 674 1 707 1 708 1 713 1 727 1 770 1 774 2 779 1 793 1 800 1 843 1 847 1 869 1 895 1 901 2 957 1 963 1 968 1 994 1 997 1 738 1 759 1 765 1 790 1 801 1 808 1 816 1 850 1 861 1 872 1 894 1 897 1 934 1 939 1 1004 1 1014 1 1024 1 1027 1 
1 214 12 1 57 1 85 1 131 1 134 1 143 1 154 1 157 1 159 1 162 1 192 1 197 2 207 1 216 1 243 1 264 1 287 1 321 1 327 1 357 1 372 1 391 1 409 1 420 1 449 1 456 1 471 1 473 1 516 1 527 1 556 1 576 1 613 1 616 1 653 1 31 1 66 1 69 1 84 1 127 1 128 1 152 1 160 1 185 1 188 1 214 1 224 1 265 1 273 1 277 1 291 1 304 1 333 1 362 1 384 1 397 1 413 1 439 1 454 1 459 1 480 1 504 1 531 1 554 1 555 1 561 1 565 1 587 1 605 1 620 1 628 1 629 1 637 1 655 1 662 1 670 1 671 1 673 2 697 1 713 1 721 1 744 1 777 1 781 1 784 1 790 2 809 1 813 1 824 1 826 1 861 1 866 1 873 1 954 1 968 1 978 2 981 1 672 1 680 1 699 1 711 1 728 1 794 1 797 1 821 1 840 1 859 1 921 1 922 1 930 1 933 1 938 1 939 1 964 1 965 1 977 1 979 1 987 1 1010 1 1011 1 1012 1 1022 1 
1 209 17 1 22 1 33 1 43 1 53 1 56 1 57 1 90 1 106 2 124 1 157 1 162 1 166 1 177 1 178 1 220 1 221 1 222 1 229 1 242 1 258 1 330 1 399 1 402 1 425 1 433 1 454 1 465 1 466 1 496 1 497 1 509 1 523 1 554 1 555 1 557 1 578 1 585 1 597 1 620 1 626 1 639 1 2 1 25 1 38 1 47 1 69 1 82 1 104 1 114 1 118 1 122 1 144 1 151 1 160 1 201 1 207 1 208 1 248 1 283 1 291 1 299 1 310 1 326 1 355 1 358 1 363 1 368 1 386 1 410 1 427 1 442 1 462 1 508 1 574 1 580 1 596 1 612 1 627 1 632 1 638 1 654 1 672 1 675 1 687 2 690 1 694 1 695 1 713 1 746 1 751 2 758 1 777 1 782 1 818 1 838 1 841 1 845 1 915 2 943 1 950 1 966 1 980 1 999 1 1000 1 1001 1 673 1 727 1 744 1 759 1 772 1 775 1 800 1 805 1 808 1 823 1 826 1 829 1 849 1 871 1 874 1 910 1 920 1 942 1 1014 1 1020 1 1024 1 
1 210 1 1 3 1 11 1 16 1 39 1 41 1 42 1 66 1 69 1 101 1 109 1 142 1 145 1 199 1 229 1 240 1 263 1 281 1 285 1 286 1 287 1 302 1 336 1 339 1 341 1 357 1 372 1 394 1 395 1 416 1 422 1 423 2 426 1 431 1 439 1 446 1 470 1 489 1 497 1 509 1 529 1 549 1 554 1 566 1 581 1 591 2 599 1 601 1 611 1 627 1 37 1 47 1 54 1 63 1 67 1 89 1 97 1 132 1 134 1 169 1 173 1 177 1 197 1 198 1 215 1 247 1 249 1 269 1 274 1 297 1 319 1 345 1 358 1 392 1 399 1 443 1 567 1 580 1 587 1 589 1 595 1 604 1 616 1 649 1 701 1 768 1 790 1 837 1 866 1 905 1 913 1 952 1 967 1 669 1 682 1 704 1 737 1 743 1 752 1 766 1 770 1 811 1 813 1 828 1 838 1 861 1 906 1 939 1 950 1 1015 1 
1 209 8 1 9 1 29 2 49 1 52 1 60 1 63 1 78 1 89 1 107 1 119 1 172 1 196 1 221 1 254 1 299 1 313 1 348 1 351 1 358 1 380 1 401 1 404 1 410 1 452 1 478 1 486 1 502 1 546 1 564 1 573 1 587 1 593 1 612 1 625 1 13 1 21 1 23 1 25 1 33 1 35 1 41 1 64 1 105 1 106 1 140 1 170 1 194 1 208 1 260 1 292 1 295 1 302 1 306 1 310 1 364 1 430 1 455 1 457 1 488 1 523 1 527 1 528 1 556 1 581 1 583 1 598 1 602 1 611 1 635 1 637 1 652 1 668 1 720 1 723 1 725 1 728 1 735 1 750 1 795 1 803 1 807 1 834 1 837 1 879 1 890 1 892 1 893 1 957 1 996 1 676 1 690 1 699 1 718 1 752 1 765 1 768 1 800 1 836 1 839 1 855 1 872 1 886 1 902 1 907 1 918 1 921 1 956 1 995 1 1003 1 1015 1 1021 1 
1 206 8 1 18 1 21 1 42 1 45 1 55 1 74 1 89 1 93 1 100 1 105 1 108 1 117 1 126 1 129 1 141 1 146 1 149 1 204 1 222 1 276 2 326 1 355 1 380 1 389 1 414 1 416 1 450 1 492 1 500 1 509 1 583 1 586 1 615 1 619 2 632 1 638 1 642 1 666 1 13 1 52 1 56 1 79 1 81 1 92 1 102 1 103 1 134 1 162 1 163 1 170 1 199 1 203 1 235 1 250 1 257 1 261 1 271 1 277 1 278 1 288 1 290 1 353 1 357 1 361 1 362 1 363 1 397 1 448 1 518 1 528 1 536 1 541 1 547 1 552 1 556 1 569 1 625 1 671 1 698 1 733 2 734 1 738 1 751 1 752 1 758 1 765 1 769 1 821 1 854 1 865 1 884 1 885 1 888 1 902 1 903 1 956 1 974 1 988 1 997 1 1001 1 742 1 743 1 756 1 780 1 784 1 809 1 836 1 853 1 861 1 873 1 890 1 899 1 916 1 922 1 952 1 969 1 993 1 1023 1 
1 213 17 1 29 1 83 1 97 1 109 1 111 1 128 1 149 1 171 2 190 1 206 1 209 1 234 1 245 2 253 1 260 1 262 2 265 1 270 1 301 1 307 1 308 1 327 1 367 1 368 1 406 1 429 1 450 1 490 1 503 1 591 1 604 1 606 1 636 1 646 1 666 1 670 1 13 1 32 1 36 1 57 1 65 1 79 1 96 1 115 1 165 1 178 1 181 1 182 1 188 1 271 1 284 1 294 1 304 1 312 1 350 1 400 1 402 1 410 1 482 1 488 1 491 1 538 1 581 1 599 1 616 1 626 1 639 1 642 1 647 1 658 1 674 1 692 1 705 1 742 1 764 1 775 1 805 1 806 1 831 1 832 1 842 2 861 1 968 1 979 1 987 1 998 1 698 1 716 1 738 1 794 1 811 1 819 1 824 1 827 1 847 1 851 1 878 1 888 1 889 1 892 1 917 1 919 1 943 1 952 1 1020 1 1026 1 1027 1 
1 210 1 1 8 1 23 2 36 1 38 1 48 1 59 1 60 1 75 1 99 1 126 1 133 1 169 1 181 1 196 1 197 1 204 1 218 1 226 1 253 1 263 1 270 1 286 2 299 1 326 2 338 1 351 2 368 1 370 1 383 1 396 1 402 1 405 1 427 1 442 1 459 2 466 1 481 1 493 1 496 1 501 1 511 1 525 1 534 1 540 1 559 1 566 1 582 1 588 1 598 1 636 1 640 1 642 1 663 1 667 1 15 1 43 1 67 1 79 1 101 1 103 1 106 1 125 1 129 1 166 1 175 1 177 1 190 1 229 1 254 1 259 1 271 1 291 1 354 1 363 1 406 1 410 1 413 1 436 1 445 1 470 1 473 1 488 1 513 1 528 1 584 1 613 1 622 1 626 1 639 1 644 1 666 1 735 1 753 2 808 1 831 1 862 1 870 1 886 1 897 1 903 1 908 1 910 1 913 1 924 1 948 2 951 1 955 1 964 1 685 1 695 1 720 1 739 1 754 1 775 1 795 1 815 1 819 1 835 1 840 1 851 1 880 1 899 1 900 1 926 1 940 1 969 1 986 1 987 1 1006 1 1008 1 
1 216 8 1 46 2 55 1 59 1 62 1 83 2 99 1 105 1 157 1 178 1 195 1 210 1 220 1 224 1 241 1 257 1 273 1 275 1 285 2 289 1 290 1 292 1 308 1 312 1 387 1 412 1 430 1 527 1 558 1 559 1 564 1 584 1 646 1 647 1 657 1 666 2 13 1 48 1 51 1 61 1 154 1 155 1 163 1 197 1 201 1 222 1 237 1 238 1 262 1 294 1 304 1 347 1 351 1 353 1 380 1 389 1 410 1 455 1 458 1 461 1 484 1 502 1 534 1 537 1 562 1 642 1 649 1 660 1 667 1 692 1 752 1 754 1 771 1 776 1 786 1 883 1 907 1 910 1 912 1 952 1 698 1 719 1 722 1 728 1 785 1 802 1 804 1 832 1 842 1 854 1 862 1 863 1 872 1 897 1 945 1 969 1 988 1 989 1 994 1 995 1 1012 1 1018 1 1021 1 1025 1 
1 209 9 1 34 1 55 1 57 1 61 1 62 1 110 1 114 1 126 1 132 1 136 1 159 1 165 1 173 1 251 1 257 1 263 1 274 1 321 1 322 1 329 1 331 1 342 1 348 1 358 1 369 1 374 1 390 1 400 1 405 1 433 1 457 1 458 1 474 1 490 1 493 1 496 1 548 1 553 1 612 1 649 1 656 1 665 1 671 1 19 1 29 1 40 1 44 1 51 1 58 1 75 1 90 1 140 1 181 1 188 1 229 1 239 1 246 1 249 1 271 1 273 1 289 1 290 1 304 1 306 1 320 1 327 1 339 1 364 1 382 1 387 1 417 1 482 1 485 1 504 1 517 1 540 1 571 1 575 1 609 1 632 1 645 1 674 1 674 1 689 1 702 1 710 1 717 1 719 1 726 1 739 1 753 1 767 1 777 1 807 1 840 1 854 1 874 1 902 1 915 1 919 1 920 1 952 1 956 1 967 2 676 1 680 1 685 1 723 1 752 1 831 1 832 1 837 1 886 1 898 1 905 1 918 1 933 1 961 1 983 1 985 1 1006 1 1015 1 1019 1 
1 209 3 1 9 1 12 2 27 1 51 1 63 1 107 1 155 1 156 1 213 1 239 1 241 2 253 1 254 1 280 1 286 1 308 1 336 1 370 1 391 1 399 1 411 1 430 1 440 1 446 1 454 1 474 1 485 2 497 1 502 1 537 1 583 1 603 1 615 2 626 1 628 1 667 1 8 1 36 1 50 1 53 1 115 1 144 1 152 1 183 1 184 1 192 1 197 1 205 1 217 1 255 1 285 1 289 1 360 1 363 1 444 1 457 1 527 1 550 1 577 1 591 1 619 1 625 1 652 1 663 1 677 1 690 1 694 1 714 1 720 1 727 1 760 1 761 1 786 1 789 1 802 1 810 1 820 1 831 1 838 1 854 1 855 1 860 1 861 1 870 1 872 1 936 1 983 1 985 1 990 1 999 1 686 1 708 1 724 1 738 1 806 1 825 1 853 1 868 1 897 1 911 1 940 1 955 1 968 1 973 1 987 1 1016 1 1019 1 1021 1 1022 1 1027 1 
1 207 13 1 17 2 28 1 66 1 75 1 85 1 99 1 117 1 149 1 150 2 191 1 234 1 238 1 256 1 280 1 290 1 297 1 302 1 305 1 332 1 336 1 340 1 344 1 361 1 379 1 383 1 393 1 402 1 406 1 416 2 434 1 435 1 436 1 471 1 489 1 506 1 605 2 611 1 618 1 3 1 44 1 56 1 97 1 102 1 113 1 122 1 132 1 133 1 171 1 205 1 224 1 226 1 251 1 273 1 287 1 326 1 386 1 426 1 498 1 515 1 516 1 517 1 553 1 571 1 575 1 635 1 654 1 657 1 669 1 674 1 689 1 695 1 773 1 783 1 842 1 886 1 889 1 913 1 923 1 955 1 973 1 977 1 990 2 679 1 711 1 730 1 737 1 741 1 747 1 771 1 777 1 782 1 784 1 798 1 804 1 832 1 887 1 916 1 921 1 922 1 928 1 946 1 954 1 982 1 1003 1 1020 1 
1 209 32 1 44 2 49 1 68 2 74 1 87 1 88 1 112 2 114 1 129 1 141 1 175 1 234 1 241 1 250 1 299 1 359 1 371 1 372 1 409 1 419 1 429 1 439 1 469 1 504 1 570 1 579 2 584 1 591 1 593 1 610 1 620 1 626 1 650 1 664 1 675 1 31 1 38 1 63 1 66 1 69 1 95 1 116 1 120 1 135 1 138 1 147 1 157 1 168 1 233 1 246 1 248 1 271 1 280 1 294 1 313 1 319 1 331 1 339 1 381 1 415 1 445 1 470 1 473 1 479 1 502 1 517 1 518 1 539 1 547 1 557 1 601 1 613 1 635 1 661 1 680 1 694 1 695 1 724 1 770 1 778 1 791 1 803 1 875 1 895 1 908 1 911 1 926 1 936 1 955 1 995 1 683 1 700 1 712 1 718 1 722 1 726 1 748 1 755 1 757 1 762 1 771 1 845 1 880 1 883 1 897 1 910 1 918 1 934 1 944 1 945 1 971 1 982 1 987 1 1004 1 1012 1 1015 1 1020 1 
1 214 9 1 29 1 48 1 78 1 101 1 105 1 109 1 128 1 134 1 137 1 142 1 144 1 171 1 173 1 187 1 194 1 199 1 234 1 248 1 252 1 274 1 288 1 292 1 294 1 311 1 312 1 320 1 333 1 380 1 392 1 398 1 437 1 441 1 461 1 482 1 502 2 521 1 531 1 559 1 579 1 592 1 629 1 659 1 662 1 43 1 50 1 79 1 83 1 135 1 151 1 179 1 192 1 218 1 221 1 233 1 239 1 240 1 280 1 327 1 345 1 348 1 372 1 387 1 407 1 425 1 455 1 463 1 469 1 477 1 483 1 492 1 494 1 506 1 573 1 596 1 609 1 613 1 648 1 660 1 685 1 697 1 741 1 744 2 758 1 767 1 783 1 820 1 864 1 866 1 870 2 888 1 892 1 912 1 915 1 919 1 932 1 939 1 940 1 956 1 693 1 712 1 719 1 745 1 809 1 831 1 832 1 850 1 851 1 867 1 868 1 880 1 882 1 910 1 916 1 927 1 949 1 973 1 996 1 1008 1 1020 1 1023 1 
1 215 11 1 17 2 26 1 34 1 50 1 57 1 65 1 135 1 145 1 152 1 166 1 204 2 210 1 212 1 297 1 298 1 327 1 328 1 340 1 364 1 406 1 409 1 411 1 431 1 457 1 465 2 484 1 492 1 522 1 524 1 533 1 545 1 550 1 571 1 585 1 617 1 631 1 640 1 657 1 18 1 22 1 54 1 62 1 115 1 164 1 165 1 188 1 194 1 214 1 224 1 273 1 274 1 293 1 299 1 335 1 343 1 352 1 370 1 378 1 388 1 398 1 466 1 474 1 499 1 504 1 518 1 543 1 568 1 577 1 580 1 586 1 593 1 635 1 639 1 649 1 659 1 676 1 693 1 727 1 766 1 780 2 801 2 827 1 839 1 888 1 899 1 906 1 932 1 940 1 962 1 972 1 994 2 997 1 702 1 722 1 734 1 754 1 771 1 799 1 817 1 833 1 845 1 859 1 897 1 907 1 925 1 935 1 963 1 970 1 990 1 1011 1 1014 1 1015 1 1017 1 
1 208 3 1 16 1 18 1 32 1 49 1 69 1 76 1 84 1 95 1 139 1 140 1 158 1 174 1 180 1 183 1 209 1 213 1 216 1 237 1 251 1 252 1 315 1 318 1 353 1 409 1 411 1 422 1 441 1 456 1 458 1 486 1 509 1 513 1 517 1 540 1 569 1 580 1 587 1 590 1 609 1 611 1 647 1 659 1 660 1 677 1 13 1 38 1 47 1 50 1 63 1 79 1 87 1 101 1 107 1 115 1 123 1 126 1 146 1 147 1 168 1 169 1 231 1 240 1 274 1 287 1 313 1 319 1 384 1 385 1 396 1 400 1 407 1 417 1 435 1 454 1 470 1 493 1 503 1 507 1 552 1 556 1 558 1 588 1 592 1 603 1 664 1 666 1 674 1 695 1 697 1 725 1 757 1 777 1 782 1 783 1 799 1 814 1 826 1 830 1 837 1 877 1 885 1 890 1 892 1 919 1 932 2 945 1 949 1 982 1 681 1 685 1 689 1 717 1 734 1 742 1 769 1 786 1 787 1 802 1 805 1 824 1 851 1 854 1 884 1 886 1 908 1 922 1 942 1 973 1 984 1 1010 1 1015 1 1016 1 
1 209 32 2 33 1 48 1 64 1 115 1 119 1 139 1 169 1 179 1 181 1 185 1 219 1 231 1 232 1 238 1 271 1 272 1 277 1 278 1 291 1 314 1 328 2 330 1 358 1 368 1 404 2 429 1 441 1 445 1 469 1 470 1 493 1 501 1 515 1 519 2 548 1 555 1 565 1 571 1 636 1 659 1 36 1 47 1 72 1 79 1 100 1 113 1 141 1 149 1 170 1 177 1 188 1 194 1 197 1 206 1 207 1 212 1 261 1 268 1 275 1 305 1 308 1 339 1 347 1 365 1 385 1 403 1 430 1 479 1 570 1 628 1 647 1 649 1 650 1 680 1 698 1 714 1 757 1 773 1 790 1 798 1 825 1 877 1 883 1 884 1 908 2 933 1 934 1 952 1 954 1 975 1 686 1 765 1 769 1 776 1 777 1 799 1 885 1 921 1 926 1 935 1 937 1 942 1 947 1 989 1 990 1 994 1 999 1 1010 1 1018 1 
1 210 6 1 19 1 22 1 26 1 31 1 37 1 63 1 76 1 105 1 111 1 117 1 164 1 177 1 187 1 195 1 240 1 243 1 260 1 263 1 271 1 311 1 321 1 327 1 349 1 366 1 370 2 374 1 379 1 381 1 410 1 422 1 442 1 456 1 462 1 488 1 538 1 541 2 571 1 577 1 587 2 612 1 637 1 644 1 43 1 48 1 65 1 98 1 103 1 122 1 126 1 184 1 197 1 201 1 204 1 219 1 221 1 238 1 259 1 281 1 302 1 303 1 316 1 329 1 364 1 430 1 444 1 451 1 452 1 465 1 477 1 481 1 601 1 610 1 636 1 668 1 682 1 682 1 710 1 717 1 718 2 723 1 724 1 728 1 740 1 787 1 814 1 892 1 906 1 911 1 912 1 919 1 950 1 955 1 967 1 968 1 974 2 692 1 695 1 699 1 737 1 757 1 773 1 775 1 831 1 887 1 936 1 942 1 976 1 1015 1 1019 1 
1 210 25 1 55 1 57 1 82 1 141 1 160 1 162 1 171 1 173 1 211 1 233 1 235 1 260 1 261 1 267 1 317 1 326 1 356 1 416 1 427 2 454 1 458 1 464 1 465 1 466 1 490 1 497 1 511 1 528 1 530 1 560 2 613 1 642 1 643 1 664 1 2 1 61 1 80 1 107 1 115 1 123 1 158 1 186 1 189 1 216 1 217 1 253 1 268 1 283 1 293 1 299 1 309 1 315 1 329 1 355 1 372 1 388 1 390 1 420 1 422 1 440 1 502 1 518 1 582 1 620 1 648 1 677 1 686 1 703 1 723 1 732 1 733 1 762 1 785 2 795 1 799 1 822 2 834 1 840 1 861 1 867 1 877 1 905 1 913 1 919 1 928 1 943 1 974 1 994 1 1001 1 724 1 746 1 767 1 773 1 776 1 793 1 801 1 854 1 875 1 901 1 904 1 931 1 938 1 953 1 982 1 996 1 1003 1 1005 1 1020 1 
1 209 67 1 69 1 77 1 84 1 86 1 130 1 167 2 190 1 221 2 240 2 250 1 272 1 286 1 299 1 324 1 348 1 384 1 397 1 420 1 447 1 463 1 479 1 491 1 519 1 522 1 528 1 536 1 565 1 577 1 579 1 583 1 604 1 636 1 638 1 642 1 654 1 38 1 39 1 45 1 71 1 76 1 159 1 166 1 185 1 219 1 256 1 274 1 283 1 302 1 322 1 341 1 351 1 359 1 386 1 396 1 434 1 451 1 486 1 508 1 530 1 551 1 590 1 596 1 601 1 644 1 648 1 659 1 692 1 709 1 740 1 749 1 755 1 764 1 765 1 778 1 799 1 804 1 821 1 831 1 854 1 886 1 915 1 927 1 945 1 960 1 983 1 989 1 1001 1 690 1 700 1 728 1 745 1 747 1 770 1 774 1 785 1 800 1 801 1 845 1 863 1 888 1 909 1 935 1 942 1 954 1 965 1 970 1 1003 1 1004 1 1007 1 
1 209 19 1 95 1 119 1 163 1 165 1 177 1 180 2 181 1 190 1 208 1 217 1 218 1 237 1 249 1 266 1 269 1 277 1 292 1 297 1 315 1 327 1 350 1 354 1 363 1 391 1 404 1 410 1 427 1 446 1 450 1 455 1 484 2 508 1 509 1 541 1 572 1 580 2 605 1 611 1 624 1 641 1 654 1 658 1 678 1 9 1 35 1 57 1 74 1 97 1 144 1 168 1 210 1 242 1 248 1 268 1 284 1 304 1 330 1 347 1 376 1 388 1 395 1 399 1 437 1 441 1 468 1 495 1 506 1 522 1 527 1 528 1 530 1 535 1 571 1 602 1 626 1 672 1 674 1 680 1 692 1 700 1 708 1 726 1 742 1 755 1 758 1 777 1 787 1 817 1 846 1 878 1 892 1 905 1 911 1 924 1 997 1 1000 1 697 1 725 1 732 1 740 1 747 1 760 1 772 1 781 1 798 1 808 1 835 1 847 1 859 1 877 1 894 1 907 1 914 1 927 1 930 1 943 1 947 1 962 1 974 1 1014 1 1016 1 1018 1 1020 1 1023 1 
1 207 21 1 38 2 39 1 54 1 71 2 81 1 113 1 120 1 138 1 149 1 162 1 166 1 207 1 222 1 223 1 232 1 237 1 243 1 264 1 268 2 292 1 299 1 321 1 326 1 328 1 329 1 344 1 348 1 397 1 402 1 412 1 417 2 437 1 439 1 441 1 449 1 453 1 467 1 481 1 521 1 552 1 553 1 583 1 620 1 683 1 20 1 29 1 43 1 50 1 93 1 115 1 132 1 159 1 182 1 211 1 274 1 291 1 318 1 343 1 367 1 369 1 374 1 384 1 391 1 438 1 461 1 472 1 483 1 555 1 570 1 581 1 627 1 662 1 664 1 675 1 681 1 700 1 732 1 741 1 742 1 816 1 831 1 844 1 848 1 849 1 857 1 860 1 891 1 908 1 925 1 926 1 930 1 956 1 961 1 963 1 968 1 973 1 979 1 689 1 708 1 709 1 716 1 730 1 739 1 757 1 822 1 824 1 830 1 838 1 909 1 927 1 935 1 940 1 951 1 966 1 998 1 1026 1 
1 209 2 1 37 1 40 1 45 1 67 2 73 1 86 2 97 1 103 1 130 1 138 1 147 1 164 1 165 1 170 1 181 1 191 1 216 1 220 1 232 1 265 1 279 1 299 1 313 1 358 1 372 2 452 1 462 1 463 1 487 1 528 1 550 1 555 1 562 1 569 1 576 1 616 1 623 1 637 1 639 1 658 1 667 2 10 1 51 1 102 1 113 1 116 1 125 1 140 1 169 1 179 1 185 1 194 1 202 1 209 1 235 1 275 1 295 1 308 1 325 1 331 1 386 1 395 1 401 1 404 1 411 1 413 1 421 1 446 1 454 1 490 1 492 1 513 1 532 1 554 1 559 1 603 1 615 1 638 1 643 1 712 1 717 1 725 1 748 1 769 1 796 1 797 1 800 1 807 1 812 1 828 1 881 1 894 1 895 1 898 2 922 1 937 1 993 1 998 1 708 1 710 1 713 1 751 1 755 1 757 1 767 1 768 1 782 1 785 1 801 1 806 1 815 1 820 1 821 1 882 1 907 1 914 1 945 1 987 1 1011 1 1014 1 
1 209 13 1 29 1 33 1 48 1 71 1 74 1 96 2 113 1 149 1 157 1 174 1 184 1 249 2 270 1 285 2 322 1 323 1 381 1 400 1 408 1 416 1 426 1 433 1 446 1 460 1 495 1 507 1 508 1 514 1 527 1 535 1 553 1 588 1 594 1 623 1 631 1 8 1 10 1 21 1 24 1 30 1 60 1 63 1 72 1 103 1 129 1 164 1 202 1 234 1 245 1 280 1 308 1 316 1 319 1 338 1 340 1 369 1 375 1 378 1 388 1 394 1 411 1 414 1 432 1 457 1 475 1 502 1 523 1 526 1 541 1 562 1 656 1 721 1 725 1 732 1 736 1 755 1 759 1 782 1 783 1 788 1 877 1 881 1 922 1 933 1 939 1 967 1 999 2 689 1 699 1 719 1 723 1 730 1 738 1 748 1 773 1 784 1 785 1 798 1 841 1 851 1 880 1 896 1 916 1 925 1 929 1 935 1 961 1 962 1 982 1 984 1 996 1 1013 1 
1 212 19 1 37 1 63 1 75 2 79 1 97 1 98 1 115 1 125 1 132 1 164 1 166 1 201 1 287 1 291 1 329 1 335 2 351 1 353 1 355 1 360 1 397 1 400 1 423 1 425 1 433 1 443 1 459 1 495 1 500 1 501 1 547 1 551 1 570 1 585 1 613 1 656 1 657 1 658 2 674 1 676 1 4 1 5 1 18 1 30 1 32 1 52 1 56 1 61 1 81 1 108 1 140 1 155 1 196 1 208 1 216 1 240 1 243 1 261 1 284 1 304 1 426 1 435 1 504 1 522 1 560 1 568 1 579 1 583 1 630 1 648 1 659 1 680 1 686 1 688 1 694 1 698 1 700 1 723 1 727 1 729 1 733 1 750 1 752 2 759 1 782 1 809 1 815 1 871 1 878 2 881 1 895 1 910 1 912 1 928 1 940 1 981 1 987 1 989 1 995 1 692 1 715 1 742 1 803 1 840 1 856 1 906 1 931 1 988 1 1001 1 1016 1 1017 1 1023 1 
1 213 4 1 64 1 77 1 98 1 133 1 183 1 194 1 196 1 201 1 246 1 266 1 271 1 293 1 314 1 318 2 322 1 346 1 355 1 358 1 368 1 396 1 398 1 466 1 487 1 488 1 545 1 561 1 562 1 572 1 594 1 596 1 645 1 653 1 667 1 675 1 63 1 78 1 80 1 93 1 96 1 111 1 112 1 126 1 127 1 137 1 163 1 187 1 199 1 233 1 247 1 273 1 287 1 292 1 309 1 333 1 351 1 375 1 390 1 392 1 404 1 433 1 436 1 443 1 446 1 470 1 478 1 491 1 506 1 520 1 527 1 535 1 547 1 579 1 593 1 648 1 649 1 669 1 684 1 705 1 706 1 713 1 714 1 722 1 731 1 734 1 741 1 750 1 758 1 763 1 778 1 782 1 794 1 825 1 833 1 842 1 849 1 850 1 860 1 877 2 883 1 917 1 920 1 927 1 929 2 933 1 945 2 699 1 712 1 720 1 723 1 725 1 749 1 762 1 800 1 831 1 858 1 865 1 903 1 904 1 908 1 911 1 963 1 999 1 1001 1 1020 1 1025 1 
1 209 11 1 14 1 45 1 49 1 67 1 81 1 82 2 83 1 86 1 125 1 141 1 172 1 191 1 206 1 209 1 211 1 253 1 275 1 319 1 323 1 335 2 347 1 402 1 409 1 418 1 460 1 465 1 467 1 479 2 502 1 514 1 539 1 544 1 545 1 550 1 569 1 590 1 591 1 601 1 631 1 647 1 27 1 84 1 85 1 99 1 106 1 132 1 139 1 150 1 157 1 195 1 196 1 217 1 257 1 288 1 302 1 309 1 325 1 339 1 344 1 358 1 383 1 394 1 399 1 414 1 417 1 423 1 426 1 436 1 452 1 457 1 463 1 468 1 517 1 519 1 563 1 621 1 692 1 703 1 704 1 736 1 746 1 756 1 775 1 801 2 829 1 831 1 841 1 842 1 898 1 931 1 937 1 941 1 947 1 974 1 975 1 989 1 755 1 797 1 822 1 858 1 877 1 894 1 896 1 905 1 925 1 927 1 950 1 954 1 955 1 982 1 991 1 1001 1 1003 1 1004 1 1006 1 
1 209 7 1 33 1 39 1 94 1 121 1 126 1 127 1 156 1 183 1 196 1 208 1 225 1 246 1 305 1 371 1 373 1 384 1 388 1 397 1 398 1 403 1 418 1 420 1 475 1 489 1 494 1 506 1 524 1 528 1 530 2 535 1 538 1 554 1 573 1 671 1 673 1 684 1 685 1 691 1 2 1 3 1 59 1 68 1 78 1 101 1 116 1 140 1 184 1 230 1 242 1 262 1 289 1 290 1 295 1 301 1 321 1 343 1 355 1 378 1 382 1 383 1 412 1 439 1 441 1 451 1 453 1 464 1 485 1 515 1 516 1 518 1 552 1 570 1 583 1 587 1 596 1 597 1 602 1 610 1 617 1 653 1 656 1 662 1 682 1 689 1 697 1 714 1 728 1 744 2 750 1 796 1 797 2 814 1 854 1 885 1 887 1 899 1 902 1 924 1 926 1 928 1 932 1 935 1 948 1 950 1 952 1 953 1 997 2 1000 1 706 1 712 1 721 1 767 1 820 1 860 1 863 1 878 1 879 1 884 1 919 1 927 1 933 1 939 1 965 1 
1 208 2 1 42 1 81 1 124 1 126 1 127 1 174 1 201 1 203 1 247 1 265 1 289 1 301 1 307 1 312 1 327 1 347 1 358 1 366 1 392 1 421 1 429 1 446 1 466 1 496 1 522 1 537 1 540 1 554 1 569 1 596 1 609 1 621 1 628 1 636 1 644 1 652 1 679 1 55 1 66 1 77 1 115 1 121 1 136 1 175 1 187 1 262 1 274 1 313 1 321 1 345 1 352 1 383 1 403 1 406 1 409 1 414 1 442 1 450 1 451 1 473 1 488 1 500 1 508 1 523 1 539 1 557 1 589 1 678 1 723 1 730 1 734 1 743 1 745 1 768 1 787 1 804 1 815 1 839 1 840 1 845 1 866 1 900 1 974 1 985 1 994 1 714 1 729 1 751 1 769 1 772 1 814 1 817 1 819 1 836 1 867 1 881 1 890 1 901 1 903 1 918 1 963 1 1008 1 1020 1 1024 1 
1 211 26 1 37 1 48 1 51 1 61 1 84 1 115 1 125 1 153 1 155 1 156 1 166 2 167 1 169 1 210 2 217 1 238 1 248 1 250 1 264 1 273 1 308 1 319 1 322 1 339 1 360 1 390 1 392 1 394 1 414 1 428 1 433 1 453 2 494 1 496 1 497 1 503 1 514 1 524 1 528 1 572 1 605 1 644 1 667 1 675 1 677 1 689 1 1 1 22 1 28 1 32 1 45 1 128 1 132 1 146 1 171 1 182 1 192 1 198 1 252 1 307 1 318 1 333 1 386 1 406 1 411 1 418 1 420 1 430 1 440 1 444 1 481 1 527 1 540 1 578 1 583 1 598 1 623 1 625 1 632 1 701 1 703 1 734 1 743 1 757 1 770 1 785 1 802 1 846 1 856 1 871 1 946 1 949 1 956 1 986 1 995 1 716 1 730 1 746 1 767 1 778 1 782 1 788 1 789 1 849 1 878 1 899 1 918 1 940 1 959 1 960 1 967 1 990 1 999 1 1014 1 1027 1 
1 207 7 2 9 1 13 1 18 1 23 1 80 1 98 1 114 1 120 1 133 1 176 1 196 1 220 1 238 1 253 1 295 1 301 1 309 1 310 1 317 1 385 1 406 1 410 1 441 2 467 1 475 1 507 1 513 1 520 1 554 1 559 1 584 1 606 1 611 1 633 1 644 1 651 1 667 1 676 1 677 1 680 1 110 1 115 1 125 1 135 1 181 1 184 1 209 1 226 1 240 1 285 1 288 1 291 1 312 1 380 1 399 1 409 1 412 1 416 1 473 1 483 1 498 1 501 1 532 1 539 1 545 1 557 1 566 1 570 1 591 1 592 1 605 1 619 1 628 1 645 1 660 1 672 1 682 1 702 1 704 1 725 1 754 2 755 1 772 1 777 1 787 1 797 1 803 1 812 1 821 1 834 1 842 1 844 1 846 1 853 1 877 1 909 1 941 1 958 1 983 1 701 1 750 1 771 1 778 1 828 1 838 1 843 1 851 1 870 1 871 1 875 1 881 1 883 1 918 1 956 1 968 1 970 1 972 1 984 1 986 1 1003 1 
1 209 60 1 63 1 77 1 95 1 100 2 103 1 120 1 122 1 141 1 143 1 149 1 162 1 194 1 236 1 241 1 269 1 294 1 300 1 322 2 334 1 351 1 365 1 366 1 369 2 406 1 417 2 429 1 460 1 468 1 470 1 475 1 516 1 519 1 520 1 523 1 553 1 555 1 563 1 573 1 595 1 597 1 603 1 604 1 643 2 648 1 658 1 10 1 12 1 75 1 133 1 148 1 152 1 165 1 197 1 240 1 264 1 276 1 283 1 298 1 340 1 389 1 415 1 426 1 430 1 443 1 489 1 498 1 502 1 528 1 542 1 561 1 575 1 576 1 587 1 598 1 600 1 616 1 621 1 625 1 632 1 638 1 657 1 709 1 732 1 736 1 767 1 785 1 808 1 811 1 866 1 868 1 881 1 882 1 895 1 899 1 901 1 913 2 930 1 946 1 970 1 978 1 998 1 1001 1 712 1 738 1 749 1 773 1 774 1 779 1 803 1 830 1 832 1 837 1 859 1 863 1 890 1 897 1 907 1 920 1 941 1 971 1 972 1 989 1 993 1 1016 1 1020 1 1024 1 
1 210 6 1 14 1 94 1 100 1 133 1 161 1 164 1 200 1 203 1 205 1 216 1 253 1 254 1 270 1 280 1 308 1 310 1 329 1 341 1 375 1 380 1 407 1 425 1 427 1 433 1 434 2 439 1 453 1 455 1 482 1 483 1 484 1 487 1 493 1 495 1 522 1 568 1 593 1 595 1 615 1 626 1 635 1 641 1 666 1 678 1 680 1 692 1 4 1 9 1 22 1 62 1 87 1 143 1 193 1 210 1 213 1 228 1 230 1 278 1 302 1 304 1 318 1 324 1 344 1 382 1 394 1 408 1 435 1 437 1 440 1 454 1 492 1 497 1 531 1 553 1 556 1 575 1 580 1 604 1 616 1 625 1 659 1 685 1 698 1 737 2 740 1 759 1 762 1 765 1 771 1 773 1 774 1 782 1 784 1 785 1 813 1 816 1 854 1 875 1 912 1 949 1 955 1 963 1 704 1 714 1 726 1 727 1 734 1 742 1 745 1 789 1 805 1 824 1 844 1 845 1 871 1 879 1 906 1 927 1 1022 1 
1 207 55 1 61 1 70 1 98 1 123 1 143 1 161 1 164 1 224 1 238 1 241 1 279 2 292 1 328 1 337 1 338 2 339 1 342 1 362 1 363 1 371 1 385 1 486 1 528 1 530 1 573 1 581 1 625 1 639 2 645 1 657 1 660 1 670 1 681 1 689 1 697 1 19 1 26 1 33 1 76 1 88 1 102 1 118 1 166 1 169 1 196 1 231 1 243 1 247 1 265 1 270 1 275 1 301 1 308 1 326 1 340 1 378 1 381 1 384 1 388 1 398 1 399 1 403 1 415 1 418 1 427 1 429 1 431 1 452 1 460 1 463 1 513 1 514 1 523 1 527 1 539 1 562 1 565 1 590 1 610 1 631 1 632 1 640 1 671 1 673 1 708 2 724 1 743 1 759 1 768 1 781 1 814 2 843 1 846 1 870 1 881 1 896 1 951 1 957 1 969 1 981 1 995 1 699 1 720 1 723 1 725 1 732 1 741 1 767 1 804 1 825 1 838 1 851 1 863 1 874 1 899 1 912 1 916 1 932 1 1018 1 1020 1 
1 211 8 1 38 1 55 1 61 1 70 1 95 1 118 1 134 1 148 1 154 1 155 1 161 1 201 1 205 1 210 1 215 1 217 1 230 1 253 1 255 1 293 1 301 1 302 1 317 1 366 1 395 1 403 1 413 1 420 1 444 1 470 1 482 1 487 1 498 1 502 1 504 2 507 1 510 1 511 1 533 1 594 1 596 1 611 1 633 1 644 1 655 1 662 1 29 1 31 1 51 1 53 1 106 1 143 1 179 1 180 1 196 1 218 1 236 1 262 1 266 1 272 1 291 1 294 1 298 1 300 1 313 1 319 1 325 1 365 1 390 1 408 1 425 1 488 1 490 1 491 1 522 1 532 1 546 1 561 1 582 1 595 1 615 1 631 1 651 1 663 1 666 1 669 1 682 1 688 1 690 1 698 1 714 1 718 1 827 1 884 1 886 1 916 1 944 1 964 1 979 1 985 1 994 1 705 1 728 1 773 1 774 1 779 1 795 1 828 1 861 1 878 1 894 1 917 1 929 1 941 1 996 1 1005 1 1022 1 
1 211 6 1 15 2 46 1 49 1 57 1 63 1 65 1 129 1 147 1 154 1 166 2 177 1 182 1 190 1 213 1 232 1 242 1 245 1 272 1 276 1 283 1 297 1 298 1 313 1 325 1 331 1 334 1 337 1 346 1 381 2 401 1 403 1 446 1 459 1 467 1 492 1 557 1 569 1 612 1 613 1 627 1 646 1 658 1 661 1 662 1 685 1 686 1 689 1 22 1 35 1 39 1 50 1 87 1 96 1 97 1 105 1 139 1 146 1 153 1 176 1 227 1 244 1 275 1 280 1 320 1 327 1 332 1 342 1 348 1 359 1 362 1 395 1 399 1 404 1 418 1 425 1 445 1 455 1 516 1 533 1 546 1 562 1 567 1 597 1 599 1 620 1 622 1 637 1 654 1 664 1 677 1 684 1 705 1 720 1 721 1 735 1 759 1 776 1 779 1 790 1 803 1 806 1 810 1 816 1 826 1 858 1 865 1 870 1 894 1 906 1 923 1 928 1 956 1 959 1 972 1 980 1 981 1 998 1 732 1 741 1 762 1 787 1 836 1 880 1 896 1 937 1 938 1 977 1 1007 1 1015 1 1018 1 1024 1 1026 1 
1 212 19 1 60 1 74 1 76 1 109 1 146 1 162 1 179 1 226 1 238 1 242 1 269 1 271 1 279 1 309 1 345 1 349 1 360 1 370 1 371 1 402 1 413 1 417 1 445 1 456 1 462 1 490 1 512 1 549 1 556 1 575 1 617 1 621 1 626 1 635 1 661 1 663 1 668 1 694 1 8 1 20 1 94 1 108 1 125 1 145 1 150 1 173 1 181 1 183 1 198 1 208 1 213 1 220 1 227 1 232 1 246 1 259 1 270 1 284 1 287 1 292 1 293 1 314 1 333 1 334 1 354 1 362 1 369 1 373 1 394 1 414 1 427 1 455 1 465 1 466 1 478 1 513 1 525 1 560 1 565 1 566 1 589 1 591 1 600 1 604 1 606 1 695 1 745 2 746 1 750 1 755 2 761 1 767 1 794 1 801 1 809 1 837 1 840 1 857 1 896 1 909 1 917 1 940 1 945 1 951 1 966 1 993 1 741 1 756 1 777 1 791 1 802 1 822 1 869 1 884 1 906 1 972 1 988 1 1008 1 1013 1 1022 1 
1 209 44 1 50 1 65 1 69 1 81 1 85 1 104 1 108 1 115 1 116 1 149 1 198 1 199 1 216 1 222 1 249 1 260 1 289 1 293 1 335 1 357 1 358 1 374 1 384 1 423 1 431 1 469 1 485 1 487 2 502 1 519 1 520 1 546 1 553 1 567 1 585 1 618 1 639 1 674 1 695 1 8 1 35 1 58 1 78 1 121 1 139 1 162 1 168 1 172 1 173 1 212 1 254 1 257 1 303 1 309 1 318 1 377 1 392 1 427 1 432 1 441 1 444 1 572 1 580 1 586 1 624 1 643 1 644 1 663 1 679 1 718 1 730 1 731 1 741 1 759 1 768 1 789 1 792 2 809 2 839 1 841 2 906 1 917 1 918 1 928 1 951 1 966 1 713 1 725 1 737 1 749 1 750 1 754 1 810 1 825 1 826 1 829 1 844 1 910 1 936 1 967 1 1004 1 1012 1 1014 1 1025 1 1027 1 
1 206 11 1 25 1 36 1 48 1 80 1 87 1 101 1 109 1 149 1 165 2 169 1 192 1 200 1 209 2 234 1 259 1 271 1 306 1 320 1 344 1 346 1 365 1 460 1 493 1 500 1 503 1 504 1 510 1 521 1 536 1 553 1 596 1 656 1 683 1 691 1 694 1 2 1 24 1 28 1 60 1 77 1 111 1 125 1 128 1 147 1 148 1 166 1 193 1 223 1 224 1 252 1 273 1 274 1 297 1 308 1 319 1 338 1 340 1 341 1 345 1 363 1 391 1 396 1 434 1 456 1 461 1 487 1 567 1 568 1 569 1 584 1 601 1 602 1 624 1 637 1 710 1 729 1 736 1 756 1 769 1 779 1 803 1 810 1 819 1 859 1 881 1 893 1 922 1 969 1 986 1 723 1 726 1 746 1 755 1 760 1 776 1 789 1 832 1 844 1 858 1 861 1 878 1 889 1 901 1 916 1 931 1 941 1 962 1 988 1 992 1 1001 1 1024 1 
1 207 23 1 37 1 41 1 66 1 70 1 100 1 145 1 149 1 169 1 218 1 228 1 258 1 270 1 285 1 289 1 302 1 303 1 305 1 331 1 375 1 384 1 385 1 391 1 396 1 419 1 434 1 443 1 444 1 459 1 471 1 476 1 478 1 498 1 501 1 507 1 511 1 518 1 530 1 536 1 555 1 585 1 588 1 641 1 664 1 691 1 695 1 42 1 82 1 118 1 127 1 173 1 178 1 197 1 216 1 230 1 231 1 252 1 265 1 266 1 290 1 295 1 315 1 340 1 344 1 359 1 416 1 417 1 438 1 446 1 448 1 453 1 461 1 470 1 474 1 505 1 583 1 586 1 634 1 652 1 654 1 657 1 659 1 668 1 697 1 712 1 717 1 725 1 752 1 756 2 774 1 788 1 879 1 896 1 997 2 710 1 716 1 745 1 749 1 772 1 785 1 797 1 849 1 871 1 890 1 905 1 916 1 917 1 931 1 937 1 962 1 969 1 971 1 972 1 1001 1 1004 1 1009 1 1012 1 1020 1 
1 209 24 1 33 1 41 1 101 1 104 1 105 1 106 1 119 1 128 1 143 2 145 1 172 1 235 1 237 1 250 2 270 1 302 1 340 1 341 1 348 1 377 1 391 1 405 1 427 1 430 1 441 1 480 1 490 1 493 1 503 1 513 1 519 2 527 1 530 1 540 1 573 1 574 1 619 2 653 1 661 1 671 1 690 1 700 1 17 1 57 1 68 1 97 1 198 1 248 1 261 1 283 1 285 1 289 1 304 1 308 1 336 1 337 1 345 1 361 1 375 1 392 1 423 1 434 1 507 1 522 1 542 1 581 1 595 1 600 1 628 1 635 1 636 1 699 1 711 1 731 1 762 1 772 1 774 1 798 1 805 1 806 1 813 1 835 1 847 1 859 2 894 1 904 1 911 1 922 1 937 1 940 1 956 2 989 1 994 1 728 1 760 1 779 1 808 1 833 1 834 1 850 1 854 1 856 1 862 1 877 1 880 1 927 1 941 1 968 1 1012 1 
1 210 26 1 34 1 39 1 101 2 109 1 116 1 147 1 168 1 169 1 197 1 207 1 234 1 235 1 254 1 274 1 275 1 338 1 364 1 377 1 388 1 396 1 443 1 482 1 485 1 487 1 490 2 544 1 557 1 568 1 574 1 606 1 633 1 639 1 645 1 655 1 659 1 690 1 35 1 59 1 65 1 157 1 162 1 170 1 171 1 178 1 185 1 226 1 255 1 261 1 276 1 294 1 301 1 328 1 332 1 341 1 385 1 391 1 405 1 425 1 452 1 479 1 517 1 539 1 541 1 542 1 553 1 614 1 618 1 637 1 652 1 657 1 692 1 722 1 726 1 729 1 731 1 785 2 786 2 797 1 799 1 808 1 814 2 848 1 873 1 883 1 909 1 912 1 924 1 980 1 999 1 742 1 745 1 748 1 750 1 795 1 798 1 815 1 821 1 828 1 838 1 895 1 981 1 991 1 995 1 1003 1 1018 1 
1 210 1 1 48 2 62 2 74 1 106 1 128 1 156 1 165 1 170 1 201 1 221 1 238 1 248 1 258 1 276 1 278 1 308 1 330 1 362 1 378 1 389 1 398 1 427 1 433 1 434 1 438 1 442 1 476 1 503 1 510 1 521 2 533 1 542 1 546 1 549 1 561 1 562 1 583 1 594 1 611 1 620 1 634 1 636 2 662 1 665 1 3 1 9 1 34 1 63 1 71 1 96 1 99 1 115 1 121 1 134 1 136 1 166 1 206 1 212 1 236 1 247 1 270 1 313 1 335 1 348 1 369 1 411 1 415 1 419 1 461 1 469 1 486 1 489 1 514 1 532 1 547 1 552 1 576 1 580 1 599 1 626 1 627 1 632 1 635 1 649 1 658 1 659 1 707 1 707 1 721 1 730 1 734 1 735 1 749 1 770 1 783 1 805 1 894 1 900 1 902 1 926 1 938 1 955 1 972 1 715 1 732 1 739 1 803 1 806 1 859 1 863 1 866 1 867 1 873 1 913 1 944 1 949 1 958 1 986 1 1004 1 1011 1 
1 211 12 1 76 1 97 1 104 1 117 1 124 1 127 1 131 1 138 2 159 1 165 1 166 1 181 1 204 1 205 1 242 1 255 1 272 1 298 1 306 1 324 1 340 1 348 1 359 1 361 1 369 1 375 1 378 1 412 1 418 1 437 1 438 1 468 1 470 1 482 1 490 1 504 1 505 1 521 1 526 1 537 1 579 1 592 1 604 1 608 1 662 1 665 1 685 1 698 2 8 1 21 1 23 1 72 1 89 1 103 1 109 1 110 1 111 1 118 1 135 1 149 1 158 1 164 1 176 1 198 1 217 1 232 1 252 1 279 1 282 1 344 1 350 1 391 1 401 1 403 1 422 1 451 1 453 1 454 1 457 1 476 1 536 1 545 1 602 1 618 1 626 1 635 1 650 1 675 1 686 1 687 1 736 1 754 1 819 1 826 1 839 1 843 1 877 1 899 1 905 1 923 1 940 1 967 1 715 1 756 1 763 1 781 1 837 1 846 1 894 1 910 1 920 1 946 1 955 1 961 1 962 1 975 1 1006 1 1009 1 1011 1 1012 1 1015 1 1021 1 
1 213 9 1 26 1 60 1 94 1 127 1 145 1 171 1 179 1 180 1 187 1 206 1 209 1 216 2 220 1 238 1 256 1 281 1 301 1 393 1 410 1 415 2 424 1 429 2 431 1 443 1 450 1 453 2 474 1 477 1 487 2 526 1 539 1 569 1 581 1 587 1 595 2 604 1 606 1 612 1 616 1 624 1 633 1 641 1 645 1 657 1 684 1 696 1 28 1 39 1 51 1 75 1 79 1 84 1 92 1 96 1 107 1 143 1 173 1 183 1 196 1 201 1 272 1 275 1 285 1 291 1 335 1 368 1 402 1 407 1 418 1 421 1 445 1 465 1 466 1 493 1 500 1 504 1 515 1 522 1 528 1 535 1 602 1 615 1 623 1 653 1 655 1 663 1 686 1 713 1 728 1 738 1 745 1 782 1 801 1 888 1 911 1 916 1 936 1 937 1 951 1 958 1 964 1 994 1 999 1 714 1 724 1 731 1 746 1 748 1 762 1 788 1 795 1 806 1 807 1 813 1 817 1 840 1 876 1 878 1 879 1 881 1 883 1 892 1 893 1 908 1 918 1 977 1 1008 1 1011 1 1021 1 1023 1 
1 212 37 1 49 1 57 1 62 1 101 1 103 1 108 1 146 1 186 1 218 1 230 1 231 1 239 1 241 1 247 2 254 1 276 1 277 1 283 1 293 1 309 1 336 1 345 1 374 1 379 1 404 1 419 1 425 1 435 2 446 1 464 1 478 1 479 1 486 1 490 1 524 1 532 1 570 1 592 1 614 1 631 1 636 1 653 1 674 1 682 1 703 1 4 1 28 1 33 1 45 1 71 1 72 1 148 1 151 1 157 1 160 1 201 1 204 1 225 1 248 1 311 1 313 1 317 1 318 1 340 1 353 1 363 1 386 1 388 1 396 1 398 1 401 1 408 1 462 1 471 1 473 1 505 1 513 1 527 1 539 1 541 1 547 1 562 1 571 1 588 1 610 1 634 1 687 1 704 1 727 1 756 1 782 1 815 2 832 1 856 1 857 1 868 1 897 1 899 1 941 1 983 1 716 1 794 1 809 1 811 1 823 1 827 1 831 1 879 1 898 1 910 1 915 1 957 1 990 1 993 1 1002 1 1023 1 
1 208 15 1 18 1 57 1 70 1 71 1 90 1 101 1 118 1 143 1 191 1 211 1 216 1 221 1 295 1 332 1 341 1 351 1 365 1 373 1 390 1 414 1 415 1 421 1 425 1 462 1 545 1 557 2 558 1 570 1 576 1 577 1 597 1 602 1 617 2 633 1 650 1 660 1 705 1 2 1 11 1 17 1 23 1 27 1 36 1 69 1 80 1 86 1 103 1 115 1 140 1 146 1 163 1 192 1 195 1 200 1 210 1 237 1 267 1 288 1 300 1 333 1 335 1 336 1 374 1 382 1 405 1 407 1 420 1 444 1 450 1 485 1 490 1 553 1 556 1 566 1 583 1 651 1 666 1 676 1 725 1 737 1 752 1 761 1 762 1 767 1 811 1 815 1 839 1 843 1 854 1 876 1 880 1 884 1 909 1 931 1 933 1 980 2 985 2 714 1 718 1 719 1 728 1 743 1 753 1 764 1 777 1 793 1 802 1 824 1 860 1 900 1 932 1 936 1 948 1 975 1 986 1 995 1 999 1 1005 1 
1 208 17 1 29 1 49 1 69 1 80 1 138 1 147 1 151 1 158 1 212 1 219 1 245 1 260 1 264 1 267 1 272 1 291 1 324 1 325 1 328 1 399 1 404 1 414 1 421 1 424 1 426 1 433 1 439 1 445 1 470 1 473 1 493 1 500 1 516 1 553 1 580 1 589 1 618 1 627 1 649 1 656 1 687 1 704 1 32 1 34 1 56 1 81 1 87 1 93 1 103 1 124 1 137 1 152 1 178 1 200 1 203 1 222 1 244 1 248 1 249 1 269 1 279 1 281 1 302 1 405 1 454 1 460 1 461 1 463 1 478 1 528 1 530 1 560 1 584 1 591 1 601 1 604 1 623 1 631 1 641 1 644 1 659 1 677 1 678 1 690 1 692 1 696 1 712 1 712 1 733 1 742 1 748 1 779 1 809 1 832 1 844 1 864 2 867 1 887 1 943 1 969 1 978 1 984 1 987 1 731 1 774 1 791 1 792 1 797 1 802 1 808 1 816 1 820 1 842 1 866 1 891 1 893 1 907 1 911 1 949 1 951 1 960 1 1007 1 1012 1 1014 1 
1 206 30 1 33 1 53 1 83 2 106 1 149 1 158 1 246 1 273 1 290 1 335 1 343 1 354 1 437 1 452 1 453 1 471 1 472 1 473 1 481 1 537 1 544 1 545 1 585 1 616 1 649 1 661 1 665 1 666 1 667 1 690 1 709 1 9 1 48 1 49 1 82 1 86 1 138 1 142 1 146 1 185 1 205 1 208 1 215 1 235 1 308 1 314 1 327 1 332 1 355 1 361 1 374 1 378 1 412 1 419 1 439 1 443 1 482 1 504 1 511 1 520 1 521 1 555 1 560 1 570 1 574 1 575 1 658 1 687 1 702 1 717 1 743 2 747 1 750 1 767 1 778 1 793 1 795 1 799 1 805 2 823 1 836 1 840 1 855 1 879 1 888 1 893 1 904 1 957 1 961 1 976 2 991 1 992 1 1000 1 722 1 724 1 727 1 768 1 771 1 774 1 797 1 811 1 814 1 846 1 852 1 863 1 882 1 906 1 927 1 940 1 944 1 949 1 974 1 989 1 996 1 
1 206 23 1 53 1 61 1 67 1 82 2 107 2 108 1 113 1 149 1 151 1 219 1 234 1 235 1 256 1 258 1 265 1 275 2 301 1 305 1 330 1 351 1 369 1 393 1 397 1 408 1 425 1 426 1 447 1 466 1 481 1 533 1 538 1 540 1 560 2 563 1 576 1 607 1 608 1 637 1 659 1 675 1 681 1 690 1 692 1 699 1 11 1 27 1 45 1 52 1 125 1 126 1 127 1 133 1 135 1 168 1 191 1 198 1 200 1 226 1 247 1 292 1 329 1 333 1 347 1 348 1 376 1 392 1 394 1 411 1 430 1 437 1 442 1 443 1 461 1 544 1 548 1 554 1 596 1 600 1 617 1 619 1 624 1 630 1 642 1 662 1 693 1 697 1 709 1 711 1 726 1 757 1 766 1 801 1 848 1 881 1 894 1 912 2 952 1 972 1 973 1 980 1 986 1 1000 1 745 1 785 1 840 1 842 1 854 1 863 1 874 1 913 1 929 1 933 1 955 1 961 1 962 1 990 1 991 1 1008 1 
1 206 5 1 59 1 89 1 102 1 154 1 156 1 167 1 186 1 197 1 204 2 210 1 235 1 245 1 249 1 253 1 258 1 283 1 332 1 355 1 371 2 409 1 414 1 422 1 426 1 435 1 446 1 448 1 451 1 463 1 469 1 489 1 528 1 554 1 559 2 565 1 568 1 624 1 626 1 640 2 646 1 649 1 659 1 12 1 21 1 69 1 73 1 91 1 96 1 142 1 184 1 271 1 273 1 292 1 296 1 300 1 301 1 310 1 393 1 406 1 428 1 444 1 460 1 479 1 485 1 490 1 498 1 542 1 553 1 580 1 596 1 606 1 616 1 630 1 641 1 689 1 707 1 708 1 716 1 718 1 725 1 752 1 809 1 820 1 845 1 852 2 865 1 870 1 878 1 879 1 926 1 931 1 963 1 972 1 987 1 993 1 1001 1 721 1 735 1 746 1 747 1 776 1 796 1 813 1 847 1 850 1 858 1 874 1 881 1 885 1 920 1 949 1 957 1 965 1 1024 1 
1 210 25 1 37 1 62 1 75 1 77 1 83 1 94 1 101 1 118 1 127 1 165 1 166 1 169 1 173 1 194 1 225 2 257 1 265 1 275 1 276 2 328 2 329 1 349 1 361 1 363 1 373 1 375 1 416 1 466 1 482 1 484 1 488 1 531 1 540 1 556 1 572 1 587 1 594 1 614 1 629 1 630 1 654 1 657 1 715 1 11 1 13 1 20 1 40 1 63 1 82 1 100 1 155 1 163 1 183 1 201 1 232 1 279 1 303 1 313 1 318 1 356 1 362 1 407 1 413 1 425 1 467 1 476 1 496 1 507 1 581 1 610 1 628 1 648 1 671 1 686 1 694 1 704 1 710 1 775 1 792 1 806 1 815 1 821 2 852 1 853 1 860 1 897 1 899 1 900 1 902 1 930 1 980 1 720 1 733 1 735 1 738 1 746 1 758 1 773 1 789 1 799 1 802 1 822 1 856 1 892 1 935 1 938 1 941 1 942 1 952 1 954 1 966 1 973 1 1003 1 1019 1 
1 206 21 1 48 1 84 1 91 1 97 2 120 1 147 1 172 1 176 1 199 1 206 1 224 1 251 1 256 1 265 1 271 1 300 1 302 1 315 1 322 1 358 1 363 1 376 1 391 1 445 1 451 1 453 1 460 1 468 1 488 1 499 1 500 1 506 1 507 1 509 1 520 1 538 1 572 1 611 1 628 1 658 1 674 1 682 1 687 1 704 1 713 1 27 1 50 1 76 1 86 1 89 1 94 1 99 1 113 1 124 1 159 1 208 1 307 1 332 1 345 1 365 1 385 1 408 1 409 1 413 1 421 1 430 1 442 1 473 1 475 1 491 1 493 1 496 1 537 1 555 1 564 1 565 1 566 1 570 1 586 1 595 1 608 1 647 1 680 1 718 1 723 1 739 1 742 1 773 2 786 2 787 1 825 1 829 1 848 1 849 1 884 1 892 2 902 1 923 1 943 1 996 1 740 1 764 1 772 1 783 1 795 1 805 1 819 1 831 1 832 1 873 1 955 1 990 1 1015 1 
1 213 19 1 20 1 23 1 31 1 52 1 55 1 66 1 89 1 107 1 143 1 159 1 223 2 233 1 250 1 251 1 279 1 290 1 323 1 352 1 362 1 414 1 435 1 438 1 460 1 474 1 481 1 486 1 491 1 493 1 495 1 522 1 523 1 524 1 528 1 571 1 572 1 592 1 593 1 603 1 606 1 626 1 633 1 655 1 682 2 699 1 702 1 715 1 717 1 1 1 8 1 41 1 43 1 57 1 157 1 165 1 201 1 210 1 216 1 238 1 252 1 258 1 259 1 260 1 310 1 317 1 338 1 342 1 382 1 403 1 432 1 439 1 454 1 477 1 503 1 529 1 560 1 610 1 615 1 629 1 662 1 669 1 677 1 711 1 720 1 746 1 751 1 789 2 797 1 804 1 828 1 837 1 853 2 857 1 881 1 886 1 890 1 896 1 905 1 962 1 966 2 987 1 1001 1 783 1 834 1 887 1 915 1 919 1 936 1 963 1 965 1 970 1 1017 1 1018 1 
1 215 10 1 46 1 57 1 60 1 92 1 94 1 96 1 156 1 188 1 230 1 269 1 274 1 275 1 289 1 317 1 322 1 323 1 356 1 357 1 385 1 450 1 464 1 467 2 484 1 539 1 556 1 557 1 562 1 570 1 605 1 606 1 610 1 619 1 636 1 640 1 674 1 4 1 5 1 31 1 45 1 78 1 80 1 87 1 128 1 146 1 163 1 168 1 192 1 194 1 206 1 208 1 216 1 254 1 302 1 316 1 321 1 325 1 330 1 338 1 352 1 365 1 374 1 383 1 416 1 436 1 458 1 478 1 547 1 584 1 591 1 604 1 625 1 627 1 652 1 673 1 678 1 688 1 711 1 725 1 745 1 764 1 788 1 828 1 830 1 840 1 883 1 909 1 916 1 925 2 943 1 956 1 978 1 988 1 990 1 991 1 735 1 757 1 765 1 778 1 793 1 838 1 851 1 852 1 866 1 897 1 918 1 920 1 927 1 979 1 1004 1 1019 1 1026 1 
1 214 38 2 69 1 72 1 74 1 97 1 105 1 115 1 125 1 126 1 130 1 204 1 207 1 231 1 232 1 244 1 250 1 256 1 261 2 348 1 365 1 390 1 422 1 431 1 453 2 469 1 489 1 493 1 534 1 568 1 578 1 584 1 596 1 603 1 619 1 637 1 669 1 675 1 700 1 718 1 35 1 46 1 51 1 129 1 149 1 179 1 193 1 209 1 252 1 306 1 337 1 355 1 368 1 371 1 374 1 430 1 467 1 473 1 499 1 509 1 513 1 518 1 533 1 563 1 572 1 576 1 583 1 612 1 631 1 643 1 660 1 672 1 690 1 698 1 716 1 726 1 730 1 739 1 747 1 752 1 767 1 771 1 777 1 787 1 793 1 800 1 816 1 891 1 898 1 900 1 951 1 976 1 986 1 988 1 737 1 772 1 774 1 780 1 781 1 792 1 808 1 824 1 833 1 839 1 854 1 875 1 911 1 916 1 923 1 962 1 985 1 1003 1 1010 1 1011 1 
1 207 8 1 13 2 15 1 17 1 31 1 34 1 42 1 49 1 64 1 100 2 137 2 220 1 232 1 236 1 277 1 292 1 342 1 366 1 367 1 394 1 423 1 432 1 449 1 454 1 455 1 457 1 500 1 509 1 510 2 560 2 563 1 597 1 617 1 621 2 643 1 655 2 666 1 688 1 700 1 707 1 6 1 24 1 109 1 141 1 142 1 146 1 163 1 166 1 172 1 180 1 189 1 199 1 245 1 253 1 256 1 275 1 288 1 328 1 336 1 343 1 379 1 430 1 462 1 477 1 519 1 522 1 530 1 613 1 624 1 663 1 692 1 715 1 737 1 772 1 788 1 830 1 932 2 938 1 958 1 740 1 754 1 757 1 770 1 780 1 795 1 797 1 819 1 820 1 839 1 847 1 849 1 855 1 856 1 859 1 902 1 966 1 973 1 974 1 986 1 988 1 1018 1 1022 1 
1 212 50 1 110 1 140 1 143 1 155 1 162 1 168 1 178 1 209 1 237 1 270 1 329 1 374 1 380 1 403 1 429 1 442 1 458 1 460 1 505 1 510 1 516 1 518 1 528 1 573 1 578 2 598 1 606 1 616 1 656 1 661 1 690 1 706 1 5 1 42 1 60 1 67 1 71 1 79 1 88 1 105 1 108 1 124 1 129 1 135 1 144 1 166 1 170 1 175 1 176 1 190 1 205 1 207 1 220 1 231 1 240 1 246 1 292 1 339 1 344 1 377 1 392 1 404 1 433 1 435 1 450 1 469 1 476 1 477 1 500 1 542 1 546 1 575 1 581 1 622 1 636 1 637 1 639 1 642 1 654 1 658 1 673 1 677 1 679 1 713 1 738 1 747 2 755 1 799 1 845 1 875 1 960 1 966 1 987 1 1001 1 724 1 741 1 757 1 761 1 774 1 777 1 780 1 786 1 796 1 808 1 882 1 886 1 887 1 919 1 935 1 939 1 956 1 964 1 984 1 992 1 1003 1 1007 1 1011 1 1012 1 
1 210 7 1 19 1 28 1 50 2 96 1 140 1 202 1 214 1 217 1 222 1 236 1 242 1 266 1 268 2 303 1 305 2 314 1 326 1 355 1 379 1 386 1 433 1 436 1 456 1 463 1 485 1 488 1 498 1 501 1 513 1 517 1 528 1 531 1 551 1 568 1 620 1 635 1 650 1 664 1 669 1 682 1 683 1 689 1 693 1 717 1 39 1 40 1 43 1 58 1 59 1 71 1 73 1 92 1 110 1 116 1 118 1 209 1 251 1 252 1 255 1 260 1 302 1 310 1 387 1 389 1 402 1 435 1 444 1 455 1 471 1 519 1 532 1 533 1 537 1 541 1 560 1 580 1 592 1 612 1 626 1 674 1 688 1 690 1 698 1 703 1 727 1 735 1 739 1 765 1 769 1 770 1 788 1 803 1 815 1 827 2 834 1 842 1 846 2 855 1 884 1 907 1 914 1 919 1 921 1 728 1 743 1 747 1 784 1 785 1 822 1 837 1 875 1 879 1 883 1 899 1 903 1 918 1 935 1 940 1 958 1 985 1 996 1 1014 1 1021 1 
1 204 40 1 41 1 77 1 78 1 96 1 118 1 126 1 134 1 135 1 173 1 174 1 185 1 207 1 244 1 247 1 260 1 265 1 279 1 316 1 321 1 333 1 351 1 373 1 397 1 438 1 439 1 443 1 449 1 453 1 474 1 489 1 555 1 588 1 598 1 619 1 626 1 653 1 677 1 682 1 698 1 5 1 9 1 12 1 24 1 50 1 56 1 61 1 90 1 122 1 125 1 154 1 160 1 200 1 201 1 202 1 206 1 229 1 251 1 258 1 292 1 295 1 298 1 301 1 305 1 345 1 365 1 375 1 384 1 391 1 398 1 409 1 419 1 485 1 513 1 524 1 563 1 584 1 592 1 597 1 613 1 675 1 683 1 709 1 713 1 722 1 740 1 741 1 746 1 754 1 772 1 807 1 824 1 840 1 900 1 913 1 922 1 954 1 977 1 994 1 745 1 757 1 776 1 778 1 788 1 815 1 816 1 825 1 848 1 850 1 860 1 885 1 924 1 983 1 984 1 1003 1 1014 1 
1 211 5 1 15 1 31 1 42 1 50 1 56 1 68 1 73 1 77 1 107 1 123 1 150 1 152 1 156 1 170 1 183 1 193 1 209 1 247 1 263 1 297 1 307 1 311 1 334 1 367 1 411 1 414 1 428 1 444 1 456 1 458 1 477 1 481 1 485 1 547 1 598 1 669 1 680 1 687 1 688 1 695 1 704 1 711 1 715 1 719 1 4 1 16 1 17 1 38 1 46 1 71 1 141 1 153 1 187 1 189 1 194 1 202 1 215 1 251 1 315 1 330 1 455 1 459 1 461 1 479 1 480 1 544 1 556 1 583 1 592 1 613 1 619 1 620 1 622 1 637 1 650 1 685 1 690 1 698 1 702 1 736 1 744 1 757 1 759 1 786 1 806 1 815 1 829 1 838 1 841 1 847 1 858 2 873 1 876 1 888 1 894 1 902 1 905 1 915 1 936 1 942 1 957 1 973 1 977 1 986 1 989 1 994 1 996 1 782 1 785 1 788 1 812 1 832 1 848 1 850 1 867 1 884 1 913 1 929 1 947 1 970 1 981 1 1025 1 1026 1 
1 213 1 1 12 2 22 2 37 1 84 1 101 1 102 1 120 1 131 1 196 1 211 1 226 1 253 1 258 1 268 1 274 1 296 1 304 1 305 1 323 1 328 1 330 1 346 1 403 1 421 1 432 1 434 1 439 1 444 1 445 1 457 1 529 1 530 1 585 1 587 1 605 1 612 1 618 1 630 1 641 1 657 1 660 1 674 1 685 1 706 1 714 1 720 1 31 1 59 1 71 1 78 1 83 1 100 1 112 1 116 1 119 1 121 1 124 1 143 1 146 1 165 1 189 1 204 1 267 1 284 1 320 1 322 1 391 1 395 1 399 1 413 1 417 1 455 1 472 1 485 1 487 1 490 1 502 1 531 1 545 1 553 1 555 1 565 1 567 1 582 1 591 1 595 1 615 1 677 1 697 1 703 1 763 1 801 1 817 1 821 1 826 1 827 1 847 1 858 1 883 1 889 1 894 1 921 1 930 1 939 1 943 1 949 1 953 1 957 1 971 1 977 1 981 1 765 1 785 1 805 1 841 1 852 1 917 1 919 1 922 1 942 1 965 1 1019 1 1021 1 
1 213 9 1 35 2 40 1 88 1 104 1 111 1 127 1 138 1 142 2 143 1 152 1 184 1 206 1 212 1 214 1 240 1 251 1 258 1 281 1 291 1 293 1 303 1 311 1 334 1 336 1 384 1 385 1 432 1 439 1 455 1 461 1 466 1 477 1 489 1 508 1 524 1 525 1 553 1 616 1 642 2 659 1 665 1 675 1 679 1 689 1 710 1 723 1 8 1 60 1 62 1 114 1 122 1 130 1 150 1 175 1 190 1 193 1 194 1 210 1 231 1 274 1 338 1 344 1 347 1 358 1 363 1 401 1 411 1 452 1 456 1 457 1 511 1 535 1 555 1 610 1 629 1 650 1 656 1 667 1 697 1 713 1 748 1 753 1 783 1 788 1 798 1 800 1 857 1 870 1 888 1 900 1 970 1 975 1 979 1 986 1 992 1 743 1 763 1 802 1 851 1 869 1 927 1 928 1 929 1 943 1 955 1 960 1 980 1 991 1 1004 1 1006 1 1025 1 1026 1 
1 210 24 1 39 1 55 1 126 1 127 1 138 2 141 1 143 1 195 1 197 1 199 1 232 1 236 1 241 1 270 1 277 1 294 1 323 2 327 1 357 1 425 1 427 1 437 1 497 1 545 1 554 1 560 1 570 1 596 1 598 1 613 1 622 1 632 1 659 1 669 1 682 1 692 1 709 1 15 1 43 1 48 1 69 1 116 1 118 1 121 1 160 1 165 1 172 1 175 1 193 1 196 1 206 1 208 1 229 1 245 1 257 1 282 1 328 1 386 1 409 1 412 1 422 1 423 1 433 1 438 1 459 1 462 1 517 1 533 1 537 1 538 1 565 1 579 1 588 1 594 1 610 1 614 1 639 1 666 1 673 1 684 1 699 1 705 1 711 1 723 1 761 1 766 1 788 1 802 1 825 1 826 2 891 1 896 1 941 1 956 2 984 1 754 1 774 1 787 1 793 1 798 1 823 1 838 1 853 1 859 1 883 1 927 1 945 1 948 1 967 1 993 1 1008 1 1010 1 1021 1 1025 1 
1 209 16 2 44 1 60 1 67 1 91 1 93 1 108 1 128 1 136 1 160 1 190 1 200 1 225 1 230 1 238 1 256 1 264 1 289 1 297 1 316 1 322 1 324 1 330 1 351 1 387 1 427 1 431 2 446 1 458 1 508 1 514 1 533 1 540 1 543 1 550 1 574 1 582 1 591 1 606 2 620 1 626 1 634 2 689 1 703 1 706 1 4 1 11 1 23 1 39 1 79 1 83 1 118 1 121 1 139 1 147 1 161 1 181 1 182 1 213 1 251 1 267 1 269 1 307 1 318 1 323 1 341 1 347 1 371 1 391 1 398 1 402 1 460 1 464 1 496 1 504 1 520 1 530 1 571 1 578 1 579 1 585 1 593 1 607 1 610 1 622 1 641 1 646 1 660 1 693 1 729 1 729 1 740 1 742 1 759 1 783 1 785 1 791 1 792 1 814 2 816 1 826 1 839 1 870 1 874 1 887 1 889 1 892 1 893 1 894 1 901 1 912 2 931 1 950 1 952 1 971 1 974 1 981 2 983 1 999 1 765 1 786 1 835 1 844 1 863 1 872 1 878 1 928 1 979 1 984 1 1000 1 1011 1 1018 1 
1 208 27 1 30 1 34 1 36 1 43 1 53 1 57 1 60 1 91 1 105 1 110 1 127 1 166 1 182 1 184 1 190 1 224 1 235 1 246 1 281 1 291 2 294 1 298 1 307 1 311 1 341 1 369 1 405 1 427 1 434 1 439 1 486 1 536 1 566 1 586 1 592 1 593 1 603 1 630 1 633 1 643 1 663 1 693 1 702 1 707 1 720 1 14 1 16 1 29 1 48 1 59 1 79 1 107 1 108 1 120 1 148 1 150 1 153 1 209 1 213 1 228 1 233 1 252 1 260 1 292 1 304 1 347 1 350 1 393 1 402 1 425 1 433 1 445 1 509 1 574 1 602 1 604 1 610 1 640 1 642 1 676 1 686 1 688 1 694 1 747 1 750 1 762 1 764 1 781 1 798 1 818 1 850 1 865 1 938 1 940 1 960 1 971 1 984 1 741 1 806 1 807 1 814 1 815 1 867 1 870 1 899 1 970 1 1012 1 
1 213 50 1 77 1 90 1 108 1 118 1 148 1 155 1 165 1 172 1 184 1 198 1 200 1 208 1 218 1 267 1 272 1 283 1 301 1 309 2 323 1 377 1 397 1 437 1 476 1 484 1 498 1 504 1 511 1 516 1 530 1 535 1 541 1 557 1 582 1 690 1 702 1 705 1 706 1 11 1 14 1 26 1 44 1 54 1 66 1 109 1 112 1 114 1 116 1 121 1 129 1 201 1 205 1 219 1 225 1 237 1 296 1 303 1 311 1 314 1 338 1 392 1 402 1 405 1 451 1 458 1 464 1 473 1 485 1 486 1 578 1 580 1 585 1 625 1 632 1 645 1 653 1 709 1 712 1 737 1 756 1 804 1 817 1 828 1 886 1 896 1 898 1 906 1 919 1 925 1 951 1 960 1 965 1 976 1 984 1 987 1 735 1 763 1 773 1 794 1 849 1 867 1 871 1 875 1 905 1 916 1 937 1 974 1 1003 1 1006 1 1009 1 1019 1 1024 1 
1 207 2 1 16 1 23 1 38 1 40 1 41 1 67 1 73 1 75 1 118 1 145 1 147 2 160 1 162 1 180 1 183 1 187 1 194 1 198 1 209 1 216 2 218 1 281 1 295 1 299 1 333 1 350 2 355 1 358 1 365 1 381 1 384 1 399 1 401 1 422 1 434 2 443 1 454 2 484 1 485 1 527 1 543 1 547 1 549 1 554 1 555 1 582 1 600 1 614 1 640 1 656 1 683 1 686 1 688 1 696 1 7 1 31 1 77 1 135 1 150 1 175 1 189 1 212 1 213 1 227 1 269 1 282 1 303 1 305 1 307 1 310 1 364 1 466 1 529 1 558 1 585 1 590 1 645 1 651 1 663 1 685 1 698 1 700 1 707 1 740 1 749 1 758 1 782 1 790 1 830 1 835 1 858 1 864 1 867 1 895 1 910 1 963 1 983 2 986 2 746 1 768 1 777 1 787 1 799 1 809 1 826 1 842 1 855 1 876 1 881 1 898 1 907 1 909 1 979 1 1022 1 
1 210 8 1 48 1 50 1 74 1 77 1 79 1 84 1 120 1 141 2 176 1 177 1 204 1 220 1 238 1 244 1 254 1 261 1 282 2 305 2 316 1 334 1 336 1 340 1 357 1 390 1 417 1 434 2 435 1 439 1 459 1 465 1 472 2 475 1 513 1 596 1 609 1 628 1 648 1 652 1 670 2 683 1 689 1 712 1 2 1 9 1 11 1 23 1 35 1 42 1 65 1 71 1 81 1 121 1 156 1 160 1 169 1 172 1 179 1 186 1 187 1 210 1 234 1 239 1 243 1 265 1 277 1 351 1 362 1 394 1 398 1 400 1 448 1 479 1 492 1 537 1 538 1 546 1 548 1 563 1 580 1 592 1 593 1 598 1 599 1 615 1 641 1 645 1 661 1 716 1 768 1 773 1 777 1 788 1 826 1 845 2 857 1 871 1 878 1 894 1 942 1 955 1 964 1 965 1 986 1 990 1 996 2 1001 1 746 1 748 1 760 1 794 1 805 1 808 1 810 1 822 1 836 1 838 1 848 1 860 1 903 1 919 1 935 1 963 1 969 1 974 1 1008 1 1012 1 1013 1 
1 217 88 1 97 1 102 1 106 1 108 1 118 1 138 1 146 1 154 1 167 1 188 1 189 1 190 1 199 1 238 1 253 1 262 1 269 1 270 1 281 1 313 1 328 1 331 1 337 1 346 1 371 1 395 2 396 1 454 1 471 1 482 1 512 1 520 1 548 1 589 1 592 1 646 1 658 1 670 1 690 1 693 1 694 1 707 1 22 1 46 1 56 1 76 1 78 1 79 1 89 1 100 1 160 1 177 1 180 1 185 1 204 1 208 1 217 1 223 1 227 1 246 1 284 1 343 1 414 1 424 1 428 1 430 1 442 1 476 1 481 1 486 1 509 1 529 1 552 1 563 1 581 1 615 1 643 1 650 1 659 1 663 1 679 1 680 1 697 1 735 1 741 1 742 1 760 1 779 1 812 1 816 1 827 1 828 2 907 1 924 1 951 1 967 1 983 1 1000 1 739 1 767 1 788 1 830 1 839 1 852 1 879 1 897 1 903 1 946 1 957 1 972 1 977 1 981 1 998 1 1004 1 1005 1 1010 1 1020 1 1025 1 1026 1 
1 207 8 1 21 1 37 1 45 1 70 1 101 1 129 1 165 1 178 1 183 1 187 1 193 1 194 1 213 2 218 1 270 1 300 1 303 1 322 1 395 1 396 1 406 1 427 1 434 1 435 1 478 1 497 1 531 1 562 1 579 1 580 1 648 1 651 1 669 1 672 1 700 1 707 1 723 1 734 1 1 1 4 1 16 1 23 1 24 1 32 1 54 1 76 1 122 1 142 1 154 1 173 1 176 1 235 1 258 1 262 1 272 1 278 1 296 1 333 1 352 1 360 1 369 1 370 1 382 1 399 1 401 1 411 1 432 1 444 1 449 1 467 1 498 1 505 1 552 1 577 1 588 1 615 1 641 1 658 1 664 1 715 1 716 1 719 1 731 1 737 1 748 1 751 1 772 1 812 1 817 1 832 1 839 1 877 1 881 1 920 1 925 1 939 1 943 1 964 1 965 1 975 1 984 1 749 1 765 1 777 1 802 1 813 1 815 1 827 1 850 1 851 1 859 1 867 1 908 1 919 1 934 1 949 1 966 1 996 1 1000 1 1011 1 
1 207 1 1 15 2 29 1 52 1 67 1 76 1 92 1 117 1 127 1 136 1 137 1 138 1 139 1 168 1 171 1 172 1 182 1 192 1 204 1 210 1 216 1 227 1 321 1 338 1 342 1 353 1 388 1 394 1 409 1 411 1 413 1 420 1 431 1 438 1 468 1 498 2 502 1 516 1 533 1 537 1 631 1 661 1 688 1 691 1 696 1 703 1 708 1 725 1 20 1 39 1 41 1 53 1 95 1 98 1 105 1 119 1 144 1 153 1 196 1 254 1 255 1 257 1 282 1 289 1 300 1 318 1 370 1 384 1 387 1 389 1 430 1 450 1 454 1 463 1 491 1 515 1 527 1 557 1 611 1 612 1 623 1 635 1 662 1 738 1 750 1 768 1 791 1 834 1 840 1 854 1 856 1 868 2 883 1 894 1 902 1 903 1 916 1 923 1 924 1 930 1 948 1 974 1 978 1 984 1 810 1 822 1 835 1 848 1 869 1 876 1 932 1 934 1 941 1 953 1 956 1 967 1 975 1 987 1 989 1 1023 1 
1 207 2 1 33 1 78 1 102 1 122 1 164 1 176 1 263 1 279 2 281 2 300 1 306 1 321 1 323 1 329 1 344 1 351 1 359 1 387 1 435 1 447 1 454 1 472 2 483 1 492 1 503 1 508 1 518 1 537 1 540 1 553 1 583 1 589 1 618 1 623 1 632 1 659 1 697 2 711 1 721 1 731 1 735 1 4 1 67 1 92 1 93 1 139 1 145 1 169 1 179 1 214 1 226 1 253 1 296 1 349 1 353 1 361 1 385 1 391 1 396 1 407 1 425 1 449 1 450 1 462 1 474 1 486 1 488 1 510 1 515 1 519 1 555 1 612 1 614 1 661 1 662 1 668 1 676 1 682 1 702 1 720 1 749 1 754 1 773 1 778 1 800 1 832 1 863 1 867 2 904 1 905 1 924 1 930 1 937 1 979 1 746 1 776 1 785 1 790 1 810 1 850 1 852 1 870 1 873 1 875 1 908 1 910 1 918 1 919 1 947 1 958 1 971 1 1006 1 
1 213 15 1 18 1 51 1 77 1 93 1 110 1 127 1 140 1 141 1 158 1 165 1 166 1 193 1 231 1 309 1 312 1 318 1 321 1 337 1 342 1 365 2 366 1 371 1 373 1 382 1 394 1 417 1 426 1 449 1 450 1 458 1 484 1 487 1 508 1 588 1 593 1 599 1 602 1 628 1 651 1 670 1 709 1 722 1 736 1 1 1 73 1 95 1 118 1 185 1 190 1 210 1 224 1 230 1 243 1 257 1 273 1 282 1 289 1 301 1 308 1 343 1 350 1 357 1 368 1 387 1 389 1 393 1 408 1 474 1 512 1 545 1 551 1 570 1 572 1 596 1 597 1 622 1 624 1 626 1 629 1 665 1 671 1 675 1 688 1 696 1 716 1 746 1 747 1 751 1 773 1 774 1 811 1 827 1 831 2 838 1 843 1 870 1 881 1 885 1 890 1 894 1 901 1 906 1 930 1 948 1 956 1 981 1 998 1 741 1 750 1 760 1 777 1 785 1 797 1 799 1 826 1 830 1 848 1 857 1 859 1 895 1 939 1 941 1 961 1 1002 1 1003 1 1015 1 1016 1 1024 1 
1 205 57 1 80 1 93 1 115 1 136 1 146 1 149 1 165 1 184 1 199 1 234 1 253 1 262 1 331 1 346 1 351 1 385 1 388 1 408 1 410 1 418 2 420 1 457 1 462 1 491 1 496 1 523 1 533 1 550 1 555 1 561 1 583 1 584 1 598 1 618 1 644 1 657 1 674 1 717 1 720 1 723 1 4 1 7 1 31 1 46 1 53 1 69 1 88 1 89 1 102 1 109 1 113 1 119 1 137 1 148 1 183 1 226 1 236 1 287 1 290 1 299 1 302 1 317 1 326 1 356 1 357 1 366 1 389 1 411 1 415 1 450 1 470 1 499 1 507 1 529 1 531 1 557 1 576 1 617 1 636 1 638 1 650 1 653 1 672 1 686 1 707 1 734 1 800 2 824 2 827 1 838 1 863 1 868 1 878 1 901 1 904 1 931 1 950 1 969 1 971 1 996 1 752 1 820 1 854 1 880 1 884 1 889 1 906 1 907 1 917 1 967 1 983 1 994 1 1017 1 
1 210 2 1 7 1 35 1 58 1 94 2 101 1 140 1 144 1 160 1 171 1 177 1 183 1 189 1 220 1 249 1 282 1 322 1 338 1 379 2 397 1 454 1 484 1 486 1 555 1 575 1 599 1 608 1 609 1 646 1 647 2 682 1 684 1 697 1 724 1 729 1 732 1 9 1 14 1 23 1 44 1 53 1 54 1 83 1 95 1 117 1 156 1 186 1 204 1 208 1 239 1 257 1 278 1 299 1 360 1 382 1 385 1 402 1 409 1 424 1 437 1 464 1 489 1 511 1 513 1 520 1 524 1 541 1 553 1 563 1 572 1 612 1 623 1 652 1 656 1 685 1 717 1 721 1 747 1 829 1 858 1 944 1 946 1 947 2 949 1 961 1 966 1 741 1 771 1 778 1 782 1 788 1 789 1 838 1 869 1 879 1 894 1 895 1 911 1 945 1 963 1 975 1 977 1 983 1 988 1 1005 1 1009 1 1019 1 1026 1 
1 211 36 1 42 2 63 1 72 1 74 1 103 1 134 1 139 1 159 1 167 1 171 1 183 1 186 1 193 1 200 1 201 2 223 1 233 1 291 1 306 1 329 1 430 1 438 2 450 1 467 1 491 1 503 1 524 1 550 1 552 1 555 1 557 1 559 1 577 1 583 1 587 1 596 1 600 1 621 1 678 1 686 1 690 1 702 1 724 1 734 1 15 1 23 1 58 1 85 1 86 1 88 1 92 1 104 1 108 1 124 1 126 1 131 1 132 1 135 1 155 1 177 1 209 1 225 1 248 1 290 1 324 1 345 1 354 1 369 1 370 1 429 1 477 1 510 1 523 1 528 1 537 1 542 1 548 1 641 1 647 1 676 1 698 1 700 1 701 1 722 1 730 1 738 1 740 1 750 1 781 1 784 1 786 1 799 1 807 1 844 1 858 1 875 1 881 1 894 1 917 1 932 1 942 1 975 1 976 1 751 1 763 1 766 1 770 1 828 1 831 1 845 1 921 1 926 1 934 1 945 1 952 1 1013 1 1018 1 1020 1 1027 1 
1 210 20 1 45 1 56 1 83 1 109 1 127 1 143 1 155 1 159 1 169 1 189 1 216 1 235 2 238 2 241 1 244 2 267 1 271 1 300 1 338 1 361 1 381 1 388 1 390 1 407 2 469 1 473 1 507 1 535 1 541 1 595 1 616 2 623 1 624 1 625 1 626 1 639 1 657 1 671 1 685 1 686 1 712 1 717 1 729 1 734 1 3 1 4 1 11 1 41 1 44 1 55 1 60 1 64 1 67 1 71 1 135 1 186 1 204 1 250 1 253 1 277 1 296 1 310 1 324 1 330 1 332 1 355 1 367 1 373 1 395 1 402 1 455 1 470 1 481 1 502 1 518 1 521 1 523 1 528 1 532 1 566 1 591 1 662 1 670 1 680 1 689 1 697 1 706 1 742 1 742 1 765 1 817 2 822 1 823 1 833 1 857 1 880 1 923 1 987 1 770 1 787 1 821 1 824 1 836 1 858 1 924 1 931 1 950 1 956 1 968 1 1002 1 1009 1 1027 1 
1 210 3 1 14 1 27 1 31 1 33 1 48 1 98 1 117 1 128 1 135 1 140 2 167 1 189 1 193 1 194 2 210 1 214 1 293 1 327 1 370 1 380 1 382 1 388 1 389 1 455 1 463 1 481 1 486 1 543 1 544 1 552 1 606 1 612 1 629 1 654 1 693 1 694 1 698 1 713 2 8 1 54 1 61 1 62 1 65 1 143 1 152 1 164 1 191 1 206 1 207 1 221 1 236 1 253 1 264 1 296 1 306 1 340 1 348 1 349 1 377 1 387 1 397 1 422 1 438 1 440 1 471 1 488 1 525 1 530 1 548 1 564 1 578 1 618 1 655 1 668 1 670 1 711 1 723 1 727 1 757 1 762 1 770 1 826 1 835 1 849 1 856 1 878 1 880 1 890 1 900 1 925 1 932 1 935 1 943 1 965 1 969 1 972 1 980 2 983 1 995 1 781 1 803 1 816 1 820 1 824 1 851 1 867 1 889 1 917 1 922 1 956 1 957 1 1001 1 1012 1 1024 1 
1 208 46 1 67 1 115 1 130 1 153 1 174 1 241 1 243 1 281 1 307 1 318 1 323 2 328 1 338 1 377 1 398 1 399 1 407 1 416 1 422 1 426 1 432 1 466 1 508 1 510 1 529 1 585 1 632 1 636 1 641 2 651 1 660 1 663 1 666 1 678 2 692 2 725 1 10 1 26 1 47 1 83 1 84 1 98 1 107 1 143 1 169 1 182 1 184 1 189 1 206 1 213 1 228 1 230 1 249 1 300 1 315 1 333 1 358 1 378 1 413 1 424 1 431 1 446 1 454 1 456 1 489 1 490 1 509 1 556 1 574 1 576 1 608 1 623 1 639 1 647 1 650 1 667 1 749 1 753 1 766 1 789 1 813 1 834 1 836 1 839 1 851 1 871 1 884 1 888 1 915 1 922 1 933 1 940 1 951 1 986 1 995 1 759 1 776 1 786 1 801 1 803 1 824 1 846 1 855 1 856 1 890 1 927 1 943 1 947 1 961 1 1008 1 1009 1 1026 1 
1 207 12 1 23 1 37 1 40 1 54 1 74 1 75 1 83 1 84 1 104 1 149 1 167 1 208 1 248 1 249 1 256 1 307 2 340 1 363 1 365 1 383 1 388 1 427 1 429 1 439 1 443 1 465 1 466 1 467 1 470 1 484 1 521 1 541 1 560 1 586 1 587 1 597 1 605 1 621 1 628 2 646 1 655 1 657 1 663 1 693 1 701 2 709 1 719 1 3 1 22 1 35 1 43 1 116 1 132 1 152 1 158 1 195 1 203 1 220 1 222 1 229 1 246 1 263 1 269 1 274 1 314 1 320 1 323 1 386 1 460 1 527 1 531 1 539 1 543 1 557 1 564 1 601 1 636 1 642 1 648 1 678 1 684 1 697 1 704 1 706 1 714 1 724 1 750 1 753 1 771 1 795 1 810 1 831 1 834 1 862 1 881 1 882 1 900 1 904 1 907 1 999 1 1000 1 748 1 788 1 839 1 859 1 869 1 889 1 902 1 935 1 941 1 978 1 979 1 989 1 990 1 1011 1 
1 204 43 1 89 1 99 1 138 1 151 1 161 2 194 1 226 1 321 1 358 1 365 1 370 1 375 1 377 1 389 1 393 1 417 1 424 2 425 1 439 1 451 1 453 1 458 1 460 1 461 1 472 1 507 1 580 1 587 1 596 1 632 1 635 1 662 1 664 1 667 1 691 1 701 1 718 1 724 1 738 1 4 1 24 1 35 1 38 1 62 1 77 1 87 1 102 1 115 1 121 1 127 1 155 1 169 1 178 1 208 1 232 1 236 1 251 1 252 1 255 1 275 1 277 1 328 1 382 1 396 1 399 1 406 1 409 1 445 1 479 1 536 1 541 1 576 1 583 1 599 1 658 1 683 1 694 1 703 1 709 1 715 1 716 1 732 1 733 1 737 1 777 1 781 1 804 1 818 1 829 1 850 1 853 1 867 1 873 1 895 1 896 1 898 1 912 1 920 1 942 1 955 1 968 1 987 1 991 1 998 1 770 1 796 1 864 1 866 1 899 1 913 1 926 1 930 1 982 1 
1 211 5 1 9 1 25 2 35 1 60 1 90 1 104 1 110 1 183 1 186 1 216 1 231 2 272 1 273 1 280 1 284 1 319 1 327 1 339 1 368 1 373 1 386 1 402 1 417 1 449 1 463 1 465 1 471 1 473 1 484 1 486 1 527 1 530 1 560 1 564 2 567 1 572 1 604 1 622 1 630 1 634 1 641 1 713 1 720 1 722 2 730 1 738 1 740 1 49 1 93 1 107 1 114 1 129 1 137 1 146 1 152 1 164 1 194 1 209 1 234 1 235 1 259 1 310 1 328 1 332 1 337 1 351 1 371 1 407 1 412 1 413 1 432 1 497 1 518 1 524 1 531 1 533 1 534 1 568 1 585 1 593 1 614 1 676 1 684 1 685 1 715 1 723 1 758 1 767 1 783 1 809 1 811 1 813 1 851 1 867 1 880 1 892 1 900 1 903 1 925 1 760 1 761 1 780 1 799 1 803 1 814 1 819 1 820 1 833 1 837 1 856 1 860 1 868 1 881 1 882 1 916 1 927 1 944 1 954 1 957 1 986 1 990 1 993 1 998 1 1020 1 
1 209 10 1 11 1 37 1 77 1 102 1 129 1 143 1 147 1 157 1 161 1 177 1 179 1 224 1 241 1 242 1 277 1 279 1 295 1 312 1 329 1 333 1 339 1 388 1 405 1 413 1 420 1 432 1 449 1 455 1 465 1 470 1 482 1 494 1 527 1 574 1 585 1 587 1 602 1 612 1 617 1 643 1 658 1 661 1 687 1 712 1 727 1 735 1 21 1 33 1 44 1 133 1 151 1 162 1 169 1 223 1 239 1 298 1 330 1 331 1 363 1 367 1 374 1 375 1 376 1 385 1 406 1 434 1 442 1 486 1 487 1 492 1 509 1 513 1 525 1 549 1 572 1 575 1 599 1 607 1 626 1 645 1 677 1 688 1 706 1 709 1 733 1 745 1 754 1 785 1 790 1 811 1 827 1 837 1 850 1 863 1 864 1 883 1 917 1 936 1 944 1 947 1 963 1 752 1 755 1 781 1 796 1 821 1 826 1 830 1 843 1 848 1 862 1 881 1 900 1 932 1 941 1 946 1 967 1 977 1 978 1 1001 1 1004 1 1010 1 1011 1 1024 1 
1 208 38 1 39 2 41 1 66 1 77 1 100 1 103 1 104 1 148 1 194 1 223 1 225 1 236 1 237 1 244 1 255 1 326 1 369 1 383 1 391 1 420 1 429 1 431 1 448 1 463 1 472 1 475 1 497 2 501 1 510 1 544 1 568 1 570 1 594 1 616 1 638 1 662 1 684 1 707 1 732 1 737 1 744 1 17 1 18 1 25 1 55 1 69 1 73 1 90 1 92 1 93 1 109 1 151 1 168 1 212 1 257 1 305 1 313 1 334 1 338 1 370 1 374 1 393 1 396 1 407 1 438 1 470 1 471 1 474 1 483 1 493 1 495 1 507 1 543 1 547 1 549 1 552 1 561 1 578 1 588 1 609 1 612 1 623 1 625 1 629 1 690 1 696 1 702 1 704 1 735 1 751 1 755 1 810 1 813 1 832 1 835 1 891 1 913 1 916 1 918 1 954 1 966 1 971 1 993 1 999 1 753 1 776 1 809 1 836 1 842 1 866 1 886 1 952 1 961 1 963 1 977 1 1017 1 1027 1 
1 215 41 2 44 1 63 1 78 1 103 1 104 1 106 1 112 1 122 1 175 1 203 1 213 1 222 1 331 1 338 1 341 1 425 1 434 2 453 1 461 1 473 1 512 1 529 1 554 1 560 1 575 1 607 1 640 1 662 1 669 1 689 1 690 1 692 1 701 1 713 1 730 1 736 1 741 1 745 1 52 1 84 1 169 1 176 1 183 1 184 1 234 1 253 1 257 1 268 1 295 1 297 1 304 1 309 1 316 1 329 1 335 1 345 1 369 1 416 1 418 1 446 1 457 1 471 1 488 1 499 1 502 1 511 1 520 1 568 1 581 1 591 1 647 1 695 1 702 1 706 1 738 1 750 1 750 1 766 1 788 1 801 1 831 1 837 1 861 1 880 1 891 1 916 1 925 1 950 1 967 2 973 1 989 1 991 1 775 1 776 1 789 1 807 1 809 1 826 1 832 1 838 1 883 1 927 1 960 1 970 1 986 1 1001 1 1002 1 1003 1 1006 1 1011 1 1012 1 1013 1 1016 1 1021 1 1026 1 
1 214 37 1 45 1 75 1 154 1 159 1 163 1 197 1 282 1 285 2 288 1 293 1 295 2 300 1 325 1 375 1 410 1 434 1 442 1 462 1 467 1 473 1 478 1 483 1 488 1 503 1 518 1 581 1 600 1 605 1 626 1 632 1 635 1 663 2 667 2 670 1 718 1 735 1 738 1 749 1 9 1 46 1 53 1 74 1 90 1 165 1 190 1 203 1 216 1 218 1 219 1 275 1 327 1 331 1 342 1 360 1 373 1 384 1 447 1 452 1 454 1 460 1 461 1 471 1 539 1 553 1 557 1 562 1 568 1 569 1 577 1 583 1 597 1 599 1 648 1 687 1 693 1 741 1 753 1 764 1 771 1 773 1 776 1 785 1 786 1 829 1 851 1 859 1 918 2 926 2 947 1 985 1 990 1 756 1 762 1 772 1 897 1 913 1 928 1 930 1 941 1 1003 1 1007 1 1020 1 1027 1 
1 209 3 1 6 1 11 1 13 1 16 1 20 1 65 2 99 1 108 1 115 1 144 2 176 1 178 1 198 1 203 1 206 1 217 1 222 1 239 1 264 1 279 1 288 1 305 1 327 1 333 1 366 1 376 1 403 1 468 1 475 1 476 1 510 1 519 1 535 2 553 1 586 1 595 1 650 1 670 1 673 1 689 2 704 1 711 1 715 1 720 1 9 1 39 1 66 1 86 1 96 1 139 1 141 1 160 1 211 1 223 1 245 1 258 1 267 1 277 1 297 1 307 1 312 1 321 1 353 1 354 1 363 1 368 1 377 1 390 1 394 1 407 1 453 1 466 1 467 1 477 1 492 1 501 1 507 1 618 1 623 1 646 1 668 1 669 1 674 1 739 1 748 1 768 1 779 2 789 1 792 2 815 1 836 1 843 1 850 1 851 1 857 1 862 1 864 1 870 1 873 1 925 1 942 1 998 1 801 1 810 1 834 1 837 1 847 1 848 1 872 1 878 1 886 1 893 1 903 1 914 1 924 1 954 1 983 1 991 1 1018 1 1023 1 
1 209 14 1 17 1 24 1 44 1 49 1 52 1 54 1 60 1 62 1 67 1 94 1 117 1 164 1 179 1 196 2 211 1 222 1 233 1 238 1 282 1 291 1 296 1 364 2 459 1 467 1 479 1 487 1 489 1 537 1 538 2 540 1 545 1 573 1 574 1 578 1 587 1 594 1 595 1 618 1 621 2 639 1 672 2 674 1 727 1 744 1 745 1 751 1 30 1 53 1 65 1 79 1 96 1 111 1 120 1 129 1 136 1 139 1 148 1 149 1 157 1 166 1 203 1 244 1 250 1 303 1 319 1 333 1 393 1 435 1 442 1 452 1 497 1 502 1 506 1 520 1 533 1 554 1 599 1 608 1 610 1 626 1 649 1 711 1 749 1 788 1 795 1 796 1 808 1 813 1 901 1 914 1 923 1 963 1 980 1 983 1 1002 1 754 1 768 1 811 1 819 1 820 1 857 1 880 1 911 1 932 1 936 1 982 1 991 1 1000 1 1006 1 1008 1 1009 1 1012 1 1016 1 
1 203 23 1 26 1 34 1 44 1 46 1 55 1 68 1 72 1 125 1 129 1 133 1 152 1 169 1 187 1 190 1 258 1 262 1 270 1 278 1 293 1 308 1 321 1 343 1 368 2 399 1 406 2 408 1 419 1 427 1 436 1 472 1 485 1 490 1 502 2 523 1 550 1 553 1 570 1 584 1 594 1 599 1 605 1 673 1 695 2 708 1 724 1 737 1 748 1 5 1 16 1 119 1 139 1 147 1 179 1 191 1 205 1 209 1 210 1 219 1 233 1 246 1 249 1 263 1 317 1 359 1 430 1 438 1 447 1 448 1 449 1 462 1 473 1 476 1 480 1 500 1 527 1 539 1 540 1 542 1 554 1 559 1 560 1 602 1 606 1 610 1 625 1 672 1 679 1 702 1 721 1 728 1 753 1 758 1 775 1 817 2 823 1 826 1 867 1 877 1 901 1 913 1 918 1 922 1 953 1 960 1 979 1 760 1 786 1 794 1 819 1 852 1 855 1 863 1 884 1 891 1 906 1 942 1 943 1 949 1 954 1 955 1 
1 209 17 1 38 1 45 1 52 1 62 1 66 1 75 1 79 1 98 1 111 1 113 1 159 1 173 1 176 1 213 1 217 1 225 1 237 1 268 1 273 1 280 1 283 1 316 1 319 1 343 1 366 1 382 1 383 1 403 1 411 1 464 1 481 1 488 1 494 1 513 1 519 1 572 1 582 1 601 1 612 1 624 1 632 1 641 2 653 1 684 1 685 1 688 1 695 1 701 2 722 1 749 1 26 1 28 1 32 1 89 1 92 1 105 1 112 1 115 1 120 1 143 1 190 1 238 1 254 1 271 1 298 1 314 1 328 1 364 1 368 1 405 1 440 1 442 1 477 1 491 1 553 1 559 1 581 1 597 1 619 1 620 1 634 1 635 1 677 1 687 1 691 1 703 1 748 1 757 1 827 1 837 1 842 1 863 1 924 1 956 1 970 2 981 1 985 1 991 1 807 1 844 1 847 1 856 1 864 1 900 1 932 1 936 1 950 1 954 1 978 1 980 1 993 1 994 1 1013 1 1017 1 1023 1 
1 213 11 1 20 1 37 1 53 1 129 1 155 1 182 1 202 1 231 1 251 1 267 1 302 1 322 1 329 1 337 1 340 1 368 1 411 1 415 1 447 1 451 1 454 1 492 1 510 1 524 1 571 1 589 1 604 1 607 1 627 1 653 1 691 1 703 1 704 2 710 1 731 1 14 1 24 1 49 1 89 1 107 1 117 1 133 1 165 1 194 1 258 1 270 1 284 1 285 1 287 1 296 1 308 1 338 1 384 1 385 1 394 1 397 1 418 1 434 1 438 1 467 1 476 1 481 1 504 1 540 1 543 1 547 1 555 1 556 1 561 1 568 1 573 1 592 1 608 1 616 1 619 1 643 1 644 1 670 1 701 1 708 1 751 1 782 1 784 1 802 1 828 1 834 1 851 1 858 1 861 1 866 1 878 1 885 1 890 1 891 1 898 1 919 1 923 1 925 1 931 1 938 2 944 1 969 1 971 1 810 1 853 1 864 1 912 1 917 1 945 1 955 1 973 1 988 1 1001 1 1004 1 1008 1 1020 1 
1 209 4 1 43 1 47 1 62 1 73 1 83 1 110 2 128 1 130 2 145 1 148 1 183 1 196 1 197 1 206 1 233 1 267 1 275 1 276 1 280 2 351 1 365 1 367 1 416 1 437 1 442 1 455 1 467 2 475 1 479 1 491 1 501 1 536 1 538 1 638 1 639 1 650 1 652 1 660 1 680 1 681 1 694 1 714 1 725 1 743 1 755 1 32 1 42 1 52 1 70 1 87 1 89 1 98 1 101 1 117 1 118 1 120 1 141 1 142 1 143 1 162 1 224 1 249 1 308 1 314 1 337 1 346 1 358 1 363 1 384 1 390 1 425 1 439 1 470 1 473 1 484 1 494 1 521 1 533 1 543 1 579 1 615 1 625 1 654 1 677 1 682 1 686 1 687 1 719 1 721 1 722 1 724 1 761 1 829 1 848 1 869 1 905 1 910 1 912 1 914 1 951 1 784 1 791 1 792 1 824 1 828 1 831 1 840 1 862 1 922 1 940 1 943 1 961 1 964 1 971 1 981 1 1006 1 1011 1 1023 1 
1 204 8 1 10 1 129 1 182 1 200 1 230 1 248 1 263 1 286 1 303 1 316 1 318 1 370 1 417 1 436 1 514 1 554 1 557 1 573 1 582 1 599 1 613 1 633 1 641 1 667 1 670 1 678 1 685 1 690 1 732 1 747 1 754 1 3 1 4 1 11 1 43 1 44 1 66 1 73 1 124 1 131 1 146 1 172 1 199 1 208 1 220 1 227 1 255 1 260 1 265 1 273 1 297 1 305 1 323 1 332 1 335 1 342 1 344 1 346 1 364 1 372 1 377 1 393 1 398 1 405 1 426 1 454 1 516 1 536 1 548 1 551 1 567 1 570 1 571 1 580 1 594 1 601 1 604 1 623 1 624 1 629 1 632 1 653 1 661 1 716 1 776 1 778 1 786 1 795 1 804 1 810 1 824 1 827 1 849 1 850 1 868 1 937 1 943 1 945 1 965 1 978 1 981 1 987 1 771 1 775 1 779 1 799 1 832 1 866 1 880 1 892 1 997 1 1026 1 
1 211 48 1 67 1 80 1 96 1 104 1 106 1 110 1 137 1 156 1 168 1 172 2 184 1 189 1 192 1 220 1 221 1 286 1 296 2 337 1 343 1 353 1 362 1 384 1 427 1 465 2 501 1 526 1 534 1 536 1 554 1 568 1 587 1 612 1 629 1 635 1 651 1 659 1 688 1 689 1 697 1 698 1 700 1 702 1 725 1 729 1 3 1 7 1 9 1 50 1 51 1 58 1 70 1 102 1 108 1 123 1 230 1 233 1 235 1 308 1 317 1 345 1 352 1 381 1 389 1 412 1 439 1 458 1 494 1 518 1 525 1 539 1 555 1 562 1 576 1 580 1 598 1 638 1 665 1 667 1 744 1 762 1 772 1 777 1 780 1 786 1 795 2 808 1 817 1 821 1 822 1 823 1 852 1 897 2 898 1 905 1 939 1 941 1 943 1 944 1 954 2 968 1 976 1 793 1 805 1 829 1 869 1 893 1 907 1 958 1 975 1 998 1 1001 1 1005 1 1023 1 
1 205 2 1 44 1 47 1 54 1 71 1 97 1 115 1 117 1 143 1 161 1 168 1 176 1 187 1 207 1 210 1 242 1 253 1 304 1 319 1 342 1 343 1 359 1 386 1 391 1 399 1 414 1 416 1 417 1 443 1 445 1 487 1 488 1 495 1 516 1 528 1 540 1 547 1 588 1 597 1 608 1 675 1 734 1 6 1 28 1 56 1 66 1 75 1 76 1 79 1 99 1 145 1 156 1 164 1 170 1 181 1 189 1 192 1 193 1 208 1 233 1 235 1 254 1 259 1 266 1 275 1 279 1 296 1 331 1 332 1 335 1 346 1 433 1 501 1 515 1 521 1 534 1 535 1 555 1 598 1 619 1 620 1 640 1 641 1 657 1 658 1 685 1 703 1 705 1 733 1 738 1 747 1 754 1 796 1 807 1 825 1 828 1 843 1 844 1 853 1 858 1 903 1 905 1 946 1 947 1 948 1 965 1 976 1 773 1 841 1 856 1 862 1 887 1 901 1 914 1 927 1 932 1 973 1 1012 1 1022 1 
1 205 5 1 49 1 50 1 52 1 63 1 87 1 89 1 98 1 144 1 156 1 185 1 225 1 265 1 296 1 315 1 328 1 338 1 365 1 384 1 421 1 471 1 495 1 526 2 559 1 562 1 565 1 566 2 572 1 581 1 591 1 595 1 605 1 610 1 664 1 675 1 701 1 711 1 728 1 757 1 32 1 41 1 55 1 70 1 84 1 104 1 110 1 111 1 145 1 154 1 159 1 200 1 252 1 272 1 284 1 332 1 337 1 341 1 373 1 381 1 398 1 410 1 429 1 494 1 496 1 504 1 530 1 556 1 629 1 636 1 652 1 663 1 722 1 747 1 787 1 805 1 815 1 817 1 848 1 852 1 879 1 901 1 926 1 934 1 947 1 975 1 984 1 985 1 989 1 773 1 824 1 825 1 833 1 836 1 847 1 856 1 863 1 869 1 872 1 884 1 885 1 905 1 913 1 936 1 949 1 971 1 986 1 1025 1 
1 213 3 1 13 1 37 1 42 1 49 1 54 1 75 1 95 2 105 1 125 1 150 1 161 1 163 2 165 1 184 1 198 1 223 1 231 1 236 1 241 1 291 1 299 1 356 1 371 1 393 1 400 1 451 1 495 1 512 1 539 1 549 1 588 1 603 1 611 1 631 1 656 1 657 2 683 1 697 1 705 1 711 1 730 1 743 1 759 1 1 1 27 1 33 1 102 1 108 1 119 1 144 1 147 1 159 1 203 1 234 1 246 1 255 1 271 1 272 1 276 1 321 1 341 1 357 1 390 1 394 1 414 1 433 1 460 1 461 1 463 1 464 1 488 1 503 1 533 1 587 1 617 1 620 1 653 1 677 1 690 1 700 1 709 1 751 1 774 1 782 1 801 1 809 1 830 1 845 2 856 1 858 1 873 1 883 1 906 1 941 1 949 1 963 1 973 1 988 1 763 1 788 1 789 1 804 1 829 1 841 1 871 1 878 1 895 1 925 1 947 1 955 1 957 1 970 1 984 1 1000 1 1013 1 1016 1 1017 1 1018 1 1019 1 1020 1 
1 211 2 1 40 1 48 2 56 1 68 1 77 1 78 1 85 1 99 1 143 2 154 1 164 1 181 1 184 1 287 1 288 1 296 1 297 1 298 1 327 1 341 1 343 1 355 1 358 1 359 1 380 1 419 1 421 1 426 1 430 1 436 1 443 1 444 1 460 1 479 1 516 1 528 1 571 1 575 1 582 1 610 1 613 1 635 1 663 1 690 1 726 1 38 1 39 1 73 1 90 1 111 1 140 1 173 1 198 1 199 1 218 1 253 1 265 1 286 1 289 1 305 1 337 1 346 1 360 1 369 1 377 1 408 1 429 1 451 1 498 1 547 1 581 1 598 1 606 1 618 1 648 1 708 1 727 1 731 1 741 1 762 1 764 1 777 1 778 1 780 1 785 1 809 1 823 1 825 1 848 1 850 1 853 1 889 1 897 1 918 1 923 1 956 1 801 1 826 1 827 1 852 1 894 1 914 1 942 1 943 1 946 1 967 1 972 1 992 1 1015 1 1022 1 1024 1 
1 207 25 1 54 1 59 1 71 1 75 1 89 1 131 1 171 1 177 1 179 1 190 1 191 1 194 1 205 1 223 1 333 1 345 1 367 1 434 1 468 1 470 1 472 1 478 1 497 2 514 1 516 1 524 1 529 1 541 1 555 1 581 1 594 1 604 1 612 1 615 1 640 1 671 1 684 1 719 1 730 1 751 1 763 1 39 1 76 1 125 1 142 1 157 1 158 1 174 1 198 1 204 1 285 1 286 1 287 1 308 1 335 1 340 1 346 1 351 1 372 1 377 1 395 1 425 1 433 1 443 1 446 1 452 1 460 1 463 1 496 1 521 1 533 1 537 1 543 1 544 1 558 1 585 1 630 1 653 1 711 1 717 1 765 1 776 1 804 1 856 1 873 1 895 1 909 1 913 1 915 1 922 1 936 1 961 1 983 1 985 1 998 1 777 1 792 1 796 1 837 1 869 1 875 1 883 1 890 1 907 1 933 1 934 1 944 1 955 1 963 1 975 1 989 1 1003 1 1004 1 1020 1 1026 1 
1 210 18 1 22 1 50 1 63 1 64 1 77 2 90 1 100 1 121 1 136 1 141 1 152 1 177 2 198 1 207 1 215 1 262 1 263 1 265 1 273 1 295 1 301 1 327 1 334 1 391 1 392 1 428 1 429 1 459 1 464 1 468 1 492 1 513 1 516 1 519 1 534 1 561 1 576 1 577 1 608 1 612 1 627 1 628 1 629 1 652 1 654 1 662 1 670 1 684 1 697 1 723 1 742 1 764 1 26 1 46 1 47 1 54 1 67 1 79 1 104 1 143 1 160 1 178 1 179 1 189 1 240 1 242 1 247 1 250 1 253 1 266 1 321 1 326 1 342 1 343 1 344 1 386 1 387 1 396 1 399 1 419 1 436 1 445 1 471 1 489 1 499 1 510 1 514 1 521 1 523 1 548 1 570 1 571 1 581 1 624 1 630 1 665 1 669 1 681 1 719 1 726 1 729 1 735 1 775 1 792 1 818 1 825 1 829 1 851 1 857 1 901 1 928 1 939 2 962 1 795 1 868 1 909 1 914 1 954 1 961 1 967 1 999 1 1011 1 1022 1 
1 208 13 1 41 1 55 1 64 1 83 1 88 1 110 1 119 1 132 1 152 1 157 1 187 1 213 1 217 1 219 1 223 1 224 1 240 1 245 1 252 1 254 1 260 1 280 1 281 1 283 1 296 1 306 1 312 1 314 1 331 1 380 1 428 1 440 1 458 1 471 1 489 1 502 1 517 1 523 2 540 1 544 1 594 1 605 1 612 1 623 1 640 2 651 2 654 1 679 1 714 1 728 1 744 1 750 1 16 1 20 1 27 1 32 1 36 1 42 1 109 1 131 1 144 1 155 1 160 1 161 1 164 1 189 1 198 1 203 1 204 1 210 1 215 1 220 1 255 1 259 1 326 1 386 1 504 1 513 1 525 1 542 1 553 1 560 1 610 1 611 1 636 1 668 1 741 1 834 1 845 1 885 1 895 1 897 1 906 1 921 1 926 1 930 1 936 1 966 1 977 1 978 1 777 1 779 1 809 1 822 1 880 1 949 1 975 1 997 1 1012 1 
1 209 10 1 62 2 71 1 125 2 152 1 156 1 161 1 172 1 200 2 210 1 212 2 238 1 246 1 261 1 329 1 387 2 420 1 424 1 429 1 485 1 523 1 529 1 549 1 555 1 560 1 617 1 626 1 644 1 674 1 678 1 696 1 701 1 711 1 713 1 720 1 747 1 55 1 57 1 58 1 77 1 126 1 137 1 174 1 182 1 207 1 213 1 214 1 220 1 257 1 269 1 272 1 299 1 315 1 323 1 339 1 398 1 399 1 423 1 425 1 433 1 438 1 448 1 478 1 494 1 497 1 533 1 566 1 609 1 638 1 683 1 687 1 692 1 694 1 698 1 734 1 772 1 822 2 830 1 837 1 838 1 848 1 857 1 858 1 863 1 899 1 912 1 922 2 926 1 927 1 937 1 951 1 963 1 968 1 982 1 776 1 789 1 806 1 811 1 844 1 933 1 955 1 978 1 1004 1 1013 1 1015 1 1019 1 1026 1 
1 211 27 1 35 1 55 1 60 1 85 1 101 1 134 1 135 1 169 1 196 1 215 1 216 1 220 1 223 1 233 1 242 1 252 1 263 1 265 1 268 1 298 1 361 1 383 2 390 1 392 1 394 1 404 1 443 1 450 1 455 1 472 1 506 1 524 1 541 2 543 2 563 1 602 1 616 1 629 1 632 1 653 1 668 1 693 1 698 1 702 1 733 1 736 1 752 1 1 1 4 1 15 1 51 1 61 1 88 1 112 1 143 1 184 1 187 1 207 1 239 1 264 1 267 1 283 1 285 1 325 1 354 1 355 1 359 1 360 1 364 1 374 1 386 1 387 1 401 1 417 1 442 1 451 1 456 1 462 1 466 1 486 1 490 1 499 1 514 1 534 1 539 1 545 1 559 1 588 1 595 1 609 1 610 1 621 1 655 1 657 1 660 1 669 1 687 1 713 1 732 1 753 1 782 1 784 1 800 1 827 1 833 1 845 1 903 1 912 1 914 1 921 1 964 1 997 1 779 1 812 1 814 1 817 1 820 1 849 1 865 1 896 1 930 1 939 1 971 1 979 1 992 1 1006 1 1015 1 1017 1 1020 1 
1 210 5 1 40 1 47 1 53 1 65 1 89 1 90 1 133 1 136 1 165 1 233 1 263 1 294 1 320 1 321 1 334 1 355 1 360 1 369 1 371 1 398 1 414 1 428 1 475 1 488 1 491 1 514 1 521 1 531 1 559 1 562 1 594 1 621 1 632 1 633 1 634 1 664 1 670 1 687 1 703 1 723 1 8 1 34 1 82 1 115 1 123 1 135 1 175 1 191 1 192 1 220 1 225 1 241 1 267 1 305 1 337 1 342 1 356 1 367 1 384 1 390 1 397 1 412 1 429 1 436 1 456 1 465 1 496 1 507 1 509 1 522 1 525 1 566 1 570 1 578 1 602 1 614 1 615 1 650 1 659 1 680 1 681 1 693 1 776 1 785 1 797 1 806 1 807 1 829 1 878 1 886 1 933 1 948 1 974 1 982 1 988 1 780 1 789 1 803 1 814 1 815 1 816 1 840 1 852 1 854 1 866 1 893 1 915 1 916 1 940 1 986 1 993 1 1027 1 
1 209 17 1 55 1 70 1 83 1 178 1 190 1 206 1 232 1 253 1 256 1 259 2 281 2 282 1 293 1 297 1 309 1 329 1 339 1 364 1 460 1 462 1 466 1 483 1 506 1 535 2 538 1 588 1 603 1 613 1 644 1 649 1 650 1 665 1 677 1 694 1 707 1 723 1 743 1 18 1 20 1 44 1 54 1 76 1 87 1 88 1 118 1 119 1 149 1 157 1 163 1 166 1 221 1 243 1 250 1 258 1 266 1 328 1 341 1 355 1 376 1 379 1 384 1 482 1 492 1 509 1 518 1 534 1 566 1 574 1 595 1 658 1 663 1 668 1 684 1 721 1 741 1 742 1 746 1 770 1 770 1 791 1 792 1 829 1 847 1 848 1 851 1 858 1 862 1 863 2 871 1 886 1 888 1 895 1 902 1 916 2 921 1 949 2 987 1 992 1 995 1 999 1 772 1 778 1 806 1 881 1 891 1 896 1 933 1 940 1 948 1 956 1 983 1 985 1 1002 1 1016 1 1017 1 1021 1 1024 1 
1 209 5 1 22 1 28 1 52 1 58 1 74 1 79 1 85 1 109 1 138 1 145 1 200 1 213 1 244 1 246 1 251 1 252 1 292 1 327 1 425 1 430 1 438 1 439 1 491 1 524 1 532 1 540 1 568 1 572 1 594 1 595 2 597 1 622 1 632 1 639 2 641 1 643 2 647 1 673 1 697 1 720 1 745 1 751 1 32 1 82 1 94 1 129 1 150 1 157 1 164 1 174 1 186 1 190 1 206 1 214 1 231 1 248 1 261 1 266 1 290 1 303 1 312 1 349 1 352 1 431 1 434 1 471 1 521 1 537 1 563 1 575 1 582 1 586 1 590 1 676 1 677 1 679 1 695 1 713 1 740 1 758 1 772 1 780 1 804 1 841 1 855 1 856 1 862 1 866 1 874 1 882 1 906 1 933 1 938 1 951 1 957 1 962 1 993 1 792 1 822 1 823 1 826 1 848 1 870 1 915 1 923 1 924 1 926 1 930 1 934 1 981 1 1003 1 1004 1 1019 1 1027 1 
1 210 33 1 39 1 42 1 43 1 49 1 68 1 116 1 204 1 217 1 232 1 236 1 251 1 281 1 293 1 306 1 326 1 382 1 385 1 409 1 419 1 435 1 446 1 469 1 476 1 496 1 523 1 545 1 546 1 573 1 580 1 612 1 629 1 637 1 642 1 660 1 695 1 705 1 721 1 724 1 735 1 759 1 767 1 771 1 36 1 62 1 90 1 93 1 107 1 165 1 173 1 175 1 187 1 196 1 203 1 205 1 215 1 219 1 255 1 303 1 314 1 343 1 349 1 352 1 357 1 362 1 383 1 397 1 407 1 421 1 478 1 504 1 521 1 557 1 558 1 559 1 620 1 628 1 630 1 645 1 667 1 685 1 693 1 704 1 717 1 720 1 751 1 770 1 776 1 781 1 783 1 802 1 819 1 830 1 884 1 888 1 905 1 949 1 960 1 964 1 970 1 976 1 992 2 816 1 850 1 858 1 938 1 985 1 1010 1 1018 1 
1 209 13 1 19 1 32 1 35 1 53 1 55 1 102 1 121 1 137 1 149 1 154 1 181 1 188 1 206 1 213 1 250 1 282 1 294 1 328 1 339 1 340 1 379 1 408 1 427 1 429 1 453 1 476 1 501 1 523 1 533 1 559 1 566 1 601 1 609 1 676 1 681 1 697 1 717 2 733 1 737 1 738 1 751 1 14 1 20 1 67 1 108 1 114 1 125 1 138 1 161 1 198 1 214 1 216 1 218 1 237 1 298 1 302 1 310 1 331 1 341 1 343 1 385 1 405 1 406 1 475 1 480 1 496 1 509 1 516 1 521 1 531 1 543 1 546 1 553 1 565 1 600 1 608 1 617 1 630 1 636 1 648 1 653 1 682 1 683 1 688 1 696 1 699 1 716 1 731 1 760 1 761 1 782 1 795 1 812 1 829 1 844 1 847 1 870 1 892 1 894 1 902 1 909 1 965 1 977 1 784 1 818 1 823 1 833 1 882 1 886 1 889 1 890 1 927 1 928 1 933 1 943 1 958 1 961 1 970 1 976 1 985 1 1011 1 1013 1 
1 211 14 1 46 1 58 1 71 1 79 1 93 1 100 1 101 1 138 1 153 1 155 1 163 2 194 1 196 1 203 1 220 1 229 1 245 1 284 1 302 2 309 1 320 1 330 1 331 2 344 1 347 1 350 1 352 1 362 1 367 2 369 1 374 1 383 1 391 1 402 1 428 1 440 1 484 1 503 1 508 1 544 1 556 1 615 1 631 1 632 1 665 2 697 1 704 1 705 1 738 1 762 1 15 1 28 1 34 1 65 1 82 1 108 1 123 1 167 1 211 1 238 1 239 1 246 1 253 1 280 1 285 1 319 1 346 1 351 1 360 1 390 1 420 1 425 1 450 1 459 1 526 1 582 1 598 1 625 1 659 1 684 1 696 1 699 1 712 1 713 1 720 1 722 1 728 1 782 1 784 1 793 1 798 1 809 1 826 1 839 2 854 1 896 1 936 1 940 1 941 1 955 1 961 1 966 1 979 1 986 1 996 2 998 1 779 1 781 1 816 1 827 1 848 1 909 1 913 1 952 1 953 1 962 1 982 1 1005 1 1014 1 
1 208 3 1 6 2 20 1 34 1 84 1 212 1 221 1 223 1 227 1 239 1 257 1 274 1 294 1 296 1 305 1 313 1 314 2 328 1 339 1 371 1 392 1 393 1 435 1 438 1 498 1 503 1 508 1 581 1 591 1 623 1 624 1 629 1 671 1 691 1 716 1 754 1 765 1 49 1 60 1 64 1 72 1 74 1 80 1 81 1 82 1 86 1 139 1 145 1 172 1 184 1 188 1 199 1 202 1 214 1 216 1 236 1 243 1 245 1 259 1 275 1 277 1 293 1 324 1 354 1 374 1 380 1 381 1 410 1 430 1 439 1 468 1 495 1 510 1 520 1 522 1 529 1 540 1 558 1 560 1 574 1 579 1 582 1 615 1 621 1 667 1 672 1 682 1 750 1 758 1 832 1 840 2 860 1 887 1 888 1 903 2 910 1 911 1 945 2 946 1 953 1 958 1 964 1 780 1 783 1 790 1 829 1 849 1 862 1 880 1 884 1 944 1 986 1 1004 1 
1 211 8 1 12 1 38 1 66 1 85 1 93 1 122 1 156 1 177 1 181 1 201 1 226 1 241 1 247 1 267 1 284 1 299 1 337 1 385 1 418 1 424 1 432 1 439 1 446 1 456 1 484 1 509 1 519 1 558 1 563 1 587 1 621 1 625 1 645 1 648 1 673 1 700 1 751 1 758 1 764 1 769 1 772 1 42 1 47 1 52 1 63 1 171 1 203 1 213 1 220 1 248 1 249 1 253 1 254 1 268 1 282 1 293 1 347 1 350 1 376 1 380 1 395 1 397 1 400 1 406 1 419 1 459 1 472 1 478 1 529 1 536 1 537 1 575 1 580 1 606 1 630 1 641 1 649 1 681 1 683 1 703 1 715 1 724 1 737 1 744 1 749 1 750 1 767 1 794 1 810 1 865 1 904 1 908 1 925 1 930 1 931 1 969 1 971 1 778 1 800 1 823 1 832 1 839 1 874 1 951 1 954 1 984 1 986 1 1013 1 1017 1 1025 1 
1 212 28 1 32 1 52 1 74 1 82 1 88 1 118 1 119 1 127 1 175 1 179 1 192 1 262 1 270 1 273 1 314 1 330 2 412 1 419 2 435 1 459 1 489 1 496 1 528 2 529 1 530 1 532 1 535 1 539 1 540 1 562 1 566 1 598 1 602 1 626 1 650 1 651 1 666 1 667 1 674 1 680 1 685 1 695 1 720 1 733 1 746 1 759 1 763 1 5 1 9 1 15 1 22 1 34 1 72 1 91 1 103 1 129 1 143 1 153 1 159 1 161 1 182 1 184 1 205 1 209 1 215 1 220 1 239 1 251 1 295 1 296 1 298 1 303 1 321 1 347 1 368 1 401 1 406 1 420 1 428 1 433 1 449 1 454 1 467 1 485 1 506 1 512 1 513 1 519 1 556 1 564 1 565 1 592 1 664 1 676 1 681 1 701 1 711 1 722 1 732 1 735 1 738 1 764 1 766 1 805 1 868 1 872 1 896 1 919 1 998 1 859 1 869 1 873 1 874 1 911 1 923 1 930 1 954 1 976 1 996 1 997 1 1010 1 1016 1 1021 1 
1 209 8 1 18 1 21 1 24 1 40 1 51 1 56 1 57 1 67 1 99 1 128 1 148 1 154 1 168 1 181 1 215 1 236 1 242 1 252 1 268 1 270 1 296 2 333 1 370 1 395 1 430 1 449 1 472 1 480 1 490 1 504 1 521 1 524 1 533 1 546 1 556 1 560 2 565 1 599 2 632 1 677 1 684 1 690 1 713 1 737 1 758 1 763 1 65 1 79 1 95 1 132 1 134 1 141 1 214 1 257 1 261 1 277 1 308 1 320 1 327 1 331 1 358 1 367 1 378 1 425 1 431 1 464 1 479 1 505 1 519 1 532 1 552 1 559 1 589 1 594 1 622 1 625 1 657 1 662 1 694 1 695 1 719 1 724 1 740 1 770 1 776 1 794 1 803 1 821 1 857 1 888 1 892 1 903 1 912 2 943 1 955 1 967 1 968 1 985 1 987 1 788 1 804 1 812 1 822 1 862 1 886 1 931 1 949 1 973 1 977 1 1002 1 1003 1 1012 1 1019 1 1020 1 
1 212 4 1 16 1 18 1 19 1 23 1 44 1 58 1 60 2 66 1 87 1 91 1 94 1 107 1 114 1 131 1 163 2 168 1 258 1 273 1 281 1 289 1 312 1 314 1 335 1 369 1 385 2 393 1 410 1 416 1 445 1 455 1 503 1 516 1 560 2 566 1 583 1 590 1 595 1 598 1 617 1 619 1 636 1 638 1 665 1 700 1 703 1 712 1 734 1 752 2 20 1 41 1 46 1 61 1 72 1 145 1 166 1 207 1 214 1 242 1 249 1 259 1 264 1 296 1 298 1 301 1 317 1 377 1 394 1 469 1 519 1 524 1 526 1 536 1 550 1 614 1 626 1 640 1 656 1 696 1 699 1 705 1 758 1 766 1 768 1 774 1 786 1 795 1 804 1 808 1 809 1 816 1 825 1 832 1 855 1 879 1 894 1 901 1 903 1 909 1 910 1 959 1 979 1 803 1 824 1 845 1 876 1 882 1 885 1 925 1 941 1 942 1 948 1 975 1 990 1 1003 1 1010 1 1015 1 1022 1 1023 1 1025 1 
1 210 15 1 17 1 72 1 75 1 98 1 116 1 140 1 145 1 151 1 155 1 197 1 202 1 218 1 284 1 324 1 330 1 353 1 378 1 382 1 390 1 397 1 400 1 403 1 409 1 416 1 438 1 441 2 481 1 485 1 502 1 518 1 530 1 533 1 537 1 549 1 551 1 572 1 618 1 644 1 646 1 655 1 656 1 679 2 759 1 763 1 771 1 8 1 21 1 59 1 66 1 70 1 131 1 161 1 165 1 173 1 203 1 212 1 225 1 271 1 272 1 273 1 332 1 337 1 348 1 369 1 429 1 454 1 456 1 458 1 471 1 510 1 512 1 536 1 538 1 541 1 561 1 575 1 581 1 598 1 601 1 616 1 626 1 639 1 649 1 661 1 670 1 720 1 721 1 722 1 747 1 769 1 775 1 799 1 808 1 810 1 851 1 866 1 867 1 914 1 928 2 943 1 958 1 969 1 975 1 983 1 984 1 998 1 1002 1 802 1 823 1 832 1 862 1 884 1 911 1 940 1 961 1 972 1 988 1 995 1 1003 1 1005 1 1006 1 
1 212 15 1 27 1 34 1 46 1 76 1 83 1 89 1 102 1 103 1 138 1 157 1 167 1 192 1 196 1 238 1 239 1 266 1 287 1 290 1 298 1 310 1 326 1 353 1 370 1 377 1 413 1 439 1 447 1 450 1 486 1 502 1 529 1 568 1 596 1 636 1 645 2 666 1 698 1 730 1 741 1 746 1 772 1 3 1 35 1 73 1 82 1 84 1 98 1 118 1 125 1 128 1 129 1 270 1 278 1 281 1 354 1 356 1 396 1 400 1 406 1 427 1 449 1 453 1 462 1 471 1 478 1 503 1 505 1 513 1 563 1 564 1 572 1 586 1 602 1 619 1 630 1 632 1 638 1 644 1 649 1 685 1 708 1 720 1 743 1 748 1 774 1 854 1 865 1 882 1 886 1 889 1 906 1 907 1 918 1 920 1 923 1 927 1 979 1 786 1 792 1 832 1 833 1 842 1 852 1 892 1 893 1 932 1 935 1 951 1 997 1 998 1 1007 1 1015 1 1027 1 
1 211 15 1 22 1 35 1 69 1 109 1 120 1 122 1 133 1 141 1 161 1 169 1 183 1 189 1 199 1 210 1 228 1 282 1 287 1 320 1 325 1 344 1 359 1 363 1 375 1 391 1 513 1 515 1 531 1 545 1 568 1 612 1 622 1 645 1 649 1 661 1 667 1 680 1 688 1 689 1 690 1 697 1 709 1 710 1 732 1 756 1 762 1 768 1 773 1 774 1 20 1 23 1 29 1 84 1 87 1 101 1 147 1 170 1 201 1 202 1 207 1 208 1 220 1 233 1 246 1 284 1 300 1 324 1 373 1 377 1 378 1 394 1 402 1 406 1 407 1 427 1 454 1 473 1 503 1 506 1 563 1 564 1 566 1 605 1 623 1 627 1 635 1 644 1 663 1 676 1 687 1 694 1 725 1 740 1 800 1 825 1 847 1 853 1 859 1 860 1 861 1 885 1 908 1 928 1 944 1 787 1 791 1 795 1 813 1 835 1 880 1 896 1 909 1 987 1 1010 1 1013 1 1015 1 1025 1 
1 213 5 1 8 1 24 1 30 1 31 1 63 1 68 1 78 1 100 1 101 1 109 1 118 1 155 1 168 1 169 1 223 1 224 1 237 1 242 1 250 1 255 1 257 1 322 1 325 1 333 1 356 1 419 1 429 1 431 1 454 1 460 1 469 1 498 1 515 1 533 1 537 1 555 1 557 1 578 1 596 1 603 1 647 1 654 1 676 1 678 1 680 1 688 1 707 1 727 1 729 1 747 1 772 1 33 1 65 1 84 1 106 1 138 1 162 1 166 1 185 1 190 1 191 1 209 1 259 1 261 1 295 1 296 1 314 1 352 1 407 1 409 1 423 1 453 1 479 1 485 1 514 1 540 1 561 1 569 1 582 1 588 1 608 1 610 1 658 1 717 1 718 1 775 1 784 2 789 1 794 1 818 1 828 1 852 1 869 1 883 2 920 1 928 1 935 2 969 1 993 1 999 1 842 1 848 1 923 1 936 1 939 1 949 1 967 1 982 1 1010 1 1017 1 1023 1 1025 1 
1 206 56 1 72 1 73 1 75 1 83 1 93 1 108 1 111 1 123 1 128 1 130 1 138 1 139 1 151 1 200 2 228 1 270 1 328 1 345 1 376 1 380 1 383 1 402 1 456 1 484 1 490 2 507 1 556 1 587 1 601 1 611 1 627 1 636 1 640 1 666 1 697 1 741 1 756 1 768 1 774 1 783 2 9 1 25 1 58 1 78 1 115 1 126 1 142 1 156 1 173 1 188 1 199 1 263 1 271 1 285 1 302 1 317 1 327 1 341 1 353 1 361 1 375 1 388 1 392 1 397 1 399 1 401 1 418 1 449 1 462 1 463 1 465 1 470 1 474 1 478 1 491 1 538 1 546 1 583 1 593 1 597 1 619 1 643 1 664 1 670 1 676 1 688 1 723 1 757 1 773 1 785 1 790 1 819 1 850 1 857 1 859 1 887 1 895 1 901 1 938 1 967 1 996 1 878 1 937 1 939 1 953 1 1002 1 
1 212 2 1 5 1 6 1 11 1 12 1 29 1 56 1 61 1 85 1 122 2 128 2 142 1 145 1 151 2 152 1 169 1 180 1 217 2 218 1 223 2 225 1 229 1 230 1 242 1 272 1 276 2 281 1 330 1 377 2 378 1 379 1 401 1 422 1 467 1 476 1 484 1 529 1 537 1 553 1 572 1 574 1 578 1 580 1 594 1 612 1 622 1 625 1 630 1 631 1 683 2 694 1 696 1 697 1 706 2 729 1 748 1 751 1 763 1 769 1 784 1 8 1 9 1 39 1 40 1 43 1 47 1 82 1 113 1 139 1 157 1 172 1 196 1 199 1 209 1 221 1 231 1 234 1 260 1 270 1 286 1 295 1 333 1 501 1 515 1 516 1 536 1 549 1 555 1 590 1 619 1 626 1 628 1 673 1 684 1 687 1 688 1 704 1 714 1 723 1 725 1 726 1 737 1 738 1 792 1 820 1 823 1 860 1 871 2 874 1 876 1 892 2 900 1 954 1 959 1 960 1 968 1 980 1 998 1 802 1 803 1 805 1 867 1 877 1 884 1 909 1 921 1 938 1 989 1 1020 1 
1 212 16 1 34 1 69 1 79 1 93 1 104 2 130 1 134 1 137 2 175 1 199 1 212 1 213 1 217 1 228 1 236 1 265 1 290 1 296 1 345 1 350 1 359 1 360 1 418 1 422 1 426 1 445 1 489 1 510 1 521 1 562 1 566 1 575 1 579 1 590 1 594 1 599 1 600 1 601 2 606 1 658 1 673 1 675 1 706 2 717 2 725 1 741 1 751 1 758 1 759 1 779 1 5 1 9 1 14 1 29 1 65 1 112 1 122 1 127 1 147 1 163 1 164 1 191 1 214 1 225 1 230 1 257 1 259 1 280 1 283 1 289 1 301 1 308 1 329 1 362 1 366 1 409 1 443 1 505 1 523 1 550 1 573 1 584 1 614 1 680 1 722 1 729 1 744 1 754 1 781 1 812 2 816 1 829 1 835 1 836 1 839 1 842 1 882 1 906 1 1000 1 795 1 796 1 799 1 824 1 832 1 869 1 886 1 930 1 935 1 943 1 945 1 947 1 949 1 970 1 984 1 992 1 1010 1 1019 1 1024 1 1026 1 
1 204 9 1 14 2 23 1 60 1 61 1 88 1 90 1 136 1 148 1 171 1 191 1 213 1 232 1 239 1 279 1 297 1 307 1 308 2 311 2 317 1 361 2 366 1 368 1 391 1 415 1 416 1 450 1 451 1 452 1 461 1 485 1 497 1 508 2 519 1 522 1 539 1 567 1 592 1 608 1 682 1 685 1 693 1 695 1 717 1 720 1 761 1 19 1 43 1 45 1 75 1 99 1 137 1 159 1 178 1 228 1 234 1 236 1 238 1 244 1 248 1 276 1 295 1 302 1 305 1 332 1 342 1 350 1 381 1 393 1 405 1 407 1 475 1 514 1 528 1 541 1 559 1 585 1 595 1 631 1 662 1 680 1 700 1 728 1 732 1 742 1 782 1 821 1 826 1 850 1 875 1 912 1 936 1 941 1 949 1 962 1 966 1 983 1 985 1 804 1 824 1 825 1 853 1 870 1 886 1 894 1 907 1 924 1 935 1 947 1 956 1 969 1 1020 1 
1 210 13 1 26 1 40 1 44 1 74 1 77 2 78 1 107 1 120 1 140 1 169 1 170 1 174 1 186 1 197 1 199 2 208 1 230 1 253 2 259 1 270 1 281 1 293 1 294 1 304 1 312 2 325 1 344 1 370 1 380 1 412 1 445 1 448 2 457 2 470 1 498 1 502 1 525 1 526 1 540 2 550 1 567 1 573 1 601 1 623 1 627 1 636 1 688 1 704 1 719 1 721 1 723 1 727 1 728 1 733 1 750 1 753 1 1 1 16 1 37 1 82 1 108 1 118 1 129 1 177 1 191 1 220 1 240 1 245 1 248 1 328 1 329 1 364 1 365 1 373 1 379 1 403 1 426 1 432 1 434 1 438 1 451 1 455 1 469 1 478 1 479 1 508 1 537 1 554 1 570 1 572 1 574 1 577 1 596 1 604 1 608 1 633 1 652 1 694 1 709 1 724 1 725 1 734 1 740 1 745 1 762 1 778 1 790 1 794 1 801 1 804 1 816 1 835 1 874 1 884 1 911 1 922 1 937 1 941 1 946 1 959 1 965 1 966 1 973 1 980 1 993 1 818 1 829 1 844 1 866 1 873 1 876 1 891 1 907 1 996 1 1007 1 1008 1 
1 207 6 1 21 1 40 1 43 1 51 1 52 1 77 1 85 1 107 1 125 1 140 1 149 1 163 1 199 1 205 1 219 1 245 1 251 1 255 1 286 1 297 1 300 1 306 1 307 1 313 1 326 1 333 1 351 1 356 1 358 1 381 1 390 1 403 2 449 1 501 1 506 1 507 1 511 1 512 1 515 1 526 1 539 1 557 1 573 1 602 1 643 1 675 1 702 1 718 2 744 1 752 1 783 1 13 1 75 1 81 1 86 1 99 1 104 1 106 1 116 1 127 1 136 1 203 1 208 1 209 1 293 1 319 1 323 1 393 1 405 1 420 1 439 1 491 1 527 1 530 1 532 1 549 1 563 1 577 1 600 1 609 1 611 1 613 1 617 1 623 1 624 1 629 1 630 1 646 1 652 1 694 1 697 1 703 1 716 1 740 1 750 1 762 1 767 1 769 1 791 1 793 1 794 1 800 1 808 1 849 1 868 1 883 1 894 1 898 1 901 1 916 2 925 1 948 1 957 1 970 1 981 1 984 1 985 1 827 1 829 1 854 1 878 1 900 1 914 1 926 1 927 1 937 1 966 1 968 1 1009 1 1017 1 
1 210 38 1 63 1 75 1 95 1 102 1 132 1 169 1 179 1 187 1 233 1 243 1 266 1 294 1 306 1 308 1 309 1 381 1 385 1 386 1 392 1 396 1 397 1 404 1 412 1 416 1 417 1 419 1 475 1 574 1 580 1 589 1 593 1 627 1 642 1 666 2 668 1 681 1 700 1 732 1 748 1 784 1 788 1 5 1 14 1 15 1 51 1 72 1 84 1 98 1 104 1 152 1 171 1 238 1 241 1 247 1 284 1 312 1 317 1 340 1 345 1 362 1 387 1 390 1 418 1 480 1 512 1 523 1 533 1 541 1 556 1 592 1 614 1 635 1 658 1 659 1 661 1 665 1 737 1 775 1 800 1 805 1 816 1 820 1 830 1 856 1 865 1 888 1 900 1 907 1 927 1 963 1 966 1 968 2 973 1 979 1 1000 1 1002 1 803 1 834 1 852 1 902 1 930 1 932 1 933 1 1004 1 1005 1 1010 1 1021 1 
1 206 26 1 32 1 51 1 71 1 92 1 95 1 136 1 145 1 161 1 200 1 210 1 228 1 229 1 241 1 259 1 277 1 278 1 295 1 309 1 312 1 319 1 330 1 333 1 376 1 377 1 386 1 407 1 422 1 438 1 450 1 494 1 496 1 502 1 504 1 518 1 533 1 546 1 570 1 581 1 583 1 636 1 640 2 649 1 656 1 677 1 729 1 736 1 770 1 789 1 29 1 45 1 55 1 83 1 94 1 106 1 107 1 111 1 134 1 205 1 237 1 282 1 322 1 332 1 351 1 361 1 366 1 406 1 471 1 531 1 543 1 548 1 553 1 586 1 589 1 616 1 619 1 630 1 643 1 655 1 663 1 701 1 712 1 757 1 782 1 791 1 791 1 794 1 795 1 796 1 812 1 818 1 869 1 877 1 897 1 938 1 792 1 813 1 867 1 901 1 916 1 927 1 937 1 941 1 946 1 948 1 978 1 
1 212 4 1 5 1 30 1 47 1 54 1 56 1 85 1 143 1 154 1 156 1 191 1 193 1 200 1 211 1 223 1 244 1 256 1 260 1 272 1 349 1 354 1 366 1 378 1 458 1 478 1 527 1 562 1 572 1 580 1 607 1 627 1 628 1 653 1 655 1 702 2 716 1 729 1 752 2 765 1 770 1 785 1 38 1 43 1 74 1 84 1 89 1 112 1 151 1 161 1 171 1 175 1 209 1 240 1 248 1 254 1 264 1 287 1 292 1 312 1 321 1 326 1 339 1 362 1 379 1 388 1 392 1 396 1 450 1 466 1 500 1 510 1 511 1 521 1 540 1 556 1 570 1 571 1 591 1 606 1 609 1 619 1 622 1 635 1 654 1 663 1 712 1 720 1 757 1 764 1 771 1 781 1 791 1 797 2 798 1 830 1 842 1 853 1 859 1 860 1 877 1 882 1 899 1 906 1 925 1 929 1 933 1 972 1 986 1 991 1 802 1 813 1 832 1 836 1 854 1 863 1 876 1 890 1 916 1 942 1 998 1 1005 1 1012 1 1014 1 1020 1 
1 209 13 1 15 1 35 1 46 1 61 2 92 1 112 1 131 1 138 1 148 1 158 1 168 1 181 1 195 1 222 1 258 1 278 1 286 1 291 1 304 1 309 1 329 1 354 1 363 1 373 1 384 1 423 1 430 1 452 1 477 1 495 1 504 1 514 1 549 1 569 1 595 2 602 1 621 1 628 1 653 1 665 1 713 1 720 1 774 1 789 1 1 1 39 1 52 1 68 1 70 1 71 1 76 1 83 1 99 1 100 1 123 1 139 1 153 1 162 1 172 1 176 1 211 1 243 1 265 1 281 1 298 1 317 1 333 1 357 1 359 1 369 1 395 1 400 1 405 1 422 1 433 1 456 1 469 1 471 1 475 1 476 1 498 1 506 1 517 1 521 1 532 1 576 1 615 1 619 1 683 1 711 1 719 1 728 1 759 1 820 1 832 1 838 1 843 1 846 1 868 1 876 1 880 1 888 1 923 1 959 2 965 1 967 1 970 1 993 1 808 1 828 1 851 1 853 1 855 1 886 1 926 1 928 1 930 1 935 1 937 1 968 1 989 1 998 1 1011 1 1012 1 1026 1 
1 206 13 1 16 1 22 1 48 1 52 1 84 1 114 1 137 1 149 1 151 1 153 1 181 1 189 1 200 1 230 1 270 1 281 1 287 1 368 1 457 1 488 1 502 1 504 1 531 1 590 1 592 1 597 1 611 1 626 1 628 2 632 1 649 1 690 1 701 1 776 1 778 1 783 1 788 1 789 1 791 1 26 1 30 1 62 1 63 1 117 1 119 1 122 1 139 1 147 1 213 1 222 1 224 1 277 1 289 1 298 1 342 1 346 1 352 1 400 1 411 1 461 1 542 1 561 1 564 1 585 1 644 1 666 1 671 1 710 1 731 1 733 1 754 1 803 1 849 1 850 1 855 2 864 1 875 1 887 1 888 1 891 1 948 2 951 1 952 1 953 1 963 1 971 1 980 1 799 1 869 1 890 1 900 1 903 1 924 1 934 1 936 1 941 1 942 1 954 1 982 1 
1 213 9 1 11 1 17 1 30 1 77 1 86 1 92 1 99 2 136 1 148 1 150 1 166 1 171 1 190 1 204 1 210 1 234 1 236 1 242 2 261 1 278 1 287 1 319 1 325 1 380 1 408 1 428 1 434 1 449 2 453 1 455 1 458 1 466 1 474 1 480 1 481 1 493 1 499 1 525 1 537 1 551 1 572 1 602 1 613 1 614 1 639 2 655 1 669 1 683 1 713 1 745 1 753 1 758 1 759 2 773 1 779 1 791 1 50 1 51 1 62 1 68 1 143 1 215 1 224 1 228 1 230 1 243 1 271 1 306 1 324 1 336 1 345 1 370 1 379 1 381 1 391 1 402 1 417 1 425 1 438 1 485 1 504 1 505 1 571 1 616 1 623 1 630 1 644 1 649 1 661 1 672 1 699 1 706 1 709 1 717 1 721 1 765 1 782 1 786 1 814 1 857 1 880 1 908 1 914 1 923 1 924 1 943 1 950 1 953 1 797 1 805 1 813 1 815 1 821 1 842 1 847 1 872 1 926 1 963 1 965 1 974 1 997 1 1008 1 1019 1 1027 1 
1 211 2 1 13 1 19 1 31 1 61 1 71 1 72 1 86 1 95 1 118 1 137 1 150 1 162 1 192 1 199 1 201 2 214 1 218 1 232 1 240 1 241 1 257 1 327 1 347 1 361 1 405 1 410 2 431 1 446 1 452 1 474 1 475 2 482 1 509 1 512 2 529 1 539 1 603 1 611 1 620 1 630 2 656 1 687 1 692 1 753 1 760 1 791 1 1 1 12 1 14 1 75 1 113 1 179 1 242 1 249 1 262 1 264 1 281 1 290 1 295 1 299 1 300 1 310 1 312 1 313 1 318 1 340 1 382 1 413 1 436 1 511 1 546 1 559 1 624 1 638 1 650 1 657 1 715 1 722 1 746 1 748 1 764 1 786 1 824 1 825 1 885 1 893 1 896 1 900 1 938 1 958 1 976 1 837 1 843 1 886 1 906 1 909 1 919 1 937 1 1024 1 
1 211 5 1 16 1 29 1 68 1 79 1 93 1 108 1 115 1 119 1 135 1 142 1 144 1 173 1 184 1 188 2 198 1 231 1 273 1 284 1 293 1 308 1 323 1 346 1 350 1 370 1 378 1 396 1 470 1 492 1 499 1 510 1 547 1 558 1 572 1 595 1 598 1 612 1 650 1 653 2 687 1 692 2 695 1 706 1 718 1 769 1 792 2 7 1 19 1 33 1 34 1 52 1 69 1 81 1 94 1 97 1 103 1 124 1 129 1 137 1 150 1 152 1 161 1 190 1 200 1 216 1 236 1 245 1 261 1 282 1 294 1 329 1 340 1 352 1 380 1 393 1 408 1 429 1 431 1 435 1 465 1 533 1 534 1 548 1 550 1 570 1 584 1 599 1 616 1 654 1 662 1 666 1 691 1 704 1 712 1 713 1 721 1 738 1 795 1 821 1 827 1 836 1 839 1 841 1 867 1 870 1 887 1 940 1 951 1 963 1 965 1 974 1 980 1 981 1 991 1 811 1 825 1 846 1 871 1 874 1 879 1 886 1 900 1 902 1 907 1 916 1 938 1 987 1 999 1 1001 1 1005 1 1006 1 1016 1 1017 1 1022 1 1026 1 
1 208 16 1 36 1 55 1 57 1 67 2 72 1 81 1 86 2 95 1 97 1 110 1 115 1 132 1 133 1 135 1 144 1 174 1 199 1 237 1 250 1 275 1 300 1 314 1 317 1 339 1 355 1 401 1 405 1 454 1 463 1 464 1 471 1 474 1 522 1 535 1 543 1 548 1 555 2 567 1 609 2 617 1 619 1 664 1 681 1 705 1 727 1 730 1 774 1 792 1 26 1 39 1 58 1 105 1 111 1 126 1 163 1 166 1 189 1 248 1 301 1 327 1 343 1 344 1 349 1 358 1 440 1 478 1 491 1 517 1 538 1 539 1 553 1 577 1 593 1 599 1 608 1 622 1 625 1 646 1 676 1 685 1 688 1 706 1 728 1 818 1 871 1 878 1 880 1 885 1 890 2 908 1 916 1 932 1 951 1 961 1 802 1 816 1 825 1 831 1 848 1 873 1 897 1 909 1 926 1 945 1 979 1 984 1 990 1 1009 1 1023 1 
1 208 8 1 39 1 40 1 43 1 49 1 91 1 123 1 140 1 180 1 188 1 196 1 213 1 214 1 222 1 246 1 253 1 261 1 274 1 282 1 295 1 328 1 350 1 397 1 399 1 420 1 421 1 433 1 439 1 441 1 445 1 446 1 452 1 457 1 469 1 486 1 550 1 595 1 601 1 605 1 615 1 626 1 680 1 683 1 684 1 706 1 713 1 722 1 741 1 780 1 12 1 61 1 65 1 96 1 106 1 107 1 115 1 126 1 128 1 135 1 139 1 160 1 169 1 172 1 185 1 228 1 269 1 270 1 289 1 306 1 348 1 374 1 412 1 422 1 426 1 427 1 443 1 472 1 478 1 494 1 500 1 522 1 538 1 577 1 590 1 613 1 616 1 630 1 652 1 654 1 656 1 679 1 681 1 716 1 732 1 738 1 747 1 758 1 786 1 794 1 817 1 822 1 825 1 861 1 863 1 867 1 929 1 932 1 933 1 984 1 802 1 810 1 814 1 820 1 838 1 851 1 852 1 903 1 910 1 921 1 945 1 976 1 978 1 1005 1 1015 1 
1 211 47 1 56 1 58 1 62 1 68 1 110 2 116 1 129 1 139 1 141 1 180 1 182 1 212 1 220 2 228 1 247 1 253 1 278 1 310 1 317 1 336 1 344 1 347 1 353 1 380 1 396 1 461 1 475 1 482 2 490 1 491 1 493 1 548 1 551 2 575 1 599 1 617 1 639 1 662 1 665 1 687 1 720 1 727 1 737 1 739 2 768 1 782 1 789 1 790 1 43 1 67 1 71 1 126 1 130 1 193 1 232 1 242 1 259 1 277 1 281 1 284 1 287 1 300 1 309 1 323 1 332 1 371 1 391 1 402 1 414 1 437 1 442 1 446 1 469 1 492 1 512 1 541 1 571 1 572 1 587 1 594 1 598 1 619 1 620 1 641 1 643 1 645 1 649 1 650 1 667 1 669 1 684 1 690 1 776 1 804 1 821 1 857 1 858 1 880 1 896 1 898 1 926 1 956 1 972 1 975 1 992 1 1001 1 847 1 876 1 897 1 906 1 929 1 951 1 952 1 971 1 993 1 1026 1 
1 209 7 1 28 1 37 1 92 1 99 1 108 1 109 2 123 1 140 1 166 1 199 1 212 1 215 1 257 1 268 1 280 1 319 1 336 1 352 1 366 1 391 1 448 1 511 1 536 1 574 1 601 2 612 1 636 2 650 1 679 2 691 2 701 1 709 1 714 1 726 1 750 1 762 1 788 1 24 1 25 1 60 1 79 1 81 1 101 1 144 1 147 1 157 1 162 1 174 1 187 1 190 1 198 1 213 1 226 1 232 1 241 1 256 1 259 1 281 1 301 1 342 1 349 1 372 1 406 1 418 1 419 1 425 1 445 1 457 1 497 1 504 1 525 1 538 1 546 1 625 1 665 1 683 1 684 1 687 1 744 1 752 1 763 1 842 1 845 1 863 2 893 1 904 1 910 1 928 1 949 1 957 1 974 1 985 1 998 1 809 1 812 1 814 1 815 1 852 1 864 1 879 1 894 1 902 1 930 1 943 1 959 1 981 1 991 1 1001 1 1015 1 1024 1 
1 213 28 1 67 1 73 1 91 1 93 1 113 1 123 1 136 1 153 1 157 1 159 1 162 1 170 1 172 1 193 1 201 1 267 1 269 1 295 2 304 1 311 1 317 1 329 1 344 1 353 1 359 1 399 1 402 1 435 1 446 1 487 1 491 1 583 1 596 1 622 1 675 1 694 1 728 1 756 1 772 1 11 1 20 1 22 1 61 1 74 1 117 1 125 1 129 1 130 1 139 1 171 1 207 1 226 1 235 1 241 1 268 1 301 1 318 1 461 1 503 1 511 1 528 1 557 1 589 1 593 1 612 1 648 1 649 1 657 1 673 1 680 1 701 1 711 1 712 1 716 1 727 1 735 1 780 1 785 1 792 1 798 1 799 1 826 1 844 1 849 2 863 1 868 1 924 1 934 1 938 1 962 1 967 1 979 1 980 1 997 1 811 1 841 1 846 1 870 1 874 1 876 1 885 1 915 1 931 1 959 1 984 1 991 1 1003 1 1004 1 1011 1 1022 1 1023 1 1025 1 
1 208 4 1 7 1 12 1 22 1 45 1 54 2 78 1 87 1 90 1 140 1 142 1 163 1 261 1 267 1 278 2 299 1 310 1 313 1 345 1 374 1 388 1 396 1 401 1 429 1 452 1 457 1 459 1 474 1 530 1 554 1 558 1 563 1 594 1 600 1 608 1 649 1 658 1 663 1 669 1 677 1 695 1 700 1 703 1 723 1 778 1 794 1 6 1 47 1 48 1 63 1 79 1 83 1 84 1 135 1 207 1 232 1 244 1 245 1 271 1 288 1 314 1 322 1 354 1 405 1 417 1 455 1 461 1 467 1 478 1 486 1 498 1 517 1 560 1 611 1 615 1 620 1 634 1 656 1 689 1 696 1 707 1 743 1 744 1 747 1 769 1 779 1 785 1 790 1 811 1 836 1 862 1 888 1 898 1 901 1 976 1 987 1 992 2 880 1 882 1 886 1 895 1 899 1 909 1 934 1 948 1 962 1 973 1 981 1 995 1 1008 1 1010 1 
1 209 23 1 47 1 83 1 100 1 158 1 159 1 164 2 170 1 195 1 219 1 228 1 285 1 295 1 300 1 347 1 352 2 354 1 355 1 390 1 393 1 440 1 454 1 460 1 500 1 513 1 528 1 530 1 564 1 573 1 595 1 637 1 639 1 646 1 684 1 693 1 718 1 731 1 746 1 758 1 764 1 771 1 779 1 788 1 800 1 4 1 58 1 72 1 87 1 96 1 151 1 156 1 179 1 181 1 182 1 197 1 215 1 240 1 245 1 253 1 276 1 291 1 296 1 322 1 329 1 338 1 391 1 397 1 469 1 473 1 476 1 502 1 512 1 515 1 561 1 571 1 583 1 584 1 602 1 634 1 656 1 673 1 676 1 698 1 762 1 778 1 787 1 807 1 810 1 818 1 820 1 844 1 850 2 857 1 858 1 900 2 934 1 949 1 954 1 979 2 995 1 999 1 813 1 829 1 873 1 890 1 926 1 928 1 977 1 987 1 1018 1 1025 1 
1 212 19 1 49 1 81 1 86 1 119 1 194 1 219 1 239 1 249 1 250 1 303 1 304 1 309 2 311 1 322 1 329 1 345 1 349 1 364 1 368 1 395 2 397 1 405 1 414 1 440 1 442 1 446 1 455 1 465 1 474 1 476 2 488 1 507 1 559 1 568 1 574 2 579 1 596 1 641 1 671 1 705 1 707 1 713 2 761 1 777 1 790 1 35 1 37 1 38 1 46 1 59 1 77 1 143 1 147 1 167 1 168 1 171 1 215 1 218 1 230 1 232 1 238 1 241 1 283 1 291 1 318 1 319 1 327 1 338 1 354 1 407 1 417 1 456 1 491 1 498 1 530 1 544 1 583 1 610 1 624 1 631 1 655 1 667 1 680 1 697 1 717 1 726 1 733 1 759 1 785 1 795 1 812 1 838 1 856 1 876 1 903 1 990 1 815 1 819 1 833 1 837 1 908 1 927 1 929 1 955 1 962 1 971 1 988 1 996 1 1003 1 1009 1 1017 1 1021 1 
1 215 1 1 2 1 23 1 27 2 28 1 70 2 73 1 109 1 117 1 131 1 162 1 163 1 172 1 217 1 218 1 263 1 288 1 295 2 297 1 341 1 358 1 360 1 375 2 380 1 403 1 429 1 479 1 494 1 506 1 543 1 552 1 555 1 607 1 640 1 644 1 650 1 653 1 671 1 700 1 705 1 716 1 725 1 769 1 38 1 59 1 77 1 90 1 94 1 100 1 145 1 154 1 179 1 229 1 233 1 268 1 301 1 350 1 389 1 409 1 433 1 445 1 463 1 469 1 473 1 490 1 495 1 496 1 536 1 547 1 553 1 556 1 571 1 585 1 599 1 604 1 623 1 628 1 629 1 632 1 633 1 646 1 655 1 675 1 687 1 707 1 709 1 730 1 767 1 770 1 822 2 823 1 827 1 859 1 898 1 902 1 919 2 923 1 932 1 937 1 953 1 963 1 968 1 997 1 850 1 862 1 876 1 891 1 900 1 924 1 942 1 1015 1 1022 1 
1 207 31 1 36 1 77 1 93 1 98 1 113 1 119 1 147 1 152 1 212 1 214 2 228 1 238 1 270 1 277 1 297 1 337 1 339 1 346 1 348 1 373 1 379 1 383 1 387 1 392 1 400 1 432 1 442 1 465 1 478 1 487 1 494 1 506 1 537 1 538 1 558 1 605 1 606 1 632 1 663 2 669 1 674 1 687 1 724 1 741 1 760 1 769 1 804 1 34 1 46 1 48 1 67 1 85 1 117 1 130 1 144 1 158 1 223 1 257 1 272 1 283 1 288 1 302 1 306 1 309 1 338 1 371 1 396 1 409 1 414 1 447 1 453 1 464 1 474 1 475 1 488 1 495 1 500 1 582 1 586 1 616 1 628 1 655 1 709 1 730 1 750 1 755 1 810 1 815 1 866 1 875 1 887 1 903 1 925 1 928 1 930 1 948 1 962 1 967 1 978 1 995 1 1001 1 822 1 878 1 898 1 914 1 933 1 952 1 996 1 1007 1 1013 1 1018 1 
1 209 9 1 13 1 40 1 43 1 76 1 87 1 88 1 107 1 109 1 128 1 133 1 135 1 138 2 142 1 167 1 177 1 188 1 238 1 273 1 314 1 318 1 326 1 339 1 342 1 368 1 375 1 378 1 380 2 403 1 405 2 407 2 413 1 418 2 428 1 448 1 467 1 489 1 536 1 541 1 545 1 569 1 571 1 573 1 592 1 601 1 610 1 642 1 645 1 672 1 696 1 706 1 753 1 759 1 779 1 780 1 789 1 10 1 60 1 66 1 71 1 80 1 89 1 140 1 147 1 180 1 181 1 214 1 226 1 235 1 257 1 258 1 287 1 296 1 308 1 324 1 333 1 334 1 337 1 354 1 385 1 396 1 400 1 522 1 526 1 546 1 587 1 591 1 603 1 628 1 665 1 667 1 685 1 705 1 712 1 720 1 722 1 733 1 793 1 826 1 851 1 903 1 935 1 960 1 970 1 972 1 810 1 818 1 837 1 854 1 901 1 923 1 968 1 1010 1 1013 1 
1 214 7 1 8 1 16 1 17 1 25 1 33 1 45 1 65 1 73 1 97 1 166 1 252 1 255 1 261 1 267 1 272 1 283 1 302 1 307 1 308 1 314 1 316 2 345 1 371 1 382 1 396 1 398 2 418 1 419 1 426 1 431 1 443 1 478 1 501 1 524 1 551 1 562 1 567 1 568 1 599 1 630 1 637 1 650 1 664 1 666 1 689 1 701 1 702 2 712 1 715 1 747 1 762 1 763 1 774 1 779 1 11 1 42 1 43 1 52 1 63 1 76 1 105 1 106 1 131 1 181 1 189 1 232 1 251 1 268 1 269 1 280 1 313 1 329 1 385 1 407 1 468 1 493 1 495 1 526 1 527 1 549 1 560 1 583 1 587 1 638 1 642 1 670 1 678 1 710 1 732 1 749 1 750 1 766 1 801 1 811 1 822 1 825 1 838 1 849 1 859 1 903 1 905 1 923 1 926 1 928 1 934 1 953 1 969 1 996 1 1001 1 1002 2 856 1 912 1 949 1 951 1 954 1 973 1 978 1 982 1 989 1 1005 1 1009 1 1013 1 1014 1 1016 1 1021 1 
1 212 36 1 61 1 70 1 78 1 79 2 82 1 92 1 115 1 152 1 156 1 173 1 184 1 192 1 200 1 211 1 257 1 265 1 280 1 291 1 313 1 327 1 343 2 375 1 412 1 420 1 446 1 465 1 479 1 483 1 511 1 516 1 527 1 564 1 610 1 644 1 661 1 675 1 700 1 703 1 745 1 749 1 758 1 776 1 780 1 804 1 807 1 2 1 17 1 26 1 43 1 60 1 136 1 147 1 158 1 186 1 188 1 238 1 262 1 266 1 274 1 294 1 298 1 302 1 353 1 359 1 363 1 413 1 457 1 500 1 515 1 536 1 537 1 540 1 572 1 657 1 702 1 733 1 736 1 737 1 752 1 756 1 799 1 808 1 824 1 855 1 880 2 910 1 918 1 936 1 963 1 981 1 995 1 811 1 851 1 875 1 881 1 884 1 905 1 941 1 975 1 978 1 994 1 1009 1 1014 1 
1 213 6 1 10 1 60 1 78 1 98 1 105 1 149 1 185 1 188 1 215 1 248 1 263 1 276 1 289 1 300 1 335 1 344 1 352 1 355 1 369 2 398 1 402 1 416 1 423 1 442 1 443 2 473 1 479 1 500 1 507 1 538 1 568 1 591 1 615 1 642 1 646 1 653 1 658 1 696 1 711 1 738 1 747 1 748 1 803 1 809 1 12 1 16 1 18 1 21 1 49 1 88 1 115 1 147 1 153 1 171 1 197 1 214 1 222 1 232 1 234 1 237 1 250 1 274 1 279 1 318 1 346 1 390 1 436 1 439 1 444 1 449 1 464 1 491 1 494 1 495 1 504 1 512 1 513 1 519 1 573 1 587 1 607 1 613 1 641 1 659 1 660 1 668 1 671 1 710 1 713 1 753 1 767 1 797 1 802 1 810 1 822 1 836 1 851 1 882 1 932 1 950 1 953 1 964 1 996 1 818 1 825 1 838 1 871 1 887 1 919 1 938 1 951 1 965 1 969 1 972 1 975 1 1007 1 1012 1 1015 1 1022 1 
1 210 6 1 29 1 32 1 35 1 48 1 70 1 76 1 78 1 87 1 94 1 119 2 129 1 162 1 163 1 165 1 173 1 183 1 187 1 206 1 213 1 319 1 324 1 363 1 373 1 386 1 400 1 417 1 441 1 452 1 467 1 469 1 474 1 498 1 501 1 506 1 526 1 549 1 576 1 578 1 582 1 597 1 598 1 687 1 695 1 734 1 735 1 773 1 786 2 791 1 805 1 30 1 55 1 98 1 109 1 113 1 120 1 169 1 189 1 236 1 237 1 253 1 256 1 300 1 342 1 357 1 366 1 382 1 421 1 425 1 426 1 432 1 446 1 471 1 509 1 516 1 525 1 594 1 602 1 660 1 725 1 768 1 778 1 801 1 813 1 823 2 834 1 839 1 884 1 892 1 909 1 917 1 924 1 931 1 965 1 841 1 860 1 878 1 880 1 887 1 927 1 953 1 1003 1 1010 1 1026 1 
1 207 53 1 84 1 88 1 96 1 101 1 105 1 129 1 137 1 139 1 177 1 195 1 201 1 219 1 237 1 257 1 259 1 260 1 291 1 303 1 316 1 324 2 367 2 372 2 394 1 397 1 410 1 425 1 426 1 427 1 435 1 465 1 469 1 476 1 480 1 484 2 515 1 524 1 538 1 546 2 595 1 630 1 649 1 659 1 666 1 697 1 705 1 744 1 747 1 749 1 753 1 812 1 3 1 61 1 66 1 69 1 107 1 111 1 116 1 120 1 160 1 161 1 180 1 187 1 212 1 215 1 218 1 221 1 222 1 253 1 258 1 273 1 285 1 306 1 314 1 358 1 388 1 399 1 424 1 448 1 489 1 491 1 492 1 507 1 516 1 530 1 539 1 545 1 556 1 635 1 668 1 709 1 715 1 735 1 782 1 791 1 792 1 795 1 804 1 813 1 813 1 820 1 860 1 864 1 887 1 896 1 902 1 908 1 973 1 992 1 819 1 831 1 890 1 891 1 895 1 909 1 912 1 936 1 966 1 985 1 988 1 1002 1 1005 1 1008 1 
1 214 4 1 12 1 20 1 46 1 47 1 86 1 126 1 167 1 183 1 194 1 205 1 212 1 259 1 268 1 286 1 293 1 331 1 334 1 335 1 349 2 351 1 358 1 372 2 373 1 386 1 400 1 419 2 437 1 450 1 487 1 493 1 496 1 536 1 559 1 578 1 590 1 610 1 662 1 680 1 682 1 692 1 698 2 706 2 729 2 795 1 61 1 81 1 83 1 114 1 121 1 133 1 143 1 154 1 170 1 181 1 184 1 200 1 222 1 234 1 243 1 246 1 257 1 302 1 324 1 342 1 345 1 361 1 404 1 449 1 458 1 465 1 468 1 476 1 481 1 525 1 568 1 579 1 583 1 597 1 603 1 606 1 656 1 693 1 713 1 730 1 747 1 768 1 769 1 799 1 801 1 817 1 847 1 848 1 855 1 866 1 908 1 916 1 969 1 818 1 826 1 827 1 852 1 879 1 947 1 982 1 988 1 1006 1 1009 1 1010 1 1012 1 1019 1 1020 1 1023 1 
1 207 48 1 58 1 81 1 87 1 88 1 109 2 145 1 156 1 158 1 165 1 175 1 187 1 194 1 196 1 221 1 225 1 233 1 282 1 303 1 309 1 313 1 315 1 325 2 338 1 374 2 413 1 422 1 450 1 454 1 456 1 484 1 485 2 506 1 536 1 545 1 546 1 616 1 632 1 639 1 658 1 689 1 693 1 710 2 711 1 716 1 723 1 725 1 752 1 761 1 807 1 12 1 19 1 62 1 69 1 80 1 144 1 147 1 153 1 205 1 211 1 220 1 228 1 257 1 260 1 267 1 310 1 335 1 354 1 355 1 415 1 421 1 434 1 470 1 480 1 487 1 502 1 515 1 522 1 548 1 559 1 564 1 565 1 569 1 574 1 597 1 598 1 636 1 672 1 687 1 706 1 724 1 730 1 735 1 769 1 795 1 801 1 805 1 826 1 840 1 843 1 937 1 947 1 950 1 975 1 820 1 834 1 842 1 861 1 898 1 906 1 917 1 951 1 989 1 991 1 1009 1 1020 1 1023 1 
1 204 55 1 60 1 69 1 71 1 72 1 95 1 98 2 115 1 156 1 172 1 193 1 201 1 236 2 242 1 271 1 273 1 283 1 289 1 294 1 297 1 349 1 384 1 392 1 405 1 442 1 449 1 458 1 471 1 485 1 496 1 497 1 510 2 517 1 526 1 530 1 541 1 543 1 548 1 572 1 581 2 604 1 607 1 686 1 697 1 700 1 720 1 729 1 734 1 779 1 786 1 788 1 790 1 2 1 5 1 14 1 29 1 49 1 61 1 99 1 108 1 124 1 135 1 140 1 152 1 173 1 266 1 286 1 290 1 305 1 316 1 323 1 368 1 374 1 375 1 379 1 439 1 477 1 481 1 531 1 539 1 587 1 588 1 599 1 623 1 653 1 665 1 712 1 724 1 743 1 769 1 772 1 774 1 798 1 831 1 834 1 862 1 875 1 880 1 985 1 878 1 888 1 895 1 908 1 911 1 916 1 925 1 940 1 941 1 950 1 974 1 988 1 993 1 1008 1 1010 1 1015 1 
1 207 50 1 60 1 69 1 80 1 104 2 122 1 127 1 182 1 183 1 204 2 213 1 247 1 253 1 260 1 287 1 289 1 302 1 329 1 349 1 361 1 362 1 373 1 397 1 427 1 441 1 468 1 477 1 481 1 495 1 510 1 537 1 565 1 573 1 599 1 606 1 607 1 653 1 685 1 726 1 731 1 735 1 742 2 754 2 759 1 761 1 799 1 814 1 7 1 18 1 24 1 42 1 124 1 134 1 138 1 142 1 158 1 165 1 176 1 178 1 219 1 224 1 241 1 249 1 275 1 282 1 298 1 346 1 414 1 425 1 429 1 538 1 549 1 566 1 569 1 577 1 597 1 611 1 617 1 649 1 650 1 658 1 679 1 693 1 709 1 768 1 829 1 835 1 854 1 857 1 861 1 865 1 869 1 874 1 882 1 884 2 888 1 915 1 943 1 969 1 977 1 993 1 872 1 887 1 910 1 918 1 927 1 942 1 974 1 999 1 1001 1 1021 1 
1 209 24 1 30 2 54 1 63 1 103 1 120 1 125 1 141 1 144 1 167 1 177 2 206 1 224 1 236 1 248 1 257 1 275 1 278 1 309 1 314 1 325 1 326 1 339 2 346 1 356 1 360 1 377 2 390 1 391 1 421 1 464 1 466 1 505 1 515 1 518 1 534 1 548 1 604 1 628 1 652 1 667 1 730 1 746 1 765 1 783 1 791 1 798 1 804 1 15 1 44 1 62 1 90 1 128 1 148 1 175 1 183 1 191 1 205 1 209 1 210 1 217 1 221 1 233 1 240 1 241 1 274 1 281 1 284 1 291 1 305 1 307 1 308 1 311 1 382 1 418 1 420 1 432 1 433 1 435 1 438 1 444 1 452 1 458 1 480 1 486 1 526 1 547 1 603 1 610 1 613 1 618 1 639 1 645 1 651 1 773 1 788 1 808 1 811 1 814 1 834 1 836 1 842 1 863 1 925 1 943 1 961 1 963 2 989 1 990 1 1000 1 849 1 869 1 916 1 923 1 934 1 936 1 971 1 997 1 999 1 1013 1 
1 205 6 1 18 1 22 1 79 1 159 1 170 1 173 1 185 1 205 1 225 1 229 1 230 1 232 1 255 1 275 1 289 1 299 1 312 1 317 1 327 1 338 1 340 1 348 1 349 2 360 1 364 1 390 1 424 1 427 2 435 1 451 1 473 1 475 1 476 1 489 1 495 1 500 1 524 1 533 1 536 1 552 1 554 1 557 1 560 1 579 1 583 2 603 1 649 1 703 1 708 1 772 1 784 1 14 1 16 1 47 1 54 1 65 1 84 1 101 1 102 1 113 1 123 1 137 1 140 1 149 1 167 1 179 1 189 1 197 1 214 1 217 1 220 1 246 1 273 1 281 1 326 1 332 1 353 1 367 1 369 1 405 1 434 1 458 1 479 1 508 1 510 1 517 1 530 1 546 1 547 1 581 1 586 1 589 1 623 1 627 1 638 1 671 1 672 1 693 1 717 1 721 1 747 1 753 1 754 1 805 1 813 1 828 1 838 1 877 1 882 1 897 1 904 1 931 1 934 1 941 1 958 1 971 1 980 2 988 1 997 1 834 1 860 1 863 1 879 1 973 1 974 1 977 1 1004 1 1022 1 
1 206 32 1 40 1 92 1 96 1 100 1 117 1 119 1 124 1 202 1 235 1 262 1 268 1 278 1 279 1 300 1 315 2 341 1 358 1 375 1 403 1 419 1 431 1 435 1 446 1 458 1 474 1 476 1 494 1 530 2 538 1 546 1 550 1 617 1 638 1 643 1 646 1 675 1 678 1 715 1 785 1 790 1 793 1 804 1 813 1 11 1 24 1 48 1 72 1 73 1 76 1 93 1 95 1 101 1 103 1 151 1 169 1 178 1 214 1 218 1 259 1 287 1 327 1 329 1 359 1 408 1 411 1 413 1 416 1 428 1 470 1 477 1 489 1 493 1 496 1 497 1 507 1 514 1 614 1 622 1 635 1 645 1 656 1 687 1 692 1 712 1 721 1 739 1 743 1 747 1 753 1 768 1 799 1 815 1 830 1 855 1 884 1 913 1 915 1 917 1 952 1 870 1 911 1 920 1 936 1 970 1 980 1 997 1 1008 1 1019 1 
1 210 9 1 17 1 18 1 44 1 53 1 89 1 112 1 132 1 135 1 142 1 156 1 187 1 226 1 230 1 295 1 303 1 333 1 340 1 342 1 362 1 370 1 413 1 414 1 422 1 433 1 458 1 466 1 491 1 531 1 532 1 548 1 568 1 576 2 596 1 611 2 626 2 627 1 645 2 670 1 684 1 695 1 716 2 726 1 759 1 778 1 787 1 797 1 800 1 21 1 32 1 36 1 66 1 106 1 161 1 174 1 182 1 188 1 253 1 258 1 299 1 301 1 328 1 375 1 405 1 429 1 439 1 474 1 476 1 489 1 493 1 498 1 503 1 509 1 523 1 528 1 535 1 539 1 593 1 607 1 616 1 634 1 637 1 649 1 654 1 666 1 687 1 706 1 742 1 748 1 795 1 856 1 876 1 888 1 900 1 905 1 928 1 929 1 949 2 951 1 965 1 981 1 833 1 843 1 849 1 879 1 904 1 915 1 963 1 982 1 983 1 994 1 1013 1 1018 1 1021 1 1026 1 
1 212 2 1 9 1 36 2 71 1 92 1 116 1 154 1 175 1 176 1 185 1 212 1 213 1 222 1 225 1 252 1 259 1 275 1 335 2 345 1 363 1 401 1 402 1 434 1 443 1 452 1 485 1 508 1 510 2 515 1 520 1 548 1 555 1 568 1 578 1 579 1 640 1 644 1 654 1 683 2 742 1 759 1 767 2 799 1 806 2 809 1 811 1 12 1 24 1 66 1 101 1 114 1 123 1 124 1 138 1 145 1 146 1 166 1 207 1 226 1 228 1 234 1 268 1 292 1 302 1 305 1 310 1 329 1 334 1 347 1 353 1 365 1 389 1 425 1 445 1 454 1 457 1 478 1 497 1 500 1 534 1 565 1 573 1 592 1 686 1 691 1 701 1 716 1 723 1 733 1 736 1 766 1 771 1 778 1 807 1 828 1 829 1 834 1 835 1 836 1 864 1 906 1 931 1 943 1 964 1 982 2 983 1 999 1 850 1 854 1 856 1 858 1 895 1 912 1 923 1 932 1 946 1 1003 1 1007 1 1010 1 1014 1 1020 1 
1 209 12 1 19 1 27 1 31 1 46 1 52 1 123 1 125 1 166 1 172 2 177 1 179 1 192 1 194 1 268 1 283 1 292 1 301 1 345 1 357 1 375 1 392 1 399 1 401 1 428 1 474 2 491 2 542 1 578 1 594 1 623 2 644 1 655 1 662 1 713 1 742 1 754 1 759 1 763 1 785 1 806 1 812 2 18 1 20 1 35 1 66 1 109 1 111 1 139 1 160 1 163 1 185 1 186 1 188 1 207 1 230 1 233 1 237 1 263 1 273 1 280 1 282 1 287 1 303 1 304 1 311 1 337 1 343 1 348 1 349 1 359 1 424 1 434 1 437 1 473 1 480 1 523 1 536 1 541 1 559 1 580 1 581 1 610 1 619 1 625 1 627 1 667 1 710 1 728 1 771 1 773 1 776 1 780 1 831 1 832 1 839 1 869 1 878 1 883 1 912 1 917 1 932 1 934 1 938 1 944 1 945 1 830 1 844 1 855 1 875 1 916 1 949 1 970 1 991 1 996 1 1005 1 1008 1 1014 1 
1 212 21 1 43 1 68 1 94 1 99 1 104 1 113 1 133 1 134 1 142 1 147 1 173 1 182 1 186 1 191 1 196 1 212 1 225 1 233 1 239 1 240 1 275 1 279 1 319 1 356 1 398 2 421 1 432 1 438 1 448 1 458 1 461 1 498 2 500 1 546 1 560 1 573 1 605 1 613 1 666 1 724 1 739 2 758 1 796 1 810 1 4 1 5 1 45 1 54 1 58 1 79 1 96 1 122 1 125 1 141 1 215 1 219 1 259 1 298 1 315 1 316 1 318 1 327 1 358 1 372 1 417 1 434 1 440 1 457 1 474 1 544 1 552 1 553 1 557 1 567 1 596 1 603 1 615 1 634 1 642 1 671 1 680 1 686 1 697 1 711 1 720 1 742 1 743 1 744 1 757 1 761 1 779 1 786 1 787 1 843 1 845 1 874 1 886 1 911 2 974 1 984 2 1000 1 836 1 838 1 847 1 884 1 887 1 889 1 890 1 949 1 959 1 977 1 978 1 988 1 1002 1 1006 1 1010 1 
1 209 19 1 40 1 45 1 54 1 57 1 63 1 96 1 121 1 125 1 168 1 170 1 185 1 202 1 230 1 262 1 267 1 272 1 277 1 278 1 329 1 341 1 350 1 351 1 380 1 433 1 507 1 551 1 555 1 560 1 564 1 580 1 607 1 611 1 635 1 660 1 681 1 690 1 717 1 728 1 760 1 763 1 765 1 779 1 782 1 796 1 799 1 809 1 4 1 12 1 25 1 31 1 32 1 37 1 58 1 62 1 92 1 93 1 110 1 128 1 131 1 159 1 175 1 187 1 192 1 211 1 219 1 228 1 312 1 328 1 336 1 343 1 352 1 356 1 374 1 392 1 394 1 420 1 425 1 440 1 445 1 456 1 459 1 482 1 491 1 501 1 503 1 514 1 534 1 540 1 563 1 573 1 575 1 604 1 616 1 628 1 639 1 675 1 698 1 702 1 724 1 761 1 787 1 797 1 798 1 811 1 832 1 837 2 840 1 853 1 858 1 877 1 878 1 885 1 900 1 904 1 911 1 926 1 927 2 932 1 944 1 984 1 991 1 992 1 839 1 845 1 855 1 867 1 937 1 951 1 966 1 969 1 988 1 993 1 999 1 1006 1 1012 1 
1 212 15 1 24 1 25 1 29 1 34 1 63 2 72 1 79 2 81 1 91 1 104 1 109 2 111 1 138 2 175 1 197 1 206 1 253 1 281 1 335 1 363 1 375 1 402 1 428 1 433 1 521 1 542 1 543 2 546 1 552 1 570 1 604 1 643 1 651 1 662 1 666 1 680 1 700 1 708 1 726 1 728 2 729 1 733 1 743 1 754 1 774 1 787 1 802 1 808 1 815 1 126 1 137 1 147 1 149 1 153 1 157 1 170 1 177 1 184 1 191 1 196 1 216 1 254 1 295 1 298 1 299 1 317 1 318 1 343 1 358 1 359 1 398 1 427 1 443 1 463 1 468 1 488 1 499 1 510 1 515 1 532 1 541 1 564 1 595 1 606 1 626 1 637 1 639 1 667 1 702 1 732 1 738 1 748 1 750 1 763 1 771 1 814 1 840 2 878 1 893 1 908 2 910 1 936 1 944 1 948 2 971 1 856 1 862 1 863 1 880 1 909 1 925 1 926 1 963 1 970 1 1010 1 1011 1 1013 1 1022 1 
1 210 7 1 9 1 41 1 53 1 54 1 69 1 75 1 96 1 102 1 133 1 164 1 196 1 208 1 224 1 248 1 267 1 270 1 339 1 341 1 359 1 371 1 373 1 385 1 391 2 397 1 415 1 425 1 450 1 457 1 485 1 494 1 499 1 509 1 533 1 539 1 542 1 545 1 549 2 558 1 583 1 588 1 649 1 662 1 679 1 699 1 723 2 726 1 734 1 738 1 739 1 748 1 755 1 758 1 768 1 797 1 806 1 18 1 26 1 39 1 43 1 49 1 51 1 59 1 99 1 135 1 150 1 153 1 158 1 163 1 168 1 197 1 228 1 247 1 269 1 285 1 300 1 305 1 306 1 311 1 325 1 335 1 349 1 375 1 379 1 398 1 434 1 474 1 483 1 506 1 519 1 527 1 529 1 532 1 567 1 596 1 616 1 628 1 635 1 638 1 647 1 657 1 659 1 671 1 710 1 735 1 763 1 774 1 789 1 814 1 834 1 843 1 852 1 853 1 861 1 874 1 894 1 921 1 939 1 862 1 868 1 869 1 885 1 889 1 945 1 962 1 989 1 993 1 1016 1 1020 1 1026 1 1027 1 
1 206 2 1 8 1 18 1 20 1 21 1 60 1 65 1 69 1 79 1 105 1 138 1 152 1 159 1 168 1 171 1 186 1 197 1 199 1 216 2 244 1 253 1 254 1 266 1 334 1 342 1 359 1 381 1 398 2 417 1 426 1 437 1 512 1 526 1 531 1 538 1 542 1 551 1 563 1 565 1 577 1 603 1 608 1 629 2 656 1 658 1 687 1 718 1 719 1 731 1 734 2 756 1 760 1 783 1 819 1 822 1 5 1 27 1 77 1 101 1 124 1 148 1 165 1 176 1 179 1 193 1 205 1 226 1 240 1 250 1 262 1 299 1 323 1 365 1 374 1 409 1 410 1 414 1 416 1 441 1 469 1 490 1 498 1 532 1 539 1 561 1 595 1 618 1 622 1 639 1 654 1 668 1 695 1 699 1 706 1 741 1 757 1 793 1 841 1 868 1 876 1 878 1 903 1 918 1 939 1 944 1 967 1 1000 1 831 1 835 1 837 1 884 1 900 1 911 1 915 1 955 1 987 1 1004 1 
1 205 61 1 64 1 84 1 87 1 94 1 126 1 129 1 152 1 155 1 157 1 162 1 182 1 221 1 241 1 250 1 292 1 320 1 343 1 345 1 347 1 354 1 355 1 359 1 374 1 407 1 435 1 493 1 524 1 529 1 542 1 565 1 609 1 612 1 644 1 650 1 654 1 655 1 656 1 691 1 717 1 725 1 740 1 746 1 751 1 757 1 765 1 769 1 770 1 773 1 786 1 817 1 822 1 4 1 33 1 39 1 41 1 147 1 154 1 164 1 170 1 237 1 242 1 317 1 331 1 334 1 369 1 371 1 377 1 381 1 385 1 387 1 412 1 426 1 430 1 444 1 489 1 536 1 568 1 589 1 597 1 608 1 625 1 658 1 667 1 702 1 759 1 762 1 775 1 788 1 789 1 804 1 831 1 849 1 893 1 914 1 925 1 957 1 971 1 985 1 836 1 838 1 874 1 877 1 880 1 889 1 896 1 958 1 968 1 988 1 1009 1 
1 208 6 1 9 1 13 1 19 1 43 1 63 1 64 1 72 1 86 2 90 1 96 1 119 1 126 1 134 1 154 1 165 1 168 1 176 1 186 2 187 1 189 1 191 1 203 1 205 1 247 1 261 1 271 1 286 1 336 1 357 1 375 1 378 1 402 1 421 1 425 1 435 1 457 1 469 1 487 1 492 1 543 1 550 1 552 1 559 1 561 1 569 1 627 1 629 1 631 1 656 1 680 1 719 1 721 1 732 1 762 1 767 1 772 1 790 1 792 1 820 1 18 1 42 1 48 1 68 1 99 1 101 1 146 1 158 1 229 1 238 1 252 1 269 1 343 1 353 1 367 1 406 1 439 1 451 1 468 1 481 1 484 1 486 1 489 1 515 1 534 1 539 1 542 1 544 1 584 1 608 1 609 1 617 1 639 1 686 1 696 1 734 1 738 1 748 1 823 1 834 2 847 1 879 2 880 1 889 1 893 1 933 1 966 1 971 1 831 1 846 1 864 1 872 1 899 1 915 1 919 1 928 1 956 1 988 1 992 1 1007 1 1009 1 1012 1 1027 1 
1 214 11 1 35 1 61 1 114 1 137 1 145 1 151 1 192 1 208 1 233 1 239 1 250 1 253 1 282 1 308 1 309 2 312 1 321 1 327 1 344 1 348 1 387 1 401 1 408 1 426 1 434 1 448 2 456 1 489 1 495 1 506 1 536 1 548 1 560 1 564 1 587 1 600 1 606 1 633 1 638 1 641 1 644 1 662 2 671 1 672 1 675 1 684 1 686 1 691 1 738 2 745 1 750 1 816 1 823 1 829 1 4 1 7 1 68 1 75 1 113 1 127 1 140 1 167 1 204 1 206 1 230 1 236 1 258 1 265 1 283 1 292 1 299 1 317 1 330 1 338 1 367 1 390 1 394 1 414 1 449 1 461 1 465 1 499 1 515 1 518 1 549 1 612 1 613 1 619 1 674 1 678 1 682 1 690 1 710 1 717 1 741 1 757 1 798 1 813 1 828 1 830 1 839 1 862 1 863 1 920 1 982 1 997 1 832 1 873 1 894 1 895 1 940 1 952 1 961 1 964 1 965 1 1008 1 1022 1 1027 1 
1 212 10 1 44 1 103 1 110 1 179 1 220 1 225 1 230 1 233 1 265 1 274 1 275 1 284 1 317 1 351 1 368 1 376 1 410 1 461 1 482 1 488 2 490 1 515 1 539 1 553 1 567 1 574 1 602 2 603 1 605 1 640 1 671 1 710 1 712 1 735 1 737 1 749 1 775 1 779 1 793 1 823 1 825 1 1 1 7 1 21 1 22 1 63 1 74 1 87 1 104 1 112 1 127 1 142 1 151 1 154 1 158 1 168 1 173 1 238 1 243 1 247 1 255 1 282 1 307 1 312 1 329 1 386 1 396 1 413 1 414 1 417 1 435 1 447 1 459 1 486 1 520 1 532 1 562 1 604 1 627 1 652 1 673 1 674 1 676 1 678 1 696 1 703 1 717 1 725 1 750 1 758 1 776 1 780 1 781 1 786 1 792 1 831 1 868 1 877 1 955 1 957 1 974 1 977 1 993 1 840 1 874 1 897 1 898 1 907 1 944 1 945 1 963 1 1005 1 
1 208 8 1 15 1 18 1 36 1 40 1 68 1 73 1 80 1 88 1 104 1 142 1 148 1 149 1 153 1 166 2 195 1 198 1 219 1 244 1 276 1 292 1 294 1 317 1 320 1 340 1 350 1 351 1 359 1 360 1 395 1 400 1 419 1 428 1 456 1 457 1 465 1 513 1 540 1 552 1 563 1 579 1 617 1 639 1 642 1 690 1 742 1 768 1 14 1 23 1 28 1 32 1 41 1 54 1 83 1 105 1 112 1 113 1 122 1 136 1 157 1 183 1 209 1 255 1 260 1 265 1 289 1 295 1 304 1 306 1 310 1 348 1 368 1 378 1 414 1 417 1 436 1 474 1 479 1 498 1 520 1 551 1 583 1 602 1 626 1 634 1 679 1 705 1 720 1 747 1 761 1 773 1 781 1 805 1 821 1 840 1 891 2 898 2 899 1 935 2 946 1 990 1 997 1 852 1 902 1 976 1 1016 1 1022 1 
1 211 10 1 18 2 27 1 85 1 93 1 148 1 153 1 172 1 174 1 179 1 187 1 189 1 217 1 254 1 295 1 314 1 323 1 344 1 377 1 389 1 408 1 456 1 461 1 489 1 501 1 517 1 530 1 531 1 546 1 553 1 613 1 669 1 683 1 695 1 723 1 736 1 744 1 745 1 756 1 766 1 812 1 816 1 818 1 822 1 827 1 830 2 65 1 76 1 145 1 151 1 157 1 183 1 191 1 205 1 248 1 274 1 291 1 302 1 305 1 313 1 320 1 326 1 328 1 345 1 348 1 395 1 440 1 445 1 475 1 496 1 507 1 510 1 514 1 545 1 596 1 602 1 603 1 607 1 608 1 614 1 629 1 645 1 646 1 654 1 705 1 718 1 752 1 790 1 815 1 819 1 844 1 851 1 871 1 902 1 933 1 945 1 947 1 963 1 977 1 994 1 865 1 873 1 885 1 900 1 922 1 926 1 955 1 965 1 967 1 
1 208 10 1 26 1 37 1 64 1 73 1 82 1 101 1 103 1 121 1 125 1 142 1 149 1 168 1 195 1 196 1 203 1 204 1 213 1 228 1 235 1 247 1 260 1 265 1 269 1 272 1 319 1 345 1 369 1 406 1 408 1 419 1 443 1 446 1 449 1 450 1 462 1 483 1 484 1 503 1 519 1 556 1 578 1 622 1 705 1 732 1 743 1 749 1 786 1 788 1 817 1 822 1 4 1 22 1 46 1 77 1 78 1 140 1 162 1 167 1 173 1 175 1 214 1 226 1 227 1 259 1 321 1 332 1 349 1 357 1 392 1 470 1 478 1 479 1 481 1 499 1 504 1 514 1 549 1 551 1 570 1 582 1 591 1 605 1 608 1 640 1 650 1 672 1 685 1 729 1 736 1 782 1 828 1 843 1 859 1 860 1 866 1 888 1 958 1 981 1 982 1 853 1 899 1 900 1 934 1 939 1 942 1 960 1 964 1 1010 1 1017 1 1021 1 
1 204 31 1 33 1 62 1 96 1 99 1 107 1 118 1 128 1 150 1 184 1 188 1 196 1 215 1 226 1 263 1 271 1 290 1 296 1 346 1 356 1 376 1 385 1 386 1 398 1 406 1 419 1 429 1 437 1 446 1 501 1 505 1 523 1 531 1 540 1 558 1 569 1 573 1 576 1 589 1 605 1 713 1 744 1 752 1 786 1 797 1 803 1 811 1 818 1 822 1 5 1 8 1 26 1 36 1 51 1 65 1 70 1 75 1 80 1 89 1 115 1 122 1 129 1 136 1 143 1 175 1 192 1 195 1 249 1 301 1 373 1 383 1 408 1 427 1 440 1 441 1 504 1 518 1 546 1 555 1 575 1 578 1 583 1 590 1 606 1 625 1 639 1 661 1 669 1 670 1 693 1 700 1 733 1 742 1 749 1 761 1 792 1 824 1 829 1 838 1 888 1 890 1 915 1 930 1 965 1 1001 1 841 1 872 1 885 1 896 1 899 1 939 1 961 1 990 1 1003 1 
1 211 8 1 11 1 26 1 32 1 43 1 56 1 83 2 112 1 169 1 188 1 196 1 198 1 211 1 212 1 228 2 302 1 305 1 341 1 348 1 373 1 376 1 389 2 398 1 403 1 442 1 456 1 470 1 480 1 538 1 554 1 571 1 589 1 596 1 613 1 651 1 668 1 669 1 680 1 701 1 718 1 748 1 750 1 755 1 767 1 825 2 18 1 39 1 41 1 52 1 66 1 81 1 144 1 180 1 221 1 256 1 277 1 286 1 301 1 304 1 307 1 318 1 331 1 338 1 370 1 384 1 409 1 430 1 441 1 455 1 495 1 526 1 539 1 559 1 562 1 564 1 612 1 630 1 631 1 650 1 674 1 696 1 708 1 723 1 747 1 752 1 764 1 796 1 805 1 808 1 828 1 847 1 856 1 859 2 869 1 909 1 917 1 947 1 963 1 964 1 984 2 986 1 850 1 866 1 874 1 888 1 899 1 922 1 1005 1 1016 1 1022 1 
1 210 11 1 16 1 51 1 62 1 126 1 150 1 166 1 178 1 215 1 225 1 247 1 254 2 259 1 274 1 287 1 333 1 353 1 365 1 396 1 397 1 409 1 429 1 477 1 482 1 492 2 494 1 496 1 497 1 498 1 509 1 516 1 555 1 559 1 607 1 657 1 667 1 675 1 725 1 738 1 739 1 767 1 793 1 805 1 809 1 819 1 836 1 10 1 35 1 115 1 159 1 174 1 224 1 240 1 242 1 255 1 268 1 270 1 295 1 298 1 307 1 321 1 432 1 462 1 471 1 476 1 483 1 499 1 502 1 504 1 533 1 546 1 593 1 603 1 616 1 643 1 652 1 668 1 686 1 695 1 698 1 706 1 719 1 728 1 733 1 740 1 750 1 799 1 811 1 824 1 829 1 847 1 853 2 876 1 878 1 884 1 886 1 926 1 945 1 957 2 971 1 985 1 994 1 998 1 999 1 857 1 867 1 893 1 903 1 978 1 1006 1 1007 1 1014 1 1020 1 1024 1 1026 1 
1 206 6 1 63 1 76 2 86 1 117 1 143 1 147 1 152 1 163 1 172 1 220 1 221 1 235 1 239 1 251 1 253 1 258 1 283 2 305 1 362 1 422 1 467 1 474 1 515 1 517 1 519 1 521 1 525 1 530 1 545 1 556 1 566 1 601 1 609 1 614 1 621 1 626 2 638 1 660 1 679 1 693 1 702 1 708 1 711 1 729 1 735 1 744 1 774 2 786 1 797 1 812 1 823 1 831 1 32 1 95 1 134 1 139 1 175 1 177 1 185 1 200 1 232 1 241 1 289 1 301 1 306 1 360 1 420 1 425 1 443 1 451 1 471 1 472 1 484 1 488 1 496 1 520 1 538 1 555 1 573 1 574 1 669 1 720 1 721 1 734 1 745 1 776 1 825 1 844 1 845 1 885 1 917 1 925 1 985 1 987 1 993 1 853 1 857 1 877 1 882 1 888 1 895 1 984 1 1005 1 1013 1 1019 1 
1 210 40 1 66 1 78 1 94 1 95 1 104 1 126 1 136 1 162 1 189 2 190 1 220 1 252 1 272 1 281 1 294 1 312 1 375 1 377 1 388 1 396 1 406 1 409 1 442 1 460 1 485 1 521 1 551 1 568 1 570 1 591 1 597 1 606 1 643 1 646 1 674 1 683 1 693 1 701 1 713 1 719 1 724 1 736 1 775 2 815 1 825 1 826 2 833 1 16 1 23 1 46 1 47 1 86 1 107 1 114 1 117 1 141 1 145 1 165 1 195 1 238 1 253 1 262 1 263 1 277 1 293 1 317 1 318 1 349 1 350 1 403 1 436 1 441 1 443 1 446 1 451 1 461 1 468 1 480 1 509 1 510 1 522 1 523 1 540 1 542 1 598 1 616 1 625 1 627 1 633 1 642 1 655 1 666 1 672 1 689 1 709 1 714 1 757 1 769 1 832 1 854 1 860 1 861 1 870 2 923 1 928 1 956 2 968 1 855 1 886 1 939 1 988 1 991 1 1007 1 1017 1 
1 209 33 1 49 1 55 1 70 1 79 1 105 1 107 1 108 1 136 1 178 1 217 1 219 1 226 1 231 1 281 1 302 1 315 1 328 1 331 1 332 1 366 1 367 1 372 1 373 1 385 1 428 1 431 1 438 1 439 1 452 1 510 1 522 1 524 1 543 1 546 1 596 1 598 1 600 1 618 1 628 1 634 1 651 1 660 1 667 1 691 1 702 2 725 1 771 1 797 1 828 1 5 1 24 1 41 1 46 1 60 1 64 1 73 1 77 1 80 1 81 1 119 1 128 1 135 1 186 1 195 1 214 1 237 1 261 1 287 1 322 1 351 1 368 1 384 1 400 1 476 1 481 1 500 1 517 1 529 1 532 1 533 1 548 1 552 1 571 1 578 1 584 1 608 1 609 1 632 1 688 1 726 1 760 1 762 1 802 1 812 1 836 1 868 1 899 1 914 1 938 1 953 1 956 1 964 1 972 1 978 1 986 1 989 1 1000 1 857 1 863 1 905 1 923 1 940 1 950 1 954 1 967 1 980 1 993 1 994 1 1008 1 1017 1 1025 1 
1 210 83 1 88 1 147 1 152 1 156 1 165 1 203 1 246 1 259 2 280 1 283 1 315 1 325 1 354 1 378 1 396 1 426 1 437 1 444 1 447 1 469 1 498 1 504 1 515 1 527 1 555 1 556 1 566 2 568 1 580 1 594 1 610 1 638 1 651 1 663 1 671 2 676 1 690 1 691 1 695 1 723 1 755 1 786 1 792 1 801 1 818 1 65 1 67 1 71 1 72 1 79 1 107 1 108 1 109 1 114 1 132 1 149 1 154 1 212 1 241 1 242 1 257 1 260 1 268 1 271 1 284 1 289 1 298 1 305 1 306 1 316 1 320 1 407 1 433 1 452 1 474 1 526 1 584 1 588 1 596 1 673 1 712 1 714 1 732 1 749 1 781 1 783 1 795 1 815 1 855 1 875 1 876 1 887 1 889 1 916 2 939 1 959 1 961 1 963 1 964 2 844 1 850 1 857 1 870 1 877 1 885 1 935 1 942 1 944 1 952 1 957 1 967 1 1010 1 1014 1 1016 1 1017 1 1026 1 
1 205 25 1 32 1 43 1 70 1 78 1 85 1 88 1 89 1 109 1 128 1 138 1 151 1 171 1 180 1 183 1 188 2 199 1 208 1 235 1 241 1 243 1 273 2 288 1 303 1 312 1 347 1 361 1 371 1 375 1 387 1 388 1 400 1 406 1 427 1 430 1 463 1 472 1 504 1 507 1 548 1 549 1 550 1 563 1 577 1 587 1 613 2 615 1 633 1 642 1 665 1 698 1 708 1 711 1 738 1 752 1 760 1 793 1 815 1 824 1 827 1 835 1 11 1 19 1 30 1 69 1 91 1 97 1 116 1 127 1 129 1 154 1 167 1 184 1 207 1 213 1 224 1 274 1 278 1 290 1 313 1 343 1 373 1 389 1 428 1 444 1 447 1 470 1 480 1 485 1 501 1 502 1 538 1 546 1 556 1 572 1 582 1 586 1 590 1 596 1 695 1 748 1 796 1 821 1 847 1 852 1 867 1 876 1 887 1 925 1 963 1 871 1 875 1 892 1 903 1 940 1 941 1 957 1 961 1 976 1 989 1 994 1 
1 208 23 1 78 1 103 1 104 1 133 1 158 1 225 1 259 1 274 1 300 2 322 1 383 1 396 1 398 1 448 1 486 1 488 1 547 1 553 1 562 1 569 1 576 1 588 1 639 1 686 1 695 1 712 1 741 1 760 1 773 1 802 1 804 1 834 1 839 1 16 1 21 1 25 1 33 1 50 1 56 1 66 1 84 1 92 1 112 1 151 1 153 1 155 1 175 1 180 1 194 1 203 1 213 1 215 1 238 1 240 1 257 1 261 1 264 1 267 1 277 1 284 1 290 1 294 1 310 1 311 1 341 1 367 1 382 1 402 1 416 1 439 1 468 1 497 1 533 1 546 1 581 1 610 1 621 1 650 1 697 1 702 1 703 1 729 1 755 1 767 1 788 1 823 1 842 1 897 1 927 1 967 2 975 1 983 1 1002 1 846 1 853 1 873 1 874 1 879 1 888 1 891 1 914 1 959 1 966 1 995 1 997 1 1013 1 
1 211 2 1 6 1 11 1 47 1 67 1 85 1 118 1 136 1 145 1 151 2 189 1 194 1 197 1 199 1 213 1 223 1 231 1 260 1 263 1 276 1 300 1 340 1 349 1 375 1 384 1 386 1 444 1 459 1 479 1 489 1 492 1 508 1 529 1 552 1 588 1 598 1 645 1 646 1 650 1 657 1 667 1 693 1 715 1 722 1 733 2 762 2 766 1 768 1 801 1 824 1 839 1 31 1 65 1 66 1 82 1 83 1 99 1 110 1 117 1 125 1 137 1 143 1 146 1 171 1 206 1 234 1 268 1 282 1 331 1 343 1 351 1 382 1 395 1 437 1 441 1 472 1 531 1 542 1 560 1 574 1 601 1 602 1 615 1 627 1 677 1 679 1 684 1 697 1 741 1 779 1 825 1 862 1 889 1 902 1 909 1 930 1 939 1 960 1 978 1 984 2 1000 1 854 1 863 1 893 1 900 1 914 1 925 1 995 1 1007 1 1014 1 1019 1 
1 206 9 1 27 1 29 1 31 1 46 1 100 1 102 1 124 1 132 1 138 1 170 2 186 1 207 1 221 2 225 1 258 2 272 1 293 1 295 1 306 1 324 1 366 1 375 1 412 1 428 1 430 1 469 1 509 1 528 1 545 1 552 1 561 1 572 2 599 1 609 1 612 1 615 1 617 1 647 1 685 1 694 1 695 1 698 1 723 2 793 1 23 1 32 1 77 1 81 1 82 1 98 1 149 1 156 1 175 1 189 1 196 1 223 1 247 1 251 1 264 1 283 1 285 1 309 1 333 1 348 1 352 1 371 1 381 1 391 1 406 1 422 1 426 1 447 1 448 1 453 1 457 1 473 1 503 1 504 1 525 1 566 1 607 1 616 1 618 1 633 1 648 1 708 1 713 1 744 1 797 1 802 1 830 1 844 1 847 1 852 1 857 1 878 1 979 1 982 2 889 1 890 1 956 1 978 1 989 1 996 1 999 1 
1 208 13 1 27 1 39 1 62 1 63 1 68 1 76 1 140 1 144 2 167 1 184 1 199 1 208 1 218 1 226 1 261 1 274 1 277 1 310 1 316 2 331 1 354 1 358 1 382 2 391 1 395 1 401 1 420 1 447 1 451 1 472 1 479 1 480 1 484 1 494 1 516 1 521 1 592 1 616 1 618 1 623 1 628 1 640 1 641 1 647 1 665 1 705 1 725 1 726 1 770 1 773 1 782 1 814 1 830 1 837 1 838 1 843 1 846 1 28 1 64 1 79 1 97 1 98 1 103 1 130 1 139 1 163 1 166 1 179 1 196 1 204 1 213 1 215 1 216 1 220 1 235 1 241 1 245 1 281 1 282 1 311 1 319 1 325 1 347 1 362 1 384 1 390 1 463 1 522 1 530 1 566 1 573 1 583 1 584 1 604 1 610 1 622 1 629 1 652 1 661 1 671 1 685 1 715 1 721 1 752 1 755 1 761 1 795 1 800 1 824 1 862 1 868 1 891 1 912 1 931 1 963 1 859 1 904 1 927 1 954 1 965 1 973 1 988 1 1008 1 1012 1 1014 1 
1 216 1 1 41 2 54 1 57 1 64 1 75 1 113 1 134 1 140 1 144 1 164 1 175 1 178 1 266 1 274 1 288 1 289 1 299 1 308 1 320 1 361 1 374 1 376 1 377 1 388 1 399 1 435 1 482 1 484 1 490 1 519 1 614 1 617 1 631 1 640 1 655 1 686 1 706 1 714 1 717 1 757 1 761 1 763 1 767 1 770 1 814 1 3 1 18 1 33 1 43 1 66 1 72 1 79 1 90 1 91 1 94 1 95 1 106 1 139 1 202 1 229 1 235 1 237 1 264 1 265 1 286 1 356 1 375 1 393 1 396 1 427 1 432 1 433 1 463 1 491 1 570 1 592 1 616 1 619 1 632 1 649 1 656 1 658 1 724 1 725 1 733 1 736 1 738 1 748 1 752 1 771 1 774 1 783 1 798 1 887 2 890 1 912 1 921 1 929 1 934 1 949 1 976 1 985 1 989 1 992 1 926 1 928 1 970 1 972 1 986 1 1002 1 1007 1 1008 1 1009 1 1010 1 
1 212 47 1 50 1 55 1 80 1 100 1 106 1 134 1 135 1 140 1 152 1 165 1 172 1 178 1 196 1 258 1 270 1 300 1 310 1 324 1 338 1 348 1 375 1 393 1 411 1 420 1 429 1 430 1 437 1 438 1 452 1 472 1 491 1 494 1 518 1 538 1 552 1 566 1 593 1 611 1 624 1 645 1 664 1 686 1 690 1 717 1 743 1 758 1 789 1 794 1 802 2 809 1 829 1 38 1 39 1 52 1 77 1 94 1 95 1 103 1 115 1 122 1 126 1 141 1 173 1 184 1 212 1 220 1 252 1 302 1 339 1 357 1 367 1 376 1 394 1 436 1 475 1 487 1 528 1 597 1 599 1 608 1 619 1 625 1 653 1 654 1 667 1 694 1 704 1 721 1 731 1 768 1 775 1 818 1 821 1 861 1 886 1 887 1 890 1 891 1 897 1 900 1 926 1 958 1 959 1 990 1 874 1 901 1 916 1 918 1 935 1 953 1 984 1 996 1 1004 1 1009 1 1018 1 1021 1 1023 1 1027 1 
1 209 12 2 14 1 24 1 31 1 39 1 42 1 70 1 75 1 109 1 135 1 168 1 169 1 171 1 215 1 237 1 238 1 246 1 251 1 264 1 273 1 282 1 309 1 327 2 341 1 366 2 388 1 408 1 411 1 418 1 421 1 431 1 510 2 529 1 531 1 542 1 565 1 598 1 610 1 613 1 690 1 730 1 746 1 748 1 752 1 758 1 763 1 784 1 787 1 794 1 804 2 9 1 48 1 50 1 63 1 80 1 85 1 89 1 93 1 108 1 119 1 166 1 204 1 207 1 242 1 320 1 354 1 375 1 380 1 390 1 400 1 414 1 438 1 482 1 495 1 498 1 503 1 544 1 623 1 624 1 625 1 662 1 664 1 665 1 678 1 705 1 715 1 724 1 725 1 735 1 737 1 772 1 806 1 822 1 837 1 842 1 855 2 857 1 859 1 861 1 876 1 893 1 909 1 914 2 921 1 922 1 930 1 950 1 957 1 966 1 968 1 969 1 1002 1 860 1 900 1 932 1 934 1 944 1 964 1 965 1 987 1 996 1 1010 1 1011 1 
1 219 11 1 61 1 70 1 96 1 119 1 123 1 147 1 186 1 207 1 223 1 250 1 265 1 311 1 341 1 342 1 360 1 366 2 378 1 386 1 389 1 391 1 413 1 439 1 459 1 464 1 471 1 472 1 476 1 488 1 495 1 566 1 578 2 579 1 582 1 589 1 590 1 602 1 607 1 608 1 609 1 744 1 747 1 751 1 752 1 756 1 765 1 770 1 780 1 808 1 811 1 834 1 9 1 10 1 56 1 88 1 127 1 143 1 146 1 152 1 160 1 166 1 167 1 175 1 177 1 198 1 225 1 252 1 254 1 257 1 304 1 318 1 335 1 362 1 375 1 380 1 403 1 422 1 432 1 451 1 494 1 529 1 535 1 540 1 552 1 568 1 575 1 610 1 629 1 638 1 671 1 672 1 678 1 680 1 688 1 695 1 698 1 719 1 727 1 735 1 743 1 793 1 799 1 810 1 873 1 937 1 946 1 969 1 988 1 859 1 876 1 888 1 912 1 923 1 1000 1 1007 1 1009 1 1013 1 1018 1 1024 1 
1 209 4 1 15 1 35 1 85 1 100 1 102 1 165 1 176 1 187 1 205 1 265 1 268 1 277 1 351 2 358 1 376 1 385 1 403 1 423 1 429 1 489 1 497 1 528 1 532 1 533 1 541 1 543 1 544 1 546 1 555 1 560 1 587 1 592 1 627 1 638 1 646 1 660 1 663 1 715 2 716 1 759 1 761 1 783 1 827 1 843 1 846 1 22 1 56 1 66 1 69 1 79 1 82 1 97 1 120 1 126 1 150 1 171 1 173 1 200 1 202 1 225 1 244 1 249 1 253 1 254 1 293 1 314 1 341 1 349 1 382 1 384 1 409 1 438 1 448 1 462 1 467 1 510 1 512 1 515 1 540 1 559 1 572 1 600 1 641 1 713 1 719 1 726 1 734 1 737 1 754 1 763 1 769 1 781 1 790 1 799 1 801 1 814 1 833 1 854 1 878 1 885 1 942 1 947 1 978 1 993 1 996 1 923 1 929 1 955 1 987 1 995 1 1008 1 1009 1 1025 1 
1 210 2 1 6 1 13 1 58 2 59 1 60 1 68 1 111 1 129 2 141 1 143 1 168 1 172 1 183 1 220 1 226 1 274 1 285 1 290 1 298 1 320 1 327 1 356 1 375 1 383 1 400 1 403 1 421 1 422 1 435 1 442 1 449 1 474 1 487 1 494 1 495 1 514 1 553 1 558 1 596 1 604 1 638 1 695 1 716 1 718 2 746 1 760 1 763 1 782 1 792 1 825 1 827 1 838 2 8 1 12 1 24 1 52 1 64 1 74 1 93 1 96 1 108 1 118 1 125 1 136 1 182 1 201 1 278 1 283 1 289 1 292 1 301 1 326 1 328 1 345 1 398 1 412 1 419 1 444 1 470 1 476 1 488 1 519 1 528 1 533 1 534 1 574 1 578 1 584 1 590 1 612 1 661 1 670 1 675 1 728 1 756 1 787 1 793 1 835 1 839 1 844 1 861 1 868 1 912 1 942 1 947 1 949 1 952 1 978 1 986 1 857 1 878 1 901 1 954 1 958 1 965 1 983 1 1016 1 1021 1 
1 212 6 1 36 1 44 1 51 1 61 1 63 1 64 1 66 1 73 1 103 1 126 1 189 1 215 1 221 1 260 1 280 1 318 1 328 1 338 1 339 1 367 1 385 1 390 1 410 1 420 1 506 1 523 1 525 1 546 1 547 1 555 2 609 1 637 1 670 1 674 1 675 1 684 1 692 1 697 1 711 1 736 1 774 1 781 1 817 1 840 1 852 1 12 1 16 1 43 1 72 1 134 1 145 1 158 1 164 1 202 1 204 1 213 1 263 1 269 1 273 1 312 1 313 1 322 1 335 1 356 1 396 1 402 1 430 1 432 1 455 1 461 1 560 1 590 1 617 1 656 1 658 1 673 1 680 1 683 1 705 1 714 1 720 1 739 1 769 1 789 1 792 1 808 1 822 1 845 1 865 1 873 1 875 1 924 1 944 1 949 1 954 1 955 1 956 1 1001 1 860 1 872 1 883 1 895 1 899 1 920 1 961 1 982 1 1007 1 1009 1 1015 1 1017 1 1022 1 
1 210 16 1 71 1 80 1 96 1 108 1 113 1 114 1 118 1 153 1 162 1 193 1 200 1 217 1 246 1 254 1 298 1 302 1 325 1 344 1 363 1 394 1 412 1 442 1 454 1 489 1 511 1 517 1 526 1 542 1 550 1 575 1 587 2 588 1 598 1 610 1 614 1 640 1 653 1 654 1 660 1 675 1 713 1 723 1 771 1 779 1 794 2 810 1 814 1 820 1 842 1 850 2 4 1 36 1 48 1 86 1 88 1 99 1 117 1 127 1 167 1 173 1 319 1 328 1 332 1 360 1 374 1 410 1 434 1 455 1 459 1 523 1 535 1 544 1 564 1 571 1 593 1 595 1 601 1 621 1 625 1 634 1 655 1 669 1 721 1 732 1 744 1 754 1 793 1 823 1 825 1 840 1 876 1 880 1 897 1 904 1 910 1 913 1 915 1 922 1 949 1 952 1 974 1 982 1 991 1 861 1 869 1 884 1 896 1 905 1 979 1 988 1 989 1 1015 1 
1 211 54 1 55 1 66 1 102 1 135 1 162 1 166 1 211 1 222 1 232 1 234 1 246 1 313 1 361 1 378 2 384 1 423 1 464 1 502 1 505 2 571 1 572 1 581 1 597 1 606 1 609 1 612 1 614 1 615 1 619 1 628 1 656 1 657 1 663 1 694 1 710 1 736 1 743 1 762 1 764 1 771 1 790 1 805 1 821 1 837 1 10 1 19 1 89 1 157 1 174 1 176 1 200 1 218 1 247 1 254 1 264 1 270 1 286 1 293 1 302 1 303 1 306 1 315 1 320 1 330 1 338 1 349 1 383 1 389 1 421 1 435 1 436 1 452 1 482 1 503 1 514 1 548 1 641 1 689 1 705 1 716 1 721 1 744 1 747 1 755 1 760 1 761 1 809 1 822 1 826 1 858 2 864 1 867 1 902 2 938 1 945 1 960 1 893 1 926 1 944 1 976 1 989 1 1009 1 1014 1 1025 1 1027 1 
1 209 21 2 65 1 70 1 72 1 76 1 114 1 124 1 133 1 138 1 150 1 163 1 200 2 232 1 233 1 238 1 259 1 286 1 306 1 325 1 354 1 371 1 373 1 439 1 467 1 485 1 509 1 517 1 588 1 599 1 606 1 613 1 618 1 646 1 686 1 701 1 710 1 718 1 727 1 733 1 742 1 752 1 765 1 767 1 778 1 784 1 795 1 800 1 804 1 817 1 846 1 850 1 23 1 54 1 84 1 86 1 96 1 110 1 117 1 118 1 145 1 157 1 168 1 169 1 187 1 194 1 227 1 254 1 296 1 328 1 344 1 350 1 361 1 370 1 397 1 409 1 482 1 484 1 490 1 543 1 549 1 561 1 595 1 598 1 619 1 621 1 624 1 625 1 632 1 659 1 738 1 753 1 838 1 839 1 841 1 842 1 853 1 893 1 908 1 915 1 931 1 952 1 956 1 961 1 994 1 870 1 874 1 894 1 897 1 898 1 927 1 965 1 968 1 978 1 1002 1 1007 1 1016 1 1020 1 1027 1 
1 212 13 2 23 1 28 1 91 1 94 1 108 1 121 1 195 1 204 1 215 1 216 1 238 1 272 1 293 1 301 1 386 1 392 1 397 1 398 1 399 1 440 1 441 1 479 1 480 2 514 1 517 1 547 2 549 1 560 1 582 1 586 1 593 1 619 1 637 1 645 2 700 1 725 2 726 1 732 1 740 1 741 1 756 1 760 1 762 1 767 1 770 1 800 1 804 1 825 1 856 2 10 1 33 1 41 1 43 1 45 1 53 1 72 1 88 1 106 1 125 1 151 1 165 1 212 1 249 1 282 1 289 1 365 1 377 1 420 1 426 1 429 1 432 1 459 1 468 1 471 1 484 1 485 1 491 1 508 1 528 1 556 1 557 1 583 1 595 1 613 1 641 1 644 1 656 1 690 1 691 1 703 1 715 1 742 1 772 1 822 1 901 1 908 2 911 1 949 2 973 1 863 1 889 1 906 1 934 1 939 1 984 1 1007 1 1012 1 1019 1 1024 1 
1 209 9 1 49 1 70 1 73 1 113 1 117 1 123 1 125 1 129 1 137 1 143 1 150 1 154 1 174 1 208 1 216 1 232 1 256 2 275 1 276 1 296 1 305 1 312 1 324 1 327 1 333 1 354 1 367 1 383 1 392 1 409 1 412 1 437 1 452 1 483 1 499 2 520 2 523 1 537 1 538 1 572 1 633 1 703 1 705 2 751 1 782 1 784 1 792 1 806 1 809 1 835 1 837 2 850 1 19 1 27 1 29 1 41 1 61 1 74 1 79 1 100 1 108 1 168 1 187 1 188 1 302 1 303 1 321 1 341 1 342 1 372 1 376 1 388 1 399 1 405 1 411 1 490 1 511 1 529 1 531 1 546 1 562 1 591 1 594 1 626 1 645 1 661 1 666 1 679 1 685 1 696 1 707 1 721 1 728 1 735 1 738 1 745 1 777 1 847 1 851 1 894 1 902 1 871 1 885 1 900 1 913 1 927 1 938 1 1002 1 1003 1 1004 1 1027 1 
1 214 59 1 81 1 114 1 122 1 146 1 160 1 176 1 195 1 204 1 222 1 233 1 246 1 251 1 286 1 362 1 367 1 379 1 380 1 382 1 396 1 422 1 453 1 466 1 478 1 479 1 497 1 512 1 520 1 525 1 532 1 535 1 557 1 566 1 575 1 587 1 594 1 612 1 631 1 653 1 655 1 675 1 686 1 690 1 716 1 775 1 782 1 785 1 792 1 813 1 835 1 840 1 22 1 44 1 66 1 130 1 136 1 161 1 202 1 214 1 215 1 221 1 229 1 252 1 263 1 267 1 271 1 292 1 300 1 318 1 332 1 338 1 340 1 352 1 354 1 363 1 373 1 383 1 393 1 395 1 430 1 437 1 438 1 442 1 559 1 583 1 597 1 600 1 635 1 692 1 711 1 724 1 733 1 747 1 812 1 819 1 850 1 854 1 881 1 907 1 914 1 925 1 928 1 951 1 977 1 991 1 1000 1 1003 1 1016 1 1019 1 
1 207 23 1 32 1 42 1 97 1 103 1 122 1 148 1 160 1 172 1 189 1 202 1 231 1 236 1 266 1 268 1 271 1 282 1 285 1 304 1 338 1 360 1 363 1 374 1 377 1 398 1 402 1 418 1 428 1 434 1 455 1 470 1 490 2 499 1 534 1 539 1 571 2 604 1 624 1 642 1 648 1 656 1 663 1 666 1 671 1 675 1 683 1 750 1 756 1 782 1 799 1 817 1 827 1 840 1 849 1 850 1 853 1 10 1 18 1 28 1 47 1 49 1 99 1 107 1 127 1 128 1 146 1 158 1 159 1 170 1 183 1 261 1 263 1 290 1 395 1 403 1 435 1 456 1 469 1 491 1 502 1 543 1 549 1 551 1 561 1 563 1 568 1 588 1 602 1 615 1 665 1 668 1 670 1 699 1 703 1 815 1 855 1 866 1 872 1 873 1 890 1 892 1 1001 1 881 1 945 1 949 1 968 1 981 1 991 1 998 1 1005 1 1026 1 1027 1 
1 207 11 1 32 1 33 1 45 1 48 1 55 1 67 1 72 2 74 1 81 1 91 1 101 1 111 1 116 1 125 1 140 1 155 1 162 1 167 1 196 1 215 1 219 1 230 1 239 1 243 1 296 1 316 1 343 1 344 1 354 1 408 2 433 1 477 1 523 1 536 1 545 1 586 1 613 1 634 1 649 1 672 1 745 1 752 1 770 1 771 1 803 1 816 1 831 1 845 1 847 1 1 1 21 1 59 1 87 1 93 1 157 1 186 1 201 1 207 1 221 1 231 1 241 1 249 1 267 1 274 1 278 1 283 1 309 1 324 1 336 1 340 1 342 1 387 1 390 1 415 1 419 1 435 1 460 1 473 1 474 1 519 1 531 1 572 1 575 1 639 1 673 1 705 1 748 1 757 1 760 1 775 1 778 1 780 1 806 1 826 1 827 1 895 1 905 1 933 1 935 1 936 1 942 1 980 1 1000 1 926 1 927 1 934 1 961 1 973 1 988 1 1021 1 
1 207 10 2 11 1 19 1 32 1 63 1 93 1 108 1 118 1 135 2 155 1 157 1 164 1 171 1 183 1 204 1 210 1 262 1 287 1 334 1 341 1 386 1 393 1 403 1 404 2 421 1 436 1 461 2 462 1 492 1 511 1 560 1 564 1 578 1 593 1 601 2 623 1 633 1 651 1 664 1 737 1 739 1 748 1 755 1 767 1 770 2 799 1 801 2 802 1 818 1 831 1 64 1 65 1 87 1 167 1 169 1 181 1 187 1 222 1 231 1 233 1 239 1 244 1 289 1 326 1 337 1 350 1 357 1 360 1 371 1 389 1 406 1 417 1 425 1 434 1 448 1 456 1 467 1 472 1 550 1 552 1 577 1 596 1 613 1 625 1 646 1 654 1 663 1 673 1 684 1 692 1 696 1 698 1 707 1 713 1 714 1 729 1 754 1 761 1 792 1 819 1 826 1 841 1 845 1 858 1 865 1 867 1 887 1 919 1 927 1 946 1 951 1 975 1 978 1 886 1 888 1 890 1 893 1 911 1 928 1 959 1 961 1 986 1 1001 1 1003 1 
1 214 21 1 40 1 47 1 64 1 65 1 86 1 87 1 106 1 121 1 129 1 173 2 195 1 200 2 268 1 284 1 300 1 301 1 311 1 351 1 356 1 363 1 415 1 424 1 480 1 481 1 505 1 564 1 578 1 590 1 596 1 606 2 614 1 631 1 643 1 652 1 661 1 678 1 712 2 732 1 748 1 752 1 794 1 813 1 822 1 856 1 2 1 29 1 30 1 34 1 45 1 63 1 82 1 93 1 118 1 127 1 133 1 178 1 238 1 241 1 244 1 253 1 255 1 275 1 277 1 294 1 304 1 315 1 318 1 340 1 341 1 389 1 396 1 419 1 438 1 442 1 450 1 461 1 462 1 469 1 478 1 490 1 511 1 520 1 528 1 530 1 552 1 556 1 576 1 599 1 746 1 755 1 756 1 801 1 830 1 884 1 892 1 912 1 915 1 917 1 936 1 952 1 968 1 995 1 876 1 910 1 914 1 916 1 934 1 971 1 983 1 985 1 1000 1 1005 1 1008 1 1011 1 1012 1 
1 206 1 1 7 1 18 1 30 1 72 1 82 1 152 1 174 1 176 1 195 1 197 1 238 1 267 1 287 1 320 2 332 1 339 1 357 1 367 1 370 1 383 1 389 1 396 1 410 1 419 1 423 1 426 1 441 2 465 1 472 1 490 1 507 1 514 1 557 1 561 1 592 2 598 1 608 1 639 1 652 1 670 1 700 1 715 1 730 1 776 1 781 1 790 1 817 1 854 1 863 1 2 1 40 1 47 1 56 1 88 1 138 1 234 1 253 1 259 1 306 1 322 1 328 1 341 1 342 1 362 1 364 1 375 1 409 1 459 1 470 1 473 1 493 1 547 1 549 1 565 1 584 1 593 1 606 1 632 1 660 1 662 1 690 1 768 1 834 1 870 1 895 1 926 1 935 1 939 2 962 1 1001 1 878 1 901 1 930 1 942 1 958 1 970 1 990 1 1002 1 1018 1 
1 209 46 1 50 1 102 1 121 1 146 1 170 1 177 1 178 1 183 1 188 1 221 1 237 1 244 1 246 1 258 1 261 1 290 1 309 1 324 1 333 2 347 1 350 1 358 1 378 1 413 1 414 1 415 1 424 1 428 1 429 1 430 1 473 1 479 1 494 1 502 1 505 1 508 1 521 1 524 1 525 1 544 1 559 1 561 1 579 2 605 1 643 1 649 1 666 1 668 1 678 1 693 1 696 1 756 1 771 1 780 1 807 1 814 1 835 1 861 1 27 1 69 1 85 1 87 1 99 1 128 1 134 1 157 1 164 1 165 1 184 1 187 1 191 1 193 1 220 1 228 1 266 1 288 1 299 1 338 1 362 1 365 1 373 1 403 1 407 1 421 1 439 1 483 1 543 1 551 1 569 1 574 1 589 1 614 1 629 1 658 1 664 1 707 1 712 1 719 1 746 1 749 1 758 1 769 1 788 1 837 1 876 1 895 1 914 1 931 1 1000 1 882 1 883 1 924 1 944 1 991 1 1014 1 1021 1 
1 208 3 1 7 2 16 1 47 1 82 1 92 1 101 1 112 1 116 1 147 1 158 1 196 1 224 1 230 2 239 1 246 1 255 1 260 1 262 1 263 2 294 1 306 1 320 1 326 1 346 1 371 1 391 1 393 1 402 1 418 1 441 1 473 1 522 1 529 1 563 2 574 1 593 1 596 1 633 1 652 1 683 1 712 1 732 1 737 2 746 1 747 1 754 1 780 1 797 1 799 1 843 1 856 1 863 1 24 1 25 1 48 1 53 1 66 1 69 1 120 1 163 1 166 1 199 1 200 1 220 1 267 1 268 1 295 1 330 1 347 1 349 1 365 1 370 1 380 1 388 1 390 1 407 1 421 1 429 1 433 1 450 1 475 1 478 1 503 1 520 1 525 1 531 1 557 1 567 1 568 1 597 1 605 1 611 1 620 1 653 1 678 1 693 1 707 1 725 1 730 1 731 1 735 1 743 1 785 1 791 1 825 1 838 1 868 1 869 1 873 1 882 1 890 1 911 1 936 2 947 1 957 1 983 1 985 1 988 1 991 1 995 1 880 1 889 1 907 1 915 1 948 1 959 1 986 1 1002 1 1015 1 1020 1 1022 1 1027 1 
1 209 3 1 85 1 94 2 153 1 156 1 217 1 232 1 234 1 253 1 336 1 340 1 342 1 363 1 391 1 408 1 419 1 453 2 473 1 498 1 499 1 525 1 537 1 545 1 557 1 561 1 589 2 603 1 620 1 636 1 644 1 653 1 696 1 710 1 736 2 739 1 758 1 777 1 789 1 793 1 802 1 828 1 832 1 841 1 847 1 853 1 867 1 23 1 24 1 68 1 90 1 117 1 147 1 164 1 170 1 210 1 229 1 254 1 263 1 293 1 303 1 334 1 359 1 360 1 369 1 400 1 480 1 496 1 518 1 522 1 531 1 565 1 567 1 576 1 585 1 615 1 617 1 629 1 640 1 649 1 655 1 675 1 678 1 747 1 765 1 827 1 898 1 904 2 917 1 919 1 948 1 961 1 970 1 980 1 981 1 989 1 875 1 876 1 882 1 889 1 926 1 931 1 952 1 964 1 1005 1 1014 1 1016 1 1017 1 1020 1 
1 207 1 1 4 1 20 1 29 1 39 1 45 1 70 1 116 1 139 1 142 1 161 1 176 1 215 1 229 1 230 1 238 1 269 1 294 1 299 1 327 1 353 1 354 1 364 1 368 1 385 1 389 1 403 1 423 1 434 1 445 1 474 1 513 1 522 1 534 1 575 1 621 1 631 1 632 1 665 1 757 1 783 1 791 1 817 1 823 1 837 1 867 1 7 1 23 1 32 1 34 1 47 1 58 1 63 1 67 1 80 1 92 1 97 1 105 1 113 1 122 1 154 1 170 1 180 1 197 1 201 1 220 1 227 1 234 1 236 1 244 1 302 1 325 1 345 1 366 1 402 1 422 1 436 1 463 1 469 1 472 1 485 1 489 1 499 1 544 1 571 1 601 1 606 1 612 1 615 1 620 1 628 1 635 1 641 1 701 1 727 1 736 1 740 1 745 1 759 1 761 1 764 1 777 1 786 1 794 1 818 1 827 1 855 1 893 1 919 1 928 1 935 1 987 2 915 1 916 1 947 1 994 1 1008 1 
1 210 11 1 12 1 14 1 71 1 75 1 98 1 100 1 110 1 123 1 138 2 140 1 158 1 164 1 165 1 182 1 183 1 207 1 209 1 212 2 271 1 289 1 300 1 306 2 344 1 421 1 423 1 435 1 440 1 481 1 509 2 579 1 581 1 619 1 632 1 634 1 654 2 672 1 675 1 678 2 698 1 700 1 715 1 727 1 729 1 738 1 752 1 773 1 797 1 840 2 865 1 26 1 27 1 102 1 116 1 133 1 150 1 152 1 179 1 181 1 204 1 220 1 224 1 227 1 246 1 267 1 269 1 313 1 341 1 358 1 370 1 371 1 393 1 408 1 434 1 478 1 492 1 586 1 590 1 596 1 601 1 663 1 695 1 730 1 737 1 771 1 787 1 802 1 820 1 842 1 857 1 875 1 879 1 918 1 923 1 938 1 978 1 987 1 906 1 953 1 961 1 974 1 979 1 982 1 995 1 1005 1 1006 1 1008 1 1009 1 1010 1 
1 209 7 1 25 1 28 1 53 1 54 1 66 1 75 1 86 1 112 1 128 1 160 1 173 1 181 1 186 1 311 1 316 1 365 1 375 1 380 1 381 1 385 1 412 1 420 1 427 1 436 1 447 1 457 1 501 1 525 1 532 1 580 1 611 1 616 1 620 1 625 1 635 1 643 1 645 1 655 1 689 1 694 1 733 1 744 1 770 1 785 2 798 1 834 1 2 1 42 1 70 1 96 1 103 1 107 1 121 1 146 1 156 1 215 1 223 1 231 1 240 1 244 1 262 1 279 1 294 1 297 1 298 1 305 1 308 1 312 1 337 1 342 1 352 1 374 1 383 1 384 1 424 1 429 1 431 1 437 1 440 1 450 1 460 1 461 1 477 1 511 1 536 1 562 1 578 1 600 1 621 1 631 1 637 1 667 1 695 1 697 1 704 1 731 1 762 1 797 1 811 1 843 1 859 1 878 1 884 1 907 1 920 1 927 1 928 2 935 1 958 1 977 1 900 1 903 1 911 1 932 1 937 1 951 1 954 1 960 1 988 1 1005 1 1012 1 1014 1 
1 209 6 1 12 1 29 1 100 1 146 1 153 1 180 1 182 2 202 1 204 1 217 1 239 1 244 1 254 1 263 1 268 1 270 1 272 2 290 1 314 1 343 1 377 1 419 1 426 1 447 1 472 1 480 1 497 1 499 1 507 1 519 1 526 1 563 1 570 1 578 1 579 1 608 1 619 1 652 2 654 1 656 1 675 1 777 1 861 1 20 1 21 1 23 1 38 1 69 1 78 1 80 1 82 1 86 1 87 1 136 1 167 1 179 1 184 1 190 1 191 1 195 1 213 1 232 1 274 1 311 1 365 1 371 1 401 1 422 1 460 1 493 1 520 1 528 1 549 1 574 1 576 1 589 1 637 1 650 1 665 1 669 1 673 1 729 1 752 1 761 1 795 1 817 1 830 1 836 1 854 1 884 1 905 1 907 1 921 1 968 1 970 1 973 1 999 1 876 1 877 1 927 1 946 1 956 1 969 1 987 1 994 1 996 1 1007 1 1013 1 1017 1 
1 216 3 1 44 1 65 1 67 1 102 1 123 1 152 1 158 1 166 1 176 1 191 1 232 1 255 1 269 1 273 1 291 1 298 1 305 1 325 1 329 1 346 1 347 1 363 2 401 1 402 2 428 1 438 1 469 1 477 1 499 1 510 1 537 1 546 1 548 1 584 1 586 1 589 1 605 1 609 1 618 1 629 1 635 1 666 1 706 1 725 1 746 1 752 1 762 1 764 1 851 1 854 1 861 1 867 1 7 1 26 1 47 1 56 1 63 1 95 1 98 1 107 1 131 1 142 1 181 1 198 1 234 1 243 1 248 1 272 1 280 1 321 1 334 1 360 1 362 1 373 1 379 1 426 1 440 1 452 1 463 1 481 1 503 1 519 1 523 1 577 1 591 1 595 1 599 1 660 1 670 1 707 1 717 1 737 1 777 1 788 1 798 1 804 1 831 1 834 1 844 1 873 1 873 1 885 1 895 1 945 1 949 1 962 1 999 1 912 1 928 1 931 1 934 1 937 1 990 1 1009 1 1014 1 1015 1 1016 1 1021 1 1024 1 1026 1 
1 210 3 1 15 1 58 1 78 1 89 1 90 1 103 1 115 1 125 1 133 1 152 1 167 1 183 2 194 1 195 2 202 1 215 1 219 1 224 1 263 1 300 1 309 1 311 1 329 1 379 1 395 1 413 1 446 1 458 1 471 1 505 1 519 1 526 1 542 1 543 1 544 1 555 1 560 1 561 1 626 1 627 1 663 1 674 1 729 1 771 1 785 1 788 1 817 1 824 1 827 1 7 1 20 1 55 1 70 1 87 1 107 1 120 1 156 1 162 1 181 1 193 1 198 1 199 1 206 1 223 1 258 1 302 1 303 1 338 1 365 1 396 1 429 1 435 1 447 1 450 1 468 1 490 1 498 1 509 1 525 1 569 1 581 1 585 1 614 1 622 1 641 1 647 1 649 1 650 1 652 1 667 1 698 1 714 1 715 1 776 1 777 1 797 1 802 1 829 1 832 1 837 1 844 1 849 1 857 1 885 2 897 1 914 1 925 1 956 1 986 1 991 1 994 1 995 1 889 1 907 1 917 1 930 1 963 1 973 1 980 1 989 1 1008 1 1027 1 
1 211 3 1 52 1 127 1 136 1 141 1 152 1 159 1 179 1 201 1 223 1 242 1 247 1 260 1 262 2 271 1 289 1 302 1 303 1 305 2 312 1 393 1 423 1 452 1 463 1 466 1 523 1 553 1 565 1 566 2 586 1 604 2 612 1 629 1 677 1 697 1 722 1 741 1 787 1 794 1 807 1 816 1 842 1 854 1 870 1 11 1 43 1 46 1 65 1 81 1 109 1 139 1 140 1 167 1 190 1 195 1 204 1 229 1 231 1 238 1 270 1 295 1 311 1 321 1 322 1 327 1 332 1 340 1 342 1 348 1 385 1 387 1 391 1 392 1 397 1 406 1 455 1 479 1 483 1 498 1 502 1 529 1 535 1 544 1 550 1 552 1 575 1 598 1 649 1 662 1 683 1 695 1 720 1 723 1 731 1 737 1 764 1 810 1 823 1 843 1 868 1 882 1 890 1 907 1 913 1 927 1 931 1 965 1 989 1 1002 1 881 1 893 1 912 1 957 1 995 1 1009 1 1014 1 1021 1 
1 211 27 1 49 1 69 1 78 2 101 1 189 1 192 1 200 1 204 1 219 1 229 1 265 1 267 1 282 1 287 1 317 1 357 1 436 1 449 1 466 1 488 1 507 1 522 1 541 1 553 1 557 1 559 1 564 1 586 2 633 1 641 1 644 1 711 1 725 1 785 1 793 1 805 1 821 1 828 1 838 1 842 1 843 1 850 1 855 1 866 1 48 1 62 1 73 1 107 1 129 1 134 1 141 1 147 1 167 1 172 1 183 1 235 1 245 1 261 1 276 1 281 1 305 1 306 1 330 1 336 1 337 1 350 1 372 1 373 1 423 1 465 1 482 1 487 1 494 1 520 1 585 1 598 1 649 1 709 1 732 1 736 1 779 1 788 1 792 1 800 1 802 1 806 1 851 1 864 1 868 1 872 1 891 1 904 1 907 1 954 1 958 1 967 1 972 1 976 1 996 1 880 1 901 1 918 1 925 1 926 1 928 1 936 1 953 1 963 1 986 1 1008 1 1019 1 
1 214 16 1 53 1 57 1 97 1 126 1 140 1 144 1 201 1 206 1 208 1 222 2 229 1 230 1 245 1 247 1 253 2 263 1 271 1 282 1 303 1 310 1 321 1 322 1 336 1 353 1 363 1 370 1 371 1 375 1 405 1 431 1 441 1 452 1 458 1 476 1 477 1 483 1 500 1 552 2 583 1 603 1 636 1 647 1 650 1 655 1 660 1 680 1 681 1 683 1 688 1 690 2 695 1 708 1 735 1 754 1 791 1 792 1 819 1 825 1 832 1 22 1 24 1 43 1 73 1 81 1 83 1 94 1 115 1 119 1 171 1 188 1 212 1 214 1 219 1 221 1 228 1 242 1 254 1 256 1 269 1 270 1 274 1 302 1 335 1 337 1 339 1 347 1 389 1 399 1 404 1 442 1 445 1 479 1 531 1 540 1 550 1 551 1 577 1 611 1 613 1 633 1 685 1 691 1 705 1 785 1 829 1 839 1 842 1 872 1 882 1 891 1 899 1 914 1 917 1 952 1 974 1 981 1 922 1 933 1 939 1 977 1 980 1 1004 1 1005 1 1008 1 1012 1 1015 1 1026 1 
1 208 15 1 21 1 40 1 69 1 82 1 117 1 119 1 127 1 129 1 131 1 135 1 141 1 145 1 146 1 193 1 205 1 224 1 244 1 255 1 276 1 301 1 320 1 329 1 337 1 353 1 365 1 374 1 396 1 402 1 413 1 415 1 419 1 428 1 445 1 473 1 534 1 591 1 594 2 614 1 632 1 649 1 659 1 664 1 685 1 689 2 715 1 733 1 739 1 743 1 756 1 769 1 798 1 823 1 825 1 826 1 828 1 838 1 846 1 852 1 871 1 61 1 91 1 121 1 156 1 164 1 200 1 207 1 251 1 257 1 279 1 289 1 317 1 321 1 326 1 336 1 338 1 363 1 375 1 449 1 467 1 471 1 584 1 589 1 627 1 671 1 692 1 694 1 699 1 703 1 709 1 729 1 752 1 762 1 784 1 789 1 807 1 812 1 816 1 853 1 865 1 887 1 893 1 912 1 920 1 928 1 974 1 983 1 992 1 881 1 909 1 917 1 947 1 956 1 972 1 1010 1 1015 1 
1 212 5 1 19 1 25 1 60 1 71 1 100 1 111 1 114 1 118 1 122 1 124 1 141 1 159 1 254 1 258 1 281 1 286 1 346 1 350 1 352 1 354 1 390 1 416 1 437 1 443 1 445 1 510 1 520 1 533 1 542 1 583 1 589 1 656 1 669 1 704 1 713 1 715 1 761 1 779 1 830 2 870 1 3 1 35 1 143 1 148 1 217 1 225 1 234 1 269 1 310 1 337 1 357 1 380 1 399 1 423 1 474 1 494 1 504 1 512 1 516 1 523 1 531 1 544 1 548 1 565 1 575 1 607 1 628 1 641 1 652 1 692 1 697 1 709 1 710 1 723 1 734 1 740 1 797 1 801 1 814 1 819 1 821 1 844 1 886 1 890 1 892 1 915 1 932 1 943 1 966 1 979 1 991 1 881 1 901 1 906 1 936 1 939 1 950 1 951 1 967 1 970 1 981 1 996 1 1007 1 1011 1 1019 1 
1 208 1 1 3 1 15 1 18 1 29 1 70 1 78 1 84 2 136 1 138 2 161 1 181 1 225 1 230 1 235 1 255 1 282 1 302 1 339 1 341 1 344 1 347 1 374 1 377 1 397 1 402 1 434 1 447 1 570 1 572 1 584 1 605 1 618 1 661 1 711 1 742 1 743 1 747 1 750 1 793 1 795 1 798 1 800 1 810 2 816 1 830 1 855 1 2 1 13 1 30 1 38 1 46 1 96 1 122 1 146 1 148 1 172 1 177 1 180 1 193 1 196 1 227 1 238 1 269 1 324 1 335 1 337 1 343 1 353 1 364 1 370 1 381 1 384 1 390 1 418 1 450 1 451 1 455 1 492 1 509 1 537 1 555 1 587 1 636 1 672 1 677 1 678 1 688 1 700 1 705 1 739 1 753 1 758 1 766 1 775 1 782 1 803 1 812 1 826 1 829 1 867 1 876 1 887 1 908 1 919 1 965 1 881 1 911 1 928 1 978 1 986 1 991 1 1003 1 1004 1 1018 1 1019 1 
1 208 2 1 28 1 56 1 66 1 77 1 103 1 118 1 126 1 152 1 178 1 237 1 291 1 341 1 347 1 376 1 382 1 396 1 435 2 442 1 451 1 453 1 460 1 466 1 478 1 482 1 488 2 519 1 521 1 525 1 528 1 530 2 567 2 594 1 619 1 634 1 643 1 652 1 661 1 687 1 688 1 689 1 696 1 698 1 703 1 714 1 718 1 735 1 738 1 741 1 745 1 860 1 4 1 51 1 80 1 123 1 133 1 146 1 147 1 156 1 197 1 228 1 230 1 278 1 280 1 284 1 336 1 353 1 388 1 403 1 441 1 444 1 448 1 452 1 495 1 499 1 517 1 549 1 590 1 597 1 601 1 625 1 638 1 640 1 693 1 695 1 709 1 715 1 732 1 747 1 748 1 770 1 810 1 861 1 875 1 878 1 879 1 880 1 882 1 899 1 922 1 932 1 941 1 978 1 987 1 1002 1 912 1 917 1 930 1 939 1 956 1 959 1 980 1 1012 1 1018 1 1023 1 
1 213 20 1 38 1 66 1 77 1 81 1 84 1 115 2 142 1 170 1 173 1 190 1 194 1 229 1 258 1 270 2 292 1 309 1 311 1 318 1 332 1 342 1 358 1 367 1 392 1 457 1 476 1 480 1 491 1 535 1 553 1 555 1 573 1 586 1 635 1 648 1 696 1 745 1 771 1 781 1 786 1 792 1 811 1 817 1 819 1 867 1 875 1 877 1 881 1 10 1 14 1 46 1 52 1 57 1 62 1 78 1 103 1 105 1 108 1 151 1 179 1 202 1 233 1 234 1 245 1 250 1 251 1 255 1 260 1 294 1 297 1 304 1 306 1 307 1 340 1 356 1 361 1 365 1 368 1 386 1 404 1 437 1 443 1 467 1 486 1 489 1 515 1 518 1 523 1 539 1 541 1 543 1 558 1 571 1 572 1 591 1 593 1 627 1 651 1 657 1 678 1 687 1 713 1 722 1 747 1 773 1 779 1 803 1 839 1 866 1 868 1 898 1 921 1 923 1 940 1 948 1 953 1 956 1 978 1 889 1 922 1 925 1 934 1 1006 1 1015 1 1016 1 1017 1 1019 1 
1 214 2 1 11 1 26 1 36 1 42 1 75 1 86 1 115 1 121 1 136 1 171 1 172 1 198 1 208 1 233 1 241 1 242 1 257 1 277 1 292 1 298 1 307 1 320 1 324 1 325 1 353 1 360 1 363 1 373 1 390 1 411 1 439 1 515 1 536 1 540 1 555 1 575 1 584 1 611 1 621 1 647 1 651 1 673 1 681 1 690 1 706 1 719 1 726 1 736 1 748 1 762 1 783 2 789 1 823 1 38 1 59 1 68 1 88 1 107 1 109 1 123 1 196 1 209 1 313 1 330 1 339 1 412 1 417 1 435 1 442 1 463 1 493 1 497 1 513 1 522 1 545 1 612 1 616 1 634 1 657 1 677 1 695 1 709 1 723 1 728 1 750 1 764 1 854 1 866 1 900 1 909 1 931 1 952 2 957 1 992 1 888 1 899 1 906 1 914 1 927 1 939 1 945 1 951 1 971 1 972 1 975 1 976 1 987 1 
1 211 21 1 26 1 38 1 50 1 58 1 65 1 77 1 84 1 85 1 126 1 154 1 157 1 171 1 173 1 185 1 188 1 192 1 210 1 227 1 316 1 331 1 349 1 367 1 394 1 405 1 411 1 443 1 449 1 475 1 481 1 488 1 518 1 541 1 579 1 587 1 602 1 612 1 645 1 670 1 681 1 699 1 711 1 717 1 723 1 744 1 772 1 788 1 812 1 817 2 820 1 838 1 864 1 871 1 872 1 46 1 60 1 68 1 83 1 90 1 128 1 202 1 213 1 216 1 225 1 287 1 306 1 342 1 346 1 362 1 375 1 393 1 397 1 399 1 503 1 513 1 555 1 583 1 609 1 627 1 643 1 660 1 680 1 692 1 701 1 725 1 739 1 754 1 761 1 775 1 780 1 785 1 810 1 824 1 828 1 855 1 887 1 899 1 907 1 959 1 965 1 982 1 1000 1 894 1 930 1 984 1 995 1 1009 1 1019 1 1024 1 1027 1 
1 210 5 1 8 1 50 1 60 1 64 1 84 1 86 1 113 1 124 1 132 1 135 1 160 2 209 1 238 1 257 1 267 1 301 1 316 1 317 1 326 1 327 1 359 1 381 1 382 1 390 1 412 1 420 1 423 1 427 1 429 1 453 1 465 1 483 1 510 1 542 1 557 1 559 1 582 1 587 1 615 1 618 1 657 1 670 1 680 1 692 1 738 1 756 1 766 1 782 1 796 1 798 1 825 1 839 1 852 1 873 1 874 2 14 1 29 1 52 1 75 1 108 1 110 1 151 1 168 1 174 1 202 1 258 1 264 1 266 1 293 1 306 1 333 1 345 1 352 1 384 1 428 1 458 1 485 1 513 1 515 1 521 1 539 1 589 1 638 1 654 1 656 1 681 1 715 1 724 1 761 1 779 1 802 1 827 1 834 1 836 1 842 1 859 1 933 1 978 1 993 1 996 1 900 1 907 1 918 1 934 1 937 1 974 1 1022 1 
1 210 8 1 15 2 67 1 74 1 81 1 122 1 124 2 130 1 133 1 183 1 227 1 248 1 325 1 342 1 384 1 420 1 468 1 485 1 500 1 504 1 520 1 557 1 559 1 564 1 565 1 584 1 588 1 592 1 596 1 619 1 656 1 672 1 676 1 684 1 699 1 718 1 731 1 769 1 770 1 781 1 824 1 838 1 849 1 879 1 18 1 45 1 46 1 70 1 86 1 121 1 168 1 170 1 184 1 187 1 190 1 207 1 229 1 259 1 261 1 270 1 293 1 306 1 323 1 331 1 348 1 350 1 353 1 361 1 377 1 409 1 416 1 425 1 426 1 432 1 441 1 460 1 469 1 473 1 489 1 517 1 528 1 568 1 577 1 606 1 632 1 641 1 669 1 674 1 680 1 722 1 749 1 752 1 773 1 778 1 786 1 787 1 793 1 796 1 797 1 803 1 840 1 863 1 893 1 899 1 919 1 932 1 935 1 955 1 973 1 890 1 897 1 915 1 930 1 958 1 970 1 989 1 997 1 1023 1 1025 1 1027 1 
1 210 11 1 26 2 29 1 33 1 40 1 118 1 133 1 142 1 176 1 228 1 235 2 267 1 268 1 296 1 297 1 325 1 376 1 413 1 467 2 479 1 530 1 537 1 539 1 557 1 583 1 629 2 635 2 655 1 692 1 712 1 729 1 775 1 784 1 794 1 797 1 807 1 813 1 842 1 843 1 848 2 849 1 863 1 878 1 880 1 884 1 8 1 34 1 44 1 47 1 89 1 138 1 141 1 144 1 154 1 158 1 180 1 181 1 194 1 203 1 236 1 239 1 245 1 250 1 349 1 362 1 365 1 382 1 407 1 472 1 491 1 496 1 504 1 513 1 541 1 553 1 561 1 573 1 574 1 578 1 579 1 608 1 617 1 633 1 640 1 676 1 682 1 718 1 722 1 760 1 811 1 812 1 817 1 824 1 887 1 887 1 898 1 915 1 918 1 929 1 938 1 947 1 961 1 962 1 965 1 976 1 888 1 921 1 927 1 952 1 955 1 978 1 1016 1 
1 209 2 1 10 1 31 1 92 1 93 1 107 1 132 1 145 1 181 1 190 1 239 2 241 1 245 1 249 1 271 1 313 2 329 1 343 1 348 1 377 1 384 1 400 1 445 1 487 1 509 1 544 1 563 1 581 1 622 1 623 1 625 1 634 1 649 1 659 1 670 1 678 1 679 1 709 1 713 1 725 1 727 1 744 1 770 1 772 1 775 1 778 1 790 1 793 1 794 1 803 1 817 1 821 1 835 1 836 1 33 1 42 1 63 1 73 1 91 1 109 1 140 1 151 1 155 1 165 1 178 1 193 1 205 1 222 1 223 1 234 1 297 1 369 1 381 1 385 1 397 1 406 1 420 1 430 1 439 1 446 1 470 1 494 1 510 1 515 1 533 1 550 1 554 1 628 1 639 1 645 1 648 1 660 1 671 1 684 1 816 1 837 1 839 1 844 1 851 1 863 1 883 1 887 1 930 2 932 1 966 1 968 2 910 1 927 1 960 1 972 1 979 1 980 1 986 1 1023 1 1024 1 
1 212 1 1 9 1 18 1 30 1 39 1 73 1 90 1 94 1 97 2 138 1 142 1 147 1 167 1 171 1 192 1 236 1 255 1 265 1 271 1 303 1 320 1 334 1 335 1 338 1 346 2 355 1 360 1 380 1 384 1 396 1 401 1 402 1 444 1 583 1 591 1 625 1 634 1 639 1 643 1 658 1 676 1 726 1 729 1 763 1 781 1 830 1 842 1 845 1 22 1 41 1 46 1 113 1 125 1 145 1 180 1 196 1 197 1 225 1 247 1 261 1 289 1 300 1 302 1 304 1 330 1 333 1 367 1 417 1 430 1 451 1 456 1 481 1 500 1 522 1 560 1 561 1 562 1 573 1 575 1 576 1 582 1 585 1 654 1 671 1 703 1 739 1 743 1 745 1 773 1 824 1 827 1 829 1 846 1 858 1 867 1 868 1 874 1 882 1 897 1 903 1 909 1 948 1 959 1 951 1 976 1 987 1 1007 1 1025 1 1026 1 
1 211 64 1 84 1 85 1 109 1 112 1 168 1 191 1 194 1 195 1 198 1 227 1 237 1 250 1 253 1 295 1 325 1 334 1 340 1 352 1 357 1 369 1 410 1 421 1 428 1 442 1 453 1 460 1 468 1 510 1 522 1 541 1 548 1 579 1 587 1 607 1 632 1 656 1 664 1 669 1 680 1 718 1 738 1 743 1 756 1 798 2 836 1 848 1 849 1 861 1 867 1 875 1 879 1 21 1 34 1 38 1 42 1 48 1 52 1 69 1 77 1 92 1 121 1 145 1 172 1 178 1 219 1 244 1 259 1 267 1 268 1 273 1 297 1 302 1 314 1 320 1 329 1 349 1 353 1 362 1 411 1 423 1 454 1 480 1 535 1 537 1 576 1 610 1 628 1 635 1 637 1 670 1 693 1 696 1 704 1 744 1 764 1 773 1 792 1 794 1 804 1 813 1 824 1 846 1 863 1 886 1 902 1 918 1 933 1 895 1 901 1 925 1 930 1 939 1 995 1 1007 1 1018 1 1019 1 
1 214 10 1 51 1 89 1 109 1 113 1 114 1 125 1 140 1 165 1 170 1 190 1 198 2 212 1 225 1 229 1 239 2 251 1 270 1 291 1 319 2 348 1 349 2 353 1 357 1 376 1 386 1 399 1 408 1 426 1 432 1 437 2 449 1 452 1 476 1 480 1 486 1 555 1 580 1 596 1 609 1 661 1 686 1 720 1 728 1 749 1 750 1 756 1 794 1 833 2 847 1 849 1 876 1 877 1 22 1 37 1 57 1 86 1 93 1 100 1 112 1 134 1 199 1 204 1 227 1 281 1 293 1 316 1 404 1 410 1 423 1 434 1 462 1 508 1 510 1 511 1 542 1 553 1 575 1 576 1 614 1 619 1 631 1 637 1 648 1 649 1 712 1 754 1 770 1 788 1 806 1 813 1 844 1 979 1 980 1 989 1 992 1 923 1 932 1 933 1 948 1 971 1 990 1 999 1 1003 1 1009 1 1012 1 1024 1 1025 1 
1 210 14 1 35 1 36 1 46 1 49 1 51 1 93 1 94 1 119 1 148 1 199 1 213 1 223 1 225 1 248 1 269 1 270 1 273 1 295 1 361 1 364 1 374 1 407 1 422 1 440 1 460 1 492 1 497 1 505 1 507 1 565 1 577 1 647 1 661 1 669 1 678 1 680 1 682 1 685 1 717 2 729 1 747 1 773 1 778 1 785 2 812 1 861 1 864 1 879 1 23 1 52 1 79 1 90 1 96 1 100 1 103 1 106 1 108 1 113 1 140 1 159 1 224 1 243 1 296 1 299 1 306 1 310 1 312 1 360 1 378 1 401 1 414 1 423 1 432 1 465 1 471 1 473 1 481 1 493 1 500 1 533 1 545 1 596 1 602 1 631 1 632 1 643 1 671 1 709 1 716 1 758 1 781 1 843 1 909 1 935 1 936 1 962 1 979 1 981 1 997 1 902 1 908 1 921 1 930 1 933 1 950 1 952 1 964 1 969 1 977 1 982 1 1007 1 1011 1 1016 1 1024 1 
1 204 21 1 22 1 87 1 99 1 100 1 107 1 112 1 117 1 129 1 130 1 132 1 147 1 181 1 191 2 206 1 208 1 243 1 274 1 294 2 306 1 307 1 308 1 327 1 335 1 338 1 386 2 387 1 467 1 473 1 481 1 509 1 529 1 537 1 608 1 612 1 641 1 642 1 669 1 703 1 713 1 729 1 796 1 801 1 826 1 829 1 830 1 850 1 857 1 869 1 878 1 886 1 16 1 42 1 49 1 50 1 97 1 109 1 122 1 154 1 161 1 174 1 175 1 202 1 210 1 215 1 216 1 222 1 235 1 276 1 311 1 351 1 352 1 385 1 433 1 449 1 458 1 484 1 501 1 516 1 548 1 573 1 586 1 587 1 643 1 647 1 709 1 712 1 752 1 759 1 769 1 781 1 838 1 845 1 856 1 863 1 875 1 928 1 969 1 985 1 993 1 913 1 924 1 930 1 944 1 968 1 971 1 999 1 1009 1 
1 210 3 1 18 1 45 1 54 2 62 1 63 1 66 1 68 1 72 1 90 1 100 1 124 1 134 1 170 1 203 1 205 1 209 1 214 1 223 2 231 1 261 1 263 1 283 1 343 1 357 1 381 1 386 1 390 1 396 2 419 1 420 1 479 2 493 1 496 1 514 1 540 1 564 1 589 1 625 1 633 1 643 1 650 1 687 1 700 1 705 1 707 1 714 1 725 1 726 1 729 1 733 1 736 1 738 1 741 1 773 1 779 1 789 1 827 1 859 1 5 1 12 1 38 1 58 1 65 1 69 1 95 1 125 1 130 1 132 1 147 1 175 1 183 1 201 1 233 1 248 1 274 1 292 1 295 1 366 1 379 1 384 1 395 1 440 1 481 1 499 1 505 1 508 1 512 1 517 1 538 1 590 1 608 1 624 1 665 1 685 1 691 1 699 1 708 1 740 1 763 1 787 1 801 1 831 1 857 1 884 1 897 1 925 1 953 1 958 1 973 1 982 1 900 1 947 1 974 1 984 1 1006 1 1014 1 1022 1 
1 208 28 2 61 1 71 1 100 1 102 1 153 1 168 1 175 1 182 1 281 1 299 1 310 1 356 1 414 1 469 1 476 1 480 1 485 1 495 1 507 1 558 1 560 2 563 1 571 1 580 1 586 1 603 1 628 1 642 1 647 1 662 1 665 1 677 1 687 1 689 1 696 1 732 1 746 1 764 1 766 1 770 1 784 1 862 1 865 1 866 1 873 1 11 1 13 1 29 1 34 1 37 1 48 1 60 1 74 1 77 1 78 1 82 1 118 1 129 1 158 1 169 1 180 1 188 1 202 1 206 1 219 1 246 1 277 1 296 1 306 1 308 1 314 1 319 1 325 1 345 1 355 1 378 1 383 1 385 1 387 1 407 1 413 1 471 1 474 1 499 1 502 1 518 1 542 1 546 1 565 1 606 1 613 1 614 1 623 1 640 1 655 1 658 1 706 1 738 1 740 1 762 1 803 1 813 1 816 1 822 1 831 1 839 1 854 1 890 1 910 1 922 1 932 1 933 1 942 1 952 1 959 1 960 1 899 1 920 1 939 1 946 1 965 1 974 1 985 1 986 1 1005 1 1009 1 
1 214 2 1 3 1 11 1 37 1 40 1 61 1 109 1 117 1 159 1 169 1 188 1 216 1 229 1 248 1 252 1 268 1 282 1 290 1 308 1 310 1 321 1 358 1 368 1 382 1 396 1 435 1 447 1 471 2 475 1 478 1 479 1 483 1 505 1 514 1 520 1 521 1 530 1 538 2 552 1 584 1 597 1 616 1 634 1 698 1 701 1 704 1 718 1 728 1 731 1 746 1 774 1 777 1 796 1 800 1 813 1 5 1 28 1 29 1 32 1 58 1 60 1 80 1 88 1 97 1 145 1 155 1 157 1 197 1 223 1 232 1 256 1 258 1 263 1 265 1 267 1 287 1 350 1 401 1 444 1 457 1 465 1 473 1 506 1 535 1 563 1 579 1 602 1 603 1 688 1 691 1 700 1 768 1 770 1 782 1 829 1 836 1 855 1 926 1 929 1 931 1 940 1 952 1 963 1 995 1 900 1 901 1 906 1 914 1 923 1 924 1 927 1 934 1 956 1 981 1 1016 1 1022 1 1024 1 
1 210 20 1 27 1 32 1 33 1 34 1 36 1 43 1 83 1 89 1 99 1 101 1 116 1 129 1 168 1 204 1 301 1 320 2 338 1 370 2 371 1 377 1 399 1 464 1 467 1 489 1 490 1 514 1 535 1 536 1 551 1 563 1 581 1 606 1 611 1 672 1 710 1 716 1 759 2 763 1 766 1 791 1 819 1 844 1 849 1 855 1 874 1 889 1 894 1 8 1 21 1 25 1 39 1 41 1 49 1 61 1 62 1 69 1 74 1 90 1 114 1 126 1 127 1 149 1 189 1 190 1 207 1 231 1 251 1 267 1 271 1 346 1 351 1 373 1 375 1 407 1 433 1 447 1 451 1 465 1 472 1 477 1 485 1 496 1 501 1 508 1 510 1 516 1 519 1 529 1 542 1 566 1 582 1 599 1 613 1 648 1 665 1 673 1 675 1 677 1 679 1 696 1 719 1 734 1 751 1 798 1 800 1 832 1 857 1 886 1 915 1 964 1 965 1 982 1 989 1 995 1 948 1 983 1 987 1 1018 1 1026 1 1027 1 
1 213 29 1 69 1 99 1 100 1 132 1 160 2 162 1 168 1 195 1 205 1 226 1 231 1 232 2 233 1 236 1 275 2 323 1 363 1 370 1 377 1 381 1 407 1 439 1 490 1 494 1 499 1 507 1 513 1 542 1 564 1 580 1 585 1 596 1 604 1 613 1 616 1 622 2 626 1 664 1 687 2 691 1 720 1 731 1 746 1 756 1 759 1 789 1 800 1 803 1 806 1 833 2 868 1 882 1 887 1 14 1 15 1 45 1 48 1 70 1 87 1 95 1 112 1 115 1 136 1 180 1 187 1 189 1 214 1 249 1 266 1 267 1 284 1 304 1 350 1 373 1 375 1 435 1 455 1 467 1 500 1 503 1 535 1 547 1 558 1 594 1 618 1 627 1 629 1 652 1 674 1 710 1 732 1 807 1 815 1 832 1 857 1 943 1 945 1 972 1 994 1 996 1 940 1 942 1 951 1 965 1 976 1 1013 1 
1 212 29 1 47 1 57 1 58 1 80 1 111 1 151 1 180 1 204 1 210 1 211 2 234 1 245 2 260 1 266 1 271 1 298 2 345 2 358 1 409 1 411 1 414 1 416 1 417 1 418 1 512 1 530 1 534 1 547 1 579 1 594 1 607 1 613 1 630 1 639 1 652 1 656 1 679 1 692 1 696 1 708 1 710 1 716 1 767 1 792 1 833 1 841 1 877 1 881 1 884 1 886 1 71 1 100 1 113 1 132 1 135 1 150 1 157 1 165 1 212 1 221 1 231 1 232 1 255 1 256 1 269 1 278 1 315 1 323 1 351 1 366 1 400 1 408 1 442 1 445 1 453 1 458 1 469 1 477 1 487 1 495 1 545 1 550 1 596 1 604 1 614 1 629 1 659 1 670 1 672 1 694 1 698 1 723 1 730 1 746 1 803 1 830 1 835 1 836 1 837 1 854 1 883 1 895 1 909 1 916 1 948 1 964 1 976 1 983 1 985 1 992 1 907 1 917 1 965 1 982 1 1019 1 
1 212 11 1 17 2 40 2 76 1 89 1 95 1 125 1 126 1 145 1 231 1 251 1 252 1 254 1 291 1 294 1 313 1 320 1 378 1 382 1 386 1 391 1 401 1 420 1 432 1 446 1 471 1 513 1 516 1 524 1 563 1 566 1 576 1 580 1 597 1 610 1 611 1 646 1 693 1 707 1 716 1 720 1 724 1 727 1 743 1 745 1 747 1 785 1 790 1 796 1 804 2 821 1 825 1 849 1 883 1 4 1 10 1 12 1 21 1 51 1 54 1 82 1 104 1 132 1 139 1 155 1 237 1 246 1 286 1 311 1 319 1 329 1 330 1 348 1 364 1 365 1 368 1 379 1 430 1 435 1 476 1 525 1 549 1 579 1 592 1 647 1 660 1 672 1 711 1 748 1 755 1 789 1 794 1 797 1 806 1 828 1 834 1 835 1 845 1 850 1 859 1 871 1 885 1 894 1 896 1 900 1 900 1 904 1 912 1 913 1 918 1 942 1 961 1 975 1 987 1 998 1 902 1 916 1 930 1 931 1 999 1 1001 1 1006 1 1020 1 
1 214 6 1 19 2 20 1 40 1 47 1 58 1 64 1 86 1 100 1 111 1 126 1 142 1 191 1 193 1 226 1 238 1 250 1 251 1 266 1 268 1 271 1 302 1 303 1 307 1 319 1 324 1 327 1 331 1 332 1 348 1 364 1 371 1 380 1 449 1 451 1 460 1 468 1 482 1 548 1 552 1 559 1 566 1 622 1 665 2 696 1 729 1 738 1 739 1 753 1 754 1 761 1 765 1 779 1 784 1 789 1 803 1 858 1 2 1 62 1 84 1 102 1 104 1 112 1 114 1 176 1 185 1 217 1 230 1 242 1 298 1 334 1 336 1 349 1 353 1 355 1 370 1 373 1 413 1 462 1 521 1 536 1 541 1 554 1 587 1 609 1 683 1 693 1 703 1 760 1 791 1 808 1 849 1 853 1 865 1 876 1 879 1 890 1 896 1 910 1 932 1 934 1 923 1 953 1 975 1 1011 1 1018 1 1026 1 
1 209 7 1 29 1 63 2 105 1 112 1 114 1 122 1 138 1 152 1 181 1 186 2 202 1 212 1 241 1 254 1 291 1 320 1 325 1 332 1 334 1 357 1 358 1 366 1 377 1 395 1 406 1 414 1 469 1 479 1 517 1 540 1 553 1 574 1 579 1 652 1 670 1 674 1 692 1 707 1 716 1 717 1 725 1 736 1 770 1 773 1 806 1 813 1 834 1 845 1 856 2 859 1 890 1 6 1 13 1 19 1 33 1 41 1 71 1 75 1 81 1 91 1 96 1 110 1 190 1 277 1 282 1 293 1 318 1 322 1 347 1 349 1 353 1 361 1 376 1 385 1 427 1 433 1 551 1 564 1 572 1 580 1 591 1 597 1 606 1 610 1 649 1 657 1 669 1 721 1 745 1 790 1 797 1 801 1 833 1 892 1 900 1 935 1 941 1 946 1 955 1 959 1 966 1 970 1 971 1 977 2 983 1 985 1 905 1 913 1 915 1 933 1 1008 1 1023 1 1024 1 
1 212 3 1 17 1 19 1 55 1 61 1 74 1 77 1 95 1 112 2 123 1 127 1 144 1 152 1 153 1 167 1 169 1 183 1 186 1 213 1 253 1 274 1 279 1 299 1 300 1 303 1 330 1 398 1 406 1 423 1 427 1 436 1 457 1 459 2 513 1 604 1 607 1 608 1 618 1 624 1 642 1 648 1 650 1 670 1 672 1 736 1 747 1 760 1 768 1 775 2 778 1 779 1 805 1 807 1 808 1 809 1 828 1 889 1 5 1 16 1 43 1 44 1 91 1 97 1 104 1 136 1 166 1 168 1 192 1 211 1 271 1 275 1 316 1 334 1 368 1 401 1 402 1 413 1 453 1 466 1 470 1 478 1 488 1 528 1 580 1 640 1 649 1 690 1 693 1 723 1 733 1 734 1 752 1 794 1 799 1 838 1 843 1 871 1 911 1 930 1 932 1 949 1 920 1 961 1 982 1 983 1 1009 1 1027 1 
1 207 25 1 35 1 40 1 44 1 98 1 120 1 124 1 127 1 134 1 154 2 158 1 167 1 182 1 189 2 210 1 223 1 239 1 244 1 280 1 289 1 296 1 298 1 307 1 328 1 331 1 355 1 367 1 370 1 372 1 436 1 446 2 462 1 463 1 483 1 505 1 529 1 530 1 551 1 642 1 653 1 654 1 657 1 705 1 713 1 737 1 739 1 745 1 776 1 801 1 819 1 825 1 855 1 868 2 876 1 900 1 2 1 5 1 7 1 13 1 27 1 33 1 36 1 81 1 106 1 168 1 175 1 202 1 225 1 247 1 270 1 275 1 285 1 286 1 302 1 304 1 308 1 311 1 352 1 381 1 410 1 424 1 434 1 456 1 475 1 479 1 495 1 521 1 532 1 557 1 623 1 638 1 664 1 683 1 690 1 821 1 847 1 924 1 928 1 932 2 938 1 946 1 968 1 997 1 1001 1 906 1 937 1 999 1 1000 1 1015 1 
1 212 3 1 15 1 23 1 40 1 77 2 85 1 105 1 113 1 118 1 131 1 164 1 180 1 183 1 195 1 208 1 212 1 249 1 309 1 339 1 350 1 414 1 417 1 430 1 456 1 517 1 563 2 569 1 572 1 573 1 574 1 591 1 593 1 610 1 663 1 668 1 683 1 685 1 708 1 718 1 725 1 737 1 757 1 759 1 760 1 772 1 809 1 821 1 862 1 872 1 11 1 43 1 52 1 54 1 60 1 70 1 75 1 80 1 161 1 166 1 167 1 170 1 177 1 178 1 182 1 193 1 239 1 272 1 275 1 320 1 326 1 358 1 367 1 378 1 382 1 386 1 431 1 439 1 466 1 477 1 487 1 499 1 512 1 528 1 538 1 544 1 556 1 567 1 599 1 600 1 602 1 640 1 650 1 674 1 691 1 704 1 731 1 761 1 810 1 841 1 855 1 902 1 986 1 926 1 967 1 968 1 974 1 1010 1 1020 1 1026 1 
1 208 40 1 41 1 87 1 141 1 148 1 161 1 165 1 223 1 245 1 256 1 257 1 286 1 300 1 306 1 308 1 320 1 321 1 332 2 343 1 348 1 357 1 359 1 384 1 388 1 389 2 390 1 403 1 404 1 426 1 428 1 443 1 452 1 513 1 520 1 551 1 555 1 557 1 579 1 582 1 608 1 616 1 644 1 653 1 679 1 682 1 700 1 702 1 731 1 738 1 762 1 766 1 771 1 781 1 786 1 792 1 822 1 8 1 15 1 31 1 90 1 111 1 150 1 171 1 192 1 196 1 207 1 244 1 250 1 262 1 326 1 333 1 336 1 341 1 344 1 362 1 397 1 413 1 417 1 418 1 527 1 612 1 625 1 654 1 668 1 689 1 697 1 701 1 713 1 739 1 754 1 796 1 800 1 815 1 858 1 870 1 879 1 883 1 896 1 904 1 937 1 951 1 956 1 969 1 972 1 974 1 981 1 922 1 925 1 936 1 961 1 967 1 990 1 1006 1 1020 1 
1 215 49 1 76 1 163 1 184 1 209 1 211 1 217 1 223 1 228 1 261 1 269 1 275 1 277 1 283 1 300 1 310 2 311 1 313 1 320 1 339 1 342 1 350 1 364 1 367 1 382 1 424 1 426 1 428 1 493 1 521 1 537 1 539 1 590 1 630 1 644 1 653 1 662 1 673 1 723 1 734 1 745 1 781 1 790 1 860 1 871 1 872 1 875 1 876 1 884 1 2 1 8 1 14 1 18 1 23 1 53 1 97 1 98 1 110 1 119 1 149 1 171 1 177 1 229 1 235 1 239 1 240 1 260 1 263 1 266 1 267 1 294 1 328 1 386 1 388 1 392 1 483 1 485 1 504 1 508 1 514 1 526 1 542 1 546 1 597 1 625 1 626 1 642 1 660 1 669 1 679 1 685 1 687 1 696 1 712 1 732 1 739 1 759 1 764 1 787 1 788 1 797 1 832 1 867 1 874 1 885 1 899 1 907 1 907 1 922 1 982 1 942 1 948 1 949 1 997 1 1004 1 1013 1 1019 1 1023 1 1024 1 
1 211 27 1 77 1 89 1 104 1 112 1 130 1 148 1 152 1 154 1 159 1 160 1 178 1 186 1 189 1 197 1 221 1 228 1 295 1 331 1 334 1 380 1 406 1 414 1 416 1 420 1 431 1 436 1 440 1 475 1 485 1 503 1 527 2 533 1 548 1 582 1 603 1 614 1 646 1 650 1 651 1 663 1 672 1 677 1 681 2 686 1 776 1 782 1 795 1 798 1 813 1 814 1 826 2 857 1 858 2 880 1 14 1 22 1 23 1 25 1 62 1 80 1 98 1 110 1 114 1 163 1 180 1 192 1 219 1 244 1 312 1 360 1 369 1 377 1 403 1 422 1 423 1 439 1 450 1 462 1 487 1 508 1 510 1 519 1 526 1 543 1 556 1 620 1 628 1 637 1 652 1 659 1 680 1 690 1 709 1 735 1 737 1 805 1 816 1 892 1 916 1 935 1 953 1 981 1 985 1 975 1 978 1 1003 1 1005 1 1006 1 1022 1 1025 1 1027 1 
1 209 2 1 10 1 28 1 29 1 41 1 56 1 60 1 63 1 80 1 104 1 114 1 118 1 131 1 135 1 143 1 164 1 195 1 222 1 248 1 311 1 341 1 349 1 350 1 354 1 386 1 410 1 414 1 443 1 448 1 471 2 526 1 543 1 545 1 563 1 603 1 631 2 632 1 649 1 659 1 695 1 701 1 706 1 711 1 719 1 764 1 773 1 779 1 812 1 837 1 845 1 850 1 883 1 889 1 892 1 899 1 14 1 30 1 32 1 51 1 64 1 68 1 93 1 95 1 121 1 130 1 148 1 155 1 159 1 227 1 249 1 251 1 258 1 261 1 277 1 326 1 331 1 355 1 356 1 409 1 416 1 425 1 438 1 449 1 453 1 513 1 516 1 522 1 523 1 556 1 583 1 590 1 592 1 593 1 619 1 625 1 628 1 629 1 638 1 684 1 686 1 732 1 765 1 774 1 782 1 785 1 796 1 798 1 803 1 813 1 826 1 878 1 938 1 944 1 953 1 956 1 958 1 994 1 945 1 969 1 998 1 1023 1 
1 210 27 1 52 1 73 1 74 1 171 1 185 1 214 1 218 1 219 1 222 1 243 1 260 1 269 1 284 1 290 1 298 1 300 1 314 1 317 1 319 1 341 1 364 1 377 1 402 1 432 1 434 1 443 1 457 1 469 1 489 1 514 1 519 1 545 2 555 1 577 1 584 1 651 1 655 1 672 1 673 1 689 1 732 1 757 1 775 1 779 1 801 1 810 1 826 1 855 1 895 1 901 1 7 1 13 1 19 1 20 1 35 1 38 1 77 1 91 1 101 1 102 1 110 1 154 1 159 1 161 1 162 1 169 1 176 1 180 1 194 1 207 1 229 1 236 1 246 1 255 1 256 1 264 1 281 1 294 1 401 1 436 1 440 1 447 1 467 1 478 1 490 1 494 1 498 1 518 1 536 1 553 1 594 1 601 1 611 1 612 1 652 1 667 1 677 1 678 1 702 1 708 1 710 1 737 1 799 1 817 1 864 1 888 1 917 1 980 1 984 1 979 1 989 1 992 1 996 1 1008 1 1016 1 1020 1 
1 208 7 1 22 1 30 1 39 1 77 1 79 1 119 1 123 1 141 1 164 1 165 1 226 1 233 1 255 1 270 1 285 1 302 1 307 1 339 1 344 1 357 1 364 2 379 1 380 1 384 1 399 1 407 1 444 1 450 1 480 1 488 1 489 1 505 2 570 1 603 1 628 1 650 1 677 1 682 1 685 1 705 1 709 1 775 1 788 1 824 2 825 1 858 1 867 1 903 1 5 1 60 1 99 1 102 1 148 1 159 1 167 1 212 1 213 1 224 1 232 1 250 1 278 1 299 1 323 1 331 1 353 1 356 1 382 1 398 1 406 1 413 1 420 1 427 1 429 1 435 1 439 1 461 1 467 1 469 1 474 1 529 1 569 1 595 1 600 1 625 1 654 1 675 1 690 1 712 1 720 1 740 1 753 1 777 1 780 1 816 1 820 1 828 1 863 1 871 1 880 1 924 1 931 1 938 1 952 1 988 1 947 1 968 1 975 1 987 1 997 1 1011 1 1026 1 
1 216 32 1 50 1 65 1 70 1 71 1 92 1 105 1 136 1 161 1 168 1 181 1 187 1 199 2 212 2 236 1 251 1 267 1 270 1 327 1 348 1 383 1 409 1 423 1 453 1 503 2 517 1 659 1 673 1 678 1 682 1 689 1 697 1 706 1 714 2 729 2 746 1 757 1 767 1 768 1 778 2 787 1 823 1 847 1 848 1 853 1 864 1 878 1 900 1 28 1 30 1 44 1 66 1 106 1 110 1 149 1 171 1 176 1 238 1 255 1 262 1 269 1 307 1 340 1 344 1 373 1 385 1 386 1 395 1 397 1 416 1 422 1 431 1 445 1 460 1 500 1 511 1 516 1 526 1 532 1 582 1 586 1 588 1 604 1 627 1 651 1 698 1 756 1 809 1 813 1 822 1 851 1 873 1 875 1 881 1 930 1 942 1 943 1 948 1 979 2 983 1 991 1 994 1 927 1 929 1 931 1 939 1 950 1 951 1 954 1 1009 1 1012 1 1013 1 1014 1 1017 1 1021 1 1025 1 1026 1 
1 208 68 1 81 1 91 1 98 1 100 1 110 1 132 1 155 1 178 1 198 1 200 1 212 1 217 1 233 1 249 1 253 1 267 1 269 1 283 1 306 1 341 1 342 2 351 1 387 1 389 1 403 1 435 1 455 1 493 1 500 1 506 1 520 1 535 1 540 1 589 1 649 1 668 1 672 1 676 1 683 1 696 2 724 1 749 1 754 1 764 1 820 1 855 1 875 1 900 1 5 1 36 1 61 1 74 1 99 1 102 1 104 1 114 1 141 1 172 1 206 1 208 1 238 1 242 1 244 1 245 1 263 1 277 1 279 1 285 1 315 1 316 1 318 1 324 1 332 1 340 1 353 1 356 1 381 1 399 1 433 1 438 1 444 1 445 1 451 1 459 1 469 1 509 1 534 1 547 1 548 1 556 1 566 1 570 1 579 1 602 1 613 1 657 1 707 1 714 1 725 1 746 1 751 1 761 1 774 1 859 1 893 1 902 1 948 1 962 1 974 1 980 1 982 1 995 1 934 1 937 1 940 1 950 1 981 1 991 1 998 1 1001 1 
1 207 2 1 10 1 30 1 89 1 90 1 99 1 109 1 118 2 121 1 137 1 159 1 161 1 170 1 219 1 244 1 247 1 261 1 271 1 272 1 350 1 366 1 404 1 408 1 409 1 430 1 440 1 459 1 472 1 492 1 500 2 522 1 534 1 558 1 603 1 613 1 615 1 621 1 631 1 646 1 650 1 723 1 753 1 757 1 768 1 780 1 795 1 829 1 841 1 850 2 866 1 874 1 877 1 38 1 40 1 61 1 64 1 66 1 139 1 144 1 158 1 188 1 251 1 257 1 292 1 329 1 341 1 343 1 348 1 357 1 359 1 386 1 444 1 451 1 482 1 484 1 504 1 516 1 537 1 576 1 577 1 584 1 587 1 588 1 612 1 618 1 624 1 685 1 687 1 752 1 760 1 763 1 765 1 789 1 807 1 844 1 845 1 860 1 864 1 883 1 896 1 978 1 988 1 1001 1 930 1 946 1 976 1 980 1 987 1 
1 213 1 1 30 1 44 1 53 1 54 1 81 1 94 1 102 1 144 1 148 1 155 1 156 1 168 1 193 1 229 1 232 1 302 1 313 1 344 1 348 1 373 1 378 1 391 1 393 1 403 1 407 1 419 1 451 1 476 2 482 1 488 2 493 1 523 1 524 2 615 1 632 1 637 1 667 2 674 1 678 1 684 1 725 1 744 1 764 1 817 1 820 1 836 1 855 1 857 1 864 1 879 1 887 1 897 1 32 1 50 1 66 1 98 1 111 1 112 1 140 1 142 1 143 1 160 1 171 1 200 1 240 1 253 1 269 1 271 1 278 1 284 1 301 1 312 1 338 1 371 1 381 1 382 1 398 1 487 1 491 1 502 1 508 1 546 1 550 1 555 1 563 1 601 1 638 1 644 1 647 1 710 1 718 1 769 1 771 1 802 1 821 1 828 1 830 1 867 1 869 1 886 1 902 1 931 1 949 1 963 1 983 2 930 1 985 1 990 1 999 1 1002 1 1008 1 1009 1 1015 1 1023 1 
1 211 6 1 47 2 54 1 57 1 84 1 91 1 93 1 127 1 134 1 136 1 139 1 143 1 144 1 148 1 152 2 158 1 171 1 200 1 219 2 221 1 230 1 246 1 271 1 284 1 292 1 309 1 352 1 364 1 409 1 427 1 433 2 459 1 481 1 511 1 531 1 561 1 591 2 598 1 611 1 618 1 660 1 664 1 699 1 709 1 719 1 736 1 749 1 750 1 770 2 789 2 798 1 814 1 842 2 899 1 908 1 3 1 4 1 10 1 12 1 15 1 33 1 64 1 78 1 166 1 188 1 198 1 212 1 216 1 244 1 245 1 252 1 268 1 301 1 304 1 314 1 354 1 362 1 365 1 372 1 380 1 387 1 393 1 398 1 401 1 412 1 431 1 445 1 468 1 489 1 508 1 557 1 577 1 594 1 634 1 635 1 656 1 662 1 670 1 676 1 678 1 688 1 698 1 703 1 704 1 720 1 731 1 747 1 769 1 791 1 792 1 797 1 816 1 818 1 823 1 849 1 864 1 869 1 900 1 930 1 945 1 991 1 919 1 923 1 933 1 963 1 978 1 979 1 980 1 1012 1 1015 1 1021 1 
1 209 4 1 8 1 14 1 15 1 60 1 63 1 70 1 80 1 86 1 97 1 105 1 129 1 139 1 165 1 168 1 197 1 214 1 222 1 250 1 258 1 274 1 293 1 345 1 384 1 385 1 387 1 425 1 450 1 479 1 481 1 511 2 526 1 528 1 529 1 533 1 563 1 595 1 612 1 652 1 660 1 690 1 701 1 702 1 741 1 748 1 812 1 820 1 823 1 837 1 839 1 864 1 868 1 877 1 910 1 6 1 18 1 45 1 57 1 62 1 69 1 79 1 91 1 101 1 124 1 133 1 146 1 154 1 211 1 229 1 236 1 238 1 279 1 299 1 313 1 340 1 354 1 355 1 368 1 375 1 378 1 395 1 397 1 406 1 423 1 438 1 439 1 453 1 460 1 475 1 515 1 539 1 545 1 557 1 570 1 586 1 600 1 603 1 605 1 626 1 630 1 636 1 645 1 658 1 671 1 699 1 704 1 726 1 739 1 743 1 756 1 815 1 874 1 878 1 881 1 899 1 954 1 959 1 970 1 976 1 988 1 919 1 934 1 945 1 950 1 971 1 985 1 986 1 1012 1 1013 1 1014 1 1015 1 1019 1 1026 1 
1 210 6 1 9 1 18 1 21 1 26 1 42 1 46 2 55 1 59 1 60 1 77 1 80 1 86 1 110 1 154 1 162 1 201 1 219 1 248 1 253 1 293 1 302 2 305 1 327 1 342 1 406 1 416 1 424 1 425 1 434 1 437 1 443 1 466 1 468 1 491 1 509 1 527 1 528 2 547 1 589 2 594 1 634 1 646 1 660 1 702 1 749 1 751 2 754 1 763 1 781 1 810 1 828 1 870 1 887 1 890 1 900 1 7 1 40 1 54 1 66 1 125 1 140 1 155 1 161 1 177 1 196 1 245 1 260 1 263 1 279 1 309 1 312 1 323 1 374 1 378 1 391 1 419 1 420 1 442 1 482 1 507 1 529 1 538 1 608 1 614 1 621 1 656 1 669 1 674 1 677 1 693 1 694 1 695 1 709 1 719 1 723 1 737 1 817 1 849 1 876 1 885 1 922 1 992 1 1000 1 1002 1 928 1 942 1 968 1 1006 1 1021 1 
1 206 25 1 54 1 59 1 68 1 77 1 79 1 83 2 94 1 100 1 111 1 112 1 113 1 129 1 145 1 162 1 165 1 166 1 183 1 224 1 229 1 239 1 251 1 268 1 282 1 285 1 288 1 292 1 354 1 370 1 373 1 417 1 457 1 464 1 468 1 489 1 498 1 499 1 516 1 528 1 544 2 557 1 572 1 620 1 640 1 642 1 646 1 649 1 674 1 678 1 680 1 682 1 683 1 723 1 731 1 756 1 777 1 806 2 863 1 868 1 869 1 880 1 886 1 15 1 30 1 55 1 93 1 99 1 102 1 114 1 116 1 139 1 152 1 155 1 157 1 177 1 192 1 250 1 255 1 297 1 309 1 319 1 341 1 342 1 371 1 413 1 420 1 424 1 438 1 455 1 462 1 470 1 495 1 509 1 522 1 524 1 531 1 537 1 618 1 635 1 648 1 650 1 653 1 657 1 658 1 671 1 692 1 718 1 722 1 726 1 733 1 735 1 737 1 796 1 811 1 830 1 916 1 917 1 932 1 956 1 982 1 964 1 966 1 1002 1 1011 1 
1 211 10 1 15 1 19 1 22 2 29 1 65 1 111 1 114 1 121 1 122 1 123 1 131 1 138 1 144 1 155 1 161 1 209 1 216 1 257 1 261 1 299 1 300 1 303 1 346 1 348 1 402 1 431 1 445 1 457 1 483 1 495 1 496 1 517 2 546 1 549 1 569 2 584 1 622 1 637 1 674 1 690 1 735 1 746 1 781 1 783 1 831 1 871 1 878 1 2 1 46 1 57 1 59 1 120 1 124 1 130 1 134 1 146 1 148 1 179 1 213 1 217 1 251 1 268 1 279 1 330 1 368 1 392 1 393 1 421 1 428 1 478 1 503 1 508 1 509 1 513 1 538 1 540 1 553 1 554 1 574 1 580 1 596 1 613 1 619 1 635 1 645 1 667 1 696 1 708 1 715 1 719 1 820 1 854 1 895 1 903 1 940 1 949 1 967 2 929 1 974 1 993 1 997 1 1008 1 1025 1 
1 209 7 1 25 1 28 2 37 1 40 1 43 1 57 2 76 2 91 1 102 1 112 1 113 1 171 1 176 1 195 1 197 1 249 1 263 1 265 1 268 1 293 1 316 1 329 1 343 1 344 1 360 1 382 1 413 1 423 1 441 1 487 1 497 1 518 1 543 1 556 1 581 1 612 1 723 1 726 1 766 1 768 1 770 1 827 1 848 1 850 1 872 1 882 1 33 1 51 1 66 1 84 1 86 1 87 1 115 1 126 1 175 1 187 1 191 1 193 1 229 1 246 1 255 1 262 1 266 1 267 1 279 1 300 1 317 1 323 1 356 1 377 1 395 1 404 1 470 1 492 1 502 1 507 1 516 1 572 1 585 1 603 1 619 1 632 1 658 1 666 1 669 1 676 1 681 1 741 1 785 1 799 1 887 1 892 1 940 1 941 1 987 1 933 1 944 1 957 1 973 1 986 1 994 1 1004 1 1026 1 1027 1 
1 214 30 1 59 1 68 2 83 1 93 1 94 1 95 1 104 1 137 1 147 1 154 1 171 1 180 1 193 1 201 1 208 1 217 1 222 1 231 1 248 1 251 1 253 1 256 1 312 1 336 1 353 1 363 1 370 1 376 1 385 1 409 1 413 1 434 2 451 1 452 1 454 1 475 1 515 1 519 1 536 1 585 1 623 1 687 1 688 1 703 1 705 1 724 1 744 1 754 1 764 1 767 2 788 1 850 1 855 1 881 1 895 1 907 1 918 1 34 1 42 1 61 1 63 1 96 1 125 1 132 1 143 1 145 1 298 1 303 1 314 1 316 1 334 1 343 1 360 1 366 1 383 1 402 1 410 1 411 1 414 1 437 1 438 1 445 1 449 1 455 1 470 1 473 1 491 1 494 1 532 1 566 1 590 1 599 1 604 1 628 1 666 1 670 1 676 1 680 1 726 1 743 1 757 1 834 1 837 1 877 1 882 1 906 1 937 2 968 1 976 1 936 1 939 1 944 1 945 1 958 1 969 1 992 1 1004 1 1014 1 1023 1 
1 212 22 1 40 1 64 1 106 1 149 1 157 1 222 1 230 1 256 1 274 1 280 2 313 1 316 1 333 1 334 1 373 1 423 1 441 2 451 1 465 1 491 1 521 1 526 1 536 1 543 1 547 1 567 1 577 1 610 1 618 1 642 1 652 1 663 1 676 1 700 1 708 1 717 1 736 1 742 1 753 1 756 1 763 1 781 1 793 1 795 1 806 1 809 1 840 1 870 1 882 1 47 1 67 1 82 1 91 1 94 1 98 1 101 1 107 1 116 1 121 1 160 1 169 1 179 1 188 1 199 1 221 1 257 1 265 1 286 1 296 1 311 1 340 1 351 1 352 1 361 1 372 1 381 1 395 1 415 1 417 1 427 1 458 1 462 1 545 1 557 1 559 1 586 1 615 1 643 1 720 1 771 1 777 1 783 1 808 1 818 1 822 1 841 1 851 1 852 1 891 1 896 1 901 1 916 1 928 1 932 1 949 2 952 1 961 1 970 1 993 1 929 1 930 1 967 1 977 1 981 1 984 1 1006 1 1007 1 1010 1 1018 1 
1 211 1 1 9 1 11 2 12 1 26 1 33 1 115 2 124 1 127 1 136 1 164 1 169 2 186 1 205 1 219 1 224 1 245 1 247 1 296 1 301 1 370 1 381 1 415 1 448 1 453 1 455 1 485 1 514 1 522 1 529 1 588 1 605 2 660 1 672 1 685 1 692 1 706 1 734 1 736 1 737 1 755 1 795 1 802 1 812 1 854 1 904 1 911 1 70 1 74 1 92 1 93 1 116 1 121 1 129 1 145 1 165 1 181 1 192 1 199 1 251 1 270 1 293 1 306 1 317 1 334 1 346 1 388 1 418 1 424 1 480 1 516 1 519 1 548 1 551 1 565 1 570 1 578 1 583 1 593 1 596 1 598 1 664 1 724 1 742 1 752 1 771 1 787 1 794 1 806 1 866 1 893 1 896 1 928 1 933 1 945 1 954 1 964 1 967 1 1022 1 
1 209 22 1 35 1 55 1 66 1 71 1 92 1 119 1 124 1 136 1 154 1 228 1 237 1 242 1 264 1 282 1 334 1 351 1 359 1 369 1 373 1 377 1 383 1 391 1 405 1 438 1 467 1 470 1 471 1 482 1 500 1 506 1 528 1 546 1 578 1 580 1 584 1 605 1 625 1 656 1 686 1 719 2 731 1 735 1 743 1 747 1 750 1 752 1 756 1 776 1 789 1 792 1 807 1 818 1 829 1 839 1 843 1 874 1 894 1 3 1 56 1 69 1 117 1 118 1 129 1 144 1 172 1 179 1 189 1 191 1 283 1 285 1 287 1 294 1 303 1 304 1 318 1 349 1 357 1 363 1 364 1 441 1 489 1 491 1 516 1 518 1 538 1 548 1 568 1 576 1 620 1 643 1 650 1 652 1 654 1 658 1 679 1 688 1 691 1 762 1 779 1 816 1 826 1 845 1 860 1 876 1 882 1 890 1 906 1 958 1 975 1 977 1 988 1 996 1 1001 1 939 1 951 1 970 1 981 1 986 1 991 1 995 1 1007 1 1008 1 1012 1 1022 1 
1 214 46 1 74 1 77 1 141 1 151 2 172 1 190 1 209 1 221 1 239 1 286 1 293 1 323 1 337 1 357 1 365 1 380 1 382 2 385 1 388 1 391 1 403 1 404 1 451 1 477 1 531 1 542 1 579 1 582 1 586 1 592 1 598 1 600 1 613 1 616 1 620 1 622 1 643 1 644 1 677 1 686 1 692 1 707 1 715 1 751 2 761 1 766 1 767 1 800 1 809 1 825 1 838 1 849 1 865 1 896 1 17 1 60 1 82 1 93 1 94 1 111 1 112 1 126 1 140 1 157 1 163 1 168 1 169 1 196 1 205 1 227 1 238 1 245 1 261 1 278 1 285 1 310 1 313 1 317 1 331 1 349 1 355 1 368 1 377 1 406 1 412 1 458 1 482 1 483 1 493 1 503 1 511 1 551 1 552 1 572 1 574 1 605 1 635 1 672 1 681 1 741 1 746 1 771 1 789 1 793 1 795 1 798 1 804 1 826 1 834 1 848 1 856 1 862 1 868 1 876 1 905 1 964 1 976 1 993 1 994 1 931 1 935 1 939 1 947 1 982 1 1008 1 1015 1 1020 1 
1 213 22 1 50 1 88 1 101 1 103 1 138 2 147 1 149 1 161 1 192 1 205 1 216 1 220 1 246 1 269 1 287 1 292 1 316 2 338 1 363 1 368 1 379 1 397 1 412 1 422 1 437 1 467 1 486 1 490 1 511 1 520 1 580 1 587 1 594 1 598 1 599 1 605 1 623 1 640 1 650 1 684 1 690 1 767 1 781 1 790 1 825 2 844 1 863 1 871 1 875 1 9 1 23 1 40 1 49 1 58 1 67 1 86 1 104 1 118 1 122 1 182 1 225 1 272 1 286 1 288 1 335 1 339 1 385 1 465 1 478 1 498 1 510 1 512 1 542 1 558 1 561 1 563 1 575 1 585 1 596 1 662 1 678 1 685 1 686 1 691 1 692 1 697 1 705 1 713 1 719 1 727 1 728 1 744 1 747 1 750 1 760 1 773 1 789 1 791 1 805 1 812 1 817 1 847 1 857 1 859 1 862 1 872 1 883 1 887 1 888 1 896 1 912 1 927 1 927 1 937 1 940 1 949 1 972 1 976 1 982 1 931 1 962 1 1007 1 1013 1 1015 1 1023 1 1024 1 
1 211 7 1 31 1 66 1 119 1 133 1 147 1 152 1 171 1 177 1 201 1 207 1 209 1 214 1 262 1 275 1 296 1 299 1 360 1 395 1 408 1 441 1 450 1 472 1 530 1 531 1 567 1 573 1 574 1 587 1 589 1 604 1 633 1 635 1 637 1 683 1 689 1 692 1 700 1 702 1 765 1 780 2 782 1 783 1 801 1 807 1 809 1 821 1 840 1 869 1 871 2 878 1 893 1 904 1 923 1 924 1 10 1 17 1 59 1 93 1 114 1 132 1 172 1 182 1 190 1 223 1 247 1 265 1 270 1 273 1 287 1 291 1 309 1 318 1 350 1 402 1 417 1 432 1 439 1 461 1 463 1 514 1 516 1 518 1 535 1 561 1 575 1 617 1 676 1 727 1 729 1 751 1 773 1 793 1 804 1 830 1 848 1 860 1 863 1 873 1 876 1 880 1 918 1 933 1 949 1 931 1 945 1 954 1 955 1 985 1 992 1 1001 1 1011 1 1013 1 1022 1 1025 1 
1 214 28 1 51 1 67 2 72 2 74 1 99 2 114 1 120 1 126 1 136 1 141 1 142 1 147 1 166 1 198 1 210 1 218 1 243 1 256 1 259 1 274 1 279 1 286 1 291 1 331 1 332 1 357 1 358 1 366 2 373 2 392 1 408 1 414 1 425 1 482 1 489 1 502 1 519 1 534 1 615 1 626 1 690 2 792 1 799 1 821 1 848 1 887 1 896 1 2 1 22 1 31 1 35 1 39 1 76 1 83 1 92 1 143 1 156 1 238 1 240 1 247 1 268 1 269 1 320 1 328 1 412 1 442 1 448 1 468 1 474 1 567 1 595 1 597 1 598 1 599 1 619 1 625 1 654 1 688 1 699 1 714 1 725 1 727 1 800 1 805 1 852 1 912 1 920 1 923 1 939 1 952 1 975 1 983 1 987 1 988 2 944 1 957 1 982 1 984 1 1004 1 1011 1 1016 1 1024 1 
1 210 17 1 20 1 43 1 66 1 76 1 96 1 138 1 150 1 206 1 217 1 220 1 231 1 235 1 267 1 301 1 304 1 308 1 318 1 345 1 351 1 355 1 371 1 395 1 440 1 444 2 465 2 482 1 483 1 490 1 491 1 499 1 523 1 534 1 553 1 584 2 634 1 647 1 686 1 696 1 716 1 726 1 736 1 737 1 738 1 766 1 776 1 807 1 836 1 845 1 850 1 888 2 903 1 912 1 916 1 19 1 30 1 37 1 49 1 65 1 75 1 104 1 117 1 118 1 119 1 126 1 166 1 171 1 189 1 234 1 239 1 252 1 262 1 264 1 300 1 303 1 314 1 325 1 336 1 364 1 386 1 388 1 394 1 425 1 463 1 479 1 510 1 512 1 563 1 601 1 608 1 614 1 624 1 652 1 653 1 666 1 685 1 746 1 751 1 768 1 771 1 777 1 786 1 790 1 793 1 801 1 865 1 874 1 881 1 884 1 886 1 890 1 892 1 893 1 900 1 914 1 915 1 923 1 939 1 950 1 954 1 975 1 982 1 1000 1 955 1 976 1 1003 1 1019 1 1022 1 
1 206 7 1 18 1 30 1 41 1 68 1 100 1 133 1 176 1 213 1 219 1 223 1 235 1 248 1 283 1 292 1 299 1 301 1 310 2 323 1 328 1 338 1 359 1 385 1 416 1 425 1 443 1 444 1 455 1 464 1 475 1 494 1 495 2 501 1 517 1 519 1 520 1 525 1 534 1 556 1 560 1 567 1 568 1 621 2 647 1 661 1 663 1 691 1 711 1 715 1 729 1 739 1 756 1 776 1 812 1 819 1 822 1 847 1 857 1 866 1 875 1 883 1 896 1 911 1 915 1 52 1 55 1 72 1 74 1 75 1 83 1 91 1 99 1 109 1 149 1 155 1 156 1 159 1 175 1 204 1 220 1 221 1 238 1 243 1 249 1 304 1 316 1 342 1 363 1 364 1 382 1 428 1 446 1 452 1 459 1 468 1 481 1 493 1 502 1 516 1 546 1 550 1 563 1 594 1 601 1 604 1 605 1 630 1 650 1 664 1 683 1 689 1 703 1 704 1 742 1 778 1 802 1 868 1 873 1 900 1 912 1 926 1 927 1 928 1 957 1 967 1 976 1 934 1 946 1 1010 1 
1 211 21 1 31 1 34 1 35 1 60 1 83 1 102 1 137 1 141 1 153 1 195 1 255 1 266 1 341 1 373 1 404 1 411 1 450 1 459 1 507 1 509 1 513 1 520 1 534 1 562 1 564 1 606 1 613 1 624 1 652 1 662 1 678 1 679 1 680 2 692 1 721 2 741 1 743 1 798 1 799 1 806 1 811 1 823 1 825 1 879 1 881 1 886 1 888 1 895 1 901 1 903 1 904 2 919 1 923 1 12 1 56 1 71 1 90 1 108 1 128 1 252 1 254 1 264 1 267 1 272 1 297 1 312 1 317 1 321 1 363 1 366 1 381 1 388 1 393 1 435 1 436 1 464 1 471 1 554 1 556 1 582 1 587 1 655 1 698 1 711 1 736 1 748 1 753 1 755 1 760 1 781 1 790 1 822 1 850 1 871 1 891 1 948 1 977 1 981 1 1011 1 1013 1 1018 1 1019 1 1020 1 1024 1 
1 207 42 1 55 1 65 1 114 2 166 1 176 1 183 1 188 1 189 1 218 1 220 1 223 1 267 1 305 1 313 1 314 1 351 1 358 1 371 1 372 1 375 1 382 1 389 1 394 1 452 2 476 1 491 1 521 1 539 1 549 1 551 1 563 1 621 1 635 1 644 1 681 1 688 1 690 1 711 1 744 1 769 1 771 1 792 1 799 1 830 1 834 1 862 1 885 1 890 1 895 1 924 1 928 1 27 1 32 1 33 1 60 1 76 1 80 1 111 1 122 1 128 1 131 1 134 1 135 1 172 1 203 1 230 1 233 1 244 1 254 1 327 1 333 1 340 1 352 1 355 1 378 1 396 1 401 1 402 1 440 1 501 1 516 1 542 1 559 1 566 1 624 1 631 1 632 1 636 1 659 1 666 1 674 1 692 1 714 1 764 1 767 1 770 1 773 1 790 1 807 1 877 1 891 1 892 1 902 1 916 1 921 1 954 1 958 1 989 1 993 1 997 1 936 1 983 1 1015 1 1021 1 1026 1 
1 205 3 1 4 2 12 1 20 1 24 2 42 1 52 1 69 1 79 1 86 1 89 1 104 1 163 1 202 1 253 1 255 1 260 1 287 1 299 1 322 1 335 1 336 1 354 1 371 1 377 1 386 1 423 1 434 1 461 1 469 1 473 1 480 1 523 1 536 1 541 1 559 1 567 1 596 1 620 1 681 1 761 1 802 1 804 1 809 1 819 1 823 1 848 1 901 1 71 1 75 1 91 1 99 1 103 1 108 1 128 1 139 1 148 1 165 1 189 1 193 1 224 1 261 1 262 1 263 1 274 1 284 1 291 1 296 1 311 1 318 1 323 1 347 1 359 1 382 1 501 1 508 1 517 1 518 1 524 1 531 1 568 1 581 1 650 1 663 1 665 1 677 1 735 1 736 1 741 1 764 1 771 1 794 1 803 1 818 1 835 1 850 1 858 1 862 1 864 1 873 1 882 1 885 1 896 1 913 1 917 1 931 1 938 1 944 1 949 1 989 1 955 1 973 1 1006 1 1021 1 1026 1 
1 215 21 1 24 1 27 1 33 1 38 2 47 1 75 1 83 2 110 1 112 1 125 1 135 1 165 1 181 1 185 1 205 1 207 1 217 1 253 1 260 1 281 1 316 2 324 1 325 2 328 1 336 1 350 1 362 1 374 1 376 1 413 1 434 1 459 1 488 1 503 1 504 1 512 1 517 1 582 1 593 1 596 1 633 1 645 1 646 1 692 1 743 1 783 2 808 1 833 2 862 1 865 1 869 1 871 1 886 1 892 1 902 1 908 1 5 1 9 1 12 1 13 1 41 1 42 1 46 1 57 1 58 1 137 1 144 1 171 1 178 1 206 1 216 1 229 1 230 1 266 1 280 1 282 1 289 1 386 1 427 1 440 1 453 1 461 1 530 1 536 1 556 1 557 1 584 1 601 1 622 1 635 1 642 1 655 1 656 1 679 1 681 1 684 1 686 1 688 1 716 1 722 1 723 1 733 1 745 1 781 1 786 1 787 1 793 1 842 1 849 1 926 1 949 1 984 1 988 1 936 1 969 1 989 1 1014 1 1016 1 1017 1 1019 1 
1 213 35 1 36 1 38 1 47 1 48 1 57 1 58 1 73 1 77 1 93 1 95 1 98 1 112 1 123 1 134 1 150 1 159 1 183 1 225 1 227 1 254 1 263 1 284 1 298 1 303 1 327 1 372 1 415 1 431 1 468 1 489 1 505 1 508 1 521 1 528 1 530 1 539 1 583 1 620 1 629 1 660 1 663 1 675 1 677 1 709 1 725 1 748 1 764 1 766 1 774 1 787 1 810 1 826 1 862 1 864 1 867 2 892 1 25 1 30 1 44 1 46 1 63 1 65 1 70 1 83 1 125 1 135 1 177 1 217 1 220 1 240 1 261 1 299 1 305 1 318 1 332 1 363 1 365 1 375 1 418 1 422 1 433 1 442 1 450 1 476 1 477 1 488 1 501 1 515 1 520 1 547 1 582 1 592 1 596 1 604 1 606 1 623 1 682 1 702 1 711 1 718 1 753 1 755 1 761 1 783 1 794 1 813 1 818 1 820 1 876 1 879 1 906 1 922 1 933 1 935 1 976 1 993 1 968 1 983 1 988 1 1006 1 1009 1 1018 1 1026 1 
1 207 13 1 34 1 35 1 55 1 66 1 70 1 102 2 103 1 108 1 114 1 164 1 175 1 194 1 204 1 220 1 232 1 242 1 264 1 270 1 291 1 301 1 311 1 322 1 330 1 332 1 334 1 340 1 351 1 413 1 425 1 453 1 458 1 459 1 461 1 466 1 474 1 546 1 569 1 617 1 639 1 649 1 687 1 691 1 705 1 709 1 737 1 758 1 767 1 788 1 806 1 815 1 851 1 906 1 922 2 927 1 3 1 42 1 83 1 92 1 120 1 121 1 135 1 141 1 150 1 260 1 281 1 287 1 300 1 354 1 360 1 374 1 386 1 399 1 406 1 410 1 434 1 440 1 538 1 543 1 547 1 554 1 578 1 620 1 622 1 628 1 681 1 700 1 704 1 731 1 784 1 789 1 791 1 793 1 796 1 825 1 871 1 873 1 885 1 904 1 913 1 953 2 966 1 979 1 993 1 1001 1 959 1 977 1 984 1 998 1 1008 1 1020 1 1023 1 1025 1 
1 210 1 1 9 1 29 1 71 1 82 1 92 2 104 1 111 1 112 1 114 1 124 1 125 1 155 1 192 1 202 1 230 1 235 1 244 1 252 1 267 2 278 1 294 1 310 1 326 1 368 1 369 1 385 1 389 1 400 1 444 2 459 1 493 1 525 1 529 1 562 1 565 1 611 1 614 1 652 2 658 1 707 1 721 1 730 1 756 2 771 1 784 1 791 1 796 1 802 1 823 1 841 1 856 1 870 1 887 1 904 1 909 1 911 1 934 1 32 1 87 1 108 1 137 1 164 1 171 1 177 1 179 1 198 1 218 1 222 1 268 1 295 1 299 1 308 1 324 1 343 1 352 1 366 1 453 1 454 1 483 1 497 1 527 1 533 1 561 1 578 1 581 1 607 1 633 1 642 1 666 1 683 1 700 1 716 1 772 1 785 1 797 1 811 1 859 1 988 1 952 1 978 1 1009 1 1015 1 1022 1 
1 208 21 1 41 1 55 1 70 1 88 1 102 1 116 1 152 1 160 1 182 1 214 1 220 1 265 1 275 1 276 1 298 1 332 1 371 1 379 1 388 1 393 1 413 1 436 1 437 1 439 1 447 1 455 1 478 1 500 1 521 2 539 1 558 1 583 1 626 1 654 1 678 1 688 1 726 1 735 1 759 1 765 2 827 1 828 1 842 1 845 1 865 2 929 1 930 1 32 1 38 1 39 1 100 1 106 1 142 1 156 1 170 1 172 1 226 1 274 1 289 1 305 1 308 1 355 1 385 1 389 1 398 1 450 1 452 1 459 1 476 1 503 1 511 1 540 1 542 1 651 1 665 1 666 1 668 1 692 1 722 1 738 1 768 1 783 1 784 1 835 1 836 1 840 1 858 1 877 1 879 1 881 1 883 1 890 1 895 1 912 1 922 1 925 1 926 1 942 1 947 1 969 1 998 1 1001 1 1013 1 1022 1 
1 208 40 1 43 1 52 1 53 1 58 1 61 1 102 1 113 1 122 1 123 1 127 1 206 1 225 1 259 1 272 1 275 1 290 1 296 1 306 1 307 1 331 1 342 1 367 1 394 1 409 1 458 1 488 1 490 1 522 1 525 1 581 1 588 1 597 1 647 1 653 1 678 1 679 1 689 1 701 1 705 1 708 1 730 1 744 1 774 1 797 1 882 1 896 1 920 1 921 1 927 1 7 1 50 1 63 1 100 1 109 1 120 1 129 1 152 1 155 1 199 1 249 1 256 1 294 1 301 1 325 1 343 1 351 1 392 1 393 1 427 1 428 1 434 1 447 1 481 1 492 1 503 1 508 1 511 1 554 1 583 1 590 1 599 1 602 1 621 1 629 1 634 1 637 1 639 1 650 1 663 1 672 1 675 1 686 1 694 1 713 1 723 1 757 1 769 1 770 1 780 1 816 1 831 1 841 1 843 1 898 1 913 1 944 1 952 1 980 1 1002 1 963 1 964 1 977 1 986 1 997 1 1005 1 1014 1 1015 1 1023 1 
1 206 20 1 29 1 62 1 106 1 113 1 120 1 121 1 139 2 181 1 185 1 196 1 207 1 296 1 298 1 315 1 348 1 354 1 371 1 395 1 404 2 412 1 417 1 434 1 444 1 456 1 532 1 547 1 574 1 612 1 621 1 624 1 627 1 628 1 691 1 695 1 710 1 728 1 759 1 762 1 774 1 787 1 788 1 819 1 881 1 902 1 921 1 3 1 5 1 15 1 81 1 82 1 85 1 97 1 107 1 135 1 141 1 202 1 209 1 236 1 240 1 245 1 250 1 258 1 277 1 293 1 338 1 344 1 382 1 385 1 409 1 430 1 432 1 440 1 469 1 475 1 506 1 513 1 526 1 539 1 550 1 557 1 568 1 570 1 571 1 582 1 630 1 634 1 649 1 653 1 660 1 696 1 699 1 703 1 705 1 716 1 736 1 738 1 745 1 748 1 751 1 779 1 791 1 794 1 810 1 816 1 843 1 960 1 994 1 996 1 1001 1 1002 1 950 1 954 1 972 1 
1 208 43 1 53 1 80 1 87 1 104 1 112 1 131 1 134 1 156 1 223 1 234 1 276 1 317 1 321 1 364 1 372 1 373 1 378 1 389 1 417 1 427 2 435 1 437 2 439 1 464 1 537 1 544 1 585 1 598 1 618 1 619 1 621 1 647 1 657 1 725 1 733 1 741 1 746 1 752 1 852 1 853 1 862 1 895 1 900 1 912 1 939 1 49 1 73 1 151 1 179 1 196 1 202 1 211 1 219 1 230 1 231 1 245 1 259 1 260 1 262 1 295 1 302 1 330 1 338 1 393 1 426 1 428 1 432 1 433 1 467 1 498 1 519 1 527 1 543 1 569 1 578 1 581 1 593 1 620 1 656 1 667 1 680 1 681 1 682 1 684 1 716 1 726 1 754 1 763 1 779 1 792 1 794 1 806 1 817 1 835 1 842 1 865 1 898 1 907 1 918 1 984 1 994 1 950 1 988 1 1003 1 1007 1 1011 1 1017 1 
1 212 8 1 26 2 31 1 36 1 87 1 91 1 131 1 136 1 146 1 150 2 159 1 160 1 185 1 189 1 248 1 256 1 269 1 272 1 292 2 328 1 346 1 396 1 401 1 410 1 423 1 427 1 442 1 449 1 450 1 487 1 522 1 544 1 561 1 572 1 575 1 592 1 601 1 612 1 625 1 657 1 659 1 667 1 683 1 712 1 717 1 719 1 726 1 735 1 743 1 758 1 759 1 778 1 780 1 795 1 817 1 818 1 822 1 879 1 898 1 912 1 7 1 18 1 23 1 52 1 63 1 74 1 81 1 86 1 144 1 153 1 228 1 234 1 250 1 294 1 324 1 330 1 334 1 355 1 366 1 388 1 414 1 419 1 452 1 464 1 470 1 475 1 513 1 543 1 566 1 568 1 597 1 627 1 641 1 671 1 685 1 727 1 744 1 754 1 757 1 763 1 773 1 786 1 801 1 1001 1 977 1 1006 1 1007 1 1008 1 1013 1 1020 1 1021 1 1023 1 
1 206 15 1 21 1 43 1 44 1 80 1 121 1 152 1 205 2 207 1 208 1 221 1 233 1 238 2 241 1 253 1 259 1 296 1 299 1 305 2 308 1 316 1 319 1 326 1 348 1 360 1 372 1 402 1 408 2 414 1 423 1 460 1 463 1 472 1 484 1 490 1 497 1 517 1 534 1 564 1 576 1 597 1 607 1 663 1 699 1 740 1 748 1 756 1 759 1 782 1 823 1 825 1 826 1 828 1 854 1 909 1 934 1 940 1 3 1 5 1 17 1 73 1 86 1 96 1 100 1 124 1 133 1 154 1 159 1 180 1 222 1 251 1 276 1 282 1 283 1 297 1 317 1 320 1 332 1 334 1 354 1 355 1 413 1 421 1 442 1 447 1 455 1 470 1 488 1 503 1 510 1 536 1 552 1 562 1 566 1 590 1 610 1 616 1 617 1 618 1 643 1 648 1 659 1 677 1 707 1 713 1 747 1 764 1 775 1 832 1 842 1 850 1 856 1 866 1 893 1 921 1 922 1 929 1 946 1 963 1 987 1 988 1 991 2 948 1 955 1 964 1 978 1 983 1 984 1 1000 1 1013 1 1014 1 
1 213 6 1 11 1 13 1 21 1 23 2 31 1 65 1 77 1 81 1 83 1 92 1 113 1 149 1 230 1 233 1 242 1 249 1 267 1 288 1 301 1 419 1 424 1 427 1 456 1 498 1 501 1 572 1 583 1 602 1 608 1 614 1 632 1 639 1 680 1 684 1 690 2 701 1 758 1 775 2 823 1 834 1 838 1 856 1 873 1 898 1 916 1 924 1 4 1 27 1 84 1 110 1 235 1 307 1 313 1 318 1 322 1 327 1 391 1 418 1 434 1 449 1 549 1 564 1 580 1 585 1 587 1 619 1 620 1 634 1 658 1 673 1 677 1 687 1 728 1 740 1 741 1 756 1 786 1 798 1 799 1 827 1 832 1 861 1 883 1 909 1 917 1 922 1 928 1 970 1 999 1 1001 1 1002 1 992 1 1005 1 1008 1 1016 1 1019 1 1021 1 
1 207 3 2 73 1 113 1 130 1 154 1 166 1 173 1 180 1 190 1 197 1 239 1 262 1 272 1 294 1 311 1 315 1 322 1 324 1 371 2 380 1 387 1 390 1 392 1 395 1 425 1 440 1 443 1 457 1 469 1 481 1 486 1 489 1 533 1 582 1 584 1 619 1 648 1 659 1 694 1 696 1 740 1 760 1 775 1 788 1 833 1 851 1 863 1 902 1 904 1 944 1 49 1 75 1 110 1 119 1 120 1 158 1 161 1 162 1 168 1 169 1 171 1 174 1 176 1 199 1 202 1 235 1 247 1 255 1 267 1 269 1 283 1 285 1 300 1 307 1 318 1 326 1 351 1 379 1 410 1 417 1 430 1 433 1 452 1 492 1 494 1 594 1 596 1 615 1 621 1 627 1 676 1 708 1 734 1 748 1 763 1 791 1 822 1 872 1 895 1 914 1 931 1 962 1 963 1 973 2 981 1 997 1 953 1 969 1 979 1 995 1 998 1 1022 1 
1 210 16 1 43 1 44 1 95 2 97 1 104 1 133 1 164 1 178 1 195 2 231 1 238 1 299 1 314 1 340 1 365 1 367 1 416 1 429 1 439 1 447 1 451 1 455 1 492 1 507 2 513 1 514 1 518 1 540 1 561 1 576 2 588 1 592 1 661 1 691 1 740 2 748 1 751 1 760 1 761 1 815 1 834 1 837 1 852 1 853 1 867 1 887 1 939 1 31 1 39 1 46 1 84 1 86 1 123 1 140 1 153 1 168 1 204 1 270 1 283 1 300 1 302 1 323 1 344 1 352 1 357 1 375 1 384 1 387 1 396 1 418 1 440 1 470 1 524 1 525 1 532 1 537 1 538 1 573 1 590 1 607 1 633 1 641 1 651 1 681 1 685 1 725 1 737 1 744 1 762 1 786 1 787 1 814 1 869 1 878 1 894 1 911 1 926 1 956 1 957 1 960 1 984 1 954 1 968 1 993 1 1005 1 1008 1 1011 1 1020 1 1021 1 1023 1 1024 1 
1 205 13 1 14 1 19 1 25 1 30 1 56 1 87 1 95 2 112 1 133 1 147 2 160 1 175 1 180 1 181 1 188 1 194 1 203 1 204 1 209 1 230 1 255 1 256 1 267 1 270 1 330 1 335 1 348 1 362 1 376 1 383 1 389 1 421 1 433 1 438 2 449 1 450 1 470 1 552 1 554 1 556 1 574 1 576 1 577 1 578 1 600 1 610 1 623 1 641 1 672 2 692 1 736 1 738 1 760 1 769 1 789 1 794 2 807 1 826 2 868 1 882 1 889 1 899 1 912 1 913 1 932 1 2 1 8 1 23 1 29 1 45 1 53 1 60 1 71 1 80 1 89 1 99 1 122 1 137 1 139 1 239 1 269 1 281 1 320 1 328 1 329 1 331 1 346 1 347 1 371 1 407 1 409 1 419 1 461 1 464 1 477 1 491 1 497 1 505 1 531 1 534 1 541 1 586 1 599 1 711 1 728 1 770 1 779 1 791 1 803 1 867 1 891 1 897 1 907 1 944 1 950 1 988 1 1014 1 
1 210 23 1 62 1 81 1 90 1 101 1 124 1 127 1 132 1 218 1 221 1 234 1 272 1 290 1 337 1 340 1 353 1 354 1 371 1 376 1 423 1 430 1 459 1 463 1 480 1 486 1 488 1 516 1 523 1 568 1 587 1 595 1 609 1 610 1 618 1 620 1 644 1 680 1 694 1 697 1 726 1 740 1 762 1 770 2 772 1 787 1 801 1 804 1 821 2 848 1 853 1 854 1 855 1 858 2 873 1 903 1 915 1 920 1 923 2 927 1 928 1 934 1 935 1 36 1 46 1 126 1 134 1 139 1 185 1 196 1 197 1 199 1 226 1 228 1 254 1 275 1 291 1 300 1 306 1 310 1 320 1 321 1 335 1 437 1 461 1 468 1 471 1 553 1 590 1 593 1 611 1 623 1 653 1 678 1 707 1 712 1 713 1 715 1 735 1 754 1 761 1 766 1 778 1 783 1 786 1 809 1 823 1 824 1 861 1 907 1 954 1 970 1 977 1 990 1 960 1 1014 1 1015 1 1021 1 
1 206 14 1 36 1 52 1 61 1 74 1 154 1 158 1 168 1 182 1 197 1 218 1 243 1 283 1 289 1 322 1 328 1 346 1 355 1 401 1 415 1 424 1 431 1 432 1 450 1 478 1 484 1 507 1 511 1 519 1 523 1 560 1 565 1 576 1 594 1 625 1 627 1 663 1 664 1 667 1 682 1 692 1 729 1 739 1 750 1 795 1 811 1 815 1 850 1 930 1 948 1 37 1 41 1 46 1 60 1 95 1 116 1 149 1 152 1 190 1 260 1 263 1 290 1 310 1 311 1 318 1 344 1 353 1 368 1 406 1 412 1 427 1 463 1 466 1 505 1 528 1 563 1 564 1 566 1 570 1 580 1 619 1 620 1 668 1 691 1 742 1 755 1 816 1 841 1 879 1 892 1 912 1 913 1 917 1 941 1 942 1 968 1 975 1 983 1 989 1 994 1 995 1 1000 1 971 1 972 1 982 1 1003 1 1007 1 1010 1 1020 1 
1 203 18 1 61 1 69 1 72 1 73 1 87 1 97 1 121 1 129 1 155 1 191 1 213 1 222 1 241 1 245 1 249 1 253 1 267 1 280 1 292 1 312 1 319 1 330 1 335 1 347 1 351 1 353 1 357 1 383 1 428 1 448 1 463 1 464 1 475 1 488 1 492 1 517 1 526 1 544 1 553 1 556 1 564 1 566 1 575 1 584 1 648 1 672 1 698 1 701 1 702 1 709 1 720 1 731 1 734 1 744 1 757 1 767 1 771 1 794 1 797 1 798 1 821 1 863 1 906 1 34 1 74 1 85 1 123 1 135 1 152 1 160 1 187 1 189 1 205 1 225 1 232 1 255 1 268 1 273 1 295 1 311 1 329 1 366 1 367 1 404 1 410 1 424 1 430 1 454 1 478 1 486 1 518 1 527 1 533 1 546 1 561 1 614 1 630 1 655 1 657 1 660 1 686 1 712 1 776 1 781 1 800 1 809 1 811 1 815 1 825 1 860 1 871 1 879 1 883 1 889 1 898 1 912 1 925 1 953 1 959 1 991 1 998 1 
1 209 13 1 32 1 35 1 36 1 39 1 58 1 78 1 106 1 170 1 222 2 224 1 230 1 242 1 250 1 266 1 282 1 289 1 296 1 302 1 326 2 334 1 340 1 346 1 347 1 378 1 399 1 404 1 413 1 420 1 457 1 469 1 471 1 480 1 513 1 533 1 563 1 575 1 578 1 618 1 646 1 668 1 673 1 674 1 681 1 692 1 714 1 729 1 794 1 820 1 853 1 855 1 857 1 864 1 877 1 883 2 895 1 896 1 911 1 923 1 929 1 940 1 60 1 68 1 76 1 88 1 104 1 153 1 161 1 164 1 174 1 181 1 194 1 196 1 199 1 206 1 235 1 265 1 294 1 322 1 330 1 351 1 357 1 365 1 373 1 405 1 418 1 436 1 441 1 472 1 525 1 543 1 553 1 564 1 607 1 629 1 631 1 642 1 664 1 670 1 671 1 716 1 741 1 749 1 774 1 800 1 807 1 831 1 842 1 868 1 887 1 892 1 938 1 955 1 966 1 957 1 991 1 1007 1 1012 1 1016 1 
1 211 21 1 23 1 34 1 37 1 88 1 91 1 98 1 108 1 126 1 131 1 160 1 172 1 193 1 196 1 239 1 240 1 257 1 262 1 303 1 324 1 357 2 365 1 373 1 387 2 401 1 411 1 451 1 456 2 464 1 489 1 500 1 504 1 512 1 513 2 538 1 559 1 581 2 588 1 609 1 614 1 618 1 629 1 636 1 647 1 649 1 692 1 726 1 754 1 775 1 794 1 795 1 806 1 809 1 811 1 841 1 882 1 894 1 908 1 909 1 937 2 951 1 70 1 73 1 176 1 212 1 231 1 238 1 277 1 292 1 319 1 333 1 351 1 380 1 385 1 395 1 436 1 444 1 450 1 454 1 466 1 496 1 501 1 505 1 516 1 535 1 543 1 577 1 623 1 641 1 644 1 661 1 683 1 736 1 774 1 784 1 812 1 849 1 870 1 876 1 901 1 946 1 958 1 984 1 990 1 998 1 956 1 966 1 972 1 1003 1 1006 1 1021 1 1023 1 
1 212 35 1 64 2 71 1 110 1 146 2 164 1 186 1 190 1 200 1 241 1 286 1 324 2 341 1 360 2 364 1 384 1 393 1 402 1 404 1 406 1 469 1 507 1 509 1 520 1 540 1 573 1 593 1 597 1 602 1 630 1 648 1 666 1 681 1 724 1 749 1 759 2 785 1 804 1 854 1 876 1 917 1 924 1 930 1 933 1 949 1 22 1 48 1 50 1 53 1 69 1 117 1 138 1 144 1 167 1 192 1 201 1 206 1 223 1 228 1 239 1 277 1 348 1 358 1 367 1 394 1 422 1 452 1 456 1 467 1 500 1 523 1 524 1 539 1 545 1 564 1 600 1 614 1 649 1 655 1 659 1 660 1 676 1 684 1 691 1 716 1 747 1 752 1 754 1 755 1 765 1 776 1 777 1 794 1 809 1 841 1 847 1 853 1 871 1 912 1 928 1 941 1 947 1 955 1 1001 1 960 1 965 1 974 1 983 1 997 1 1003 1 1006 1 
1 211 21 1 26 1 30 1 93 1 102 1 134 2 135 2 152 1 158 1 163 1 203 1 209 1 246 1 267 1 319 1 331 1 334 1 339 1 365 1 387 2 400 1 434 1 441 1 458 1 487 1 509 1 513 1 515 1 560 1 573 1 581 1 601 1 605 1 609 1 617 1 637 1 672 1 676 1 677 1 682 1 697 1 707 1 733 1 746 1 774 1 778 1 832 1 854 1 886 1 902 1 952 1 954 1 12 1 62 1 79 1 84 1 92 1 106 1 116 1 119 1 123 1 128 1 137 1 172 1 184 1 222 1 274 1 321 1 328 1 369 1 377 1 386 1 408 1 436 1 451 1 455 1 470 1 475 1 476 1 480 1 521 1 553 1 554 1 613 1 619 1 639 1 663 1 675 1 691 1 708 1 714 1 717 1 727 1 754 1 756 1 762 1 764 1 767 1 805 1 828 1 834 1 852 1 887 1 928 1 930 1 934 1 944 1 959 1 964 1 983 2 990 1 995 1 970 1 993 1 1002 1 1003 1 1005 1 1019 1 
1 212 8 1 11 1 38 1 68 1 85 2 99 1 155 1 170 1 189 1 256 1 269 1 281 1 315 1 327 1 343 1 349 1 362 1 374 1 386 1 388 1 463 1 466 1 514 1 525 1 536 1 550 1 587 1 588 1 590 1 616 2 633 1 645 1 646 1 654 1 661 1 670 1 674 1 678 1 686 1 694 1 700 1 705 2 719 1 728 2 738 1 755 1 763 1 800 1 840 2 841 1 854 1 857 1 874 1 882 1 906 1 909 1 919 1 947 1 15 1 18 1 60 1 80 1 87 1 90 1 111 1 137 1 153 1 168 1 195 1 197 1 210 1 224 1 230 1 242 1 282 1 289 1 297 1 299 1 367 1 399 1 416 1 455 1 459 1 502 1 522 1 532 1 549 1 557 1 574 1 577 1 596 1 609 1 669 1 695 1 722 1 736 1 742 1 743 1 770 1 787 1 830 1 846 1 872 1 878 1 881 1 896 1 953 1 958 1 970 2 961 1 1010 1 1025 1 1027 1 
1 209 1 1 29 1 30 1 67 1 81 1 89 1 177 1 196 1 232 1 240 1 244 1 264 1 276 1 280 1 305 1 311 1 319 1 331 1 337 1 354 2 366 1 391 1 404 1 444 1 446 1 469 1 471 1 473 1 504 1 536 1 548 1 549 1 559 1 571 1 587 1 600 1 610 1 640 1 641 1 658 1 664 1 665 1 669 1 698 1 713 1 725 1 726 1 771 1 789 1 801 1 829 1 832 1 838 2 850 1 867 1 883 1 931 1 947 1 15 1 20 1 22 1 23 1 42 1 58 1 60 1 88 1 113 1 123 1 142 1 149 1 156 1 185 1 187 1 204 1 207 1 221 1 267 1 271 1 314 1 317 1 323 1 327 1 330 1 352 1 359 1 370 1 381 1 393 1 395 1 445 1 448 1 490 1 531 1 534 1 546 1 570 1 585 1 594 1 599 1 631 1 632 1 635 1 660 1 710 1 715 1 734 1 743 1 747 1 762 1 842 1 843 1 875 1 921 1 929 1 952 1 960 1 963 1 980 1 975 1 986 1 995 1 1006 1 1009 1 1010 1 1016 1 
1 208 6 2 8 1 29 1 63 2 66 1 74 2 81 1 112 1 119 1 120 2 122 1 123 1 139 1 179 1 221 1 247 1 264 1 275 1 291 1 339 1 363 1 383 1 391 1 398 1 409 1 422 1 432 1 435 2 445 1 451 1 481 1 496 1 517 1 518 1 538 1 552 1 585 1 586 1 597 2 606 1 608 1 622 2 695 1 709 1 721 1 775 1 780 1 796 1 819 1 835 1 849 1 871 1 876 1 894 1 909 1 925 1 933 1 953 1 956 1 12 1 54 1 77 1 82 1 87 1 98 1 118 1 143 1 149 1 218 1 233 1 236 1 253 1 256 1 290 1 325 1 353 1 355 1 365 1 379 1 407 1 438 1 489 1 540 1 559 1 572 1 592 1 610 1 636 1 664 1 707 1 723 1 737 1 759 1 773 1 829 1 853 1 865 1 886 1 922 1 969 1 993 1 988 1 1001 1 1003 1 1007 1 1017 1 1021 1 1023 1 1027 1 
1 213 15 1 23 1 52 1 61 1 78 1 114 1 118 1 128 1 137 1 138 1 165 1 229 2 232 1 247 1 249 2 258 1 284 1 305 1 306 1 320 1 322 1 331 1 336 1 338 1 360 1 400 1 434 1 505 1 523 1 526 1 531 1 534 1 535 2 630 1 646 1 652 1 700 1 779 1 785 1 788 1 793 2 842 1 849 1 884 1 889 1 895 1 902 1 917 1 951 1 955 1 3 1 49 1 59 1 63 1 69 1 81 1 93 1 116 1 127 1 136 1 194 1 203 1 210 1 225 1 254 1 256 1 257 1 282 1 304 1 339 1 363 1 365 1 372 1 390 1 415 1 446 1 457 1 469 1 490 1 499 1 536 1 547 1 550 1 580 1 600 1 612 1 620 1 641 1 663 1 694 1 801 1 802 1 824 1 844 1 863 1 867 1 881 1 937 1 965 1 982 1 960 1 976 1 978 1 980 1 997 1 1004 1 1008 1 1015 1 1017 1 1023 1 1025 1 
1 206 43 1 49 1 60 1 91 1 99 1 101 1 109 1 127 1 150 1 165 1 166 2 171 1 208 1 253 1 255 1 264 1 266 2 272 1 295 1 306 1 331 1 359 1 379 1 393 1 411 1 467 1 480 1 481 1 483 1 487 1 496 1 497 1 526 1 560 1 563 1 567 1 587 1 603 1 649 1 663 1 684 1 722 1 730 1 731 1 754 1 772 1 785 1 808 1 845 1 856 1 895 1 941 1 947 1 957 1 15 1 18 1 24 1 28 1 58 1 108 1 110 1 137 1 138 1 163 1 185 1 199 1 233 1 245 1 265 1 297 1 319 1 350 1 358 1 373 1 374 1 406 1 462 1 469 1 476 1 482 1 508 1 517 1 552 1 569 1 576 1 588 1 595 1 596 1 610 1 613 1 618 1 645 1 694 1 712 1 727 1 750 1 835 1 871 1 888 1 949 1 954 1 959 1 977 1 979 1 983 1 986 1 999 1 989 1 1004 1 1016 1 
1 211 4 2 8 1 14 2 32 1 83 1 97 1 140 1 155 1 201 2 225 1 232 1 244 1 258 1 263 1 266 2 275 1 276 1 294 1 326 1 333 1 336 1 342 1 351 1 363 1 370 1 402 1 420 2 440 1 462 1 464 1 488 1 534 1 546 1 563 1 568 1 582 1 583 1 595 1 646 1 686 1 713 1 740 1 764 1 774 1 798 1 818 1 842 1 857 1 868 1 887 1 900 1 923 1 17 1 56 1 95 1 141 1 229 1 252 1 270 1 273 1 313 1 344 1 354 1 357 1 358 1 371 1 376 1 387 1 392 1 410 1 465 1 470 1 473 1 475 1 517 1 524 1 545 1 552 1 565 1 574 1 588 1 598 1 600 1 605 1 625 1 649 1 674 1 688 1 708 1 714 1 738 1 744 1 749 1 757 1 765 1 773 1 780 1 831 1 836 1 843 1 854 1 862 1 863 1 870 1 903 1 906 1 956 1 997 1 984 1 1003 1 1004 1 1010 1 1012 1 1016 1 
1 214 1 1 17 1 31 1 70 1 78 1 113 1 130 1 139 1 146 1 152 1 153 1 183 1 187 1 211 1 214 1 217 2 257 1 258 1 263 1 284 1 311 1 317 1 319 1 329 1 343 1 344 1 359 1 383 1 401 1 404 2 461 1 468 1 504 2 517 1 526 1 527 1 570 1 572 1 577 1 578 1 600 1 603 1 638 1 648 1 656 1 659 1 679 1 718 1 765 1 771 1 787 1 802 1 807 1 865 1 873 1 887 1 892 1 913 1 946 1 5 1 12 1 60 1 108 1 114 1 115 1 147 1 157 1 158 1 160 1 167 1 189 1 190 1 205 1 221 1 226 1 261 1 300 1 306 1 307 1 323 1 362 1 368 1 373 1 374 1 398 1 412 1 418 1 422 1 435 1 443 1 465 1 476 1 489 1 511 1 547 1 561 1 623 1 625 1 627 1 646 1 655 1 662 1 685 1 688 1 703 1 704 1 708 1 714 1 720 1 774 1 803 1 805 1 827 1 927 1 969 1 985 1 999 1 1011 1 1020 1 1023 1 
1 209 13 1 24 1 43 1 44 1 50 1 68 1 118 1 128 1 177 1 206 1 225 1 239 1 252 1 269 1 272 2 305 2 376 1 418 1 451 1 459 1 467 1 485 1 488 2 528 1 582 1 600 1 602 1 611 1 612 1 624 1 633 1 644 1 665 1 686 1 697 1 715 1 732 1 748 1 753 1 762 1 767 1 790 1 794 1 797 1 806 1 810 1 818 2 834 1 837 1 842 1 843 1 847 1 896 1 915 1 944 1 946 1 957 1 25 1 59 1 70 1 106 1 120 1 127 1 133 1 137 1 145 1 146 1 159 1 204 1 216 1 227 1 232 1 262 1 263 1 284 1 285 1 328 1 329 1 337 1 350 1 379 1 388 1 420 1 441 1 486 1 496 1 509 1 527 1 603 1 605 1 617 1 679 1 690 1 693 1 718 1 733 1 740 1 749 1 764 1 795 1 821 1 826 1 832 1 874 1 876 1 916 1 940 1 976 1 979 1 967 1 986 1 1010 1 1022 1 1023 1 1024 1 
1 216 35 1 48 1 53 1 59 1 90 1 97 1 110 1 185 1 189 1 190 1 197 1 204 1 237 1 270 1 303 1 328 1 331 1 341 1 371 1 372 1 375 1 377 2 379 1 397 1 400 1 415 1 468 1 557 1 558 2 562 1 590 1 598 1 620 1 621 1 629 1 661 1 664 1 672 1 699 1 709 1 733 1 735 1 768 1 772 1 775 1 811 1 822 1 837 1 841 1 842 2 897 1 899 1 924 1 926 1 955 1 57 1 116 1 119 1 134 1 156 1 174 1 207 1 223 1 230 1 231 1 264 1 269 1 299 1 308 1 348 1 361 1 364 1 392 1 435 1 446 1 477 1 501 1 519 1 526 1 537 1 569 1 572 1 597 1 615 1 618 1 638 1 643 1 655 1 666 1 722 1 757 1 831 1 835 1 850 1 868 1 892 1 919 1 940 1 944 1 973 2 989 1 979 1 1015 1 1021 1 1025 1 
1 213 13 1 22 1 71 1 73 2 90 1 98 1 113 1 131 1 179 1 191 1 199 1 204 1 293 1 296 1 299 1 321 1 348 2 366 1 399 1 405 1 434 1 444 1 481 1 496 1 501 1 546 1 574 1 594 1 605 1 634 1 638 1 651 1 656 1 731 1 733 1 735 1 743 1 758 1 760 1 773 1 788 1 793 1 797 1 812 1 821 1 836 1 875 1 880 1 884 1 887 1 897 1 959 1 25 1 40 1 41 1 55 1 72 1 77 1 105 1 175 1 217 1 248 1 261 1 271 1 279 1 317 1 332 1 337 1 372 1 374 1 382 1 383 1 413 1 418 1 427 1 430 1 441 1 461 1 469 1 474 1 513 1 525 1 533 1 534 1 558 1 612 1 626 1 635 1 666 1 684 1 692 1 715 1 718 1 726 1 795 1 811 1 831 1 834 1 847 1 850 1 853 1 857 1 895 1 898 1 899 1 954 1 971 1 988 1 967 1 1027 1 
1 212 4 1 31 1 40 1 41 1 51 1 64 1 70 1 130 1 164 1 172 1 178 1 192 1 196 2 246 1 282 1 317 1 323 1 328 1 339 1 343 2 345 1 352 1 375 1 387 1 403 1 409 1 422 1 427 1 444 1 457 1 462 1 470 1 480 1 490 1 491 1 513 1 521 1 580 1 586 1 591 1 610 1 667 1 701 1 702 1 718 2 722 1 740 1 749 1 766 1 774 1 787 1 788 1 790 1 830 1 850 1 879 1 888 1 902 1 937 1 952 1 55 1 62 1 66 1 127 1 148 1 210 1 222 1 224 1 228 1 252 1 288 1 321 1 344 1 347 1 350 1 355 1 374 1 380 1 405 1 433 1 436 1 441 1 447 1 466 1 486 1 500 1 519 1 560 1 578 1 609 1 618 1 644 1 664 1 686 1 716 1 721 1 735 1 789 1 813 1 825 1 844 1 919 1 953 1 997 1 999 1 974 1 979 1 1015 1 
1 212 50 1 99 1 126 1 149 2 151 1 165 2 167 1 187 1 209 1 222 1 241 1 264 1 267 1 271 1 282 1 289 1 295 1 297 1 303 1 311 1 316 1 328 1 338 1 345 1 347 1 356 1 410 1 422 1 440 1 471 1 531 1 542 1 548 1 575 1 598 1 609 1 619 1 630 1 643 1 648 2 668 1 674 2 682 1 688 1 708 1 734 1 750 2 778 1 784 1 793 1 802 1 807 1 828 1 844 2 876 1 920 2 931 1 13 1 43 1 44 1 48 1 55 1 63 1 67 1 89 1 96 1 98 1 108 1 137 1 168 1 189 1 239 1 248 1 268 1 279 1 313 1 330 1 331 1 342 1 361 1 368 1 431 1 450 1 475 1 501 1 503 1 508 1 607 1 618 1 635 1 694 1 702 1 728 1 736 1 739 1 748 1 763 1 765 1 783 1 834 1 841 1 842 1 879 1 905 1 906 1 923 1 924 1 963 1 965 1 997 1 1002 1 971 1 983 1 990 1 999 1 1006 1 1016 1 1017 1 1024 1 1026 1 
1 213 1 1 17 1 19 1 20 1 29 1 65 1 72 1 90 1 92 1 115 1 121 1 132 1 136 1 144 1 201 1 249 1 271 1 278 1 299 1 300 2 306 2 325 1 336 1 357 1 378 1 442 1 469 1 473 2 485 1 487 1 516 1 537 1 572 1 580 1 586 1 626 1 665 1 666 1 671 1 682 1 686 1 746 1 759 1 767 1 778 1 785 1 790 2 806 1 840 1 850 1 864 1 872 1 888 2 904 1 922 1 950 1 22 1 27 1 36 1 47 1 53 1 77 1 88 1 110 1 128 1 163 1 176 1 180 1 184 1 227 1 228 1 247 1 260 1 344 1 366 1 415 1 440 1 449 1 450 1 465 1 476 1 479 1 486 1 507 1 541 1 569 1 609 1 620 1 646 1 648 1 675 1 695 1 705 1 742 1 789 1 793 1 808 1 829 1 857 1 861 1 893 1 905 1 911 1 918 1 936 1 947 1 974 1 987 1 994 1 998 1 1006 1 1007 1 1017 1 1025 1 
1 210 8 1 9 1 53 1 107 1 109 1 116 1 143 1 154 1 169 1 179 1 181 1 192 1 217 1 235 1 270 1 291 1 299 1 321 2 338 1 356 1 370 1 396 1 401 1 417 1 423 1 445 1 449 1 534 1 537 1 543 1 579 1 583 1 586 1 588 1 600 1 621 1 628 2 636 1 639 1 643 1 644 1 698 1 703 1 712 1 739 1 743 1 756 1 776 1 780 1 783 1 809 1 814 1 817 1 850 1 851 1 893 1 906 1 939 1 958 1 962 1 14 1 51 1 103 1 131 1 140 1 155 1 170 1 188 1 236 1 281 1 283 1 315 1 326 1 369 1 380 1 381 1 393 1 405 1 415 1 422 1 442 1 456 1 475 1 507 1 508 1 559 1 560 1 561 1 612 1 654 1 670 1 672 1 673 1 704 1 733 1 787 1 811 1 825 1 872 1 892 1 909 1 922 1 935 1 946 1 976 1 999 1 1004 1 1013 1 
1 204 5 1 23 1 38 1 67 1 95 1 106 1 110 1 157 2 162 2 166 1 184 1 193 1 228 1 280 1 281 1 333 1 364 1 368 1 386 1 395 1 425 1 440 1 446 1 461 1 462 1 480 1 493 1 528 1 545 2 557 1 624 1 696 1 727 1 755 2 772 1 789 1 793 1 808 1 868 1 872 1 902 1 917 1 923 1 945 1 949 1 956 2 6 1 26 1 27 1 82 1 144 1 146 1 180 1 181 1 214 1 234 1 239 1 240 1 241 1 256 1 294 1 326 1 329 1 344 1 359 1 374 1 379 1 418 1 424 1 442 1 467 1 486 1 492 1 535 1 537 1 562 1 631 1 639 1 642 1 664 1 679 1 684 1 695 1 718 1 725 1 730 1 750 1 762 1 773 1 786 1 820 1 823 1 826 1 848 1 865 1 879 1 886 1 925 1 955 1 976 1 982 1 987 1 991 1 992 1 
1 211 8 1 19 1 26 1 27 1 34 1 75 1 86 1 105 1 175 1 179 1 188 1 213 1 217 1 218 1 234 1 274 1 286 1 289 1 305 1 315 2 319 1 331 1 359 1 374 1 392 2 401 1 407 1 409 2 430 1 444 1 466 1 496 1 537 1 542 1 543 1 558 1 561 1 580 1 591 1 595 1 602 1 610 1 726 1 729 1 730 1 739 1 749 1 756 1 776 1 794 1 819 1 826 1 829 1 830 1 838 1 902 1 965 1 20 1 44 1 53 1 62 1 76 1 81 1 84 1 150 1 181 1 195 1 221 1 248 1 278 1 294 1 329 1 330 1 333 1 343 1 373 1 376 1 386 1 389 1 446 1 452 1 454 1 457 1 468 1 470 1 501 1 506 1 524 1 550 1 611 1 622 1 625 1 627 1 638 1 677 1 696 1 704 1 737 1 757 1 761 1 768 1 800 1 805 1 818 1 864 1 883 1 891 1 893 1 917 1 950 1 967 1 976 1 989 1 1006 1 1015 1 1017 1 1021 1 1023 1 
1 212 14 2 18 1 45 1 57 1 75 2 76 1 98 1 104 1 106 1 108 1 113 1 139 1 185 1 211 1 215 1 253 1 268 1 283 1 284 1 294 1 295 1 337 1 351 1 363 1 377 1 390 1 408 1 431 1 460 1 472 1 482 1 496 1 503 1 506 1 507 1 508 1 528 1 540 1 572 1 587 1 593 2 649 1 659 1 679 1 700 1 707 1 714 1 715 1 743 1 792 1 800 1 808 1 841 1 876 1 898 1 906 1 927 1 2 1 16 1 46 1 52 1 63 1 68 1 73 1 109 1 114 1 130 1 132 1 142 1 148 1 161 1 206 1 209 1 238 1 269 1 273 1 276 1 303 1 318 1 325 1 330 1 332 1 341 1 349 1 361 1 371 1 381 1 421 1 439 1 446 1 453 1 501 1 516 1 525 1 543 1 549 1 550 1 556 1 559 1 565 1 576 1 580 1 614 1 647 1 695 1 696 1 701 1 704 1 734 1 763 1 780 1 811 1 848 1 878 1 883 1 888 1 941 1 950 1 953 1 996 1 1005 1 1007 1 1008 1 1011 1 1012 1 
1 213 41 1 42 1 47 1 68 1 73 1 74 1 124 1 126 1 137 1 161 1 173 1 183 2 211 1 223 1 267 1 286 1 317 1 318 1 322 1 360 1 377 1 382 1 387 1 396 2 415 1 419 1 424 1 427 1 431 1 439 1 441 1 470 1 493 1 499 1 501 1 520 1 534 1 541 1 569 1 575 1 580 1 596 1 610 1 615 1 633 1 651 1 658 2 663 1 664 1 676 1 686 1 714 1 725 1 750 1 762 1 788 1 790 1 813 1 858 1 872 1 886 1 894 1 946 2 964 2 17 1 20 1 92 1 143 1 181 1 194 1 220 1 229 1 246 1 262 1 273 1 281 1 288 1 315 1 333 1 336 1 369 1 440 1 445 1 459 1 468 1 491 1 497 1 503 1 544 1 549 1 563 1 564 1 593 1 608 1 656 1 660 1 675 1 678 1 680 1 716 1 721 1 756 1 760 1 778 1 803 1 809 1 819 1 847 1 862 1 874 1 921 1 934 1 1000 1 1004 1 1010 1 1011 1 1015 1 1016 1 1021 1 
1 213 20 1 21 1 22 1 28 1 117 1 119 1 130 1 172 1 208 1 229 1 247 1 248 1 294 1 297 1 311 1 319 1 368 1 390 1 391 1 425 1 435 1 441 1 474 1 493 1 503 1 518 1 530 1 545 1 549 1 559 1 564 1 580 1 603 1 623 2 670 1 682 2 683 1 691 1 693 1 729 1 736 1 769 1 797 1 801 1 824 1 832 1 855 1 877 1 878 1 906 1 913 1 968 1 45 1 48 1 52 1 57 1 59 1 65 1 78 1 110 1 114 1 115 1 160 1 162 1 164 1 187 1 238 1 290 1 304 1 327 1 350 1 362 1 375 1 380 1 398 1 448 1 451 1 457 1 463 1 477 1 486 1 513 1 519 1 540 1 562 1 577 1 594 1 599 1 605 1 606 1 621 1 622 1 644 1 647 1 685 1 713 1 721 1 731 1 733 1 795 1 816 1 817 1 819 1 870 1 885 1 894 1 895 1 905 1 920 1 954 1 966 1 986 1 999 1 995 1 1003 1 1005 1 1006 1 1014 1 1015 1 1023 1 1025 1 
1 213 21 1 73 2 77 1 95 1 112 1 117 1 119 1 121 1 151 1 157 1 187 1 198 1 226 1 236 1 268 1 272 2 320 1 368 1 391 1 403 1 404 1 407 1 432 1 436 1 454 1 467 1 476 1 483 1 515 1 519 1 523 1 544 1 598 1 599 1 606 1 642 1 647 1 681 1 691 1 727 1 735 1 741 1 761 1 780 1 800 1 815 1 844 1 863 1 900 1 925 1 929 1 930 1 950 1 37 1 39 1 47 1 52 1 109 1 120 1 124 1 127 1 158 1 205 1 225 1 231 1 339 1 351 1 356 1 358 1 359 1 365 1 378 1 395 1 398 1 410 1 418 1 445 1 449 1 450 1 451 1 457 1 464 1 500 1 525 1 533 1 552 1 562 1 595 1 615 1 616 1 617 1 636 1 708 1 711 1 736 1 740 1 759 1 764 1 766 1 779 1 810 1 811 1 883 1 901 1 908 1 911 1 957 1 976 1 1006 1 1007 1 1009 1 1011 1 1023 1 1025 1 
1 204 2 1 10 1 28 1 30 1 36 1 47 2 111 1 149 1 152 2 153 1 165 1 169 1 182 1 191 1 206 1 239 1 276 1 305 1 308 1 320 1 368 1 376 1 398 1 422 1 431 1 434 1 477 1 483 1 488 1 493 1 501 1 557 1 634 1 635 1 641 1 643 2 657 1 658 1 662 1 713 2 720 1 731 1 741 1 759 1 760 1 772 1 796 1 803 1 848 1 876 1 887 1 899 1 917 1 922 1 926 1 927 1 931 1 936 1 963 1 975 1 1 1 7 1 17 1 25 1 26 1 64 1 71 1 161 1 168 1 183 1 196 1 215 1 250 1 252 1 294 1 316 1 319 1 321 1 323 1 344 1 357 1 401 1 412 1 415 1 428 1 446 1 462 1 513 1 592 1 611 1 620 1 621 1 637 1 655 1 682 1 773 1 777 1 799 1 833 1 843 1 856 1 883 1 889 1 898 1 914 1 930 1 959 1 969 1 970 1 971 1 1001 1 986 1 1003 1 1009 1 
1 207 2 1 22 1 24 1 42 1 50 1 52 1 86 1 106 1 120 1 133 1 141 1 165 1 181 1 209 1 219 1 222 1 260 1 262 1 273 1 291 1 306 1 318 1 335 1 346 1 353 1 359 1 387 1 401 1 407 1 410 1 411 1 428 1 448 1 481 1 499 1 522 1 536 1 540 1 566 1 585 1 598 1 608 1 616 1 625 1 654 1 662 1 676 1 724 1 725 1 726 1 766 1 773 1 817 1 832 1 834 1 871 1 902 2 925 1 932 1 949 1 960 1 10 1 11 1 18 1 31 1 80 1 97 1 109 1 123 1 184 1 198 1 252 1 285 1 325 1 330 1 342 1 354 1 390 1 394 1 412 1 443 1 471 1 494 1 515 1 542 1 550 1 553 1 592 1 623 1 629 1 660 1 666 1 700 1 709 1 734 1 740 1 748 1 749 1 778 1 804 1 819 1 824 1 860 1 877 1 892 1 923 1 937 1 940 1 943 1 980 1 997 1 982 1 983 1 1007 1 1010 1 1019 1 
1 207 9 1 26 1 27 1 40 1 47 1 84 1 87 1 91 1 104 1 143 1 152 1 153 1 186 1 225 1 233 1 234 1 235 1 274 1 301 1 324 1 325 1 343 1 370 2 404 1 472 1 476 1 479 1 483 1 506 1 511 1 553 1 558 1 567 1 574 1 586 1 604 1 624 1 635 1 666 2 696 1 712 1 719 1 736 1 758 1 766 1 807 1 841 1 845 1 852 1 853 1 863 1 870 1 881 1 882 1 885 1 914 1 38 1 43 1 45 1 48 1 49 1 54 1 55 1 83 1 95 1 98 1 134 1 188 1 239 1 298 1 316 1 408 1 444 1 454 1 498 1 557 1 591 1 599 1 644 1 650 1 745 1 748 1 755 1 767 1 791 1 799 1 809 1 810 1 824 1 838 1 846 1 857 1 880 1 887 1 908 1 916 1 938 1 944 1 959 1 998 1 999 1 1009 1 1010 1 1015 1 
1 216 9 1 11 1 23 1 41 1 51 1 70 1 101 1 104 1 107 1 114 1 138 1 173 1 174 1 180 1 197 1 202 1 203 1 204 1 220 1 238 1 247 1 249 1 250 1 262 1 267 1 317 1 326 1 336 1 341 1 346 1 357 1 375 1 378 1 482 1 492 1 498 1 526 1 539 1 547 1 578 1 591 1 600 1 635 1 642 1 643 1 651 1 664 1 671 1 686 1 699 1 727 1 737 1 754 1 774 1 779 1 781 1 790 1 802 1 804 2 846 1 879 1 891 1 892 1 912 2 937 1 960 1 963 1 20 1 24 1 31 1 36 1 38 1 46 1 53 1 78 1 175 1 188 1 191 1 199 1 201 1 209 1 231 1 256 1 284 1 298 1 384 1 397 1 405 1 427 1 431 1 433 1 579 1 587 1 588 1 599 1 601 1 611 1 612 1 616 1 617 1 646 1 653 1 658 1 661 1 666 1 719 1 729 1 732 1 745 1 768 1 798 1 855 1 870 1 888 1 910 1 916 1 946 1 964 1 966 1 979 1 979 1 988 1 996 1 980 1 984 1 995 1 1007 1 1009 1 1012 1 1018 1 1024 1 1027 1 
1 210 12 1 55 1 115 2 128 1 132 2 136 1 151 1 171 1 205 1 212 1 225 1 229 1 247 1 261 1 293 1 328 1 343 1 374 1 381 1 392 1 402 1 408 1 417 2 451 1 455 1 464 1 484 1 485 1 510 1 513 1 548 1 593 1 603 1 624 1 655 1 667 1 700 1 706 1 711 2 714 1 716 1 743 2 753 1 785 1 788 1 794 1 797 1 802 1 819 2 862 1 868 1 891 1 910 1 913 1 940 1 957 1 977 1 11 1 30 1 32 1 78 1 94 1 95 1 107 1 111 1 141 1 163 1 164 1 201 1 218 1 219 1 248 1 279 1 312 1 324 1 354 1 355 1 379 1 386 1 391 1 400 1 401 1 415 1 456 1 506 1 523 1 535 1 544 1 569 1 595 1 618 1 622 1 636 1 650 1 727 1 755 1 820 1 841 1 874 1 877 1 881 1 888 1 914 1 916 1 959 1 979 1 992 1 991 1 1021 1 1025 1 
1 212 22 1 24 1 48 1 53 1 56 1 66 1 86 1 96 1 142 1 147 1 201 1 222 1 231 1 257 1 282 1 300 1 371 1 375 1 392 1 415 1 417 1 442 1 463 2 467 1 490 1 499 2 510 1 514 1 520 1 522 2 550 1 560 1 568 1 573 2 604 1 614 1 615 1 666 1 689 1 698 1 700 1 726 1 729 2 738 1 755 1 758 1 789 1 797 1 810 1 821 1 835 1 868 1 877 1 892 1 906 1 908 1 932 1 946 1 17 1 37 1 38 1 45 1 61 1 85 1 106 1 114 1 115 1 131 1 145 1 154 1 157 1 188 1 213 1 263 1 276 1 303 1 310 1 358 1 370 1 382 1 401 1 427 1 432 1 450 1 456 1 470 1 483 1 486 1 559 1 590 1 613 1 626 1 652 1 706 1 725 1 734 1 757 1 771 1 801 1 803 1 861 1 879 1 896 1 913 1 923 1 925 1 998 1 996 1 1001 1 1005 1 1013 1 1015 1 1022 1 
1 208 2 1 8 1 12 1 13 1 15 1 20 1 49 1 85 1 103 1 153 1 163 1 185 1 188 1 214 1 228 1 253 1 267 1 281 1 326 1 334 1 342 1 367 1 395 1 414 1 425 1 440 1 449 1 455 1 474 1 489 1 505 1 511 1 528 1 537 2 542 1 562 1 569 1 582 1 597 1 628 1 636 1 654 1 662 1 680 1 767 1 769 1 822 2 831 1 835 1 846 2 855 1 884 1 894 1 897 1 907 1 913 1 919 1 927 1 930 1 959 1 25 1 60 1 72 1 92 1 101 1 117 1 136 1 156 1 157 1 160 1 176 1 224 1 248 1 257 1 275 1 293 1 294 1 335 1 336 1 345 1 372 1 392 1 401 1 454 1 464 1 478 1 517 1 534 1 540 1 550 1 561 1 570 1 575 1 598 1 676 1 677 1 683 1 688 1 691 1 746 1 753 1 774 1 783 1 794 1 809 1 814 1 821 1 854 1 870 1 892 1 899 1 903 1 926 1 929 1 950 1 970 1 977 1 998 1 991 1 1021 1 
1 209 5 1 6 1 36 1 51 1 60 1 72 2 84 1 86 1 109 1 111 1 127 1 135 1 152 1 181 1 197 1 210 1 213 1 262 1 265 1 271 1 338 1 357 1 363 1 371 1 372 1 373 1 404 1 455 1 463 1 464 1 472 1 491 1 510 1 518 2 521 1 526 1 527 1 539 1 543 1 560 1 568 1 584 1 611 1 675 1 684 1 695 1 710 1 729 1 732 2 734 1 743 1 753 1 764 1 780 1 787 1 822 1 844 1 867 1 878 1 899 1 902 1 912 1 915 2 929 1 950 1 955 2 960 1 1 1 21 1 80 1 92 1 110 1 120 1 163 1 211 1 215 1 257 1 268 1 287 1 319 1 321 1 358 1 365 1 367 1 380 1 426 1 431 1 442 1 444 1 450 1 501 1 531 1 542 1 547 1 604 1 641 1 661 1 674 1 724 1 739 1 740 1 752 1 770 1 821 1 853 1 864 1 897 1 903 1 933 1 936 1 944 1 954 1 967 1 977 1 996 1 999 1 991 1 997 1 1014 1 1017 1 
1 210 4 1 18 1 25 1 39 2 53 1 63 1 68 1 81 1 106 1 122 1 140 1 143 1 196 1 199 1 204 1 243 1 281 1 309 1 322 1 323 1 392 1 398 1 405 1 420 1 427 1 437 1 439 1 447 1 518 1 519 1 520 1 525 1 550 1 556 2 593 1 599 1 626 1 636 2 641 1 647 1 712 1 728 1 730 1 731 1 735 1 736 1 761 1 780 1 789 1 799 1 824 2 825 1 837 2 845 2 910 1 935 1 942 1 947 1 953 1 29 1 30 1 54 1 55 1 70 1 72 1 91 1 94 1 96 1 141 1 148 1 167 1 186 1 254 1 268 1 295 1 319 1 374 1 377 1 412 1 468 1 508 1 511 1 514 1 524 1 529 1 573 1 646 1 662 1 664 1 680 1 688 1 695 1 722 1 724 1 729 1 762 1 776 1 786 1 798 1 802 1 839 1 849 1 858 1 884 1 894 1 923 1 929 1 937 1 944 1 961 1 979 1 990 1 1005 1 1016 1 
1 213 1 1 20 1 38 1 58 1 88 1 117 1 189 1 216 1 238 2 239 1 263 1 268 1 276 1 315 1 317 2 382 1 417 1 418 1 464 1 467 1 469 1 482 1 486 1 504 1 524 1 572 1 580 1 618 1 649 1 675 1 693 1 699 1 711 2 751 1 755 1 761 1 764 1 778 1 787 1 789 1 801 1 816 1 829 1 838 1 839 1 848 1 867 1 893 1 899 1 902 1 908 1 9 1 70 1 94 1 96 1 103 1 116 1 123 1 130 1 177 1 186 1 228 1 266 1 288 1 323 1 325 1 363 1 379 1 383 1 388 1 402 1 428 1 433 1 452 1 458 1 472 1 483 1 493 1 523 1 526 1 547 1 612 1 621 1 639 1 642 1 655 1 657 1 674 1 720 1 723 1 770 1 772 1 773 1 813 1 864 1 895 1 915 1 917 1 928 1 962 1 995 1 996 1 990 1 991 1 1006 1 1016 1 1022 1 
1 208 47 1 51 1 64 1 79 1 91 1 102 1 106 1 113 1 116 1 146 1 147 1 154 1 178 1 191 1 199 1 200 1 228 1 229 1 246 1 252 1 282 1 285 1 300 1 302 1 303 1 312 1 329 1 378 1 393 1 416 1 421 1 422 1 434 1 437 1 445 1 456 1 467 1 472 1 480 1 495 1 554 1 620 1 630 1 650 1 658 1 694 1 703 1 714 1 720 1 725 1 727 1 732 2 733 1 744 1 774 1 792 1 837 1 841 1 853 1 874 1 905 1 960 1 974 1 4 1 21 1 22 1 42 1 43 1 49 1 52 1 55 1 80 1 109 1 126 1 141 1 204 1 215 1 220 1 231 1 234 1 247 1 276 1 277 1 284 1 292 1 334 1 345 1 363 1 370 1 384 1 401 1 425 1 441 1 468 1 512 1 514 1 529 1 530 1 560 1 577 1 598 1 600 1 625 1 645 1 672 1 695 1 707 1 711 1 721 1 747 1 750 1 761 1 769 1 775 1 776 1 848 1 863 1 867 1 876 1 880 1 888 1 895 1 917 1 921 1 925 1 940 1 957 1 963 1 976 1 990 1 1015 1 
1 208 24 1 29 1 40 1 55 1 66 1 71 1 79 1 88 1 122 1 153 1 155 1 158 1 164 1 177 1 202 1 214 2 230 1 235 1 257 1 265 2 271 1 280 1 318 1 327 1 366 1 377 1 378 2 417 1 446 1 510 1 515 1 518 1 525 1 529 1 531 1 536 1 538 1 579 1 583 1 671 1 689 1 712 1 715 1 718 1 722 1 731 1 742 1 746 1 758 1 770 1 778 1 803 1 839 1 869 2 870 1 881 1 900 1 921 1 929 1 944 1 968 1 30 1 50 1 82 1 85 1 105 1 136 1 137 1 148 1 205 1 211 1 219 1 250 1 258 1 286 1 305 1 316 1 333 1 363 1 364 1 369 1 412 1 422 1 425 1 444 1 450 1 464 1 481 1 505 1 517 1 560 1 571 1 576 1 586 1 609 1 634 1 647 1 651 1 652 1 663 1 666 1 672 1 675 1 677 1 687 1 736 1 782 1 797 1 804 1 828 1 850 1 852 1 872 1 883 1 889 1 897 1 911 1 914 1 970 1 997 1 988 1 995 1 1002 1 1012 1 1019 1 
1 210 5 2 8 1 12 1 35 1 65 1 76 1 77 1 103 1 118 1 129 1 142 1 156 1 165 1 204 1 219 2 227 1 232 1 235 1 241 1 243 1 255 1 256 1 261 1 262 1 272 1 274 1 277 1 335 1 336 2 365 1 367 1 377 1 388 1 423 1 440 1 478 1 507 1 516 1 523 1 547 1 549 1 577 1 581 1 593 1 606 1 618 1 659 1 664 1 670 1 719 1 720 1 762 1 769 1 819 1 851 1 867 1 911 1 914 1 917 1 925 1 929 2 935 1 938 1 944 1 965 1 979 1 6 1 78 1 86 1 89 1 116 1 141 1 150 1 199 1 225 1 251 1 259 1 268 1 303 1 310 1 324 1 331 1 332 1 342 1 408 1 459 1 504 1 531 1 543 1 594 1 602 1 603 1 605 1 624 1 630 1 636 1 640 1 657 1 673 1 689 1 701 1 703 1 721 1 740 1 756 1 780 1 805 1 813 1 814 1 816 1 824 1 825 1 829 1 830 1 840 1 847 1 855 1 862 1 871 1 936 1 942 1 948 1 958 1 987 1 992 1 1005 1 1010 1 1020 1 
1 212 4 1 28 1 89 1 95 1 102 1 127 1 133 1 169 1 177 1 179 1 194 1 204 1 209 1 250 1 253 2 263 1 333 1 334 1 368 1 382 1 397 1 421 1 441 1 444 1 481 1 520 1 524 1 549 1 580 1 591 1 600 1 620 1 627 1 645 1 684 1 689 1 691 1 705 1 725 1 750 1 761 1 818 1 841 1 848 1 868 1 875 1 891 1 897 1 933 1 934 1 950 1 964 1 11 1 43 1 46 1 55 1 77 1 79 1 88 1 110 1 136 1 142 1 144 1 166 1 198 1 208 1 235 1 265 1 276 1 287 1 292 1 293 1 314 1 315 1 321 1 340 1 365 1 371 1 406 1 454 1 473 1 497 1 533 1 534 1 542 1 562 1 569 1 574 1 611 1 663 1 673 1 681 1 696 1 713 1 736 1 745 1 764 1 785 1 793 1 809 1 815 1 827 1 843 1 846 1 855 1 856 1 874 1 886 1 910 1 935 1 960 1 971 1 996 1 994 1 1006 1 1009 1 1014 1 1025 1 
1 213 7 1 21 1 40 1 126 1 127 1 165 1 166 1 168 1 204 1 209 1 222 1 238 1 292 1 303 1 335 1 356 1 361 1 390 1 392 1 415 1 439 1 444 1 453 1 454 1 466 1 485 1 487 1 507 1 528 2 590 1 592 1 600 1 613 1 617 1 623 1 658 1 675 1 676 2 719 1 733 1 751 1 805 1 818 1 833 1 849 1 949 1 953 1 955 1 986 1 8 1 14 1 24 1 28 1 51 1 54 1 91 1 98 1 122 1 128 1 148 1 155 1 162 1 179 1 208 1 213 1 216 1 230 1 250 1 259 1 299 1 313 1 324 1 341 1 351 1 359 1 396 1 400 1 409 1 414 1 430 1 493 1 510 1 533 1 539 1 571 1 580 1 585 1 615 1 628 1 664 1 679 1 681 1 694 1 710 1 714 1 717 1 745 1 747 1 779 1 798 1 836 1 865 1 873 1 891 1 906 1 915 1 967 1 984 1 985 1 995 1 992 1 1003 1 1004 1 1012 1 1014 1 
1 212 25 1 29 1 54 1 92 1 110 1 121 1 128 1 160 1 168 1 209 2 246 1 248 1 284 1 286 1 290 1 298 1 305 1 326 1 366 1 400 1 403 1 417 1 419 1 426 1 428 1 463 2 465 1 466 1 475 1 487 1 515 1 527 1 547 1 553 1 565 2 566 1 631 1 636 2 659 2 713 1 719 1 746 1 750 1 755 1 792 1 797 1 825 1 855 1 867 1 874 1 879 1 912 1 916 1 944 2 951 1 31 1 62 1 72 1 101 1 107 1 127 1 219 1 226 1 233 1 234 1 300 1 304 1 311 1 352 1 391 1 411 1 424 1 479 1 482 1 514 1 537 1 541 1 551 1 559 1 625 1 643 1 691 1 706 1 714 1 727 1 752 1 753 1 801 1 802 1 815 1 823 1 840 1 860 1 861 1 866 1 880 1 913 1 925 1 952 1 970 1 980 1 982 1 983 1 985 1 991 1 991 1 992 1 999 1 1001 1 1007 1 1009 1 1018 1 1027 1 
1 212 43 1 49 1 55 1 62 1 69 1 87 2 91 1 99 1 114 1 125 2 156 1 160 1 178 1 205 1 206 1 221 2 227 2 231 1 245 1 262 1 313 1 327 1 366 1 371 2 394 1 402 1 403 1 413 1 415 1 418 1 427 1 460 1 474 1 482 1 489 2 493 1 501 1 510 1 519 2 550 1 563 1 603 1 645 1 650 1 656 1 661 1 713 1 727 1 770 1 772 2 800 1 803 2 813 1 825 1 848 1 878 1 883 1 891 1 899 1 918 1 980 1 991 1 4 1 26 1 65 1 76 1 78 1 110 1 113 1 121 1 150 1 164 1 188 1 201 1 202 1 220 1 251 1 259 1 288 1 298 1 317 1 330 1 331 1 332 1 344 1 357 1 380 1 383 1 404 1 419 1 429 1 437 1 446 1 499 1 511 1 523 1 524 1 558 1 572 1 588 1 591 1 605 1 609 1 639 1 703 1 722 1 763 1 768 1 786 1 830 1 910 1 922 1 928 1 945 1 970 1 988 1 990 1 999 1 1004 1 1017 1 1026 1 
1 216 14 1 30 1 47 1 62 1 70 1 73 1 87 1 88 1 90 1 92 1 105 1 160 1 182 1 213 1 235 1 236 1 259 1 260 1 281 1 288 1 296 1 337 1 339 1 345 1 398 1 399 1 414 1 426 1 442 2 507 1 513 1 540 1 556 1 558 2 560 1 561 1 567 1 576 1 603 2 622 1 625 1 651 1 687 1 701 1 715 1 749 1 771 1 783 1 788 1 793 1 817 1 832 1 839 1 852 1 885 1 893 1 923 1 926 1 933 1 936 1 937 1 958 1 5 1 26 1 50 1 79 1 91 1 121 1 145 1 198 1 204 1 214 1 289 1 290 1 299 1 304 1 305 1 310 1 375 1 381 1 421 1 433 1 436 1 439 1 571 1 578 1 581 1 585 1 594 1 596 1 612 1 620 1 670 1 696 1 710 1 728 1 747 1 755 1 769 1 800 1 816 1 825 1 827 1 841 1 920 1 947 1 955 1 996 1 1011 1 1018 1 1021 1 
1 208 6 1 12 1 13 1 14 1 19 1 47 1 61 2 74 1 151 1 169 1 184 2 186 1 230 1 290 1 300 1 311 1 312 1 322 1 339 1 352 1 364 1 370 1 377 1 402 2 404 1 435 1 451 1 462 1 470 1 487 1 488 1 498 1 504 1 574 1 619 1 660 1 663 1 665 1 679 2 683 1 693 1 699 1 705 1 709 1 724 1 725 1 834 1 838 1 857 1 874 1 898 1 909 1 912 1 926 1 941 1 942 1 950 1 968 1 7 1 18 1 38 1 85 1 99 1 113 1 150 1 159 1 168 1 277 1 303 1 304 1 347 1 384 1 386 1 389 1 403 1 407 1 408 1 413 1 467 1 476 1 478 1 480 1 484 1 495 1 506 1 579 1 604 1 637 1 643 1 650 1 673 1 681 1 739 1 755 1 810 1 821 1 841 1 843 1 869 1 872 1 921 1 989 1 1002 1 1003 1 1008 1 1017 1 
1 207 14 1 17 1 21 1 29 1 39 1 59 1 103 1 142 1 146 1 151 1 160 1 192 1 213 1 226 2 282 1 283 1 288 1 406 1 411 1 420 1 458 1 472 1 487 1 494 1 503 1 504 1 509 1 510 1 515 1 517 1 519 1 536 1 537 1 538 1 539 1 548 2 568 1 594 1 647 1 677 1 689 1 694 1 698 1 743 1 744 1 770 1 804 1 807 1 810 1 864 1 867 1 874 1 896 1 897 1 913 1 950 1 955 1 985 1 990 1 11 1 16 1 77 1 78 1 89 1 106 1 127 1 138 1 140 1 173 1 193 1 263 1 265 1 271 1 281 1 291 1 315 1 344 1 394 1 399 1 410 1 414 1 447 1 463 1 471 1 490 1 522 1 528 1 555 1 584 1 633 1 645 1 649 1 669 1 673 1 706 1 711 1 780 1 803 1 844 1 845 1 852 1 870 1 875 1 884 1 890 1 925 1 946 1 957 1 974 1 979 1 987 1 1027 1 
1 215 17 1 29 1 40 1 74 1 123 1 134 1 145 1 149 1 162 1 164 1 167 2 178 2 236 1 240 1 247 1 261 1 288 1 292 1 312 2 329 1 330 1 353 1 382 1 392 1 394 1 426 1 464 1 478 1 483 1 491 1 495 1 497 1 504 1 517 1 524 1 537 1 563 2 569 1 578 1 581 2 597 1 598 1 616 1 669 1 717 1 725 1 733 2 739 1 774 2 784 1 809 1 811 1 852 1 876 1 885 1 898 1 925 1 941 1 972 1 979 1 983 1 985 1 989 1 22 1 33 1 41 1 51 1 63 1 71 1 72 1 110 1 140 1 157 1 171 1 182 1 191 1 210 1 212 1 224 1 297 1 304 1 365 1 376 1 390 1 446 1 482 1 500 1 619 1 627 1 629 1 655 1 656 1 678 1 683 1 688 1 699 1 713 1 723 1 735 1 777 1 788 1 805 1 807 1 823 1 846 1 849 1 850 1 872 1 879 1 910 1 981 1 993 1 999 1 1007 1 1009 1 1020 1 1021 1 1024 1 1025 1 
1 209 17 1 20 1 59 1 71 1 80 1 102 1 152 1 156 1 167 1 168 1 179 1 185 1 198 1 222 1 224 1 278 1 281 1 285 1 322 1 335 2 336 2 338 1 356 1 370 1 380 1 414 1 447 1 463 1 472 1 511 1 528 1 561 1 609 1 619 1 622 1 636 1 660 1 665 1 670 1 679 1 685 1 692 2 704 2 768 1 802 1 806 1 819 1 831 1 833 1 892 1 904 1 933 1 946 1 961 1 966 1 967 1 977 1 987 1 7 1 13 1 15 1 31 1 42 1 46 1 104 1 118 1 131 1 136 1 149 1 174 1 206 1 218 1 238 1 259 1 260 1 264 1 275 1 311 1 354 1 355 1 359 1 385 1 407 1 417 1 435 1 449 1 451 1 452 1 512 1 523 1 524 1 538 1 575 1 582 1 589 1 610 1 611 1 624 1 635 1 639 1 649 1 658 1 663 1 758 1 766 1 777 1 781 1 795 1 818 1 820 1 844 1 886 1 907 1 911 1 920 1 940 1 954 1 959 1 983 1 1000 1 1006 1 1012 1 1014 1 
1 214 14 1 39 1 53 1 55 1 61 1 63 1 74 1 84 1 96 1 100 1 114 1 147 1 154 1 184 1 190 1 200 1 250 1 273 1 287 1 298 1 304 1 312 1 334 1 354 1 367 1 403 1 413 1 470 1 472 1 489 1 500 1 509 1 548 1 569 2 581 1 583 1 588 1 619 1 620 1 662 1 671 1 687 1 696 1 700 1 738 1 746 1 752 1 764 1 774 1 777 1 780 1 785 1 801 1 838 1 900 1 951 1 953 1 981 1 982 1 2 1 10 1 12 1 99 1 103 1 106 1 107 1 113 1 128 1 135 1 149 1 156 1 164 1 179 1 209 1 210 1 218 1 233 1 235 1 291 1 314 1 320 1 341 1 360 1 369 1 412 1 424 1 434 1 462 1 469 1 515 1 521 1 552 1 573 1 584 1 597 1 602 1 615 1 624 1 625 1 646 1 653 1 657 1 664 1 686 1 734 1 747 1 759 1 781 1 792 1 793 1 861 1 909 1 913 1 937 1 939 1 946 1 968 1 978 1 1016 1 1021 1 
1 212 14 1 17 1 50 1 51 1 60 1 69 1 77 1 87 1 97 1 130 1 142 1 154 1 173 1 178 2 179 1 220 1 221 1 235 1 245 1 263 1 296 1 298 1 313 1 351 1 428 1 498 1 512 1 532 1 559 1 592 1 595 1 627 1 649 1 663 1 667 1 675 1 688 2 706 1 709 1 729 1 745 1 749 1 770 1 783 1 804 1 822 1 838 1 872 1 873 1 945 1 960 1 966 1 974 1 983 1 992 1 49 1 55 1 62 1 89 1 94 1 100 1 115 1 141 1 172 1 207 1 243 1 249 1 257 1 288 1 289 1 294 1 316 1 322 1 339 1 346 1 374 1 408 1 412 1 438 1 457 1 458 1 472 1 474 1 493 1 547 1 557 1 608 1 614 1 633 1 654 1 681 1 690 1 694 1 711 1 765 1 797 1 817 1 818 1 825 1 846 1 891 1 893 1 900 1 904 1 915 1 962 1 967 1 969 1 978 1 991 1 996 1 1002 1 1017 1 1021 1 1025 1 1026 1 
1 207 31 1 109 1 117 2 125 1 139 1 153 1 154 1 221 1 233 1 249 1 276 1 283 1 302 1 305 1 312 1 317 1 325 1 329 1 339 1 342 1 357 1 363 1 432 1 437 1 451 1 464 1 501 1 509 1 517 1 534 1 538 1 550 1 584 1 588 1 600 1 623 1 641 1 667 1 685 1 692 1 713 1 714 1 734 1 745 1 786 1 790 1 818 1 824 1 828 1 841 1 845 1 862 1 866 1 884 1 918 1 930 1 950 1 997 1 14 1 56 1 61 1 62 1 73 1 83 1 107 1 121 1 135 1 138 1 148 1 151 1 182 1 188 1 197 1 201 1 238 1 239 1 253 1 269 1 282 1 295 1 323 1 359 1 383 1 399 1 405 1 407 1 412 1 453 1 493 1 506 1 511 1 530 1 554 1 640 1 729 1 735 1 753 1 762 1 851 1 860 1 864 1 904 1 944 1 973 1 1006 1 1021 1 
1 208 28 1 76 1 93 1 94 1 107 2 109 1 117 1 149 1 198 1 200 1 232 1 236 1 245 1 248 1 250 1 252 1 254 1 258 1 283 1 286 1 326 1 364 1 389 2 406 1 426 1 430 1 459 1 466 1 468 2 474 1 493 1 494 1 535 1 580 1 590 1 594 1 614 1 630 1 636 1 645 1 655 1 658 1 663 1 667 1 670 1 683 1 684 1 696 1 715 1 718 1 722 1 733 1 800 1 807 1 809 1 836 1 854 1 861 1 865 1 904 1 914 1 925 1 937 1 941 1 943 1 945 1 954 1 976 1 17 1 30 1 42 1 55 1 63 1 86 1 89 1 118 1 124 1 126 1 142 1 146 1 155 1 192 1 215 1 224 1 278 1 288 1 290 1 308 1 328 1 331 1 338 1 343 1 359 1 363 1 380 1 381 1 409 1 413 1 421 1 423 1 476 1 498 1 504 1 507 1 523 1 528 1 564 1 568 1 570 1 582 1 586 1 637 1 647 1 648 1 656 1 657 1 689 1 690 1 691 1 703 1 704 1 743 1 748 1 750 1 756 1 759 1 797 1 801 1 817 1 863 1 900 1 913 1 928 1 939 1 958 1 981 1 991 1 1012 1 
1 207 22 1 60 1 71 1 73 1 79 1 96 1 99 1 148 1 159 1 179 1 192 1 212 2 225 1 231 1 255 1 268 1 282 1 294 1 305 1 321 1 322 2 328 1 331 1 345 1 394 1 399 1 407 1 447 1 460 1 495 1 499 1 501 1 504 1 517 1 523 1 587 1 601 1 637 1 640 1 753 1 780 1 790 1 809 2 844 1 850 1 875 1 881 1 918 1 940 1 941 1 945 1 967 1 999 1 9 1 50 1 65 1 67 1 90 1 120 1 153 1 162 1 178 1 228 1 241 1 258 1 355 1 391 1 410 1 412 1 430 1 438 1 443 1 451 1 457 1 469 1 485 1 520 1 534 1 555 1 561 1 582 1 591 1 614 1 617 1 644 1 710 1 738 1 742 1 750 1 770 1 778 1 784 1 813 1 824 1 848 1 857 1 859 1 865 1 867 1 915 1 919 1 955 1 987 1 994 1 
1 0 174 1 294 1 322 1 189 1 262 1 176 1 954 1 364 1 425 1 159 1 399 1 812 1 604 1 263 1 523 1 359 1 780 1 190 1 192 1 836 1 691 1 404 1 974 1 610 1 930 1 942 1 397 1 42 1 28 1 13 1 267 1 955 1 863 1 197 1 508 1 716 1 574 1 880 1 802 1 990 1 122 1 411 1 676 1 426 1 554 1 724 1 764 1 151 1 253 1 74 1 111 1 421 1 6 1 950 1 160 1 958 1 771 1 492 1 616 1 731 1 618 1 908 1 961 1 102 1 720 1 706 1 860 1 148 1 695 1 396 1 576 1 186 1 433 1 661 1 683 1 573 1 360 1 60 1 569 1 976 1 453 1 953 1 595 1 204 1 994 1 722 1 669 1 424 1 541 1 166 1 136 1 246 1 750 1 211 1 859 1 779 1 822 1 475 1 108 1 285 1 79 1 778 1 503 1 328 1 300 1 684 1 738 1 557 1 156 1 751 1 891 1 537 1 21 1 805 1 149 1 
1 0 479 1 299 1 790 1 702 1 628 1 304 1 257 1 969 1 647 1 215 1 616 1 216 1 973 1 960 1 287 1 290 1 384 1 502 1 548 1 622 1 849 1 32 1 734 1 494 1 547 1 153 1 921 1 249 1 40 1 324 1 959 1 771 1 617 1 110 1 365 1 684 1 355 1 499 1 929 1 665 1 615 1 74 1 385 1 907 1 727 1 677 1 107 1 345 1 373 1 47 1 113 1 182 1 87 1 644 1 392 1 594 1 990 1 295 1 147 1 601 1 707 1 286 1 653 1 129 1 462 1 588 1 691 1 112 1 775 1 922 1 828 1 764 1 719 1 434 1 819 1 150 1 880 1 596 1 363 1 415 1 802 1 207 1 748 1 453 1 155 1 756 1 516 1 367 1 158 1 639 1 405 1 704 1 396 1 877 1 767 1 199 1 961 1 488 1 992 1 525 1 533 1 379 1 463 1 418 1 449 1 381 1 11 1 255 1 337 1 550 1 859 1 
1 0 583 1 797 1 895 1 367 1 87 1 160 1 199 1 365 1 792 1 422 1 799 1 447 1 264 1 325 1 596 1 202 1 576 1 385 1 86 1 947 1 516 1 178 1 139 1 387 1 170 1 780 1 839 1 69 1 308 1 988 1 599 1 328 1 940 1 651 1 82 1 984 1 430 1 566 1 620 1 31 1 269 1 184 1 504 1 123 1 759 1 135 1 870 1 233 1 83 1 945 1 605 1 295 1 397 1 232 1 479 1 908 1 386 1 877 1 522 1 740 1 711 1 482 1 221 1 662 1 699 1 151 1 131 1 974 1 664 1 340 1 379 1 774 1 412 1 955 1 551 1 809 1 622 1 832 1 47 1 426 1 363 1 627 1 823 1 225 1 404 1 501 1 409 1 134 1 837 1 398 1 255 1 54 1 266 1 154 1 37 1 597 1 395 1 119 1 790 1 242 1 149 1 734 1 236 1 483 1 77 1 864 1 297 1 287 1 972 1 568 1 126 1 813 1 981 1 74 1 517 1 38 1 350 1 356 1 868 1 183 1 418 1 683 1 567 1 177 1 871 1 861 1 
1 0 498 1 768 1 611 1 631 1 594 1 150 1 731 1 606 1 133 1 585 1 192 1 308 1 954 1 142 1 967 1 691 1 353 1 74 1 658 1 974 1 320 1 472 1 882 1 215 1 346 1 838 1 574 1 674 1 360 1 49 1 824 1 170 1 548 1 508 1 356 1 505 1 482 1 233 1 936 1 971 1 496 1 943 1 908 1 636 1 551 1 234 1 370 1 661 1 457 1 953 1 918 1 303 1 231 1 323 1 612 1 530 1 591 1 757 1 189 1 923 1 780 1 41 1 403 1 894 1 119 1 120 1 297 1 153 1 989 1 538 1 737 1 934 1 900 1 870 1 70 1 25 1 347 1 825 1 605 1 506 1 595 1 101 1 727 1 50 1 95 1 279 1 753 1 997 1 672 1 533 1 333 1 44 1 523 1 906 1 157 1 12 1 750 1 985 1 425 1 214 1 284 1 814 1 1000 1 283 1 226 1 957 1 384 1 277 1 225 1 462 1 450 1 111 1 401 1 708 1 243 1 569 1 975 1 102 1 968 1 646 1 51 1 254 1 330 1 100 1 648 1 797 1 464 1 341 1 83 1 404 1 634 1 393 1 299 1 80 1 400 1 
1 0 529 1 979 1 858 1 872 1 548 1 564 1 254 1 6 1 93 1 284 1 518 1 128 1 580 1 712 1 996 1 191 1 499 1 788 1 299 1 635 1 445 1 977 1 217 1 551 1 223 1 751 1 257 1 614 1 642 1 229 1 958 1 822 1 890 1 807 1 781 1 434 1 381 1 120 1 540 1 848 1 386 1 68 1 684 1 134 1 943 1 851 1 92 1 950 1 537 1 376 1 137 1 942 1 593 1 154 1 250 1 838 1 45 1 811 1 567 1 444 1 421 1 633 1 925 1 889 1 639 1 197 1 952 1 975 1 927 1 592 1 305 1 32 1 582 1 879 1 845 1 857 1 617 1 854 1 585 1 160 1 412 1 700 1 972 1 325 1 103 1 24 1 107 1 391 1 176 1 991 1 840 1 181 1 514 1 830 1 409 1 209 1 523 1 273 1 572 1 968 1 65 1 722 1 140 1 591 1 320 1 96 1 892 1 186 1 923 1 
1 0 831 1 571 1 488 1 487 1 625 1 123 1 852 1 841 1 937 1 915 1 604 1 556 1 701 1 39 1 400 1 870 1 744 1 465 1 943 1 58 1 492 1 144 1 795 1 623 1 430 1 490 1 348 1 14 1 876 1 627 1 610 1 307 1 910 1 709 1 728 1 591 1 816 1 135 1 920 1 421 1 100 1 162 1 247 1 508 1 877 1 292 1 869 1 925 1 902 1 608 1 444 1 511 1 926 1 733 1 557 1 847 1 276 1 451 1 693 1 972 1 714 1 42 1 389 1 337 1 4 1 820 1 582 1 202 1 341 1 548 1 49 1 531 1 311 1 67 1 959 1 788 1 402 1 229 1 252 1 407 1 672 1 283 1 365 1 753 1 803 1 453 1 334 1 569 1 645 1 945 1 864 1 678 1 103 1 236 1 130 1 335 1 530 1 44 1 343 1 947 1 275 1 874 1 251 1 650 1 448 1 146 1 316 1 310 1 848 1 594 1 994 1 813 1 442 1 225 1 466 1 756 1 212 1 823 1 328 1 43 1 613 1 29 1 
1 0 979 1 41 1 63 1 978 1 815 1 798 1 873 1 957 1 601 1 500 1 437 1 830 1 56 1 562 1 438 1 658 1 201 1 856 1 641 1 989 1 252 1 267 1 991 1 884 1 185 1 274 1 496 1 334 1 895 1 810 1 875 1 375 1 408 1 55 1 44 1 292 1 744 1 212 1 893 1 134 1 829 1 605 1 638 1 708 1 339 1 553 1 99 1 568 1 169 1 300 1 95 1 10 1 342 1 622 1 789 1 125 1 976 1 251 1 114 1 740 1 356 1 574 1 448 1 851 1 870 1 96 1 936 1 208 1 938 1 852 1 182 1 474 1 321 1 597 1 545 1 912 1 848 1 216 1 287 1 903 1 486 1 4 1 662 1 72 1 742 1 509 1 298 1 136 1 227 1 593 1 731 1 704 1 634 1 231 1 814 1 753 1 347 1 854 1 323 1 809 1 458 1 587 1 915 1 425 1 849 1 122 1 517 1 996 1 891 1 975 1 109 1 648 1 316 1 580 1 160 1 805 1 
1 0 588 1 508 1 7 1 661 1 378 1 572 1 47 1 415 1 973 1 850 1 826 1 457 1 816 1 878 1 597 1 387 1 728 1 950 1 978 1 790 1 961 1 748 1 977 1 720 1 278 1 680 1 931 1 923 1 433 1 233 1 440 1 734 1 783 1 786 1 450 1 30 1 222 1 449 1 432 1 369 1 824 1 247 1 305 1 603 1 80 1 423 1 589 1 870 1 808 1 957 1 192 1 119 1 409 1 537 1 280 1 473 1 546 1 169 1 226 1 139 1 842 1 377 1 65 1 956 1 814 1 5 1 777 1 53 1 905 1 33 1 779 1 988 1 104 1 109 1 357 1 232 1 518 1 134 1 822 1 803 1 558 1 600 1 316 1 78 1 848 1 553 1 170 1 460 1 535 1 531 1 83 1 512 1 50 1 666 1 482 1 963 1 660 1 203 1 585 1 681 1 782 1 334 1 812 1 194 1 529 1 772 1 835 1 533 1 639 1 609 1 199 1 263 1 
1 0 569 1 338 1 50 1 366 1 280 1 353 1 24 1 303 1 160 1 445 1 126 1 745 1 149 1 793 1 51 1 622 1 765 1 259 1 476 1 864 1 31 1 750 1 919 1 489 1 509 1 217 1 144 1 640 1 367 1 519 1 278 1 616 1 200 1 179 1 390 1 544 1 490 1 195 1 261 1 406 1 69 1 298 1 19 1 110 1 679 1 647 1 879 1 850 1 34 1 757 1 901 1 407 1 14 1 720 1 502 1 707 1 189 1 273 1 336 1 419 1 222 1 911 1 735 1 249 1 773 1 133 1 277 1 947 1 609 1 942 1 32 1 304 1 18 1 666 1 77 1 826 1 802 1 929 1 423 1 932 1 64 1 286 1 892 1 687 1 169 1 972 1 973 1 708 1 580 1 614 1 928 1 404 1 393 1 709 1 602 1 975 1 384 1 748 1 345 1 402 1 354 1 58 1 729 1 47 1 9 1 962 1 310 1 335 1 1 1 62 1 993 1 722 1 344 1 
1 0 506 1 858 1 891 1 50 1 466 1 259 1 346 1 814 1 429 1 605 1 952 1 733 1 383 1 311 1 128 1 591 1 129 1 925 1 361 1 649 1 205 1 488 1 830 1 77 1 613 1 201 1 750 1 646 1 702 1 997 1 660 1 105 1 666 1 847 1 708 1 766 1 540 1 864 1 340 1 811 1 123 1 778 1 871 1 63 1 581 1 455 1 269 1 359 1 130 1 730 1 179 1 990 1 522 1 644 1 753 1 792 1 961 1 365 1 266 1 877 1 345 1 210 1 258 1 127 1 793 1 673 1 825 1 610 1 148 1 712 1 743 1 309 1 722 1 415 1 106 1 436 1 916 1 24 1 448 1 278 1 528 1 881 1 972 1 314 1 247 1 146 1 704 1 912 1 705 1 250 1 498 1 444 1 609 1 285 1 1001 1 135 1 496 1 600 1 987 1 555 1 44 1 484 1 616 1 537 1 677 1 520 1 917 1 143 1 654 1 226 1 760 1 468 1 255 1 490 1 288 1 576 1 43 1 552 1 424 1 42 1 565 1 979 1 
1 0 390 1 776 1 818 1 211 1 209 1 311 1 606 1 907 1 120 1 782 1 733 1 479 1 581 1 68 1 210 1 701 1 421 1 474 1 821 1 917 1 176 1 516 1 325 1 431 1 570 1 540 1 454 1 981 1 46 1 322 1 349 1 583 1 492 1 939 1 839 1 66 1 87 1 943 1 808 1 193 1 489 1 851 1 450 1 872 1 266 1 109 1 423 1 8 1 826 1 145 1 18 1 372 1 280 1 320 1 288 1 545 1 55 1 170 1 927 1 298 1 356 1 123 1 844 1 551 1 442 1 389 1 750 1 20 1 26 1 57 1 255 1 253 1 45 1 400 1 80 1 414 1 3 1 609 1 185 1 629 1 898 1 134 1 773 1 29 1 89 1 944 1 275 1 912 1 225 1 603 1 809 1 928 1 741 1 807 1 755 1 762 1 291 1 688 1 554 1 445 1 563 1 232 1 932 1 452 1 969 1 2 1 394 1 767 1 331 1 254 1 370 1 178 1 
1 0 935 1 436 1 395 1 164 1 200 1 873 1 123 1 842 1 875 1 974 1 33 1 167 1 238 1 665 1 40 1 948 1 326 1 409 1 667 1 641 1 724 1 18 1 809 1 983 1 604 1 544 1 823 1 153 1 75 1 838 1 922 1 525 1 531 1 150 1 577 1 45 1 810 1 631 1 685 1 990 1 647 1 576 1 44 1 912 1 192 1 524 1 944 1 126 1 868 1 350 1 241 1 723 1 774 1 940 1 592 1 229 1 664 1 512 1 847 1 949 1 93 1 866 1 510 1 917 1 118 1 712 1 579 1 359 1 498 1 90 1 521 1 405 1 871 1 248 1 113 1 215 1 437 1 856 1 378 1 340 1 299 1 558 1 68 1 163 1 997 1 608 1 602 1 845 1 236 1 694 1 702 1 162 1 622 1 428 1 989 1 529 1 792 1 251 1 533 1 687 1 342 1 24 1 263 1 679 1 822 1 131 1 632 1 112 1 626 1 349 1 894 1 286 1 
1 0 278 1 949 1 700 1 964 1 514 1 933 1 873 1 986 1 669 1 917 1 801 1 536 1 680 1 811 1 192 1 877 1 72 1 855 1 959 1 927 1 973 1 682 1 21 1 149 1 364 1 768 1 421 1 489 1 179 1 291 1 926 1 157 1 318 1 375 1 915 1 543 1 116 1 213 1 582 1 799 1 782 1 131 1 398 1 26 1 551 1 76 1 940 1 532 1 904 1 69 1 451 1 386 1 779 1 966 1 234 1 118 1 581 1 102 1 867 1 567 1 396 1 115 1 767 1 763 1 878 1 816 1 343 1 971 1 806 1 974 1 286 1 552 1 674 1 560 1 717 1 96 1 178 1 623 1 590 1 204 1 187 1 679 1 738 1 154 1 146 1 677 1 62 1 17 1 637 1 344 1 382 1 612 1 882 1 499 1 668 1 587 1 916 1 854 1 516 1 938 1 555 1 981 1 168 1 60 1 583 1 138 1 978 1 645 1 355 1 653 1 531 1 708 1 651 1 781 1 
1 0 653 1 505 1 680 1 375 1 199 1 206 1 347 1 439 1 232 1 675 1 929 1 38 1 349 1 892 1 750 1 244 1 35 1 358 1 129 1 797 1 406 1 119 1 88 1 385 1 261 1 882 1 960 1 357 1 935 1 355 1 271 1 689 1 382 1 575 1 887 1 738 1 599 1 399 1 753 1 296 1 558 1 26 1 248 1 827 1 490 1 837 1 833 1 43 1 984 1 450 1 237 1 68 1 552 1 398 1 973 1 777 1 809 1 414 1 235 1 487 1 562 1 3 1 455 1 117 1 770 1 421 1 511 1 868 1 685 1 762 1 945 1 853 1 637 1 21 1 87 1 154 1 910 1 957 1 998 1 122 1 47 1 896 1 14 1 57 1 226 1 410 1 985 1 210 1 50 1 584 1 405 1 23 1 416 1 491 1 434 1 56 1 142 1 961 1 73 1 967 1 79 1 155 1 200 1 179 1 635 1 230 1 842 1 118 1 857 1 493 1 571 1 860 1 67 1 952 1 696 1 6 1 873 1 
1 0 619 1 271 1 27 1 517 1 276 1 992 1 119 1 577 1 983 1 18 1 465 1 967 1 81 1 842 1 138 1 649 1 578 1 507 1 388 1 151 1 329 1 186 1 4 1 127 1 89 1 288 1 868 1 935 1 199 1 679 1 749 1 223 1 90 1 428 1 296 1 783 1 354 1 172 1 292 1 102 1 170 1 835 1 872 1 28 1 968 1 482 1 789 1 297 1 16 1 272 1 585 1 175 1 999 1 331 1 805 1 958 1 80 1 490 1 198 1 444 1 625 1 770 1 629 1 364 1 739 1 129 1 377 1 231 1 160 1 594 1 755 1 776 1 29 1 647 1 762 1 459 1 689 1 54 1 234 1 73 1 530 1 416 1 840 1 21 1 599 1 535 1 218 1 338 1 437 1 278 1 942 1 718 1 841 1 398 1 320 1 282 1 994 1 971 1 120 1 630 1 613 1 483 1 461 1 359 1 959 1 797 1 394 1 433 1 152 1 216 1 543 1 912 1 25 1 526 1 768 1 587 1 403 1 882 1 159 1 290 1 854 1 446 1 
1 0 660 1 558 1 384 1 700 1 222 1 257 1 880 1 349 1 363 1 741 1 673 1 851 1 804 1 193 1 721 1 437 1 277 1 426 1 979 1 350 1 263 1 538 1 375 1 541 1 237 1 32 1 214 1 548 1 628 1 332 1 752 1 273 1 484 1 772 1 422 1 431 1 681 1 475 1 807 1 549 1 190 1 478 1 546 1 595 1 370 1 99 1 410 1 34 1 191 1 25 1 169 1 706 1 364 1 181 1 849 1 52 1 897 1 132 1 330 1 146 1 3 1 505 1 881 1 923 1 118 1 932 1 141 1 295 1 194 1 264 1 108 1 555 1 397 1 557 1 865 1 487 1 698 1 359 1 154 1 901 1 130 1 890 1 528 1 6 1 186 1 220 1 327 1 334 1 471 1 762 1 258 1 936 1 302 1 718 1 415 1 316 1 275 1 417 1 643 1 443 1 517 1 821 1 163 1 427 1 192 1 425 1 729 1 685 1 33 1 993 1 124 1 583 1 323 1 625 1 542 1 991 1 240 1 176 1 
1 0 430 1 124 1 13 1 237 1 157 1 173 1 674 1 294 1 543 1 511 1 441 1 839 1 882 1 884 1 879 1 305 1 716 1 60 1 535 1 935 1 164 1 762 1 156 1 146 1 366 1 740 1 89 1 521 1 265 1 19 1 767 1 899 1 363 1 606 1 175 1 451 1 369 1 279 1 820 1 247 1 341 1 858 1 317 1 132 1 880 1 344 1 107 1 14 1 977 1 438 1 476 1 50 1 290 1 227 1 771 1 384 1 320 1 286 1 501 1 229 1 15 1 485 1 435 1 987 1 588 1 122 1 254 1 140 1 109 1 945 1 242 1 76 1 719 1 515 1 335 1 503 1 795 1 675 1 932 1 249 1 559 1 814 1 395 1 69 1 516 1 731 1 726 1 379 1 890 1 499 1 907 1 532 1 845 1 955 1 432 1 72 1 207 1 623 1 557 1 27 1 514 1 682 1 49 1 593 1 786 1 917 1 778 1 17 1 569 1 478 1 930 1 87 1 653 1 130 1 238 1 203 1 876 1 860 1 636 1 549 1 171 1 127 1 662 1 
1 0 660 1 653 1 937 1 53 1 698 1 947 1 378 1 683 1 704 1 85 1 179 1 414 1 734 1 785 1 384 1 456 1 513 1 768 1 693 1 827 1 34 1 611 1 950 1 13 1 988 1 756 1 380 1 857 1 454 1 17 1 38 1 867 1 542 1 962 1 71 1 597 1 932 1 181 1 189 1 153 1 411 1 996 1 409 1 667 1 434 1 676 1 792 1 690 1 281 1 747 1 147 1 314 1 671 1 648 1 685 1 910 1 137 1 604 1 203 1 269 1 787 1 926 1 488 1 413 1 298 1 45 1 468 1 320 1 906 1 357 1 72 1 943 1 615 1 295 1 339 1 678 1 371 1 297 1 581 1 814 1 677 1 313 1 163 1 272 1 248 1 252 1 485 1 232 1 452 1 1 1 492 1 778 1 576 1 658 1 838 1 815 1 900 1 905 1 762 1 14 1 868 1 741 1 822 1 764 1 351 1 154 1 751 1 585 1 696 1 
1 0 137 1 68 1 214 1 58 1 622 1 943 1 187 1 328 1 953 1 835 1 564 1 996 1 203 1 12 1 534 1 821 1 247 1 118 1 123 1 91 1 750 1 557 1 650 1 669 1 122 1 336 1 709 1 616 1 728 1 973 1 229 1 574 1 659 1 916 1 559 1 354 1 276 1 949 1 675 1 673 1 75 1 490 1 572 1 485 1 624 1 853 1 45 1 999 1 178 1 398 1 256 1 56 1 348 1 173 1 615 1 933 1 339 1 131 1 875 1 388 1 723 1 873 1 364 1 606 1 495 1 433 1 708 1 48 1 77 1 392 1 866 1 632 1 556 1 918 1 286 1 636 1 770 1 31 1 777 1 107 1 117 1 583 1 599 1 980 1 982 1 958 1 90 1 1000 1 366 1 486 1 567 1 427 1 49 1 292 1 466 1 945 1 440 1 971 1 849 1 934 1 303 1 352 1 262 1 6 1 565 1 451 1 998 1 805 1 947 1 642 1 545 1 109 1 296 1 817 1 809 1 790 1 24 1 297 1 149 1 301 1 586 1 251 1 726 1 191 1 405 1 993 1 964 1 862 1 912 1 527 1 614 1 
1 0 251 1 3 1 854 1 353 1 630 1 323 1 896 1 287 1 20 1 615 1 963 1 732 1 293 1 867 1 280 1 938 1 797 1 518 1 13 1 517 1 811 1 338 1 411 1 701 1 474 1 442 1 577 1 699 1 802 1 925 1 837 1 191 1 334 1 352 1 255 1 155 1 176 1 981 1 985 1 930 1 697 1 765 1 230 1 104 1 939 1 254 1 591 1 461 1 283 1 54 1 894 1 180 1 644 1 444 1 885 1 908 1 609 1 779 1 666 1 543 1 308 1 265 1 153 1 595 1 928 1 389 1 833 1 298 1 612 1 528 1 384 1 613 1 481 1 239 1 639 1 519 1 409 1 257 1 475 1 806 1 675 1 192 1 619 1 763 1 760 1 721 1 159 1 309 1 546 1 924 1 831 1 365 1 548 1 946 1 15 1 826 1 819 1 610 1 495 1 566 1 106 1 
1 0 318 1 123 1 442 1 947 1 513 1 958 1 629 1 393 1 15 1 382 1 98 1 940 1 247 1 42 1 115 1 710 1 20 1 815 1 507 1 102 1 678 1 881 1 959 1 915 1 33 1 472 1 63 1 474 1 650 1 685 1 641 1 17 1 953 1 157 1 783 1 185 1 351 1 521 1 191 1 755 1 512 1 605 1 70 1 757 1 635 1 516 1 199 1 937 1 975 1 907 1 656 1 18 1 169 1 413 1 779 1 274 1 217 1 886 1 888 1 576 1 909 1 509 1 538 1 589 1 962 1 736 1 100 1 83 1 709 1 39 1 434 1 349 1 498 1 272 1 286 1 47 1 626 1 814 1 459 1 133 1 798 1 670 1 319 1 568 1 43 1 615 1 560 1 28 1 3 1 752 1 943 1 974 1 849 1 609 1 96 1 759 1 37 1 689 1 593 1 927 1 963 1 922 1 69 1 651 1 377 1 902 1 10 1 550 1 409 1 389 1 616 1 583 1 971 1 264 1 179 1 802 1 
1 0 275 1 891 1 387 1 888 1 12 1 55 1 161 1 693 1 614 1 223 1 796 1 979 1 639 1 207 1 700 1 801 1 770 1 448 1 460 1 763 1 403 1 441 1 506 1 748 1 53 1 345 1 350 1 357 1 738 1 487 1 667 1 156 1 715 1 932 1 499 1 665 1 467 1 631 1 640 1 94 1 619 1 947 1 306 1 433 1 587 1 85 1 23 1 731 1 873 1 281 1 145 1 318 1 160 1 967 1 376 1 260 1 510 1 377 1 528 1 5 1 131 1 664 1 472 1 564 1 285 1 884 1 25 1 206 1 743 1 851 1 254 1 927 1 929 1 896 1 513 1 635 1 838 1 176 1 786 1 963 1 186 1 314 1 136 1 414 1 130 1 907 1 243 1 276 1 415 1 504 1 703 1 155 1 187 1 33 1 858 1 696 1 51 1 902 1 120 1 892 1 501 1 534 1 40 1 41 1 219 1 996 1 
1 0 20 1 782 1 761 1 337 1 95 1 648 1 587 1 841 1 725 1 228 1 975 1 999 1 286 1 734 1 276 1 367 1 413 1 886 1 604 1 131 1 956 1 136 1 514 1 959 1 690 1 65 1 552 1 454 1 192 1 540 1 97 1 968 1 889 1 13 1 442 1 728 1 620 1 804 1 251 1 996 1 30 1 306 1 290 1 912 1 233 1 908 1 258 1 673 1 355 1 527 1 546 1 250 1 727 1 223 1 891 1 187 1 382 1 937 1 964 1 87 1 190 1 327 1 101 1 573 1 589 1 779 1 537 1 980 1 702 1 99 1 67 1 79 1 802 1 176 1 147 1 783 1 105 1 488 1 339 1 225 1 989 1 776 1 852 1 59 1 267 1 170 1 115 1 435 1 143 1 655 1 305 1 374 1 974 1 856 1 613 1 610 1 920 1 583 1 928 1 110 1 498 1 594 1 238 1 332 1 471 1 291 1 
1 0 172 1 306 1 439 1 911 1 642 1 434 1 27 1 750 1 598 1 547 1 740 1 203 1 510 1 901 1 477 1 933 1 652 1 403 1 359 1 912 1 758 1 101 1 992 1 936 1 23 1 657 1 320 1 636 1 659 1 144 1 582 1 700 1 395 1 90 1 46 1 98 1 487 1 967 1 934 1 132 1 435 1 175 1 643 1 764 1 423 1 102 1 827 1 40 1 861 1 461 1 339 1 412 1 638 1 49 1 545 1 905 1 81 1 314 1 744 1 357 1 300 1 464 1 72 1 475 1 84 1 767 1 812 1 560 1 249 1 44 1 613 1 671 1 842 1 29 1 719 1 204 1 1 1 917 1 329 1 151 1 119 1 727 1 500 1 129 1 686 1 821 1 551 1 734 1 797 1 296 1 410 1 368 1 549 1 525 1 63 1 182 1 578 1 725 1 921 1 889 1 9 1 519 1 999 1 96 1 490 1 873 1 507 1 793 1 612 1 877 1 483 1 786 1 179 1 24 1 496 1 800 1 897 1 838 1 422 1 113 1 529 1 527 1 
1 0 598 1 583 1 520 1 414 1 107 1 587 1 179 1 330 1 827 1 741 1 178 1 601 1 303 1 769 1 908 1 419 1 384 1 331 1 533 1 449 1 867 1 489 1 742 1 352 1 538 1 795 1 96 1 26 1 407 1 390 1 420 1 185 1 83 1 995 1 624 1 176 1 93 1 859 1 81 1 462 1 857 1 665 1 25 1 565 1 671 1 874 1 262 1 42 1 574 1 886 1 248 1 560 1 956 1 571 1 255 1 4 1 568 1 138 1 830 1 397 1 270 1 781 1 884 1 519 1 965 1 958 1 580 1 897 1 286 1 167 1 615 1 921 1 702 1 751 1 639 1 259 1 451 1 177 1 658 1 474 1 162 1 856 1 903 1 528 1 502 1 610 1 417 1 181 1 99 1 831 1 644 1 371 1 229 1 979 1 849 1 236 1 148 1 15 1 599 1 94 1 273 1 991 1 288 1 306 1 675 1 771 1 694 1 749 1 80 1 861 1 424 1 
