1019 58446 011 2
1 211 16 1 23 1 27 1 36 1 43 1 71 1 89 1 110 1 126 1 150 1 167 1 207 1 211 1 224 1 240 1 246 1 255 1 275 1 283 1 290 1 298 1 313 1 337 1 361 1 401 1 411 1 433 1 476 1 492 2 493 1 516 1 531 2 560 1 631 1 636 2 641 1 643 1 668 1 675 1 680 2 697 2 745 1 756 1 763 1 775 1 785 1 808 1 838 1 849 1 851 1 870 1 917 1 934 1 954 1 973 1 976 1 980 1 982 1 984 1 3 1 38 1 55 1 77 1 97 1 120 1 128 1 141 1 163 1 181 1 234 1 253 1 309 1 315 1 398 1 414 1 415 1 419 1 441 1 462 1 464 1 477 1 507 1 518 1 534 1 552 1 559 1 605 1 610 1 615 1 642 1 658 1 662 1 691 1 695 1 714 1 717 1 728 1 753 1 777 1 790 1 798 1 828 1 834 1 859 1 947 1 963 1 967 1 972 1 975 1 981 1 983 1 985 1 988 1 995 1 997 1 998 1 1007 1 1011 1 1013 1 1014 1 
1 213 4 1 51 1 57 1 80 1 81 1 84 1 124 1 133 1 143 1 153 1 187 1 199 1 218 1 236 1 265 1 282 1 288 1 312 1 323 2 331 1 365 1 388 1 413 1 418 1 425 1 453 1 463 1 480 1 504 1 529 1 568 1 571 1 582 1 613 1 615 1 637 1 640 1 642 1 659 1 662 1 683 1 684 1 686 1 692 1 694 1 727 1 759 1 797 1 838 1 847 1 860 1 891 1 926 1 933 1 947 1 949 1 957 1 8 1 30 1 50 1 55 1 114 1 122 1 132 1 156 1 175 1 182 1 209 1 211 1 219 1 232 1 240 1 260 1 317 1 336 1 347 1 371 1 372 1 400 1 454 1 460 1 498 1 513 1 532 1 577 1 624 1 646 1 651 1 680 1 690 1 715 1 722 1 733 1 745 1 761 1 766 1 782 1 786 1 796 1 804 1 806 1 821 1 834 1 856 1 858 1 882 1 893 1 917 1 959 1 985 1 1001 1 1005 1 
1 206 1 1 4 1 21 1 36 1 49 1 56 1 102 1 103 1 143 1 166 1 169 1 185 1 193 1 219 1 228 1 235 2 236 1 238 1 286 1 291 2 295 1 319 1 327 1 345 1 352 1 355 1 382 1 383 1 393 2 415 1 455 1 465 1 530 1 571 1 573 1 580 1 587 1 594 1 631 1 642 1 653 1 658 1 670 1 677 1 687 1 761 2 772 1 776 1 778 1 779 1 799 1 813 1 826 1 853 1 979 1 991 1 44 1 61 1 63 1 68 1 106 1 114 1 124 1 197 1 205 1 261 1 303 1 313 1 325 1 329 1 342 1 348 1 369 1 392 1 423 1 452 1 459 1 470 1 499 1 509 1 541 1 546 1 548 1 557 1 558 1 566 1 615 1 625 1 634 1 636 1 637 1 650 1 651 1 693 1 714 1 730 1 752 1 771 1 800 1 814 1 858 1 861 1 880 1 890 1 903 1 988 1 1001 1 1005 1 1018 1 
1 210 2 1 3 1 22 1 25 1 27 1 37 1 100 1 105 1 125 1 140 1 171 1 175 1 205 1 211 2 253 1 269 1 286 1 295 1 306 1 313 1 343 1 356 1 360 1 373 1 385 1 391 1 393 1 412 1 413 2 422 1 449 1 450 1 487 1 515 1 518 1 539 1 543 1 551 1 564 1 601 1 623 1 658 1 669 1 697 1 709 1 731 1 763 1 804 1 830 1 860 1 866 1 871 1 893 1 926 2 981 1 986 1 7 1 54 1 70 1 74 1 78 1 99 1 106 1 112 1 124 1 137 1 183 1 210 1 220 1 230 1 262 1 264 1 283 1 297 1 339 1 363 1 382 1 409 1 510 1 521 1 524 1 533 1 595 1 604 1 608 1 670 1 677 1 703 1 716 1 725 1 729 1 762 1 776 1 781 1 797 1 801 1 827 1 828 1 835 1 840 1 850 1 852 1 897 1 898 1 907 1 914 1 924 1 948 1 970 1 995 1 1004 1 1013 1 
1 212 8 1 16 1 69 1 84 1 88 1 128 1 152 1 169 1 175 2 179 1 204 1 209 1 213 1 220 1 231 1 239 1 247 1 267 1 285 2 331 1 380 1 386 1 436 1 467 1 470 1 476 1 523 1 543 1 552 1 553 1 562 1 563 1 567 1 586 1 600 1 608 1 611 1 628 1 654 1 680 1 681 1 688 1 737 1 760 1 762 1 766 1 776 1 790 1 803 1 884 1 891 1 935 2 941 1 948 2 950 1 957 1 992 1 27 1 36 1 63 1 92 1 102 1 104 1 132 1 135 1 162 1 262 1 265 1 286 1 299 1 304 1 316 1 342 1 345 1 368 1 441 1 450 1 459 1 463 1 504 1 505 1 514 1 532 1 548 1 549 1 554 1 559 1 578 1 622 1 625 1 649 1 655 1 679 1 687 1 719 1 772 1 774 1 786 1 787 1 811 1 832 1 835 1 847 1 851 1 855 1 894 1 903 1 905 1 944 1 945 1 954 1 971 1 1004 1 1007 1 1010 1 
1 208 8 1 13 2 18 1 28 1 32 1 85 1 111 1 131 1 147 1 149 1 160 1 163 1 185 1 207 1 218 1 235 1 236 1 247 1 252 1 264 1 274 1 286 1 298 1 312 1 328 1 331 1 338 1 352 1 353 1 364 1 381 1 406 1 413 1 421 1 423 1 449 1 465 1 466 1 478 1 487 1 489 1 511 2 545 1 561 1 566 1 577 1 604 1 619 1 637 1 643 1 651 1 658 1 664 1 702 1 704 1 710 1 718 1 724 1 753 1 765 1 769 1 771 1 779 1 824 1 835 1 845 1 876 1 890 1 915 1 918 1 936 1 961 1 33 1 50 1 65 1 69 1 96 1 128 1 139 1 144 1 146 1 211 1 227 1 234 1 296 1 382 1 386 1 387 1 388 1 402 1 407 1 409 1 419 1 432 1 452 1 469 1 517 1 534 1 543 1 554 1 632 1 700 1 709 1 713 1 743 1 751 1 766 1 768 1 774 1 782 1 791 1 809 1 814 1 828 1 839 1 856 1 862 1 875 1 877 1 881 1 891 1 899 1 1008 1 
1 209 4 1 8 1 37 1 48 1 61 1 65 1 116 1 126 1 128 1 169 1 183 1 184 1 189 1 251 1 256 1 276 1 291 2 315 1 350 1 351 1 381 1 416 1 420 1 438 1 447 1 460 1 463 1 468 1 509 1 512 1 513 1 522 1 576 1 618 1 621 1 622 2 623 1 701 1 728 1 740 2 757 1 761 1 767 1 779 1 780 2 794 1 821 2 827 1 829 1 831 1 847 1 849 1 897 1 903 1 22 1 28 1 40 1 70 1 111 1 125 1 142 1 195 1 206 1 214 1 219 1 233 1 236 1 263 1 271 1 281 1 311 1 318 1 342 1 344 1 360 1 370 1 384 1 471 1 486 1 495 1 498 1 500 1 519 1 535 1 551 1 574 1 612 1 634 1 680 1 703 1 729 1 754 1 775 1 793 1 813 1 843 1 850 1 872 1 882 1 925 1 962 1 979 1 987 1 990 1 1003 1 1012 1 1018 1 
1 211 5 1 6 1 7 1 2 1 17 1 25 1 58 1 62 1 75 1 110 1 131 1 146 1 152 1 157 1 167 1 180 1 189 1 201 1 218 1 260 1 348 1 366 1 427 1 458 1 462 1 493 1 503 1 516 1 527 1 556 1 578 1 579 1 594 1 611 1 618 1 652 1 666 1 684 1 706 1 713 1 726 1 745 1 747 1 759 1 762 1 778 1 779 2 781 1 808 1 832 1 863 1 873 1 882 1 886 1 888 1 901 1 921 1 935 1 971 1 976 1 981 1 988 1 996 1 68 1 81 1 83 1 88 1 123 1 207 1 220 1 250 1 253 1 264 1 287 1 288 1 301 1 314 1 332 1 333 1 338 1 353 1 361 1 383 1 399 1 436 1 444 1 449 1 499 1 505 1 509 1 596 1 603 1 608 1 620 1 639 1 657 1 673 1 678 1 735 1 743 1 753 1 769 1 775 1 784 1 845 1 865 1 893 1 939 1 950 1 952 1 953 1 978 1 1014 1 
1 213 21 1 53 1 59 1 72 1 82 1 119 1 126 2 163 1 182 1 185 1 194 1 198 1 203 1 219 1 220 1 232 1 259 2 261 2 262 1 269 2 277 1 308 1 311 1 331 2 334 2 345 1 435 1 455 1 475 1 519 1 532 1 542 1 558 1 572 1 594 1 627 1 628 1 652 1 680 1 683 1 712 1 714 1 719 1 779 2 786 1 813 2 825 1 833 1 898 1 926 1 960 1 961 1 963 1 969 1 979 1 988 1 18 1 32 1 47 1 83 1 92 1 102 1 117 1 171 1 214 1 239 1 241 1 263 1 272 1 286 1 290 1 325 1 372 1 404 1 405 1 406 1 443 1 444 1 448 1 454 1 458 1 479 1 488 1 493 1 505 1 548 1 552 1 566 1 636 1 648 1 700 1 709 1 747 1 748 1 755 1 785 1 796 1 819 1 820 1 851 1 874 1 905 1 931 1 936 1 957 1 964 1 968 1 977 1 983 1 997 1 998 1 1006 1 1014 1 1019 1 
1 212 23 1 29 1 41 1 61 1 73 1 78 1 95 1 116 1 124 1 133 1 175 1 192 1 196 1 200 1 218 1 238 1 252 1 301 1 330 1 355 1 399 1 415 1 425 1 428 1 476 1 505 1 508 1 529 1 538 1 593 2 607 1 626 1 675 1 689 1 690 1 741 1 795 1 810 1 846 1 890 1 904 1 924 1 939 1 979 1 998 1 33 1 58 1 65 1 90 1 94 1 158 1 160 1 171 1 195 1 197 1 205 1 213 1 254 1 299 1 309 1 312 1 314 1 327 1 368 1 370 1 373 1 400 1 413 1 424 1 431 1 450 1 485 1 499 1 519 1 532 1 540 1 541 1 558 1 570 1 571 1 572 1 608 1 627 1 655 1 659 1 672 1 703 1 727 1 749 1 753 1 758 1 762 1 785 1 809 1 812 1 821 1 834 1 865 1 883 1 887 1 926 1 928 1 951 1 980 1 1009 1 1013 1 1016 1 1019 1 
1 205 65 1 146 1 153 1 154 1 163 1 205 1 209 1 222 1 241 1 246 1 251 1 271 1 290 1 292 1 314 2 333 1 345 1 349 1 359 1 361 1 379 1 389 1 407 1 463 1 479 1 516 1 531 1 539 2 578 1 581 1 584 1 598 1 619 1 638 2 642 1 654 1 675 1 692 1 720 1 756 1 765 1 791 1 805 1 820 1 827 1 879 1 889 1 909 1 949 2 951 1 964 1 980 1 41 1 43 1 67 1 71 1 90 1 92 1 116 1 124 1 127 1 135 1 168 1 183 1 191 1 198 1 201 1 216 1 223 1 238 1 247 1 301 1 309 1 338 1 344 1 395 1 417 1 452 1 470 1 475 1 483 1 509 1 519 1 551 1 614 1 651 1 659 1 667 1 671 1 724 1 758 1 788 1 807 1 838 1 851 1 857 1 960 1 979 1 988 1 994 1 996 1 999 1 1006 1 1013 1 1017 1 
1 210 25 1 29 1 43 1 44 1 54 1 56 1 63 1 83 1 101 1 128 1 147 1 173 1 181 1 190 1 213 1 216 1 228 1 232 1 236 1 245 1 266 1 280 1 283 1 304 2 313 1 319 1 336 1 389 1 402 1 407 2 457 1 459 1 464 1 501 1 504 1 506 2 513 1 524 1 552 1 560 1 562 1 613 1 615 1 636 1 659 1 663 1 677 1 680 1 694 1 701 2 706 1 768 1 801 1 838 1 843 1 857 1 860 2 869 1 887 1 898 1 927 1 929 1 939 1 943 1 961 1 20 1 50 1 95 1 108 1 121 1 155 1 159 1 177 1 208 1 268 1 274 1 303 1 324 1 341 1 345 1 349 1 352 1 368 1 420 1 421 1 484 1 495 1 510 1 535 1 537 1 625 1 652 1 682 1 685 1 696 1 698 1 713 1 720 1 767 1 776 1 800 1 814 1 831 1 880 1 912 1 922 1 951 1 977 1 995 1 998 1 1003 1 1008 1 1009 1 1013 1 1019 1 
1 209 6 2 29 1 33 1 88 1 90 1 105 1 106 1 132 1 133 1 149 2 177 1 183 1 193 1 194 1 198 1 200 1 216 2 221 1 227 1 230 1 232 1 265 1 275 1 281 1 307 1 315 1 334 2 340 1 349 1 381 1 385 1 395 1 408 1 418 1 421 1 442 1 461 1 470 1 486 1 492 1 512 1 535 1 550 1 557 1 568 1 570 1 577 1 578 1 581 1 603 1 611 2 631 1 643 1 657 1 662 1 672 1 703 1 710 1 757 1 772 1 779 1 785 1 788 1 789 1 797 1 818 2 824 1 833 1 838 1 846 1 877 1 920 1 947 1 957 1 981 1 987 1 30 1 60 1 89 1 94 1 102 1 134 1 136 1 154 1 180 1 199 1 201 1 242 1 243 1 261 1 299 1 325 1 346 1 357 1 366 1 393 1 394 1 401 1 433 1 457 1 468 1 477 1 495 1 511 1 513 1 549 1 561 1 567 1 569 1 604 1 618 1 628 1 632 1 633 1 641 1 668 1 677 1 691 1 713 1 718 1 722 1 734 1 740 1 751 1 753 1 768 1 774 1 790 1 822 1 858 1 860 1 878 1 885 1 896 1 902 1 927 1 951 1 953 1 1018 1 
1 212 32 1 57 1 80 1 100 1 116 1 117 1 154 1 157 1 203 1 216 1 228 2 241 1 286 2 288 1 291 1 294 1 299 1 301 1 303 1 305 1 310 1 315 1 379 1 399 1 416 1 417 1 452 1 455 1 494 1 507 1 509 1 531 1 546 1 548 1 549 1 553 1 568 1 585 1 602 1 606 1 607 1 617 1 694 1 700 1 716 1 718 1 720 1 725 1 740 1 759 1 769 1 789 1 801 1 834 1 895 1 919 1 946 1 949 1 951 1 954 1 959 1 986 1 46 1 47 1 54 1 91 1 136 1 138 1 192 1 209 1 220 1 225 1 236 1 249 1 260 1 267 1 292 1 360 1 378 1 411 1 422 1 429 1 434 1 437 1 463 1 469 1 506 1 541 1 558 1 571 1 572 1 580 1 583 1 590 1 613 1 614 1 623 1 628 1 678 1 709 1 737 1 756 1 763 1 776 1 845 1 874 1 884 1 908 1 920 1 944 1 955 1 970 1 999 1 1004 1 1005 1 1013 1 1017 1 
1 214 30 1 78 2 92 1 151 1 156 1 178 1 193 1 242 2 296 1 349 1 354 1 363 1 396 1 403 2 410 1 464 1 496 1 510 1 512 1 562 1 565 1 575 1 592 1 599 1 663 1 682 1 683 1 694 1 715 2 718 1 745 1 764 1 777 1 779 1 817 1 819 1 834 1 843 1 858 1 893 1 903 1 923 1 926 1 951 1 980 1 56 1 61 1 80 1 91 1 103 1 120 1 139 1 141 1 158 1 175 1 188 1 191 1 206 1 215 1 230 1 250 1 311 1 358 1 364 1 386 1 402 1 433 1 478 1 492 1 513 1 530 1 616 1 623 1 629 1 641 1 664 1 684 1 688 1 712 1 716 1 720 1 738 1 744 1 751 1 756 1 805 1 832 1 864 1 875 1 880 1 890 1 907 1 941 1 949 1 961 1 972 1 1003 1 1010 1 1016 1 1018 1 
1 209 1 1 5 1 17 1 18 1 37 1 69 1 86 1 95 1 133 1 139 1 159 1 174 1 179 1 194 1 210 1 225 1 230 1 250 1 262 1 271 1 275 1 281 1 286 1 293 1 296 1 354 1 424 2 457 1 503 1 517 1 576 1 626 1 642 2 656 1 734 1 784 1 835 1 845 1 871 1 899 1 907 1 910 1 913 1 925 2 939 2 943 1 993 1 28 1 41 1 49 1 57 1 62 1 63 1 84 1 94 1 103 1 113 1 123 1 131 1 143 1 147 1 169 1 198 1 203 1 282 1 348 1 350 1 363 1 382 1 394 1 439 1 454 1 465 1 474 1 482 1 484 1 495 1 512 1 527 1 557 1 573 1 590 1 597 1 635 1 636 1 639 1 640 1 651 1 659 1 671 1 687 1 737 1 764 1 793 1 812 1 837 1 847 1 853 1 900 1 927 1 931 1 932 1 938 1 949 1 962 1 974 1 996 1 1003 1 1006 1 
1 209 8 1 16 1 23 1 47 1 62 1 67 1 72 1 84 2 98 1 133 1 140 1 144 1 166 1 167 1 175 1 212 1 241 1 265 1 281 1 289 1 293 1 314 1 317 1 328 1 331 1 359 2 364 1 380 1 385 1 392 1 400 1 452 1 465 1 466 1 489 1 499 1 504 1 513 1 521 1 578 1 586 1 593 2 605 1 613 1 644 1 647 1 648 1 671 1 693 1 718 1 761 1 774 1 778 1 790 1 893 1 908 1 909 1 914 1 934 1 936 1 939 2 944 1 945 1 961 1 977 1 989 1 51 1 57 1 83 1 105 1 107 1 132 1 135 1 139 1 147 1 179 1 183 1 223 1 226 1 228 1 229 1 231 1 232 1 246 1 251 1 257 1 264 1 332 1 337 1 353 1 354 1 394 1 416 1 441 1 444 1 477 1 481 1 484 1 509 1 556 1 600 1 615 1 636 1 653 1 654 1 703 1 732 1 798 1 809 1 816 1 848 1 871 1 881 1 972 1 1017 1 
1 211 6 1 16 1 9 1 39 1 47 1 96 1 112 1 160 1 173 1 179 1 206 1 236 1 258 1 289 1 343 2 388 1 414 1 424 1 446 1 453 1 467 1 474 1 478 1 486 1 491 1 495 1 502 1 512 1 556 1 559 1 575 1 577 1 604 1 618 1 629 1 635 1 638 1 654 1 657 1 661 1 663 1 669 1 692 1 694 1 713 1 759 1 766 1 768 1 777 1 800 1 810 1 824 1 872 1 906 1 915 1 934 1 938 1 943 1 959 1 965 1 970 1 38 1 46 1 57 1 102 1 109 1 151 1 170 1 221 1 224 1 242 1 256 1 279 1 282 1 312 1 326 1 332 1 334 1 351 1 469 1 489 1 508 1 542 1 578 1 583 1 588 1 597 1 608 1 625 1 630 1 631 1 642 1 643 1 656 1 681 1 688 1 700 1 707 1 718 1 731 1 741 1 745 1 752 1 791 1 807 1 817 1 834 1 907 1 916 1 945 1 946 1 952 1 958 1 967 1 979 1 1000 1 1005 1 1009 1 1010 1 
1 216 31 1 36 1 61 1 92 1 95 1 103 1 108 1 110 1 141 1 152 1 168 1 169 1 181 1 184 2 218 1 250 1 251 1 287 1 357 1 364 1 370 2 375 1 387 1 404 1 423 1 442 1 444 1 469 1 527 1 529 1 539 1 554 1 573 1 586 1 593 1 600 1 613 1 615 1 638 1 647 2 651 1 661 1 672 1 683 1 700 1 728 1 755 1 776 1 777 1 799 1 830 1 855 1 867 1 868 2 930 1 938 1 954 1 966 1 972 1 986 1 81 1 109 1 126 1 129 1 162 1 175 1 215 1 219 1 236 1 253 1 322 1 334 1 336 1 339 1 409 1 428 1 434 1 454 1 478 1 494 1 523 1 531 1 546 1 560 1 583 1 606 1 611 1 625 1 656 1 686 1 687 1 690 1 706 1 717 1 763 1 769 1 775 1 796 1 810 1 821 1 853 1 887 1 889 1 890 1 904 1 927 1 936 1 940 1 944 1 947 1 958 1 990 1 1006 1 1012 1 
1 214 12 1 36 1 77 1 107 1 115 1 123 1 128 1 133 1 136 1 156 1 238 1 297 1 308 1 317 1 341 1 342 1 363 1 367 1 372 1 388 1 406 1 428 1 476 1 497 1 517 1 531 1 551 1 591 1 597 1 614 1 618 1 636 1 650 1 662 1 730 1 752 1 771 1 776 1 783 1 798 2 806 1 809 1 821 1 822 1 828 1 835 1 843 1 857 1 862 2 956 1 982 1 37 1 81 1 122 1 124 1 204 1 217 1 227 1 229 1 232 1 240 1 251 1 254 1 255 1 257 1 264 1 292 1 293 1 315 1 330 1 338 1 354 1 371 1 375 1 418 1 427 1 440 1 457 1 490 1 501 1 510 1 564 1 573 1 585 1 593 1 613 1 624 1 635 1 648 1 666 1 673 1 676 1 684 1 695 1 721 1 743 1 767 1 814 1 849 1 850 1 863 1 868 1 873 1 915 1 940 1 942 1 994 1 995 1 996 1 1004 1 1014 1 1016 1 1018 1 
1 215 3 1 9 1 67 1 84 1 85 1 112 1 150 1 152 2 157 1 178 2 194 1 246 1 290 1 312 1 315 1 330 1 345 1 356 1 361 1 387 1 398 1 401 1 425 1 467 1 478 1 512 1 515 1 531 1 542 1 553 1 594 1 616 2 638 1 756 1 763 2 802 1 812 1 822 1 826 1 836 1 851 1 872 1 899 1 40 1 57 1 60 1 71 1 96 1 109 1 128 1 151 1 213 1 214 1 251 1 274 1 284 1 286 1 296 1 329 1 366 1 367 1 377 1 384 1 395 1 418 1 424 1 451 1 464 1 489 1 521 1 543 1 547 1 552 1 596 1 613 1 634 1 652 1 658 1 684 1 709 1 721 1 723 1 727 1 731 1 771 1 778 1 805 1 827 1 874 1 886 1 890 1 900 1 920 1 929 1 957 1 961 1 973 1 978 1 989 1 1004 1 1005 1 1012 1 1018 1 
1 207 4 1 7 1 37 1 40 1 41 1 47 2 49 1 60 1 96 1 98 1 107 1 119 1 160 1 164 1 190 1 191 1 212 1 217 1 245 1 262 1 266 1 301 1 360 1 371 1 373 1 382 1 383 1 385 1 397 1 439 2 441 1 455 1 464 1 473 1 488 1 507 1 513 2 515 1 516 1 570 1 573 1 574 1 595 1 619 1 646 1 663 1 688 1 691 1 713 1 724 1 755 1 757 1 758 1 784 1 798 1 799 1 825 1 860 1 868 1 869 1 874 1 895 1 905 2 922 1 937 1 947 1 959 1 980 2 83 1 92 1 114 1 136 1 143 1 171 1 196 1 201 1 203 1 204 1 248 1 283 1 290 1 297 1 304 1 312 1 314 1 364 1 388 1 399 1 410 1 418 1 426 1 432 1 435 1 461 1 481 1 502 1 536 1 564 1 572 1 589 1 598 1 601 1 630 1 643 1 686 1 788 1 831 1 916 1 926 1 960 1 975 1 1008 1 1011 1 1013 1 
1 207 1 1 10 1 17 1 36 1 39 1 55 1 57 1 66 1 67 1 68 1 79 1 95 1 99 1 122 1 156 1 190 1 240 1 275 1 279 2 284 1 304 1 305 1 323 1 324 1 355 1 384 1 432 1 471 1 484 1 487 1 511 1 520 1 532 1 550 1 588 1 589 1 632 1 647 1 665 1 676 1 708 1 716 1 727 2 736 1 742 1 750 1 781 1 816 1 821 2 834 1 835 1 846 1 851 1 859 1 877 1 878 1 880 1 881 1 926 1 952 1 27 1 31 1 35 1 49 1 64 1 80 1 83 1 92 1 115 1 136 1 165 1 187 1 290 1 291 1 297 1 298 1 300 1 346 1 372 1 419 1 441 1 454 1 457 1 473 1 481 1 529 1 548 1 569 1 578 1 595 1 666 1 669 1 697 1 698 1 700 1 734 1 756 1 788 1 800 1 808 1 811 1 814 1 844 1 856 1 867 1 869 1 883 1 913 1 937 1 949 1 951 1 969 1 1000 1 1005 1 
1 215 49 1 88 1 91 1 96 1 113 1 121 1 123 1 135 1 150 1 162 1 171 1 175 1 187 1 195 1 234 1 238 1 240 1 249 1 258 1 288 1 293 1 337 1 351 1 352 2 365 1 415 1 428 1 450 1 465 1 466 1 473 2 483 1 508 1 527 1 534 1 564 1 629 1 639 1 651 1 654 1 699 1 704 1 732 2 778 1 782 1 792 2 813 1 844 1 863 1 882 1 883 1 934 1 943 1 952 1 954 1 957 2 962 1 963 1 977 2 996 1 26 1 27 1 37 1 66 1 73 1 97 1 173 1 209 1 227 1 247 1 251 1 283 1 305 1 316 1 318 1 370 1 389 1 392 1 408 1 409 1 435 1 459 1 492 1 525 1 535 1 551 1 570 1 587 1 605 1 623 1 627 1 638 1 670 1 684 1 688 1 711 1 724 1 744 1 752 1 786 1 834 1 836 1 838 1 848 1 865 1 868 1 893 1 897 1 923 1 927 1 942 1 953 1 968 1 1003 1 1010 1 1016 1 
1 211 4 1 8 1 12 1 29 1 31 1 84 1 91 1 102 2 111 1 115 1 137 1 175 1 194 2 203 1 218 1 223 1 271 1 310 1 340 1 363 1 372 1 401 1 418 1 424 1 435 1 437 1 456 1 479 1 489 1 493 1 498 1 502 1 517 1 578 1 586 1 602 1 620 1 629 1 639 1 641 1 645 1 658 1 694 1 701 1 706 1 728 1 732 1 795 1 823 1 869 1 872 1 883 2 903 1 904 1 913 1 929 1 936 2 943 1 945 1 949 1 992 1 49 1 82 1 88 1 128 1 197 1 242 1 274 1 284 1 287 1 308 1 309 1 314 1 323 1 345 1 371 1 373 1 375 1 393 1 411 1 421 1 460 1 478 1 508 1 518 1 559 1 573 1 589 1 591 1 603 1 628 1 631 1 648 1 660 1 662 1 687 1 690 1 709 1 711 1 753 1 759 1 760 1 773 1 794 1 850 1 860 1 887 1 897 1 917 1 930 1 981 1 1002 1 1004 1 1011 1 
1 217 24 1 28 1 44 1 68 2 80 1 82 1 86 1 96 1 115 1 119 1 128 1 133 1 145 1 162 1 179 1 180 1 193 1 196 1 211 1 257 1 273 2 278 2 297 1 312 1 342 1 343 1 346 1 361 1 370 1 398 1 414 2 484 1 490 2 496 1 497 1 500 1 504 1 509 1 565 1 576 1 582 1 589 1 619 1 642 1 645 1 680 1 681 2 685 1 724 1 733 1 786 1 828 1 833 1 837 1 849 1 869 1 895 1 918 1 927 1 944 1 985 1 992 1 75 1 76 1 97 1 111 1 126 1 198 1 235 1 238 1 259 1 262 1 306 1 339 1 351 1 372 1 470 1 477 1 519 1 522 1 528 1 541 1 547 1 560 1 569 1 596 1 648 1 664 1 666 1 720 1 723 1 736 1 746 1 785 1 805 1 816 1 836 1 858 1 862 1 876 1 917 1 921 1 924 1 933 1 935 1 984 1 1003 1 1015 1 1018 1 1019 1 
1 210 1 1 4 1 5 1 23 1 24 1 43 1 77 1 86 1 89 1 123 1 147 1 163 1 174 1 180 1 187 1 225 1 246 1 284 1 300 1 334 1 378 1 413 1 422 1 432 1 449 1 455 1 468 1 479 1 481 1 484 1 494 1 505 1 507 1 519 1 520 1 546 1 553 1 586 1 588 1 600 1 656 1 665 1 670 1 691 1 695 1 717 1 719 1 766 1 785 1 810 1 811 2 815 1 816 1 819 1 827 1 837 1 885 1 906 1 948 1 959 1 992 1 85 1 91 1 119 1 121 1 124 1 129 1 139 1 171 1 175 1 177 1 185 1 199 1 237 1 281 1 282 1 291 1 324 1 342 1 348 1 349 1 371 1 377 1 384 1 397 1 412 1 426 1 482 1 485 1 500 1 502 1 509 1 557 1 570 1 571 1 604 1 606 1 617 1 636 1 668 1 671 1 737 1 745 1 747 1 755 1 786 1 798 1 817 1 822 1 841 1 853 1 860 1 862 1 881 1 892 1 894 1 898 1 940 1 945 1 990 1 991 1 1001 1 1007 1 1015 1 1016 1 
1 211 6 1 26 1 7 1 16 1 43 1 53 1 95 1 104 1 116 1 125 1 134 1 154 1 157 1 159 2 201 1 205 1 215 2 230 1 232 1 250 1 260 1 296 1 303 1 329 1 333 1 340 1 346 1 353 1 355 1 404 1 418 1 430 1 434 1 437 1 445 1 466 1 467 1 481 1 520 1 539 1 547 1 551 1 601 1 630 1 632 1 651 1 654 1 664 1 710 1 749 1 757 1 761 1 769 1 783 1 866 1 877 1 915 2 944 1 973 2 46 1 68 1 130 1 152 1 179 1 182 1 242 1 247 1 261 1 268 1 307 1 315 1 341 1 368 1 394 1 400 1 443 1 483 1 500 1 506 1 528 1 532 1 553 1 575 1 588 1 593 1 599 1 611 1 622 1 625 1 629 1 672 1 674 1 692 1 694 1 717 1 778 1 784 1 786 1 791 1 844 1 859 1 883 1 896 1 899 1 919 1 925 1 963 1 969 1 
1 212 10 1 12 1 13 1 25 1 36 1 46 1 105 1 122 1 128 1 155 1 167 1 173 1 176 1 180 1 184 1 206 1 210 1 261 1 264 1 275 1 277 1 286 1 302 1 309 1 411 1 447 1 460 1 466 2 485 1 512 1 519 1 524 1 525 1 534 2 536 1 552 1 563 1 566 1 576 1 581 1 582 1 589 1 594 1 601 1 610 1 614 1 619 1 639 1 642 1 665 1 684 2 703 1 735 1 752 1 761 1 772 1 774 1 781 1 787 1 790 1 792 1 801 1 832 1 872 1 890 1 894 1 904 1 918 1 935 1 947 1 949 1 956 1 958 1 978 1 988 1 998 1 30 1 48 1 49 1 52 1 78 1 102 1 117 1 119 1 134 1 136 1 140 1 151 1 259 1 271 1 280 1 289 1 311 1 321 1 323 1 336 1 380 1 504 1 520 1 555 1 580 1 584 1 595 1 598 1 599 1 627 1 657 1 708 1 730 1 767 1 797 1 820 1 821 1 834 1 835 1 837 1 850 1 852 1 891 1 922 1 972 1 976 1 983 1 989 1 1002 1 1008 1 
1 212 15 1 2 1 13 1 29 1 46 1 57 1 70 2 75 1 79 1 86 1 97 1 105 1 127 1 135 1 136 1 143 1 187 1 208 1 211 1 219 1 238 1 240 1 252 1 256 1 267 1 301 1 318 1 331 2 350 1 363 1 373 1 377 1 388 1 422 1 425 1 431 1 440 1 446 1 494 1 512 1 513 1 527 1 573 1 576 1 589 1 601 1 640 1 646 1 651 1 658 2 668 1 681 1 704 1 717 1 723 1 752 1 808 1 809 1 829 1 836 1 848 1 856 1 881 1 950 1 955 1 981 1 41 1 56 1 59 1 64 1 88 1 95 1 96 1 107 1 120 1 153 1 167 1 170 1 173 1 180 1 182 1 188 1 215 1 259 1 276 1 285 1 322 1 357 1 361 1 368 1 385 1 394 1 397 1 409 1 441 1 458 1 484 1 501 1 517 1 548 1 574 1 581 1 587 1 605 1 606 1 666 1 692 1 703 1 732 1 785 1 803 1 804 1 805 1 857 1 864 1 869 1 872 1 892 1 905 1 909 1 934 1 999 1 1004 1 1010 1 
1 208 19 1 25 1 23 1 55 1 74 1 109 1 120 1 129 1 143 1 196 1 198 1 199 1 206 2 221 1 223 1 233 1 234 1 244 1 254 1 256 1 259 1 277 1 331 1 397 1 409 1 411 1 413 1 415 1 435 1 444 1 449 1 450 1 462 1 467 1 516 1 523 1 526 1 530 1 542 2 578 1 592 1 631 1 642 2 645 1 714 1 722 1 734 1 740 2 762 1 766 1 791 1 811 1 838 1 851 1 878 1 943 2 956 1 963 1 996 1 47 1 56 1 75 1 80 1 94 1 96 1 101 1 103 1 119 1 127 1 148 1 173 1 191 1 203 1 204 1 232 1 245 1 265 1 293 1 298 1 314 1 316 1 323 1 335 1 336 1 430 1 453 1 457 1 459 1 475 1 512 1 583 1 603 1 604 1 616 1 638 1 671 1 676 1 721 1 775 1 781 1 798 1 830 1 832 1 840 1 879 1 887 1 888 1 926 1 969 1 979 1 990 1 999 1 
1 216 6 1 14 1 9 1 69 1 72 1 97 1 101 1 115 1 122 1 142 1 180 1 189 1 202 1 205 1 232 1 234 1 250 1 259 1 283 1 308 1 330 1 346 1 347 1 380 1 397 1 439 1 448 1 461 1 479 1 506 1 513 1 518 1 539 1 594 1 597 1 626 1 628 1 658 1 659 1 671 1 672 1 687 1 692 1 710 1 773 1 843 1 868 1 921 1 933 1 972 1 976 1 991 1 35 1 57 1 92 1 100 1 147 1 158 1 159 1 187 1 192 1 196 1 206 1 273 1 275 1 294 1 310 1 323 1 325 1 329 1 332 1 355 1 359 1 367 1 401 1 443 1 449 1 463 1 475 1 489 1 510 1 522 1 525 1 566 1 568 1 592 1 598 1 599 1 638 1 661 1 670 1 719 1 770 1 784 1 787 1 799 1 824 1 829 1 831 1 847 1 859 1 880 1 918 1 974 1 1001 1 1003 1 1006 1 1009 1 1014 1 
1 210 13 1 6 1 10 1 42 1 53 1 69 1 73 1 75 1 84 1 128 1 164 2 165 1 171 1 217 1 228 1 254 1 276 1 312 1 321 1 345 1 353 1 366 1 378 1 389 1 391 1 402 1 425 1 429 1 434 1 462 1 476 1 495 2 508 1 539 1 552 1 554 1 583 1 595 1 642 1 643 1 667 1 692 1 700 1 702 1 755 1 763 1 768 1 806 1 831 1 838 1 852 1 871 1 897 1 912 1 917 1 948 2 984 1 81 1 83 1 88 1 113 1 127 1 135 1 137 1 144 1 146 1 186 1 237 1 248 1 251 1 252 1 316 1 335 1 349 1 350 1 356 1 359 1 362 1 365 1 369 1 397 1 428 1 458 1 461 1 485 1 489 1 551 1 560 1 590 1 594 1 674 1 679 1 720 1 731 1 793 1 809 1 810 1 817 1 844 1 887 1 889 1 914 1 946 1 950 1 959 1 967 1 996 1 1014 1 
1 212 34 1 34 1 37 1 55 1 56 1 82 1 148 1 158 1 187 1 217 1 221 1 240 1 255 1 312 1 342 1 360 1 381 2 402 1 406 1 428 1 461 1 482 1 484 2 511 1 522 1 528 1 543 1 545 1 553 1 560 1 582 1 597 1 612 1 626 1 666 1 696 1 700 1 709 1 742 2 752 2 767 1 768 1 806 2 826 1 832 1 844 1 877 1 924 1 930 1 932 1 940 1 967 1 968 1 971 1 45 1 83 1 88 1 120 1 126 1 128 1 157 1 168 1 172 1 184 1 224 1 228 1 251 1 266 1 307 1 362 1 365 1 374 1 391 1 397 1 418 1 422 1 431 1 508 1 570 1 572 1 585 1 625 1 643 1 654 1 655 1 657 1 670 1 690 1 733 1 777 1 790 1 793 1 828 1 846 1 861 1 864 1 866 1 867 1 899 1 903 1 958 1 963 1 978 1 988 1 1004 1 1009 1 
1 206 23 1 32 1 36 1 37 1 64 1 81 1 93 1 96 1 103 1 151 1 164 1 167 1 173 1 175 1 178 1 186 1 194 1 250 1 256 2 261 1 274 1 292 2 321 1 322 1 342 1 364 1 380 1 387 1 422 2 441 1 451 1 478 1 479 1 480 1 493 1 513 1 564 1 565 1 610 1 626 1 645 1 678 1 683 1 731 1 746 1 771 1 772 1 788 1 792 1 798 1 841 1 842 1 869 1 896 1 904 1 929 1 59 1 77 1 102 1 104 1 109 1 153 1 193 1 195 1 199 1 203 1 205 1 224 1 229 1 240 1 254 1 301 1 303 1 329 1 336 1 369 1 379 1 425 1 446 1 455 1 482 1 489 1 496 1 507 1 516 1 522 1 544 1 580 1 588 1 627 1 656 1 673 1 676 1 692 1 699 1 717 1 718 1 720 1 722 1 727 1 781 1 786 1 800 1 813 1 821 1 840 1 847 1 849 1 862 1 866 1 884 1 885 1 893 1 969 1 975 1 1008 1 
1 206 1 1 3 1 19 1 20 1 23 1 29 1 35 1 5 1 40 1 88 1 111 1 147 1 180 1 187 1 188 1 237 1 321 1 324 1 331 1 356 1 372 1 374 1 379 2 386 1 390 1 403 1 414 1 426 1 430 1 457 1 460 1 465 1 480 1 502 1 504 1 510 1 515 1 534 1 574 1 619 1 653 1 658 1 684 1 699 1 707 1 727 1 747 1 748 1 765 1 795 1 816 1 854 1 857 1 867 1 881 1 885 1 894 1 896 1 916 1 936 1 967 1 978 1 981 1 987 1 68 1 83 1 133 1 134 1 152 1 153 1 195 1 214 1 225 1 233 1 253 1 255 1 259 1 269 1 301 1 316 1 327 1 349 1 366 1 370 1 404 1 422 1 440 1 442 1 463 1 475 1 487 1 488 1 498 1 499 1 507 1 520 1 579 1 580 1 598 1 614 1 633 1 635 1 638 1 641 1 647 1 680 1 686 1 692 1 721 1 728 1 733 1 782 1 797 1 808 1 811 1 830 1 842 1 903 1 906 1 958 1 964 1 1008 1 
1 207 4 1 7 1 16 1 22 1 34 1 35 1 20 1 24 1 51 1 103 1 110 1 120 1 147 2 150 1 152 1 158 1 178 1 205 1 250 1 263 1 273 1 286 1 331 1 339 1 390 1 400 1 405 1 438 1 440 1 470 1 473 1 486 1 509 1 511 1 539 1 556 1 577 1 584 1 589 1 644 1 651 1 662 1 663 1 735 1 803 1 815 1 904 1 915 1 923 2 927 1 928 1 933 1 966 1 63 1 81 1 99 1 111 1 123 1 191 1 246 1 289 1 320 1 327 1 349 1 354 1 372 1 376 1 397 1 434 1 477 1 535 1 546 1 548 1 574 1 590 1 599 1 600 1 609 1 623 1 677 1 702 1 760 1 774 1 785 1 808 1 817 1 844 1 851 1 877 1 908 1 917 1 929 1 940 1 947 1 951 1 968 1 1005 1 1010 1 
1 212 1 1 18 1 40 1 55 1 110 1 122 1 208 1 226 1 248 1 252 1 291 1 292 1 303 1 320 1 325 2 340 1 345 1 377 1 385 1 395 1 405 1 449 1 468 1 495 1 531 1 544 1 551 1 587 1 594 1 595 1 598 1 605 1 623 1 624 1 631 1 632 1 642 1 663 1 676 1 697 1 700 1 701 1 717 1 758 1 766 1 773 1 778 1 798 1 816 1 823 1 830 1 838 1 842 1 879 1 892 1 959 1 971 1 986 1 48 1 61 1 68 1 91 1 119 1 126 1 129 1 142 1 150 1 155 1 160 1 166 1 181 1 183 1 229 1 261 1 270 1 283 1 297 1 350 1 357 1 365 1 407 1 436 1 453 1 454 1 491 1 506 1 561 1 572 1 574 1 630 1 651 1 675 1 679 1 731 1 733 1 741 1 748 1 805 1 815 1 848 1 933 1 951 1 961 1 962 1 977 1 980 1 982 1 997 1 1006 1 1016 1 
1 210 18 1 23 1 48 1 63 1 69 1 100 1 111 1 121 1 125 1 128 1 143 1 144 1 192 1 213 1 273 1 295 1 313 1 316 1 317 1 329 1 345 1 353 1 355 2 356 1 364 1 373 1 375 1 380 1 401 1 407 1 444 1 471 1 479 1 490 1 508 1 586 1 598 1 606 1 619 1 639 1 654 1 662 1 713 1 726 1 739 1 741 1 750 1 760 1 777 2 785 1 799 1 818 1 840 1 890 1 898 1 910 1 915 1 920 1 929 1 945 1 949 1 952 1 49 1 83 1 96 1 116 1 119 1 126 1 181 1 193 1 196 1 219 1 241 1 251 1 253 1 267 1 275 1 283 1 288 1 294 1 337 1 379 1 398 1 441 1 451 1 459 1 460 1 488 1 503 1 505 1 511 1 517 1 538 1 565 1 567 1 584 1 596 1 622 1 631 1 649 1 653 1 725 1 728 1 729 1 731 1 765 1 878 1 881 1 882 1 886 1 896 1 924 1 938 1 943 1 961 1 964 1 972 1 976 1 979 1 983 1 992 1 1008 1 
1 206 22 1 36 1 38 1 7 1 21 1 53 1 67 2 77 1 79 1 125 1 128 1 162 1 187 1 189 1 194 1 201 1 221 1 232 1 285 1 288 1 300 1 350 1 359 2 374 1 405 1 410 1 426 1 431 2 451 1 452 1 473 1 492 1 518 1 530 1 564 1 566 1 602 1 614 1 682 1 693 1 695 1 698 2 699 1 703 1 718 1 820 1 837 2 843 1 844 1 882 1 887 1 900 2 904 2 931 1 933 1 951 1 958 1 990 1 45 1 70 1 73 1 78 1 82 1 116 1 118 1 149 1 170 1 177 1 196 1 199 1 211 1 227 1 237 1 240 1 254 1 266 1 294 1 361 1 406 1 493 1 526 1 528 1 532 1 547 1 569 1 576 1 598 1 607 1 630 1 636 1 651 1 658 1 714 1 715 1 762 1 765 1 773 1 791 1 816 1 845 1 853 1 864 1 867 1 899 1 918 1 952 1 953 1 1016 1 
1 207 10 1 22 1 11 1 16 1 30 1 82 1 85 1 89 1 103 2 132 1 229 1 265 1 280 1 297 1 303 1 315 1 319 1 321 1 322 1 336 1 363 1 367 1 377 1 379 1 392 1 431 1 448 1 455 1 499 1 506 1 508 2 512 1 523 1 559 1 580 1 584 1 591 1 593 1 642 2 647 1 788 1 794 1 802 1 822 1 844 1 845 2 852 1 855 1 876 1 880 1 889 2 896 1 937 1 940 1 963 1 970 1 978 1 992 1 996 1 43 1 51 1 54 1 59 1 74 1 99 1 108 1 134 1 140 1 142 1 195 1 218 1 222 1 231 1 275 1 308 1 338 1 343 1 353 1 389 1 394 1 459 1 480 1 522 1 526 1 544 1 600 1 643 1 652 1 659 1 677 1 680 1 691 1 701 1 704 1 714 1 719 1 741 1 748 1 755 1 789 1 804 1 809 1 810 1 830 1 856 1 857 1 900 1 917 1 951 1 983 1 986 1 1010 1 
1 208 33 1 45 1 60 1 81 1 84 1 120 2 126 1 156 1 169 1 195 1 197 1 225 1 226 1 265 1 267 1 312 1 316 1 323 1 326 1 328 1 374 1 397 1 440 1 441 1 476 1 487 1 512 1 543 1 559 1 570 1 575 1 577 1 637 1 640 1 660 1 700 1 705 1 719 1 751 1 785 1 821 1 879 2 890 1 913 1 923 1 938 1 941 1 953 1 957 1 966 1 968 1 973 1 99 1 113 1 124 1 191 1 251 1 269 1 287 1 294 1 322 1 335 1 350 1 390 1 413 1 419 1 428 1 434 1 446 1 451 1 458 1 461 1 470 1 494 1 496 1 499 1 519 1 526 1 540 1 549 1 551 1 556 1 569 1 573 1 587 1 609 1 634 1 645 1 661 1 668 1 678 1 695 1 722 1 731 1 734 1 771 1 838 1 919 1 928 1 937 1 962 1 979 1 998 1 999 1 1002 1 1006 1 1014 1 1016 1 
1 206 1 1 12 1 27 1 28 1 11 1 41 1 51 1 66 1 70 1 113 1 115 1 135 1 150 1 151 1 175 1 182 1 200 1 254 1 269 1 293 1 294 1 317 1 332 1 339 1 355 1 373 1 393 1 400 1 447 1 448 1 457 1 468 1 501 1 521 1 524 1 532 1 552 1 579 1 628 1 644 1 670 1 673 2 686 1 698 1 708 1 758 1 777 1 828 1 867 1 873 1 876 1 890 1 896 1 897 1 905 1 912 1 916 1 936 1 945 1 973 1 49 1 56 1 106 1 122 1 141 1 144 1 147 1 153 1 167 1 169 1 191 1 198 1 242 1 258 1 330 1 334 1 352 1 359 1 374 1 399 1 420 1 437 1 461 1 462 1 481 1 483 1 493 1 505 1 558 1 559 1 616 1 624 1 641 1 649 1 651 1 654 1 662 1 685 1 707 1 717 1 730 1 731 1 746 1 755 1 774 1 791 1 796 1 814 1 821 1 838 1 864 1 915 1 971 1 979 1 981 1 987 1 1007 1 1016 1 1017 1 
1 217 12 1 26 1 3 1 70 1 118 1 125 1 165 1 204 1 211 1 214 1 244 1 251 1 266 1 288 1 300 1 360 1 366 1 370 1 377 1 378 1 381 1 387 1 395 1 432 1 492 1 504 2 521 1 524 1 536 1 547 1 554 1 558 1 559 1 579 1 599 1 616 1 637 1 650 1 664 1 671 1 678 1 680 1 681 1 688 1 715 1 728 1 732 1 744 1 762 1 772 1 788 1 798 1 813 1 820 1 833 1 842 1 853 2 895 2 897 1 899 1 913 1 919 1 923 1 950 1 969 1 973 1 988 1 47 1 59 1 62 1 72 1 113 1 116 1 173 1 175 1 231 1 246 1 265 1 271 1 291 1 297 1 303 1 331 1 335 1 339 1 357 1 380 1 391 1 394 1 411 1 414 1 419 1 420 1 481 1 491 1 507 1 544 1 570 1 577 1 604 1 619 1 631 1 700 1 720 1 723 1 750 1 759 1 818 1 819 1 840 1 846 1 854 1 865 1 873 1 904 1 911 1 924 1 932 1 990 1 1000 1 1009 1 1012 1 
1 210 42 1 34 1 40 1 63 1 108 1 189 1 218 1 248 1 254 1 264 1 297 1 343 1 356 1 368 2 370 1 397 1 443 1 476 1 480 1 481 1 493 1 496 1 528 1 552 1 573 2 576 1 581 1 586 2 594 2 612 1 617 1 636 1 666 1 670 1 686 2 690 1 691 1 698 1 702 1 711 2 713 1 742 1 759 1 784 1 815 1 817 1 823 1 827 1 844 1 850 1 909 1 932 2 941 1 74 1 80 1 81 1 97 1 99 1 110 1 138 1 160 1 205 1 213 1 216 1 221 1 227 1 243 1 244 1 281 1 284 1 318 1 334 1 383 1 400 1 401 1 408 1 447 1 458 1 508 1 511 1 549 1 587 1 593 1 595 1 601 1 605 1 665 1 676 1 696 1 699 1 701 1 703 1 707 1 726 1 729 1 743 1 754 1 780 1 820 1 825 1 855 1 860 1 866 1 894 1 899 1 913 1 927 1 930 1 940 1 953 1 988 1 991 1 999 1 1004 1 1007 1 1008 1 1009 1 
1 211 29 1 30 1 14 1 18 1 28 1 62 1 63 1 65 1 69 1 72 1 82 1 88 1 92 1 124 1 135 2 143 2 155 1 162 1 168 1 208 1 228 1 234 1 243 1 265 1 274 1 313 1 318 1 323 1 345 1 346 1 388 1 393 2 403 1 409 1 410 1 423 1 443 1 478 1 505 1 511 2 513 1 516 1 534 1 535 1 590 1 599 1 630 1 750 1 751 1 754 1 762 1 783 1 784 1 785 1 800 1 801 1 802 1 815 1 847 1 855 1 874 1 916 1 924 1 927 1 949 1 960 1 975 1 47 1 58 1 67 1 151 1 163 1 177 1 185 1 327 1 331 1 338 1 349 1 350 1 394 1 397 1 444 1 470 1 471 1 479 1 489 1 490 1 493 1 543 1 549 1 551 1 553 1 555 1 557 1 558 1 569 1 571 1 578 1 610 1 623 1 632 1 637 1 654 1 667 1 672 1 682 1 698 1 724 1 733 1 737 1 759 1 770 1 782 1 791 1 804 1 830 1 839 1 865 1 873 1 935 1 947 1 984 1 999 1 1015 1 
1 211 17 1 18 1 22 2 9 1 14 1 31 1 44 1 46 1 69 1 87 1 97 1 105 1 108 1 121 1 148 1 162 1 174 1 175 1 202 1 206 1 217 1 273 1 287 2 296 1 336 1 341 1 357 1 362 1 367 1 411 1 438 1 457 1 471 1 486 1 539 2 552 1 576 1 624 1 626 1 646 1 672 2 688 1 702 1 709 1 712 2 715 1 718 1 723 2 724 1 734 1 771 1 774 1 778 1 788 1 801 1 818 1 825 1 827 1 843 1 884 1 907 1 940 1 995 1 54 1 66 1 128 1 200 1 234 1 241 1 256 1 271 1 272 1 280 1 303 1 319 1 321 1 354 1 422 1 430 1 431 1 436 1 456 1 460 1 468 1 474 1 485 1 491 1 507 1 515 1 520 1 524 1 528 1 535 1 551 1 568 1 621 1 656 1 671 1 678 1 690 1 719 1 742 1 753 1 787 1 802 1 853 1 915 1 920 1 931 1 961 1 979 1 1000 1 1003 1 1008 1 
1 208 7 1 39 1 29 1 38 1 63 1 77 1 80 1 85 1 91 1 96 1 97 1 122 1 123 2 142 1 172 2 220 1 261 1 282 1 287 1 317 1 339 2 361 1 378 1 395 1 396 1 411 1 424 1 429 1 430 1 440 1 442 1 448 1 471 1 483 1 508 1 526 1 550 1 553 1 576 1 577 1 615 1 622 2 656 1 659 1 692 1 702 1 709 1 719 1 735 2 749 1 777 1 799 1 808 1 820 1 836 1 837 1 867 1 876 1 891 1 900 1 921 1 940 1 946 1 957 1 959 1 997 1 55 1 112 1 150 1 166 1 175 1 202 1 221 1 277 1 296 1 297 1 308 1 316 1 341 1 350 1 412 1 434 1 445 1 446 1 451 1 464 1 472 1 473 1 484 1 509 1 521 1 554 1 563 1 573 1 586 1 588 1 607 1 649 1 677 1 689 1 712 1 722 1 754 1 760 1 763 1 817 1 818 1 874 1 892 1 909 1 919 1 926 1 962 1 986 1 989 1 1010 1 
1 209 3 1 22 1 24 1 16 1 23 1 25 1 29 1 39 1 43 1 63 2 74 2 96 1 100 1 125 1 157 1 171 1 194 1 226 1 246 1 262 1 279 1 295 1 310 1 317 1 345 1 362 1 363 1 394 1 401 1 413 1 417 1 439 1 442 1 450 1 470 1 496 1 556 1 572 2 581 1 607 1 631 1 634 1 647 1 650 1 666 1 685 1 713 1 748 1 760 1 761 1 781 1 788 1 831 1 853 1 864 1 869 1 891 1 897 2 904 1 926 1 935 1 939 1 943 1 951 1 984 1 996 1 68 1 101 1 110 1 124 1 126 1 130 1 132 1 177 1 187 1 192 1 267 1 274 1 285 1 307 1 364 1 375 1 384 1 395 1 430 1 454 1 481 1 482 1 512 1 517 1 522 1 537 1 538 1 558 1 641 1 658 1 682 1 686 1 690 1 720 1 759 1 772 1 783 1 789 1 815 1 829 1 834 1 851 1 890 1 945 1 952 1 963 1 969 1 970 1 1004 1 1011 1 1017 1 
1 213 2 1 6 1 12 1 60 1 66 1 92 1 139 1 232 1 241 1 255 1 277 1 287 2 302 2 312 1 316 1 334 1 336 1 362 1 366 1 480 1 507 1 509 1 519 1 529 1 547 1 557 1 599 1 607 1 609 1 617 1 634 1 644 1 658 2 675 1 699 1 717 1 720 1 733 1 750 1 751 2 758 1 760 1 777 1 781 1 793 1 826 1 853 1 862 1 867 1 894 2 900 1 975 1 62 1 69 1 76 1 85 1 89 1 109 1 121 1 154 1 173 1 196 1 203 1 217 1 264 1 272 1 275 1 310 1 327 1 329 1 331 1 342 1 371 1 378 1 383 1 384 1 447 1 452 1 459 1 478 1 484 1 497 1 499 1 520 1 524 1 574 1 608 1 635 1 639 1 648 1 662 1 677 1 688 1 693 1 705 1 706 1 719 1 725 1 732 1 753 1 784 1 818 1 824 1 830 1 834 1 851 1 868 1 879 1 882 1 883 1 986 1 987 1 1006 1 1007 1 1009 1 1014 1 1019 1 
1 210 2 1 37 1 43 1 17 1 41 1 73 1 82 1 92 1 97 1 107 1 175 1 187 1 205 1 214 1 228 1 237 1 252 1 265 1 273 1 282 1 335 1 346 1 394 1 452 2 481 1 482 1 511 1 518 1 524 1 567 1 588 1 609 1 620 1 624 1 627 1 692 1 695 1 707 1 712 1 720 1 739 1 781 1 817 2 834 1 840 1 863 1 871 1 877 1 926 1 930 1 943 1 958 1 964 1 969 1 975 1 994 1 53 1 54 1 60 1 66 1 138 1 142 1 166 1 169 1 182 1 183 1 191 1 202 1 209 1 219 1 224 1 230 1 235 1 283 1 297 1 306 1 317 1 320 1 324 1 327 1 382 1 425 1 431 1 454 1 478 1 483 1 509 1 520 1 551 1 571 1 575 1 584 1 671 1 675 1 681 1 714 1 716 1 717 1 723 1 726 1 744 1 749 1 763 1 779 1 793 1 796 1 802 1 813 1 889 1 929 1 948 1 954 1 973 1 993 1 1003 1 1009 1 1011 1 
1 213 29 1 56 1 70 1 84 1 129 1 134 1 169 1 172 1 176 1 227 1 268 1 279 1 325 1 351 1 380 1 386 1 390 1 419 1 424 1 486 1 487 1 522 1 539 1 543 1 549 1 551 1 561 1 564 1 592 1 595 1 616 1 628 1 695 1 698 1 719 1 730 1 745 1 749 1 751 1 754 1 769 1 789 2 812 1 825 1 830 1 851 1 884 1 890 1 917 1 924 1 931 1 968 1 974 1 992 1 65 1 89 1 96 1 102 1 109 1 120 1 133 1 166 1 182 1 186 1 202 1 203 1 209 1 239 1 250 1 266 1 274 1 291 1 296 1 299 1 301 1 304 1 311 1 356 1 377 1 379 1 392 1 409 1 431 1 439 1 452 1 455 1 463 1 471 1 495 1 541 1 550 1 560 1 583 1 633 1 639 1 647 1 654 1 683 1 690 1 702 1 732 1 756 1 807 1 823 1 829 1 845 1 854 1 872 1 900 1 902 1 916 1 933 1 949 1 1003 1 1007 1 1008 1 1012 1 1016 1 
1 209 9 1 28 1 33 1 40 1 51 1 63 1 70 1 124 1 153 2 164 1 172 1 202 1 208 1 248 1 282 2 298 1 331 1 337 1 358 1 362 1 365 1 375 2 411 1 429 1 432 1 439 1 461 1 474 1 486 1 492 1 498 1 508 1 509 1 518 2 521 1 540 1 551 1 570 1 573 1 592 1 686 1 712 1 719 1 730 1 738 1 750 1 766 1 778 1 809 1 826 1 848 1 889 1 890 1 917 1 925 1 955 1 986 1 987 1 72 1 86 1 103 1 158 1 183 1 194 1 196 1 205 1 226 1 227 1 228 1 277 1 281 1 301 1 322 1 329 1 335 1 338 1 396 1 403 1 417 1 423 1 433 1 460 1 511 1 512 1 526 1 545 1 550 1 564 1 565 1 623 1 625 1 641 1 648 1 649 1 652 1 680 1 688 1 698 1 701 1 727 1 744 1 748 1 761 1 783 1 784 1 803 1 823 1 828 1 829 1 881 1 906 1 908 1 944 1 947 1 971 1 1013 1 
1 210 12 1 4 1 14 1 41 1 47 1 51 1 87 1 88 1 119 1 125 2 144 1 192 1 194 1 201 2 208 1 230 1 233 1 243 1 266 1 294 1 295 1 309 1 314 1 334 1 381 1 390 2 398 1 403 1 406 1 456 2 508 1 533 1 534 1 622 1 624 1 666 1 691 1 703 2 705 2 720 2 723 1 743 1 773 1 775 1 861 1 862 1 868 1 878 1 881 1 928 1 940 1 947 2 985 1 998 1 90 1 110 1 137 1 145 1 150 1 170 1 189 1 223 1 257 1 268 1 291 1 304 1 312 1 316 1 328 1 333 1 340 1 404 1 410 1 416 1 418 1 435 1 454 1 486 1 494 1 497 1 521 1 539 1 543 1 580 1 582 1 590 1 606 1 621 1 628 1 633 1 637 1 659 1 665 1 711 1 722 1 731 1 733 1 755 1 858 1 869 1 888 1 915 1 956 1 958 1 967 1 992 1 1016 1 
1 212 23 1 31 1 34 1 38 1 1 1 2 1 48 1 72 1 89 1 111 1 119 1 124 1 134 1 143 1 169 1 172 1 180 1 204 1 209 1 213 1 215 1 227 1 238 1 249 1 263 2 314 2 331 1 359 1 365 1 373 1 390 1 393 1 413 1 439 1 464 1 468 2 471 1 481 1 498 1 549 1 551 1 552 1 604 1 681 1 689 1 702 1 712 1 719 1 721 1 746 1 761 2 797 1 814 1 822 1 838 1 849 1 856 1 875 1 892 1 899 1 938 2 963 1 985 1 59 1 74 1 90 1 92 1 100 1 108 1 116 1 125 1 139 1 162 1 165 1 194 1 254 1 262 1 268 1 282 1 305 1 313 1 348 1 355 1 369 1 412 1 416 1 422 1 426 1 445 1 463 1 484 1 501 1 511 1 514 1 562 1 579 1 584 1 642 1 643 1 679 1 705 1 728 1 799 1 800 1 801 1 815 1 820 1 828 1 869 1 873 1 893 1 904 1 929 1 964 1 970 1 976 1 997 1 1000 1 1007 1 
1 210 3 1 12 1 34 1 52 1 15 1 30 1 31 1 43 1 84 1 86 1 142 1 169 1 180 1 188 1 194 1 217 1 231 1 261 1 273 1 300 1 308 1 309 1 338 2 343 1 389 1 397 1 404 1 415 1 435 1 495 1 515 1 543 1 583 1 589 1 597 1 621 1 633 1 659 1 668 1 707 1 741 1 746 1 747 1 748 1 754 1 918 1 977 1 978 1 987 1 60 1 66 1 68 1 103 1 111 1 112 1 116 1 133 1 136 1 159 1 212 1 215 1 241 1 272 1 369 1 371 1 374 1 376 1 379 1 395 1 399 1 409 1 410 1 417 1 473 1 478 1 487 1 488 1 491 1 493 1 526 1 546 1 575 1 602 1 615 1 635 1 648 1 656 1 661 1 666 1 678 1 698 1 758 1 761 1 762 1 792 1 800 1 802 1 814 1 823 1 825 1 871 1 902 1 903 1 904 1 907 1 944 1 989 1 1011 1 1018 1 
1 213 2 1 14 1 23 1 30 1 16 1 17 1 18 1 21 1 32 1 96 1 103 1 141 1 145 1 148 1 153 1 157 1 194 1 205 1 206 1 220 1 228 1 232 1 234 1 274 1 276 1 326 1 329 1 333 1 345 1 399 1 417 1 423 1 437 1 451 1 468 1 489 1 493 1 528 1 602 1 620 1 651 1 684 2 692 1 704 1 707 1 713 1 721 1 738 1 760 1 771 1 773 1 791 1 792 1 793 1 804 2 817 1 840 1 865 1 868 1 889 1 906 1 914 1 918 1 939 1 961 1 981 1 60 1 76 1 78 1 79 1 186 1 230 1 277 1 322 1 325 1 346 1 349 1 354 1 360 1 376 1 396 1 397 1 398 1 400 1 422 1 430 1 439 1 474 1 498 1 499 1 504 1 507 1 519 1 537 1 551 1 575 1 580 1 593 1 628 1 669 1 674 1 690 1 714 1 772 1 799 1 812 1 815 1 853 1 871 1 872 1 955 1 968 1 999 1 1005 1 1013 1 1018 1 
1 207 8 1 10 1 46 1 68 1 77 1 95 1 190 1 201 1 202 2 204 1 250 1 262 1 266 1 303 1 310 1 334 1 372 1 375 1 446 1 464 1 490 1 511 1 516 1 517 1 537 1 581 1 585 1 599 1 623 1 632 1 648 1 654 1 665 1 675 1 691 1 703 1 716 1 734 1 753 1 771 1 783 1 814 1 832 1 841 1 842 1 864 1 871 1 883 1 902 1 929 1 945 1 970 1 975 1 986 1 60 1 89 1 92 1 99 1 136 1 144 1 186 1 195 1 229 1 257 1 283 1 302 1 306 1 311 1 313 1 320 1 337 1 355 1 364 1 366 1 378 1 386 1 404 1 439 1 489 1 528 1 545 1 558 1 566 1 579 1 580 1 583 1 596 1 600 1 628 1 659 1 661 1 719 1 741 1 749 1 757 1 770 1 775 1 807 1 810 1 830 1 894 1 910 1 921 1 935 1 
1 210 9 1 30 1 35 1 41 1 44 1 55 1 79 1 104 1 117 1 129 1 130 1 143 1 157 1 163 2 192 1 200 1 220 1 222 1 261 1 278 1 296 1 297 1 299 1 329 1 336 2 352 1 355 1 427 1 442 1 510 1 515 1 523 1 531 1 534 1 535 1 548 1 559 1 580 1 596 2 615 1 646 1 668 1 686 1 690 1 692 1 695 2 696 2 699 2 708 1 709 1 711 2 716 1 717 1 747 1 757 1 762 1 764 1 773 1 795 1 828 1 841 1 851 1 885 1 902 1 909 1 972 1 975 1 979 1 101 1 120 1 121 1 124 1 127 1 147 1 162 1 186 1 190 1 205 1 227 1 234 1 244 1 317 1 334 1 343 1 344 1 346 1 358 1 371 1 411 1 422 1 456 1 487 1 491 1 526 1 547 1 600 1 617 1 626 1 632 1 648 1 650 1 656 1 666 1 669 1 693 1 728 1 739 1 814 1 818 1 830 1 833 1 880 1 884 1 900 1 918 1 930 1 981 1 983 1 993 1 1006 1 1013 1 1017 1 
1 209 22 1 42 1 50 1 13 1 21 1 51 1 56 1 57 1 58 1 62 1 75 1 88 1 106 1 117 1 122 1 124 1 130 1 132 1 141 1 144 1 151 1 180 1 216 1 233 1 235 1 237 1 253 1 268 1 283 1 284 1 286 1 299 1 308 1 309 1 320 1 324 1 357 2 360 1 366 1 371 2 418 1 438 1 448 1 462 1 477 1 486 1 510 1 532 1 552 1 605 1 636 1 637 1 702 1 716 1 721 1 726 1 738 1 772 2 814 1 867 1 921 1 941 1 957 1 969 1 973 2 976 1 980 1 83 1 85 1 115 1 155 1 156 1 178 1 179 1 205 1 243 1 246 1 256 1 270 1 443 1 465 1 472 1 480 1 521 1 546 1 553 1 604 1 661 1 692 1 698 1 720 1 725 1 728 1 730 1 752 1 753 1 756 1 758 1 782 1 833 1 836 1 840 1 843 1 891 1 903 1 924 1 946 1 965 1 978 1 986 1 1007 1 1012 1 1013 1 1014 1 1015 1 
1 214 7 1 10 1 19 1 3 1 15 1 38 1 99 1 135 1 150 1 168 1 170 1 174 1 182 1 190 1 197 1 202 1 205 1 208 1 222 2 293 1 300 1 343 1 351 1 353 1 379 1 387 1 394 1 404 1 413 1 443 1 470 1 473 1 485 1 499 1 504 1 510 1 511 1 522 1 559 1 574 1 590 1 602 1 641 1 644 1 652 1 668 1 673 1 684 1 721 1 724 1 725 1 758 1 761 1 834 1 846 1 859 2 876 1 908 1 917 1 965 1 971 1 66 1 77 1 115 1 136 1 164 1 167 1 183 1 198 1 232 1 262 1 266 1 279 1 285 1 294 1 302 1 314 1 324 1 335 1 360 1 368 1 376 1 423 1 455 1 480 1 481 1 482 1 515 1 532 1 534 1 552 1 572 1 580 1 584 1 600 1 605 1 624 1 625 1 638 1 659 1 662 1 714 1 732 1 737 1 741 1 753 1 756 1 762 1 791 1 794 1 801 1 811 1 826 1 845 1 865 1 901 1 905 1 919 1 957 1 989 1 1001 1 1004 1 1008 1 1014 1 
1 212 8 1 17 1 46 1 60 1 16 1 44 1 50 1 71 1 113 1 115 1 140 1 167 1 183 1 201 1 227 1 243 1 252 1 277 2 288 1 306 1 315 1 316 1 348 1 353 1 361 1 403 1 406 1 408 1 438 1 450 1 468 1 472 1 504 1 512 1 546 1 599 1 634 2 656 1 657 1 708 1 715 1 732 1 738 1 744 1 775 1 778 1 818 1 847 1 851 1 860 2 876 1 877 1 924 1 954 1 974 1 993 1 103 1 109 1 133 1 145 1 147 1 171 1 176 1 185 1 209 1 215 1 220 1 237 1 249 1 255 1 263 1 305 1 307 1 341 1 386 1 389 1 398 1 465 1 520 1 523 1 534 1 550 1 551 1 559 1 578 1 651 1 655 1 686 1 705 1 710 1 761 1 765 1 786 1 833 1 841 1 846 1 881 1 890 1 906 1 917 1 920 1 928 1 934 1 942 1 943 1 1009 1 1010 1 1015 1 1017 1 
1 209 12 1 39 1 45 1 46 1 48 1 49 2 53 1 3 1 5 1 16 1 37 1 63 1 63 1 90 1 91 1 98 1 124 1 203 1 246 1 248 1 312 1 319 1 336 1 360 1 382 1 387 1 399 1 422 1 453 1 457 2 464 1 503 1 523 1 526 1 534 1 548 1 555 1 559 1 573 1 590 1 612 1 621 1 627 1 648 1 654 1 655 1 656 1 681 1 684 1 720 1 836 1 878 1 907 1 946 1 978 1 988 1 998 1 74 1 93 1 97 1 101 1 107 1 135 1 139 1 166 1 177 1 187 1 213 1 215 1 217 1 218 1 222 1 260 1 261 1 263 1 264 1 310 1 317 1 322 1 327 1 374 1 381 1 407 1 433 1 497 1 513 1 531 1 597 1 658 1 662 1 678 1 680 1 682 1 685 1 696 1 762 1 763 1 769 1 787 1 805 1 817 1 835 1 855 1 876 1 881 1 937 1 943 1 954 1 965 1 1014 1 
1 214 35 1 23 1 30 1 89 1 126 1 169 1 177 1 206 1 226 1 236 1 243 1 276 1 308 1 331 1 362 1 373 1 387 1 390 1 440 1 454 1 463 1 485 1 489 1 500 1 531 1 535 1 559 1 570 1 583 1 621 1 622 1 658 1 667 1 672 1 677 1 679 1 709 1 753 1 759 1 774 1 775 1 820 1 839 1 857 1 859 1 868 1 893 1 903 2 908 1 918 1 925 1 964 1 976 1 80 1 87 1 103 1 113 1 130 1 156 1 163 1 178 1 186 1 188 1 200 1 229 1 254 1 266 1 274 1 316 1 325 1 336 1 372 1 376 1 393 1 451 1 512 1 520 1 629 1 644 1 660 1 664 1 688 1 713 1 727 1 732 1 738 1 744 1 765 1 814 1 840 1 853 1 894 1 931 1 937 1 969 1 982 1 989 1 993 1 1001 1 1011 1 1015 1 1016 1 
1 211 7 1 11 1 46 1 6 1 10 1 52 1 69 1 121 1 135 1 170 1 179 1 183 2 191 1 192 1 197 2 199 1 213 1 218 1 234 1 243 1 248 1 315 1 335 1 338 1 348 1 352 1 358 1 373 1 410 1 440 1 451 1 452 1 476 1 493 1 510 1 533 1 538 1 573 1 577 1 615 1 620 1 636 1 648 1 655 1 679 1 692 1 721 1 740 1 789 1 799 1 805 1 810 1 815 1 843 1 882 1 889 1 892 1 896 1 907 1 909 1 917 1 938 1 944 1 955 1 966 1 76 1 92 1 96 1 159 1 160 1 162 1 181 1 196 1 217 1 242 1 258 1 281 1 297 1 303 1 304 1 312 1 324 1 333 1 340 1 344 1 353 1 355 1 401 1 420 1 436 1 449 1 477 1 498 1 523 1 527 1 543 1 570 1 624 1 632 1 658 1 669 1 712 1 738 1 752 1 790 1 845 1 874 1 929 1 952 1 988 1 992 1 1013 1 1015 1 
1 209 23 1 43 1 50 1 24 1 47 1 51 1 56 1 61 1 88 1 101 1 121 1 142 1 153 1 179 1 183 2 218 1 248 1 259 1 291 1 294 1 317 1 335 1 363 1 397 1 446 1 452 1 481 1 495 1 520 1 534 1 538 2 539 2 552 1 558 1 562 1 563 1 584 1 593 1 652 1 714 1 715 1 716 1 735 1 761 1 795 1 799 1 809 1 830 1 835 1 841 1 842 1 889 1 893 1 897 1 916 1 949 1 960 1 963 1 984 1 97 1 104 1 108 1 111 1 126 1 166 1 196 1 197 1 223 1 228 1 241 1 253 1 270 1 271 1 301 1 347 1 350 1 403 1 407 1 423 1 473 1 513 1 518 1 524 1 525 1 542 1 551 1 566 1 576 1 578 1 590 1 596 1 598 1 606 1 609 1 659 1 679 1 688 1 696 1 721 1 729 1 765 1 781 1 794 1 852 1 858 1 865 1 867 1 873 1 875 1 892 1 913 1 919 1 929 1 939 1 940 1 961 1 986 1 989 1 1000 1 1006 1 
1 208 17 1 21 1 23 1 40 2 11 1 46 1 145 2 153 1 154 1 175 1 180 1 236 1 243 1 258 1 263 1 281 1 287 1 302 1 314 1 323 1 362 1 386 1 407 1 417 1 420 2 426 1 437 1 464 1 483 1 485 1 500 1 505 1 555 1 629 1 668 1 674 1 676 1 689 1 699 2 706 1 707 1 721 1 723 1 735 1 801 1 806 1 807 1 816 1 856 1 879 1 889 1 895 1 929 1 959 1 78 1 80 1 82 1 87 1 120 1 137 1 141 1 148 1 155 1 176 1 177 1 188 1 190 1 191 1 198 1 215 1 218 1 237 1 239 1 248 1 256 1 266 1 284 1 295 1 297 1 303 1 333 1 360 1 364 1 366 1 372 1 384 1 392 1 432 1 435 1 522 1 575 1 579 1 588 1 594 1 596 1 599 1 648 1 687 1 743 1 785 1 846 1 857 1 866 1 893 1 906 1 913 1 926 1 947 1 961 1 969 1 984 1 987 1 996 1 999 1 1002 1 1006 1 1016 1 
1 210 23 1 26 2 58 1 3 1 8 1 28 1 36 1 38 1 49 1 56 1 69 1 71 1 76 1 77 1 90 1 103 1 104 1 106 1 125 1 142 1 152 1 153 1 160 1 188 1 216 1 223 1 225 1 228 1 234 1 248 1 260 2 268 1 306 1 309 1 394 1 395 1 400 1 413 1 442 1 460 1 463 1 465 1 487 1 518 1 531 1 545 1 555 1 556 1 557 2 568 1 607 1 610 2 621 1 637 1 654 1 661 1 663 1 665 1 713 1 769 1 812 1 818 1 829 1 875 1 927 1 934 1 944 1 945 1 986 1 144 1 149 1 155 1 159 1 161 1 179 1 197 1 205 1 206 1 207 1 242 1 243 1 259 1 292 1 302 1 387 1 393 1 412 1 437 1 485 1 506 1 523 1 580 1 593 1 604 1 628 1 655 1 666 1 669 1 701 1 762 1 764 1 780 1 805 1 843 1 851 1 854 1 859 1 906 1 909 1 910 1 921 1 922 1 943 1 951 1 955 1 961 1 971 1 972 1 974 1 976 1 1018 1 
1 206 5 1 16 1 32 1 33 1 39 1 46 1 47 1 65 1 68 1 6 1 50 1 80 1 120 1 121 1 127 1 128 1 132 1 138 1 143 1 146 1 160 1 170 1 178 1 183 1 196 1 200 1 290 1 351 1 361 2 381 1 382 1 409 1 430 1 444 1 462 1 469 1 493 1 566 1 585 2 589 1 596 1 599 1 603 1 607 1 612 1 671 1 673 1 675 1 689 1 722 1 737 1 743 1 746 1 776 2 777 1 780 1 786 1 798 1 815 1 832 1 873 1 891 1 892 1 903 1 927 1 930 1 931 1 940 1 979 1 981 1 982 1 102 1 103 1 107 1 125 1 167 1 179 1 180 1 208 1 219 1 280 1 333 1 336 1 383 1 393 1 442 1 449 1 464 1 465 1 474 1 504 1 509 1 542 1 584 1 588 1 609 1 644 1 681 1 686 1 723 1 725 1 732 1 744 1 791 1 794 1 863 1 864 1 885 1 909 1 917 1 933 1 944 1 980 1 1001 1 1002 1 
1 208 30 2 43 1 44 1 52 1 53 1 4 1 7 1 40 1 85 1 114 2 131 1 151 1 182 1 191 1 192 1 199 1 203 1 222 1 236 1 259 1 307 1 312 1 331 1 388 1 410 1 421 1 461 2 471 1 481 1 486 1 489 1 496 1 509 1 536 1 549 1 580 1 617 1 640 1 645 1 662 1 687 1 694 1 767 1 796 1 827 1 838 1 875 1 879 1 907 1 917 1 957 1 968 1 994 1 77 1 80 1 154 1 157 1 170 1 188 1 209 1 223 1 228 1 229 1 232 1 240 1 258 1 283 1 295 1 301 1 308 1 324 1 333 1 335 1 343 1 357 1 373 1 381 1 385 1 415 1 423 1 432 1 438 1 460 1 463 1 468 1 476 1 510 1 520 1 532 1 547 1 560 1 564 1 585 1 596 1 597 1 615 1 623 1 642 1 661 1 696 1 720 1 732 1 744 1 746 1 749 1 772 1 801 1 809 1 829 1 831 1 845 1 857 1 865 1 880 1 928 1 955 1 986 1 997 1 1003 1 
1 215 1 1 62 1 68 1 11 1 21 1 74 1 80 1 82 1 98 1 100 1 116 1 130 1 133 1 134 1 159 1 181 1 184 1 191 1 214 1 230 1 246 1 275 1 307 1 310 1 329 1 357 1 377 1 383 1 384 1 430 1 438 1 483 1 487 1 508 1 559 1 564 1 582 1 584 1 590 1 634 1 651 1 665 1 677 1 688 2 720 1 757 1 759 1 784 1 807 1 811 2 844 1 865 1 890 1 945 1 946 1 971 1 110 1 114 1 118 1 121 1 180 1 183 1 194 1 261 1 288 1 298 1 302 1 325 1 342 1 345 1 354 1 355 1 375 1 376 1 378 1 435 1 476 1 485 1 489 1 507 1 538 1 553 1 573 1 591 1 625 1 660 1 684 1 701 1 704 1 781 1 804 1 827 1 885 1 901 1 906 1 915 1 918 1 925 1 947 1 948 1 950 1 996 1 1003 1 1009 1 1011 1 1016 1 1018 1 
1 207 9 1 17 1 32 1 46 1 55 1 44 1 53 1 98 1 135 1 174 1 198 1 215 1 223 1 225 1 252 1 326 1 337 1 338 1 356 2 371 1 376 1 387 1 390 1 393 1 405 1 437 1 438 1 447 2 455 1 463 1 467 1 495 1 503 1 523 1 528 1 539 1 555 1 574 1 585 2 632 1 633 2 700 1 701 2 702 1 703 1 734 1 757 1 762 1 767 2 768 1 806 1 815 1 904 1 923 1 938 1 939 1 942 1 944 1 972 1 982 1 988 1 77 1 87 1 93 1 103 1 104 1 115 1 124 1 136 1 137 1 167 1 202 1 255 1 261 1 263 1 301 1 307 1 331 1 367 1 384 1 395 1 407 1 410 1 432 1 450 1 472 1 576 1 602 1 620 1 625 1 635 1 657 1 677 1 699 1 704 1 735 1 736 1 807 1 822 1 830 1 838 1 857 1 945 1 947 1 948 1 953 1 965 1 
1 207 10 1 33 1 51 1 24 1 40 1 97 1 103 1 106 1 145 1 157 1 161 1 198 1 208 1 219 1 232 1 235 1 256 1 264 1 270 1 297 1 335 1 360 1 361 1 388 1 394 1 397 1 414 1 436 1 461 1 477 1 503 1 512 1 523 1 603 1 615 1 672 1 680 1 696 1 739 1 743 1 763 1 791 1 801 1 802 1 831 1 845 1 899 2 923 1 930 1 937 1 947 1 980 1 984 1 87 1 91 1 105 1 108 1 122 1 133 1 137 1 139 1 149 1 166 1 170 1 171 1 184 1 202 1 206 1 216 1 229 1 244 1 274 1 279 1 317 1 329 1 345 1 372 1 391 1 406 1 409 1 445 1 454 1 505 1 509 1 510 1 516 1 548 1 564 1 588 1 617 1 629 1 644 1 646 1 648 1 659 1 664 1 684 1 686 1 701 1 726 1 835 1 837 1 847 1 870 1 874 1 886 1 887 1 892 1 940 1 1005 1 1019 1 
1 209 31 1 49 2 71 1 4 1 41 1 45 1 55 1 63 1 82 1 116 1 140 1 167 2 170 1 175 1 227 1 269 1 275 1 292 1 300 1 303 1 326 1 359 1 433 1 449 1 458 2 468 2 485 1 487 1 512 1 517 1 549 1 596 1 608 1 627 1 633 1 639 1 660 1 751 1 761 1 783 1 786 1 803 1 829 1 831 1 873 1 887 1 912 1 919 1 939 1 948 1 955 1 77 1 81 1 99 1 120 1 138 1 180 1 184 1 201 1 203 1 205 1 229 1 264 1 267 1 280 1 295 1 333 1 334 1 352 1 369 1 395 1 402 1 408 1 422 1 441 1 457 1 476 1 503 1 522 1 542 1 543 1 548 1 562 1 578 1 581 1 636 1 654 1 673 1 693 1 706 1 708 1 712 1 747 1 750 1 758 1 779 1 793 1 818 1 844 1 853 1 866 1 915 1 922 1 937 1 944 1 983 1 
1 215 8 1 30 1 33 1 60 1 26 1 31 1 76 1 80 1 95 1 102 1 112 2 115 1 150 1 167 1 181 1 188 1 194 1 197 1 214 1 270 1 273 1 282 1 297 1 301 1 317 1 328 1 334 1 360 1 368 2 377 1 398 1 415 2 430 1 454 1 457 1 460 1 462 1 475 1 496 1 501 1 508 1 556 1 580 1 584 1 616 1 628 1 638 1 648 1 664 1 673 1 704 1 728 1 732 1 735 1 738 1 751 1 810 1 811 2 825 1 834 1 854 1 857 1 873 1 918 1 923 1 925 1 958 1 963 1 966 1 970 1 79 1 130 1 140 1 147 1 165 1 171 1 173 1 205 1 226 1 237 1 256 1 264 1 274 1 322 1 324 1 333 1 345 1 375 1 382 1 390 1 397 1 406 1 408 1 432 1 463 1 497 1 520 1 523 1 532 1 576 1 603 1 611 1 625 1 635 1 657 1 694 1 696 1 709 1 768 1 786 1 805 1 851 1 852 1 865 1 887 1 921 1 961 1 1007 1 1015 1 1016 1 
1 211 68 1 75 1 26 1 50 1 57 1 65 1 76 1 76 1 103 1 107 1 120 1 140 1 147 1 160 1 165 1 179 1 185 1 219 1 220 1 239 1 272 1 279 2 310 1 326 1 336 1 341 1 362 1 367 1 371 1 381 1 430 1 449 1 493 1 502 1 555 1 573 1 581 1 622 1 629 1 633 1 634 1 683 2 690 1 725 1 740 1 750 1 758 1 777 2 840 2 843 1 853 1 863 1 891 2 900 1 945 1 967 1 979 1 982 1 87 1 90 1 132 1 178 1 190 1 192 1 202 1 204 1 280 1 295 1 296 1 301 1 314 1 380 1 394 1 420 1 427 1 432 1 439 1 440 1 441 1 450 1 464 1 472 1 513 1 561 1 569 1 570 1 598 1 618 1 639 1 645 1 656 1 668 1 670 1 679 1 704 1 743 1 753 1 796 1 846 1 878 1 918 1 938 1 939 1 947 1 974 1 1003 1 1005 1 1016 1 
1 215 20 1 27 1 40 1 48 1 58 1 68 1 1 1 35 1 61 1 70 1 72 1 74 1 84 1 143 1 170 1 174 1 223 1 239 1 289 1 304 1 308 1 320 1 328 1 352 1 369 2 379 1 381 1 421 1 447 1 456 1 457 1 503 1 549 1 559 1 591 1 595 2 615 1 622 2 624 1 646 1 724 1 735 1 744 1 769 1 776 1 784 1 857 1 914 1 919 1 932 1 964 1 987 1 90 1 92 1 123 1 128 1 137 1 173 1 177 1 188 1 209 1 215 1 275 1 277 1 283 1 285 1 286 1 306 1 340 1 341 1 373 1 408 1 451 1 453 1 506 1 513 1 544 1 547 1 556 1 558 1 573 1 629 1 636 1 685 1 686 1 687 1 700 1 702 1 706 1 741 1 756 1 844 1 856 1 882 1 916 1 923 1 926 1 928 1 947 1 986 1 993 1 1000 1 1002 1 1008 1 1014 1 1015 1 
1 209 10 1 15 2 4 1 29 1 40 1 57 1 67 1 110 1 133 1 139 1 154 1 169 1 173 1 195 1 207 2 212 1 214 1 230 1 274 1 307 1 323 1 330 1 335 1 355 2 375 1 405 1 424 1 445 1 466 1 473 1 480 1 503 1 525 1 544 1 563 1 568 1 570 1 584 1 585 1 588 1 591 1 598 1 600 1 606 1 622 1 632 1 677 1 681 1 772 1 774 2 780 1 827 1 837 1 857 1 872 1 886 1 888 1 914 1 916 1 930 1 942 1 122 1 202 1 254 1 277 1 287 1 299 1 305 1 319 1 341 1 343 1 366 1 392 1 423 1 449 1 461 1 547 1 551 1 556 1 569 1 581 1 624 1 630 1 631 1 646 1 648 1 650 1 664 1 697 1 721 1 736 1 776 1 839 1 849 1 859 1 889 1 910 1 920 1 952 1 996 1 1005 1 1007 1 1017 1 
1 216 23 1 30 1 40 1 59 1 57 1 75 1 92 1 112 1 113 1 120 1 147 1 165 1 186 1 208 1 272 2 274 1 280 1 282 1 307 2 319 1 332 1 341 1 359 1 361 1 387 1 408 1 422 1 432 1 436 2 484 1 488 1 509 1 565 1 571 1 587 1 597 1 602 1 605 1 608 1 612 1 619 1 620 1 641 1 666 1 683 1 749 1 751 1 802 1 825 1 827 1 829 2 845 1 875 1 887 1 920 1 923 1 933 1 955 1 957 2 996 1 86 1 88 1 95 1 98 1 99 1 133 1 134 1 160 1 191 1 209 1 211 1 214 1 218 1 226 1 241 1 263 1 294 1 315 1 326 1 335 1 344 1 347 1 352 1 365 1 369 1 376 1 390 1 404 1 427 1 457 1 476 1 486 1 541 1 542 1 563 1 625 1 626 1 633 1 651 1 686 1 704 1 748 1 776 1 823 1 835 1 855 1 858 1 863 1 919 1 934 1 950 1 967 1 982 1 984 1 1000 1 1007 1 1010 1 
1 213 2 1 14 1 26 1 48 1 69 1 71 1 75 1 15 1 23 1 31 1 45 1 64 1 67 1 70 1 88 1 95 1 97 1 99 1 105 1 106 1 130 1 151 1 186 1 190 1 228 1 261 1 269 1 307 1 309 1 327 1 339 1 344 1 356 1 378 2 388 1 389 1 394 1 418 1 419 1 437 2 441 1 465 1 470 1 474 1 482 2 485 1 491 1 496 1 505 1 510 1 558 2 561 1 569 1 590 1 595 1 601 1 628 1 630 1 640 1 641 1 652 1 656 1 688 1 707 2 736 1 749 1 771 2 773 1 782 1 796 1 805 1 844 1 899 1 942 1 951 1 83 1 124 1 137 1 140 1 164 1 189 1 199 1 268 1 290 1 303 1 324 1 341 1 343 1 349 1 380 1 416 1 445 1 506 1 513 1 574 1 594 1 613 1 649 1 664 1 665 1 685 1 740 1 746 1 755 1 810 1 874 1 875 1 880 1 920 1 924 1 936 1 937 1 943 1 948 1 950 1 960 1 972 1 1016 1 
1 204 2 1 35 1 42 1 8 1 19 1 20 1 33 1 37 1 45 1 74 1 98 1 99 1 132 1 162 1 201 1 216 1 228 1 249 1 324 1 327 1 375 2 382 1 405 1 434 1 440 1 453 1 454 1 472 1 487 1 494 1 523 1 529 1 560 1 581 1 584 1 594 2 603 1 605 1 612 1 629 1 648 1 662 1 666 1 677 1 701 1 705 1 716 1 743 1 758 1 776 1 796 1 807 1 809 2 918 1 921 1 963 1 982 1 992 1 85 1 89 1 103 1 104 1 112 1 119 1 134 1 138 1 164 1 167 1 250 1 256 1 289 1 321 1 342 1 364 1 384 1 396 1 403 1 406 1 417 1 424 1 493 1 517 1 531 1 544 1 553 1 574 1 591 1 604 1 642 1 650 1 655 1 667 1 678 1 727 1 729 1 739 1 751 1 773 1 774 1 783 1 787 1 851 1 906 1 915 1 945 1 971 1 978 1 981 1 991 1 
1 202 9 1 26 1 34 1 41 1 46 1 51 1 71 1 74 1 25 1 40 1 67 1 86 1 134 1 162 1 166 1 172 1 192 1 294 1 321 1 322 1 335 1 345 1 372 1 425 1 437 1 441 1 491 2 497 1 502 1 534 1 546 1 573 1 584 1 595 1 612 1 615 1 618 1 666 1 679 1 710 1 714 1 762 1 801 1 814 2 821 1 861 1 868 1 869 1 870 1 879 1 880 1 893 1 934 1 950 1 973 1 975 1 981 1 984 1 986 1 988 1 84 1 85 1 116 1 120 1 148 1 150 1 171 1 228 1 238 1 247 1 265 1 279 1 291 1 351 1 361 1 374 1 386 1 393 1 466 1 484 1 513 1 535 1 537 1 545 1 561 1 567 1 578 1 593 1 619 1 656 1 670 1 693 1 699 1 739 1 759 1 761 1 794 1 808 1 843 1 1003 1 
1 213 12 1 8 1 9 1 17 1 22 1 23 1 33 1 34 1 36 1 39 1 60 1 80 1 104 1 120 1 124 1 135 1 139 1 163 1 217 1 268 1 275 1 287 1 332 1 346 1 361 2 379 1 403 1 406 1 425 1 446 1 453 1 462 2 471 1 477 1 484 1 517 1 520 1 531 1 553 1 562 1 565 1 571 1 578 1 604 2 615 1 623 1 664 1 700 1 704 1 735 1 736 1 751 1 754 2 755 1 839 1 841 1 859 1 861 1 863 1 872 1 904 1 910 1 916 1 998 1 109 1 121 1 138 1 153 1 199 1 213 1 215 1 219 1 226 1 245 1 269 1 274 1 281 1 294 1 318 1 356 1 393 1 398 1 419 1 433 1 478 1 479 1 493 1 498 1 510 1 514 1 527 1 544 1 552 1 555 1 574 1 583 1 600 1 680 1 685 1 703 1 716 1 728 1 731 1 738 1 743 1 753 1 765 1 786 1 788 1 816 1 864 1 867 1 896 1 906 1 937 1 976 1 985 1 990 1 1004 1 1009 1 
1 214 2 1 5 1 17 2 21 1 25 1 33 1 42 1 52 1 56 1 77 1 16 1 82 1 90 1 108 1 120 1 123 1 128 1 135 1 148 1 150 2 157 1 161 1 194 1 195 1 196 1 221 1 236 1 243 1 253 1 296 1 302 1 326 1 347 1 393 1 427 1 437 1 442 2 453 1 454 1 475 2 499 1 519 1 525 1 527 1 536 1 547 1 548 1 550 1 575 1 578 1 601 1 611 2 619 1 645 1 659 1 665 1 683 1 700 1 721 1 731 1 756 1 767 1 784 1 811 1 829 1 831 1 850 1 908 1 914 1 916 2 923 1 935 1 958 1 989 1 98 1 175 1 186 1 235 1 246 1 248 1 252 1 265 1 285 1 291 1 320 1 331 1 335 1 371 1 388 1 422 1 430 1 473 1 483 1 487 1 524 1 539 1 551 1 565 1 568 1 574 1 582 1 605 1 642 1 648 1 657 1 742 1 753 1 760 1 775 1 803 1 813 1 823 1 838 1 875 1 886 1 888 1 907 1 922 1 930 1 940 1 964 1 971 1 992 1 999 1 1002 1 1007 1 1010 1 
1 211 6 1 21 1 41 1 48 1 70 1 27 1 50 1 60 1 81 1 82 1 93 1 94 1 99 1 121 1 134 1 141 1 225 1 258 1 286 1 295 1 310 1 328 1 366 1 396 1 428 1 464 1 479 1 486 1 490 1 491 1 502 1 548 1 552 1 582 1 602 1 643 1 654 1 658 1 659 1 667 1 669 1 677 1 680 1 694 1 695 1 713 1 721 2 723 1 726 1 730 1 772 1 774 1 776 1 785 1 791 1 803 1 821 1 870 1 871 1 929 2 930 1 932 1 937 1 957 2 967 1 984 1 991 1 993 1 113 1 183 1 204 1 218 1 220 1 228 1 233 1 245 1 253 1 289 1 324 1 337 1 370 1 385 1 412 1 496 1 521 1 530 1 559 1 561 1 562 1 568 1 605 1 612 1 655 1 663 1 671 1 684 1 703 1 729 1 732 1 734 1 738 1 744 1 768 1 790 1 796 1 810 1 824 1 873 1 887 1 889 1 935 1 960 1 970 1 979 1 986 1 989 1 992 1 1009 1 1016 1 
1 208 16 1 26 1 27 1 30 1 56 1 82 1 53 1 79 1 97 1 111 1 160 1 169 1 170 2 174 1 184 1 242 1 261 1 284 1 294 2 371 1 381 1 384 1 390 1 404 1 422 1 463 1 475 1 490 1 494 1 547 1 579 1 584 1 602 1 604 1 614 1 691 1 707 1 730 1 737 1 762 1 765 1 770 1 772 1 776 1 794 1 865 1 874 1 888 1 912 1 920 1 926 1 943 1 947 1 959 1 963 1 984 1 103 1 105 1 141 1 167 1 195 1 205 1 246 1 269 1 291 1 296 1 337 1 345 1 351 1 364 1 369 1 399 1 406 1 415 1 486 1 496 1 500 1 523 1 630 1 631 1 642 1 684 1 693 1 710 1 725 1 738 1 747 1 818 1 820 1 828 1 830 1 839 1 844 1 859 1 868 1 901 1 921 1 928 1 961 1 971 1 981 1 1000 1 1001 1 1007 1 1017 1 
1 211 47 1 54 1 64 1 67 1 72 1 73 1 76 1 128 1 151 1 173 1 185 2 229 1 234 1 251 1 259 1 287 1 294 1 299 1 322 1 325 1 335 1 345 1 377 1 396 1 399 1 424 1 435 1 452 1 484 1 489 1 552 2 555 1 562 1 577 1 655 1 670 1 734 1 739 1 773 1 775 1 815 1 829 2 832 1 859 1 871 1 879 1 896 1 906 1 958 1 967 2 968 2 92 1 127 1 147 1 169 1 203 1 215 1 217 1 221 1 224 1 225 1 252 1 266 1 268 1 293 1 384 1 393 1 407 1 414 1 462 1 465 1 470 1 496 1 520 1 524 1 573 1 583 1 589 1 621 1 626 1 662 1 678 1 679 1 681 1 682 1 692 1 698 1 713 1 725 1 728 1 732 1 745 1 776 1 820 1 842 1 850 1 885 1 923 1 948 1 955 1 991 1 1011 1 1015 1 1016 1 1018 1 
1 206 5 1 13 1 24 1 36 1 46 1 54 1 60 1 66 1 80 1 8 1 25 1 30 1 33 1 34 1 79 1 104 1 110 1 133 1 138 1 145 1 199 1 246 1 258 1 263 1 266 2 275 1 304 1 320 1 323 1 331 1 346 1 376 1 406 1 414 1 426 1 428 2 445 1 448 1 453 1 496 1 518 1 531 1 542 1 545 1 547 2 555 1 600 1 640 1 648 1 680 1 719 1 732 1 734 1 757 2 766 1 770 1 794 1 801 1 804 1 827 1 840 1 842 1 844 1 872 1 880 1 890 1 892 1 898 1 906 1 908 1 912 1 948 1 967 1 995 1 122 1 173 1 175 1 176 1 179 1 180 1 218 1 235 1 272 1 277 1 281 1 292 1 295 1 297 1 386 1 387 1 390 1 444 1 532 1 541 1 546 1 559 1 562 1 563 1 574 1 616 1 636 1 645 1 708 1 728 1 776 1 798 1 799 1 853 1 865 1 896 1 903 1 910 1 940 1 942 1 949 1 962 1 1000 1 1002 1 
1 212 1 1 27 1 41 1 55 1 64 1 13 1 50 1 52 1 58 1 81 1 93 1 119 1 141 1 156 1 172 1 195 1 196 1 222 1 235 1 272 1 281 1 293 1 302 1 313 1 317 1 341 2 346 1 359 1 372 1 373 1 383 1 402 1 452 1 454 1 457 1 462 1 501 1 544 1 551 1 565 1 566 1 693 1 717 1 718 1 729 1 777 1 782 1 791 1 810 1 823 1 850 1 866 1 890 1 904 1 909 1 977 1 996 1 91 1 110 1 121 1 126 1 146 1 147 1 149 1 152 1 165 1 166 1 180 1 210 1 220 1 226 1 237 1 255 1 286 1 297 1 324 1 333 1 351 1 354 1 380 1 384 1 398 1 421 1 431 1 435 1 450 1 472 1 513 1 531 1 548 1 559 1 586 1 615 1 640 1 668 1 674 1 696 1 721 1 725 1 738 1 740 1 800 1 822 1 842 1 846 1 848 1 892 1 921 1 929 1 930 1 937 1 963 1 970 1 974 1 976 1 985 1 1011 1 1012 1 
1 210 13 1 63 1 68 1 84 1 10 1 11 1 54 1 55 1 76 1 77 1 96 1 100 2 114 1 119 1 123 1 180 1 195 1 196 1 197 1 226 1 238 1 247 1 251 1 253 1 273 1 301 1 303 1 329 1 332 2 395 1 430 1 458 1 478 1 503 1 506 1 514 1 577 1 620 1 658 2 661 1 673 1 674 1 683 1 742 1 764 1 769 1 795 1 823 1 877 1 901 1 918 1 934 1 945 1 967 1 993 1 95 1 120 1 149 1 150 1 172 1 217 1 252 1 261 1 267 1 270 1 297 1 319 1 350 1 355 1 368 1 407 1 418 1 467 1 485 1 487 1 505 1 523 1 538 1 556 1 563 1 579 1 621 1 678 1 691 1 710 1 723 1 724 1 731 1 741 1 770 1 772 1 808 1 818 1 826 1 858 1 861 1 874 1 888 1 894 1 966 1 968 1 976 1 1000 1 1001 1 1002 1 1013 1 1015 1 
1 209 24 1 25 1 48 1 63 1 14 1 15 1 27 1 38 1 73 1 89 1 103 2 143 2 148 1 150 1 158 1 197 1 215 1 216 1 222 1 335 1 359 1 371 1 375 1 381 1 403 1 429 1 430 1 442 1 445 1 459 1 463 1 488 1 516 1 524 1 597 1 622 1 641 1 661 1 673 1 700 1 706 1 726 2 742 1 797 1 824 1 828 1 856 1 866 2 870 1 871 1 893 1 923 1 956 1 958 1 964 1 966 1 116 1 139 1 170 1 192 1 238 1 254 1 257 1 279 1 285 1 290 1 296 1 302 1 309 1 327 1 356 1 373 1 415 1 417 1 424 1 468 1 490 1 495 1 496 1 513 1 515 1 522 1 527 1 545 1 558 1 596 1 602 1 604 1 615 1 645 1 647 1 650 1 663 1 667 1 693 1 719 1 740 1 746 1 773 1 783 1 798 1 809 1 823 1 829 1 868 1 872 1 900 1 904 1 911 1 936 1 954 1 983 1 1002 1 
1 217 15 1 19 1 46 1 50 1 51 1 79 1 5 1 9 1 11 1 22 1 23 1 32 1 55 1 58 1 65 1 77 1 87 1 119 1 150 1 166 1 178 2 190 1 191 1 206 1 268 1 275 1 297 1 306 1 319 1 322 1 340 1 344 1 355 1 359 1 366 1 370 1 420 1 463 1 466 1 469 1 473 1 483 1 486 1 502 1 508 1 535 1 556 1 591 1 597 1 605 1 608 1 634 1 648 1 658 1 664 2 667 1 683 1 697 1 700 1 714 1 742 1 744 1 749 1 751 1 754 1 807 1 827 1 838 1 841 1 877 1 889 1 930 1 954 1 973 2 977 1 988 1 998 1 106 1 122 1 128 1 136 1 226 1 237 1 241 1 259 1 264 1 328 1 348 1 352 1 395 1 406 1 422 1 431 1 449 1 452 1 464 1 467 1 487 1 507 1 517 1 528 1 574 1 579 1 609 1 630 1 638 1 643 1 665 1 678 1 682 1 693 1 734 1 775 1 789 1 805 1 809 1 821 1 849 1 874 1 904 1 967 1 978 1 992 1 1000 1 1001 1 1005 1 1008 1 1011 1 1013 1 1014 1 1019 1 
1 205 35 1 85 1 89 1 63 1 72 1 95 1 102 1 117 1 143 1 189 2 198 1 229 1 248 2 288 1 313 1 320 1 321 1 339 1 350 2 368 1 413 1 426 1 455 1 482 2 494 1 498 1 541 1 577 1 601 1 608 1 610 1 629 1 640 1 658 2 660 1 714 1 736 2 758 1 799 1 804 1 845 1 847 1 856 2 866 1 871 1 965 1 973 1 997 1 114 1 116 1 122 1 160 1 202 1 211 1 256 1 257 1 263 1 270 1 282 1 333 1 338 1 356 1 366 1 376 1 404 1 421 1 422 1 434 1 448 1 462 1 467 1 475 1 571 1 594 1 597 1 604 1 618 1 624 1 643 1 644 1 648 1 673 1 696 1 724 1 776 1 787 1 796 1 848 1 880 1 895 1 916 1 947 1 971 1 972 1 974 1 985 1 1004 1 1013 1 
1 210 85 1 10 1 13 1 16 1 31 1 115 1 120 1 121 1 132 1 141 1 153 1 165 1 192 1 201 1 216 1 232 1 235 1 244 1 252 1 265 1 267 1 278 1 294 1 305 1 319 1 343 1 351 1 372 1 381 2 413 1 420 1 437 2 438 1 441 1 462 1 476 1 477 1 529 1 536 1 552 1 578 1 589 1 611 1 643 1 676 1 680 1 702 1 773 1 774 1 780 1 794 1 795 1 798 1 832 1 880 1 893 1 899 1 904 1 924 1 928 1 961 1 163 1 189 1 207 1 247 1 248 1 249 1 257 1 258 1 262 1 280 1 283 1 299 1 309 1 315 1 321 1 326 1 340 1 448 1 456 1 483 1 486 1 514 1 527 1 542 1 599 1 606 1 612 1 625 1 630 1 646 1 663 1 668 1 671 1 682 1 688 1 734 1 752 1 805 1 809 1 874 1 881 1 898 1 901 1 915 1 919 1 922 1 923 1 939 1 947 1 953 1 957 1 1001 1 1008 1 1013 1 
1 213 10 1 16 1 19 1 23 1 28 1 58 1 75 1 80 1 93 1 12 1 30 1 79 1 90 1 110 1 124 1 127 1 131 1 137 1 165 1 178 1 188 1 201 1 221 1 229 1 239 1 251 1 256 1 267 1 303 1 309 1 334 1 344 1 346 1 370 1 388 1 436 1 445 1 451 1 469 1 471 1 483 1 510 1 512 1 514 1 527 2 529 1 541 1 543 1 546 1 564 1 635 1 656 1 726 1 730 1 742 1 749 1 795 1 804 1 854 1 871 1 915 1 927 1 931 1 943 1 998 1 96 1 104 1 177 1 182 1 209 1 218 1 223 1 230 1 236 1 242 1 244 1 279 1 359 1 371 1 391 1 433 1 443 1 459 1 462 1 473 1 479 1 495 1 530 1 538 1 545 1 547 1 553 1 569 1 585 1 629 1 639 1 643 1 644 1 647 1 663 1 691 1 740 1 772 1 780 1 786 1 847 1 851 1 876 1 878 1 891 1 926 1 967 1 980 1 987 1 996 1 1001 1 1006 1 1010 1 
1 208 18 1 22 1 24 1 26 1 35 1 48 1 49 1 57 1 90 1 6 1 21 1 30 1 31 1 39 1 52 1 65 1 95 1 177 1 192 1 200 2 209 1 244 2 287 1 288 1 292 1 316 1 342 1 360 1 365 1 425 1 457 1 482 1 484 1 504 1 520 1 533 1 565 1 600 1 603 1 619 1 635 1 639 1 641 1 667 1 672 1 678 1 689 1 692 1 699 1 717 1 726 1 731 1 747 1 757 1 787 1 799 1 801 1 813 1 827 1 860 1 890 2 912 1 942 1 950 1 956 1 958 1 962 1 964 1 965 1 967 1 979 1 988 1 997 1 106 1 125 1 129 1 149 1 162 1 170 1 180 1 199 1 223 1 226 1 252 1 254 1 258 1 263 1 274 1 305 1 317 1 323 1 326 1 347 1 387 1 463 1 471 1 529 1 548 1 551 1 571 1 595 1 617 1 618 1 633 1 647 1 648 1 668 1 669 1 670 1 677 1 695 1 697 1 713 1 715 1 756 1 759 1 777 1 810 1 816 1 858 1 888 1 898 1 916 1 923 1 945 1 951 1 994 1 996 1 1007 1 1017 1 
1 213 30 1 32 1 47 1 48 1 51 1 73 1 80 1 86 1 1 1 24 1 26 1 45 1 63 1 66 1 117 1 126 1 142 1 164 1 187 1 191 1 210 1 227 1 275 1 288 1 299 1 333 1 349 1 359 1 375 1 392 1 399 1 417 1 427 1 433 1 474 1 500 1 515 1 519 1 523 1 597 1 601 1 622 1 633 1 662 1 695 1 715 1 726 1 742 1 793 1 819 1 822 1 825 1 835 1 865 1 899 1 900 1 902 1 910 2 976 1 106 1 125 1 151 1 155 1 186 1 194 1 219 1 272 1 282 1 329 1 334 1 345 1 376 1 381 1 402 1 430 1 439 1 450 1 471 1 488 1 518 1 520 1 534 1 555 1 564 1 578 1 583 1 592 1 636 1 657 1 694 1 708 1 710 1 732 1 765 1 774 1 782 1 827 1 841 1 842 1 866 1 885 1 925 1 926 1 934 1 951 1 959 1 978 1 1005 1 1015 1 1019 1 
1 211 17 1 22 1 63 1 71 1 72 1 81 1 79 1 84 1 108 1 119 1 133 1 156 1 180 1 186 1 210 1 251 1 254 1 260 1 264 1 266 2 314 1 358 2 360 1 379 2 387 1 408 1 424 1 433 1 434 1 501 1 532 1 577 1 584 1 588 1 601 1 625 1 687 1 689 2 698 1 704 1 706 1 727 1 745 1 753 1 754 1 759 1 763 1 778 1 800 2 804 2 839 1 850 1 853 1 864 1 890 1 895 1 897 1 916 1 939 1 959 1 103 1 127 1 147 1 150 1 195 1 205 1 207 1 208 1 227 1 230 1 257 1 287 1 317 1 350 1 359 1 373 1 374 1 381 1 388 1 394 1 396 1 444 1 464 1 469 1 487 1 505 1 527 1 550 1 558 1 572 1 575 1 603 1 607 1 637 1 640 1 701 1 703 1 766 1 866 1 884 1 893 1 894 1 902 1 907 1 931 1 951 1 960 1 961 1 999 1 1006 1 1013 1 
1 208 23 1 61 1 80 1 81 1 85 1 4 1 37 1 41 1 42 1 45 1 58 1 74 1 79 1 100 1 109 1 126 2 152 1 165 1 174 1 177 1 184 2 187 1 206 1 224 1 225 1 274 1 277 1 285 1 302 1 309 1 311 1 324 1 387 1 444 1 454 1 471 1 506 1 507 1 567 1 588 1 605 1 613 1 623 1 650 1 664 1 672 1 696 1 699 1 735 1 736 1 743 1 764 1 777 1 790 1 794 1 800 1 810 1 811 1 813 1 822 1 827 2 830 1 848 1 851 1 855 1 899 1 902 1 922 1 961 1 969 2 991 1 992 1 102 1 111 1 116 1 142 1 166 1 171 1 189 1 196 1 204 1 205 1 235 1 244 1 296 1 307 1 312 1 318 1 329 1 344 1 418 1 428 1 429 1 443 1 479 1 521 1 544 1 559 1 579 1 581 1 583 1 590 1 651 1 652 1 686 1 693 1 708 1 711 1 725 1 730 1 750 1 763 1 773 1 780 1 815 1 857 1 866 1 895 1 912 1 914 1 934 1 935 1 939 1 948 1 966 1 1007 1 1013 1 1017 1 
1 212 4 1 14 1 39 1 49 1 71 1 90 2 99 1 32 1 55 1 114 1 163 1 196 1 198 1 203 1 226 1 238 1 264 1 277 1 283 1 304 1 318 1 324 1 327 1 334 1 353 1 370 1 405 1 408 1 418 1 424 1 440 1 449 1 480 1 488 1 515 2 543 1 564 1 567 1 578 1 613 1 619 1 624 1 646 1 651 1 700 1 702 1 709 1 717 1 718 1 751 1 756 1 768 1 773 1 779 1 785 1 862 1 900 1 901 1 902 1 906 1 907 1 930 1 957 1 958 1 996 1 131 1 132 1 161 1 169 1 174 1 208 1 217 1 233 1 243 1 244 1 247 1 250 1 255 1 312 1 332 1 357 1 359 1 372 1 376 1 378 1 383 1 415 1 420 1 451 1 453 1 510 1 511 1 520 1 521 1 527 1 538 1 540 1 589 1 609 1 618 1 630 1 644 1 650 1 679 1 693 1 714 1 761 1 764 1 771 1 790 1 843 1 847 1 848 1 896 1 904 1 905 1 941 1 974 1 980 1 982 1 1014 1 1016 1 1017 1 
1 211 12 1 32 1 66 1 31 1 49 1 59 1 63 1 124 1 136 1 154 2 183 1 184 1 201 1 240 1 243 1 268 1 269 2 279 1 286 1 288 1 298 1 313 1 369 1 378 1 379 1 400 1 402 1 493 1 502 1 506 1 522 1 587 1 600 1 603 1 609 1 623 1 639 1 640 1 656 1 663 1 664 1 692 1 706 1 735 2 743 1 749 1 822 1 824 1 831 1 836 1 860 1 870 1 888 1 894 1 897 1 904 2 918 1 940 1 943 1 947 1 994 1 110 1 111 1 137 1 146 1 168 1 213 1 241 1 250 1 266 1 276 1 284 1 292 1 315 1 317 1 336 1 342 1 364 1 409 1 430 1 465 1 478 1 497 1 514 1 544 1 577 1 599 1 610 1 642 1 648 1 661 1 673 1 690 1 713 1 716 1 730 1 734 1 764 1 779 1 797 1 823 1 827 1 834 1 854 1 895 1 909 1 920 1 956 1 964 1 996 1 1010 1 1017 1 
1 211 3 1 25 2 75 1 93 1 5 1 9 1 13 1 18 1 29 1 35 1 52 1 69 1 99 1 171 1 205 1 216 1 246 1 248 1 286 1 311 1 363 1 376 1 382 1 393 1 399 1 413 1 457 1 465 1 477 1 507 1 541 1 555 1 562 1 601 1 603 1 605 1 631 1 640 1 643 1 695 1 713 1 739 1 765 1 807 1 820 1 826 1 854 1 870 1 896 1 901 1 916 1 937 1 970 1 973 2 983 1 988 1 105 1 107 1 123 1 124 1 138 1 143 1 149 1 177 1 193 1 209 1 235 1 250 1 265 1 266 1 275 1 299 1 339 1 362 1 364 1 397 1 403 1 405 1 408 1 434 1 440 1 520 1 530 1 567 1 569 1 589 1 611 1 613 1 636 1 658 1 667 1 668 1 705 1 727 1 734 1 749 1 760 1 785 1 802 1 863 1 874 1 880 1 899 1 902 1 914 1 932 1 981 1 991 1 1001 1 1014 1 
1 213 3 1 19 1 35 1 37 1 41 2 57 1 68 1 73 1 76 1 91 2 15 1 16 1 31 1 53 1 56 1 62 1 64 1 69 1 72 1 81 1 86 1 98 1 110 1 113 1 115 1 140 1 157 1 182 1 225 1 253 1 256 1 264 1 317 1 364 1 408 1 424 1 431 1 462 2 474 1 522 1 537 1 551 1 560 1 592 1 594 1 608 1 618 1 626 1 689 1 734 1 745 1 761 1 774 1 778 1 793 1 811 1 826 1 866 1 874 1 893 1 901 1 919 1 936 1 946 1 957 1 959 1 963 1 965 2 976 1 151 1 158 1 163 1 187 1 206 1 230 1 240 1 259 1 262 1 326 1 335 1 352 1 405 1 427 1 429 1 442 1 445 1 483 1 503 1 514 1 520 1 534 1 545 1 547 1 553 1 557 1 568 1 570 1 605 1 621 1 637 1 648 1 667 1 668 1 672 1 711 1 715 1 718 1 727 1 731 1 825 1 827 1 843 1 850 1 852 1 973 1 992 1 1008 1 1010 1 1015 1 
1 208 28 1 59 1 68 1 83 1 88 1 5 1 35 1 66 1 72 1 81 1 95 1 104 1 104 1 136 2 180 1 189 1 214 1 216 1 227 1 236 1 272 1 310 1 328 1 329 1 401 1 423 1 428 2 434 1 469 1 471 1 478 1 496 1 504 1 562 1 652 1 671 1 677 1 709 1 712 1 750 1 801 1 818 1 829 1 831 1 846 1 860 1 876 1 906 1 909 1 976 1 985 2 143 1 150 1 170 1 208 1 219 1 229 1 230 1 242 1 277 1 332 1 337 1 343 1 352 1 357 1 366 1 386 1 388 1 395 1 430 1 449 1 481 1 484 1 525 1 531 1 542 1 583 1 587 1 594 1 598 1 602 1 603 1 626 1 659 1 682 1 718 1 724 1 725 1 733 1 736 1 746 1 772 1 794 1 797 1 807 1 810 1 817 1 841 1 856 1 874 1 897 1 916 1 924 1 952 1 958 1 966 1 989 1 1015 1 
1 211 4 1 13 1 29 1 30 1 47 1 80 1 17 1 73 1 86 1 102 1 118 1 148 1 157 1 165 1 205 1 220 1 236 1 246 1 272 1 282 1 308 1 311 1 315 1 333 1 412 1 447 1 454 1 463 1 465 1 497 1 504 1 512 1 531 1 539 1 542 1 596 1 605 1 643 1 655 1 657 1 658 1 660 1 666 1 670 2 684 1 696 1 717 1 721 1 726 1 728 1 739 1 755 1 787 1 794 1 832 1 837 1 842 1 848 1 856 1 885 1 896 1 899 1 936 1 978 1 989 1 994 1 111 1 138 1 145 1 171 1 192 1 193 1 215 1 224 1 253 1 256 1 260 1 269 1 277 1 299 1 393 1 431 1 443 1 449 1 460 1 474 1 491 1 511 1 540 1 552 1 563 1 566 1 577 1 617 1 632 1 678 1 730 1 746 1 751 1 754 1 838 1 875 1 892 1 925 1 930 1 942 1 967 1 988 1 995 1 1009 1 1019 1 
1 208 13 1 60 1 68 1 73 1 80 1 3 1 4 1 43 1 92 1 96 1 97 1 122 1 134 1 140 1 148 1 152 1 157 1 176 1 182 1 199 1 219 1 222 1 245 1 260 1 271 1 285 1 298 1 308 1 312 1 324 1 411 1 436 1 439 1 446 1 462 1 464 1 467 1 504 1 515 1 518 1 524 1 540 1 545 1 559 2 560 1 566 1 579 1 604 1 611 1 614 1 625 1 628 1 632 1 633 1 651 1 687 1 692 1 713 1 720 1 769 2 792 1 803 1 827 1 854 1 859 1 863 1 887 1 904 1 908 1 934 1 936 1 946 1 972 1 993 1 994 1 109 1 149 1 165 1 212 1 224 1 229 1 255 1 266 1 293 1 297 1 318 1 361 1 385 1 386 1 419 1 432 1 434 1 453 1 459 1 492 1 507 1 537 1 593 1 596 1 609 1 660 1 683 1 755 1 765 1 776 1 784 1 799 1 829 1 830 1 844 1 860 1 867 1 884 1 902 1 903 1 919 1 939 1 943 1 1008 1 1015 1 
1 209 20 1 22 1 51 1 76 1 17 1 30 1 63 1 69 1 102 1 125 1 145 1 171 1 237 1 239 1 246 1 306 1 315 1 332 1 333 1 356 1 365 1 411 1 439 2 451 1 474 1 501 1 515 1 541 1 568 1 581 1 593 1 597 1 606 2 611 1 612 1 666 1 672 1 703 1 706 1 730 1 757 1 786 1 832 1 839 1 848 1 864 1 867 1 879 1 900 1 913 1 924 1 935 1 965 1 988 1 119 1 132 1 178 1 182 1 242 1 299 1 304 1 312 1 321 1 354 1 391 1 420 1 421 1 426 1 458 1 460 1 478 1 480 1 512 1 528 1 547 1 548 1 561 1 571 1 603 1 604 1 622 1 634 1 649 1 669 1 716 1 725 1 726 1 732 1 735 1 755 1 813 1 861 1 886 1 889 1 891 1 906 1 908 1 917 1 949 1 962 1 975 1 985 1 994 1 1003 1 1004 1 1008 1 
1 210 19 1 45 1 47 1 84 1 98 1 12 1 41 1 55 1 66 1 73 1 111 1 139 1 152 1 164 1 196 1 216 1 240 1 266 1 286 1 302 1 352 1 360 1 362 1 394 1 448 1 455 1 465 1 469 2 473 1 500 1 501 1 506 1 541 1 550 1 554 2 567 1 594 1 606 1 631 1 668 1 704 1 705 1 740 1 741 1 745 1 840 1 860 1 861 1 864 1 893 1 896 1 901 1 911 1 922 1 976 1 977 1 985 1 126 1 189 1 195 1 203 1 204 1 206 1 262 1 263 1 268 1 271 1 276 1 304 1 318 1 321 1 332 1 339 1 392 1 404 1 432 1 438 1 464 1 488 1 519 1 544 1 548 1 552 1 555 1 577 1 585 1 592 1 600 1 611 1 652 1 676 1 694 1 757 1 767 1 791 1 827 1 859 1 882 1 889 1 980 1 999 1 1002 1 1011 1 
1 210 31 1 99 1 18 1 19 1 21 1 35 1 50 1 52 1 62 1 83 1 106 1 128 1 149 1 193 1 203 1 206 1 211 1 222 1 226 1 227 1 245 1 253 1 258 1 265 1 300 1 306 1 315 1 354 1 365 1 398 1 437 2 438 1 441 1 477 2 490 1 493 1 504 1 525 1 529 1 532 1 533 1 539 1 565 1 572 1 577 1 580 1 581 1 596 1 618 1 642 1 659 1 673 1 715 1 729 1 771 1 777 1 797 1 806 1 808 1 875 1 900 1 903 1 904 1 916 1 931 1 956 1 959 1 966 1 976 1 977 1 988 1 136 1 163 1 189 1 205 1 249 1 286 1 295 1 318 1 319 1 324 1 351 1 430 1 431 1 455 1 466 1 471 1 474 1 485 1 489 1 507 1 538 1 556 1 561 1 578 1 602 1 606 1 614 1 620 1 623 1 633 1 637 1 648 1 655 1 682 1 746 1 759 1 762 1 868 1 883 1 885 1 891 1 947 1 949 1 954 1 970 1 990 1 998 1 1005 1 1010 1 
1 204 1 1 8 1 19 1 37 1 38 1 78 1 88 1 95 1 103 1 45 1 49 1 54 1 71 1 89 1 101 1 130 1 138 2 144 1 192 1 201 1 205 1 208 1 223 1 226 1 230 1 235 1 284 1 294 1 296 1 330 1 339 2 350 1 351 1 356 1 380 1 385 1 393 1 429 1 440 1 456 1 457 1 499 1 507 1 543 1 551 1 601 1 602 1 609 1 614 1 632 1 637 1 665 1 675 1 700 1 730 1 742 1 756 1 776 1 792 1 798 1 799 1 803 1 822 1 832 1 836 1 851 1 853 1 868 1 899 1 923 1 935 1 944 1 956 1 964 1 986 1 993 1 998 1 160 1 179 1 227 1 234 1 267 1 268 1 270 1 304 1 328 1 362 1 375 1 399 1 447 1 488 1 497 1 516 1 533 1 540 1 556 1 589 1 600 1 618 1 638 1 642 1 656 1 668 1 676 1 681 1 686 1 687 1 703 1 744 1 763 1 781 1 788 1 800 1 816 1 817 1 831 1 841 1 848 1 852 1 857 1 914 1 947 1 959 1 960 1 971 1 974 1 994 1 1002 1 1004 1 1011 1 
1 205 6 1 25 1 36 1 39 1 55 1 86 1 108 1 7 1 26 1 37 1 56 1 66 1 99 1 101 1 105 1 120 1 151 1 157 1 187 1 202 1 203 1 216 1 222 1 223 1 281 1 284 1 312 1 321 1 388 1 397 1 417 1 451 1 474 1 485 1 529 1 552 1 553 1 571 1 575 2 582 1 586 1 594 1 610 1 622 1 643 1 675 1 686 1 688 1 759 1 770 1 823 1 839 1 861 1 868 1 901 1 905 1 913 1 925 1 926 1 935 1 948 1 958 1 962 1 993 1 115 1 117 1 125 1 162 1 181 1 182 1 205 1 208 1 210 1 213 1 241 1 248 1 318 1 329 1 346 1 367 1 372 1 382 1 390 1 396 1 416 1 419 1 428 1 444 1 476 1 498 1 517 1 518 1 523 1 536 1 576 1 591 1 595 1 596 1 649 1 650 1 655 1 662 1 664 1 684 1 779 1 785 1 792 1 815 1 842 1 879 1 885 1 899 1 918 1 932 1 933 1 984 1 1004 1 1018 1 
1 216 18 1 21 1 75 2 79 1 4 1 48 1 56 1 81 1 114 1 132 1 167 1 178 1 188 1 198 1 207 1 233 1 247 1 251 1 255 1 259 1 260 1 265 1 325 1 340 1 344 1 367 1 368 1 380 1 405 1 422 1 427 1 437 1 445 1 452 1 481 1 483 1 501 2 525 1 530 1 544 1 546 1 548 1 567 1 568 1 571 1 575 1 616 1 625 1 628 1 638 1 671 1 678 1 683 1 684 1 692 1 709 1 711 1 722 1 779 1 780 1 789 1 797 1 817 1 820 1 824 1 833 1 891 1 918 1 959 1 973 1 994 1 138 1 157 1 163 1 199 1 212 1 217 1 229 1 238 1 246 1 262 1 264 1 278 1 294 1 295 1 307 1 318 1 326 1 331 1 348 1 351 1 369 1 376 1 394 1 396 1 408 1 429 1 430 1 438 1 447 1 450 1 464 1 522 1 558 1 573 1 589 1 664 1 666 1 668 1 677 1 738 1 781 1 808 1 813 1 877 1 878 1 894 1 901 1 905 1 914 1 920 1 921 1 925 1 930 1 979 1 982 1 993 1 1000 1 1002 1 1012 1 1015 1 
1 214 24 1 43 1 62 1 79 1 103 1 16 1 33 1 42 1 44 1 64 1 85 1 121 1 130 1 162 1 166 1 176 1 183 1 199 1 212 1 238 1 302 2 308 1 312 1 313 1 351 1 377 1 401 1 414 1 433 1 445 1 459 1 534 1 574 1 633 1 634 1 644 1 691 1 710 1 736 1 777 2 785 1 803 1 811 1 830 1 834 1 845 1 859 1 866 1 913 1 928 1 943 1 953 1 968 1 970 1 993 1 997 1 128 1 164 1 177 1 178 1 185 1 241 1 260 1 263 1 268 1 270 1 271 1 303 1 328 1 335 1 441 1 468 1 476 1 479 1 483 1 511 1 518 1 524 1 561 1 600 1 602 1 626 1 632 1 657 1 675 1 726 1 748 1 774 1 784 1 801 1 810 1 822 1 843 1 862 1 890 1 892 1 911 1 923 1 944 1 946 1 981 1 1000 1 1006 1 1018 1 
1 206 70 2 90 1 100 1 112 1 2 1 3 1 22 1 71 1 93 1 118 1 125 1 126 1 129 1 137 1 142 1 145 1 186 1 196 1 268 1 282 1 293 1 299 1 310 1 317 1 333 2 379 1 382 1 390 2 406 1 448 1 501 1 522 1 602 1 617 1 644 1 680 1 689 1 694 1 711 1 751 1 772 1 809 1 812 1 817 1 839 1 856 1 866 1 877 1 922 1 928 1 985 1 987 1 995 1 116 1 140 1 147 1 174 1 175 1 176 1 189 1 191 1 202 1 205 1 238 1 239 1 244 1 258 1 263 1 316 1 322 1 330 1 366 1 393 1 421 1 423 1 458 1 467 1 498 1 507 1 531 1 550 1 572 1 578 1 579 1 608 1 625 1 628 1 641 1 647 1 705 1 789 1 822 1 825 1 840 1 842 1 863 1 869 1 878 1 888 1 894 1 913 1 919 1 929 1 946 1 971 1 1003 1 1007 1 1017 1 
1 211 20 1 25 1 26 1 32 1 43 1 62 1 75 1 94 1 103 1 23 1 60 1 61 1 72 1 111 1 136 1 147 1 188 1 192 1 198 2 206 1 216 1 217 1 225 1 228 1 258 1 307 1 315 1 337 1 342 1 343 1 369 1 379 1 385 1 409 1 411 1 412 1 415 1 423 1 424 1 440 1 449 1 503 1 515 1 523 1 527 1 532 1 547 1 555 1 624 1 645 1 661 1 689 1 726 1 766 1 772 1 789 1 812 1 817 1 828 1 856 1 949 1 978 1 125 1 127 1 129 1 141 1 154 1 184 1 234 1 238 1 286 1 291 1 316 1 376 1 432 1 486 1 500 1 512 1 517 1 546 1 572 1 586 1 612 1 616 1 636 1 651 1 694 1 728 1 763 1 768 1 821 1 838 1 868 1 890 1 936 1 941 1 955 1 967 1 991 1 993 1 1002 1 1012 1 1013 1 
1 206 7 1 10 1 14 1 28 1 71 1 74 1 11 1 39 1 40 1 44 1 55 1 56 1 82 1 91 1 93 1 99 1 114 1 134 1 180 1 198 1 224 1 271 1 276 1 280 1 285 1 291 1 298 1 335 1 354 1 372 1 421 2 423 1 431 1 438 1 451 1 511 1 525 2 586 1 607 2 608 1 647 1 654 1 657 1 718 1 723 1 731 1 740 1 752 1 757 1 765 1 766 1 798 1 802 1 835 1 846 1 854 1 901 1 929 1 998 1 151 1 183 1 189 1 214 1 290 1 306 1 307 1 309 1 319 1 332 1 350 1 356 1 368 1 375 1 393 1 402 1 410 1 458 1 471 1 487 1 564 1 565 1 569 1 578 1 597 1 601 1 670 1 698 1 712 1 725 1 735 1 744 1 773 1 782 1 793 1 810 1 832 1 836 1 891 1 921 1 945 1 957 1 964 1 968 1 974 1 986 1 994 1 997 1 
1 208 14 1 59 1 60 1 93 1 97 1 9 1 29 1 111 1 127 1 159 1 163 1 167 1 180 1 185 1 233 1 251 1 258 1 272 1 308 1 315 1 327 1 361 1 367 1 373 1 377 1 380 1 392 1 401 1 403 1 456 2 464 1 483 1 486 2 491 1 497 1 498 1 504 1 514 1 531 1 541 1 586 1 592 1 596 1 602 1 607 1 614 1 617 1 638 1 645 1 653 1 656 1 657 1 674 1 729 1 738 1 741 1 745 1 778 1 794 1 811 1 824 1 848 1 855 1 865 1 867 1 889 1 915 1 917 1 936 1 945 1 947 1 952 1 149 1 153 1 161 1 175 1 198 1 249 1 284 1 296 1 298 1 415 1 434 1 459 1 476 1 480 1 492 1 521 1 543 1 547 1 571 1 577 1 610 1 613 1 649 1 666 1 668 1 717 1 743 1 750 1 752 1 756 1 775 1 776 1 785 1 810 1 821 1 868 1 875 1 881 1 888 1 902 1 911 1 946 1 999 1 1005 1 1011 1 
1 209 44 1 105 1 114 1 40 1 71 1 130 1 142 1 153 1 178 1 181 1 189 1 192 2 227 1 263 1 269 1 308 1 314 1 323 1 347 1 359 1 382 1 383 1 389 1 405 1 427 1 449 1 456 1 469 1 472 1 512 1 516 1 523 1 539 1 552 1 623 1 635 1 688 1 720 1 754 1 772 1 774 1 788 1 789 1 834 1 852 1 854 1 858 1 881 1 898 1 902 1 972 1 131 1 166 1 186 1 212 1 213 1 230 1 231 1 238 1 239 1 242 1 259 1 306 1 311 1 322 1 326 1 339 1 345 1 360 1 378 1 397 1 407 1 414 1 419 1 430 1 438 1 454 1 485 1 498 1 500 1 575 1 581 1 605 1 610 1 617 1 633 1 655 1 660 1 701 1 702 1 707 1 722 1 741 1 746 1 762 1 773 1 802 1 819 1 821 1 829 1 857 1 883 1 894 1 903 1 926 1 935 1 938 1 971 1 974 1 1006 1 
1 209 9 1 22 1 26 1 54 1 55 1 89 1 90 1 92 1 98 1 27 1 29 1 31 1 38 1 39 1 81 1 107 1 134 1 169 1 187 1 219 1 224 1 230 1 270 1 273 2 276 1 291 1 293 1 308 1 375 1 427 1 428 1 466 1 467 1 474 1 487 1 488 1 494 1 514 1 578 1 596 1 605 1 621 1 636 1 641 1 666 1 685 1 724 1 764 1 785 1 799 1 809 1 822 1 836 1 851 1 938 1 942 1 947 1 949 1 963 1 994 1 131 1 147 1 172 1 175 1 176 1 184 1 193 1 211 1 271 1 300 1 311 1 316 1 326 1 357 1 362 1 370 1 371 1 372 1 381 1 382 1 387 1 388 1 429 1 455 1 456 1 492 1 493 1 502 1 589 1 653 1 675 1 696 1 709 1 732 1 739 1 788 1 817 1 825 1 848 1 867 1 875 1 882 1 887 1 911 1 928 1 978 1 985 1 
1 208 31 1 37 1 42 2 69 1 76 1 79 1 83 1 84 1 94 1 111 1 1 1 15 1 30 1 34 1 52 1 59 1 67 1 74 1 82 1 90 1 183 1 197 1 229 1 240 1 252 1 281 1 283 1 292 1 293 1 300 1 302 1 360 1 386 2 398 1 399 1 401 1 411 1 417 1 431 1 437 1 476 1 489 1 490 1 497 1 501 1 509 1 514 1 531 1 556 1 569 1 575 1 615 1 621 1 630 1 634 1 638 1 647 1 660 1 662 1 669 1 676 1 744 1 746 1 769 1 780 1 786 1 820 1 835 1 860 1 870 1 876 1 891 1 894 1 897 1 915 1 943 1 953 1 972 1 981 1 121 1 146 1 153 1 155 1 189 1 286 1 311 1 353 1 356 1 357 1 367 1 396 1 413 1 522 1 559 1 565 1 576 1 584 1 641 1 667 1 695 1 712 1 740 1 779 1 818 1 824 1 846 1 862 1 882 1 883 1 888 1 920 1 936 1 945 1 947 1 956 1 979 1 992 1 1013 1 
1 207 24 1 39 1 47 1 65 1 66 1 69 1 85 1 94 1 113 1 12 1 27 1 50 1 59 1 71 1 83 1 89 1 120 1 136 1 145 1 152 1 180 1 202 1 216 1 230 1 237 1 238 1 250 2 287 1 288 1 316 1 329 2 343 1 373 1 413 1 418 1 425 1 434 1 439 1 445 1 471 1 472 1 482 1 496 1 561 1 590 1 622 1 633 1 635 1 636 1 643 1 663 1 684 2 697 2 702 1 705 1 724 1 736 1 739 1 768 1 775 1 781 1 794 1 805 1 857 1 863 1 867 1 877 1 897 1 906 1 907 1 909 1 953 1 954 1 979 1 138 1 172 1 194 1 195 1 200 1 224 1 272 1 296 1 309 1 314 1 356 1 412 1 421 1 448 1 453 1 474 1 499 1 525 1 569 1 580 1 605 1 609 1 610 1 638 1 644 1 657 1 658 1 659 1 670 1 685 1 730 1 764 1 773 1 783 1 825 1 847 1 859 1 864 1 866 1 872 1 879 1 930 1 932 1 950 1 955 1 972 1 988 1 
1 207 23 1 29 1 32 1 38 1 48 1 60 1 106 1 2 1 20 1 43 1 73 1 78 1 88 1 92 1 93 1 149 1 162 1 179 1 229 1 236 1 278 1 284 1 315 1 327 1 337 1 341 2 369 1 370 1 379 1 411 1 452 1 475 1 481 2 514 1 528 1 529 1 544 1 596 1 597 1 622 1 626 1 662 2 704 1 722 1 725 2 764 1 772 1 825 1 841 1 877 1 886 1 914 1 128 1 155 1 166 1 199 1 244 1 267 1 277 1 279 1 288 1 298 1 300 1 320 1 322 1 353 1 366 1 388 1 391 1 467 1 532 1 567 1 574 1 606 1 623 1 635 1 657 1 658 1 678 1 679 1 696 1 697 1 747 1 755 1 773 1 780 1 788 1 804 1 814 1 827 1 839 1 850 1 854 1 888 1 910 1 915 1 919 1 930 1 937 1 955 1 973 1 975 1 1012 1 1019 1 
1 210 20 1 24 1 27 1 48 2 84 1 90 1 8 1 16 1 37 1 77 1 102 1 124 1 137 1 156 1 157 1 158 1 180 1 192 1 205 1 217 1 221 1 228 1 234 1 238 1 245 1 284 1 289 1 321 2 343 1 379 1 401 1 406 1 411 2 422 1 442 1 459 1 466 1 488 1 507 1 524 1 531 1 547 1 579 1 581 1 588 1 591 1 595 1 600 1 608 1 627 2 632 1 657 1 675 1 677 1 705 1 715 1 760 1 764 1 772 1 776 1 803 1 815 1 833 1 849 1 858 1 875 1 885 1 890 2 901 1 950 1 166 1 204 1 214 1 237 1 241 1 242 1 256 1 266 1 268 1 280 1 285 1 296 1 309 1 329 1 336 1 362 1 375 1 385 1 386 1 407 1 421 1 425 1 427 1 443 1 482 1 506 1 516 1 580 1 584 1 589 1 647 1 671 1 701 1 730 1 737 1 740 1 761 1 780 1 797 1 807 1 857 1 893 1 896 1 922 1 936 1 946 1 992 1 994 1 1014 1 1019 1 
1 202 2 1 10 1 46 1 53 1 55 1 60 1 63 1 83 1 95 1 101 1 123 1 3 1 4 1 11 1 20 1 27 1 42 1 49 1 59 1 72 1 80 1 102 1 129 1 145 1 166 1 183 1 189 1 192 1 194 1 200 1 210 1 215 1 222 1 228 1 273 1 275 1 291 1 300 1 327 1 333 1 354 2 359 1 385 1 429 1 466 2 476 2 477 1 499 1 512 1 515 1 568 1 575 1 614 1 616 1 641 1 644 1 645 1 665 1 752 1 759 1 769 1 816 1 840 1 844 1 869 1 879 1 906 1 920 1 938 1 966 1 968 1 981 1 135 1 154 1 184 1 199 1 207 1 214 1 218 1 221 1 231 1 242 1 244 1 267 1 281 1 285 1 294 1 302 1 340 1 451 1 462 1 468 1 540 1 599 1 606 1 623 1 673 1 682 1 700 1 701 1 703 1 721 1 740 1 758 1 768 1 780 1 783 1 799 1 812 1 868 1 902 1 934 1 939 1 963 1 965 1 
1 210 4 1 28 1 39 1 40 1 44 1 49 1 54 2 68 1 107 1 114 1 7 1 55 1 69 1 96 1 97 1 111 1 115 1 135 1 174 1 175 1 195 1 200 1 207 1 226 1 232 1 241 1 245 1 253 1 347 1 352 1 375 1 377 1 386 1 417 1 423 1 431 1 436 1 482 1 505 1 507 2 524 1 527 1 528 1 533 1 547 1 559 1 645 1 653 1 671 2 682 1 687 1 697 1 710 1 743 1 756 1 761 1 768 1 793 1 811 1 814 1 837 1 870 1 887 1 889 1 902 1 912 1 961 1 964 1 980 1 983 1 988 1 992 1 127 1 168 1 170 1 180 1 188 1 198 1 199 1 205 1 211 1 223 1 227 1 247 1 259 1 290 1 322 1 329 1 346 1 360 1 361 1 383 1 435 1 499 1 503 1 508 1 540 1 587 1 620 1 628 1 633 1 638 1 654 1 669 1 701 1 715 1 719 1 726 1 758 1 792 1 818 1 828 1 841 1 855 1 873 1 911 1 925 1 981 1 1003 1 1004 1 1013 1 
1 208 1 1 7 1 9 2 42 1 64 1 97 1 99 2 114 1 19 1 26 1 34 1 38 1 39 1 49 1 66 1 89 1 108 1 132 1 154 1 170 1 172 1 222 1 223 1 241 1 261 1 281 1 313 1 326 1 339 1 358 2 360 2 398 1 408 1 455 2 467 1 496 1 503 1 521 1 552 1 553 1 571 1 587 1 594 1 599 1 604 1 605 1 630 1 632 1 648 1 656 1 665 1 673 1 680 1 716 1 719 1 736 1 738 1 747 1 764 1 774 1 808 1 828 1 871 1 876 1 890 1 915 1 920 1 954 1 981 1 996 1 129 1 131 1 159 1 196 1 204 1 245 1 249 1 254 1 264 1 274 1 330 1 336 1 343 1 346 1 351 1 367 1 374 1 383 1 389 1 462 1 477 1 490 1 498 1 506 1 516 1 530 1 532 1 551 1 558 1 568 1 598 1 753 1 757 1 766 1 767 1 769 1 788 1 798 1 822 1 836 1 840 1 841 1 842 1 854 1 872 1 887 1 898 1 909 1 918 1 930 1 933 1 999 1 1002 1 1003 1 
1 213 30 1 69 1 95 1 117 1 11 1 31 1 33 1 59 1 87 1 98 1 115 1 125 1 147 1 151 1 277 1 290 1 298 1 302 1 312 1 346 1 351 1 359 1 429 1 439 1 440 1 459 1 498 1 500 1 501 1 604 1 615 1 628 1 635 1 641 2 649 1 653 1 658 1 671 1 683 1 702 1 756 1 775 1 796 1 801 1 809 1 814 1 817 2 840 1 841 1 863 2 868 1 888 1 908 1 910 2 956 1 961 1 966 2 979 1 992 1 993 1 159 1 166 1 192 1 193 1 194 1 205 1 236 1 237 1 251 1 253 1 267 1 282 1 313 1 345 1 350 1 380 1 403 1 421 1 430 1 435 1 445 1 453 1 455 1 458 1 465 1 471 1 518 1 535 1 541 1 549 1 551 1 564 1 582 1 587 1 588 1 606 1 612 1 613 1 616 1 619 1 631 1 639 1 643 1 644 1 651 1 652 1 654 1 660 1 662 1 667 1 703 1 707 1 709 1 726 1 751 1 753 1 768 1 776 1 783 1 787 1 792 1 820 1 850 1 862 1 877 1 881 1 914 1 938 1 942 1 946 1 950 1 952 1 968 1 977 1 989 1 998 1 1001 1 1006 1 
1 205 5 1 7 1 12 1 20 1 26 1 29 1 33 1 39 1 40 1 69 1 84 1 87 1 109 1 1 1 6 1 21 1 25 1 34 1 47 1 77 1 92 1 113 1 122 1 130 1 132 1 140 1 144 1 156 1 188 1 196 1 203 1 227 2 233 1 252 1 263 1 281 1 295 1 302 1 327 1 338 1 341 1 408 1 421 1 436 1 458 1 472 1 480 1 522 1 528 1 567 1 572 1 583 1 590 1 600 1 603 1 686 1 694 1 732 1 742 1 743 1 744 2 769 1 791 1 807 2 809 1 847 1 861 1 865 1 903 1 910 1 923 1 955 1 163 1 165 1 175 1 212 1 214 1 243 1 258 1 269 1 311 1 368 1 412 1 414 1 464 1 470 1 479 1 499 1 506 1 511 1 516 1 554 1 578 1 608 1 616 1 651 1 663 1 688 1 760 1 774 1 777 1 788 1 810 1 832 1 863 1 884 1 900 1 944 1 951 1 972 1 976 1 996 1 1008 1 1010 1 
1 209 31 1 52 1 59 1 114 1 124 1 19 1 27 1 38 1 96 1 115 1 126 1 136 1 143 1 161 1 162 1 171 1 196 1 205 1 208 1 217 1 218 1 238 1 298 1 314 1 330 1 347 1 353 1 361 1 366 1 386 1 419 1 420 1 476 1 487 1 511 1 519 1 560 1 567 1 588 1 593 1 602 1 631 1 636 1 640 1 643 1 654 1 674 1 675 1 676 1 730 1 734 1 741 1 757 1 821 1 847 1 848 1 852 1 862 2 907 1 915 1 938 1 951 1 957 1 958 1 959 1 159 1 163 1 197 1 211 1 228 1 241 1 248 1 284 1 295 1 297 1 307 1 328 1 363 1 377 1 440 1 471 1 485 1 523 1 528 1 538 1 554 1 580 1 585 1 590 1 611 1 624 1 661 1 669 1 714 1 723 1 725 1 729 1 746 1 756 1 765 1 804 1 806 1 837 1 841 1 853 1 885 1 886 1 898 1 901 1 914 1 1010 1 
1 208 59 1 60 1 71 1 80 1 110 1 113 1 118 1 128 1 28 1 49 1 64 1 75 1 173 1 177 1 190 1 192 1 216 1 233 1 243 1 266 1 287 1 335 1 336 1 352 1 353 1 356 1 366 1 372 1 389 1 391 1 456 1 483 1 487 1 490 1 531 1 551 1 563 1 588 1 589 1 590 1 592 1 646 1 667 1 712 2 714 1 729 1 733 1 736 1 817 1 829 1 847 1 876 1 911 1 912 1 922 1 982 1 990 1 995 1 141 1 165 1 169 1 174 1 178 1 201 1 220 1 225 1 258 1 271 1 290 1 291 1 300 1 324 1 326 1 392 1 398 1 413 1 448 1 458 1 464 1 511 1 524 1 565 1 572 1 614 1 681 1 695 1 724 1 760 1 766 1 771 1 776 1 784 1 802 1 821 1 862 1 893 1 904 1 934 1 935 1 936 1 946 1 1003 1 1011 1 
1 209 6 1 8 1 70 1 95 1 16 1 100 1 118 1 119 1 126 1 145 1 165 1 184 1 185 1 188 1 203 1 206 1 243 1 261 1 276 1 306 1 308 1 358 2 359 1 377 1 383 1 409 1 449 1 454 1 457 1 459 1 460 1 464 1 472 1 486 1 491 1 532 1 536 1 539 1 542 1 550 1 625 1 662 1 701 1 718 1 721 1 743 2 779 1 803 1 819 1 820 1 827 1 844 1 854 1 875 1 882 1 899 1 909 1 913 1 941 1 950 1 953 1 977 1 981 1 987 1 157 1 162 1 207 1 218 1 227 1 230 1 239 1 252 1 272 1 278 1 299 1 305 1 345 1 391 1 399 1 403 1 469 1 492 1 500 1 510 1 583 1 591 1 598 1 607 1 613 1 617 1 620 1 623 1 634 1 636 1 654 1 658 1 664 1 667 1 682 1 693 1 737 1 768 1 775 1 812 1 830 1 845 1 846 1 862 1 864 1 896 1 924 1 951 1 966 1 972 1 993 1 1006 1 
1 210 13 1 41 1 60 1 69 1 81 1 94 1 112 1 126 1 128 1 2 1 5 1 17 1 49 1 76 1 100 1 107 1 160 1 163 1 171 1 190 1 213 1 221 1 247 1 261 1 270 1 272 1 289 1 315 1 316 1 325 1 327 1 334 1 344 1 345 1 359 1 391 1 415 1 421 1 438 1 448 1 450 1 452 1 488 1 496 1 534 1 543 1 563 1 569 1 576 1 606 1 608 1 617 1 618 1 644 1 650 1 661 1 686 1 690 2 691 1 717 1 722 2 734 1 777 1 854 1 866 2 876 1 879 1 898 1 913 1 924 1 927 2 952 1 953 1 957 1 973 1 982 1 989 1 141 1 193 1 209 1 222 1 226 1 228 1 229 1 303 1 312 1 358 1 365 1 385 1 386 1 396 1 437 1 445 1 447 1 497 1 531 1 547 1 573 1 574 1 591 1 611 1 619 1 624 1 652 1 694 1 737 1 802 1 823 1 826 1 828 1 857 1 864 1 869 1 870 1 871 1 878 1 932 1 934 1 948 1 
1 214 2 1 10 1 13 1 16 1 17 1 20 1 26 1 71 1 78 1 88 1 98 1 36 1 52 1 56 1 62 1 73 1 79 1 135 1 179 1 181 1 199 1 214 1 274 1 294 1 307 1 309 1 325 1 355 1 368 1 373 1 442 1 457 1 460 1 464 1 470 1 471 1 481 1 500 1 519 1 531 1 556 1 571 1 574 1 583 1 615 1 623 1 635 1 654 1 686 1 697 1 699 1 707 1 737 1 759 1 766 1 773 1 779 1 844 1 854 1 874 1 909 1 926 1 956 2 993 1 134 1 229 1 242 1 263 1 275 1 301 1 313 1 353 1 364 1 369 1 375 1 386 1 405 1 408 1 419 1 433 1 443 1 452 1 509 1 511 1 512 1 570 1 605 1 638 1 668 1 672 1 713 1 727 1 729 1 749 1 763 1 768 1 776 1 794 1 806 1 851 1 863 1 879 1 891 1 897 1 906 1 933 1 943 1 953 1 960 1 977 1 994 1 1013 1 
1 203 28 1 52 1 55 1 71 1 82 1 85 1 106 1 116 1 119 1 13 1 29 1 36 1 41 1 79 1 81 1 133 1 160 1 167 1 175 1 201 1 217 2 220 1 245 1 267 1 271 2 281 1 313 1 322 1 323 1 330 1 334 1 343 1 352 2 360 2 362 1 364 1 372 1 382 1 384 1 395 1 400 1 401 1 422 1 429 1 454 1 465 2 472 1 473 1 500 1 506 1 527 1 551 1 609 1 619 1 624 1 643 1 653 1 662 1 668 1 697 1 710 1 757 1 765 1 781 1 785 1 791 1 799 1 839 1 866 1 870 1 881 1 930 2 944 1 950 1 972 1 982 1 151 1 157 1 190 1 206 1 208 1 231 1 263 1 298 1 349 1 357 1 377 1 379 1 397 1 411 1 431 1 440 1 456 1 468 1 474 1 479 1 481 1 496 1 517 1 548 1 549 1 557 1 569 1 576 1 593 1 596 1 622 1 674 1 685 1 738 1 752 1 798 1 807 1 825 1 863 1 888 1 897 1 901 1 912 1 920 1 928 1 945 1 952 1 955 1 991 1 1012 1 
1 209 24 1 30 1 43 1 46 2 61 1 65 1 72 1 83 1 84 1 125 1 133 1 5 1 11 1 17 1 33 1 63 1 124 1 143 2 150 1 151 1 208 1 216 1 227 1 245 1 255 1 256 2 269 1 302 1 306 1 313 1 325 1 331 1 341 1 381 1 387 1 388 1 400 2 401 1 416 1 422 1 429 1 455 1 466 1 470 1 473 1 498 1 505 1 506 1 507 1 540 1 550 1 595 1 612 1 687 1 692 2 700 1 715 1 759 1 760 1 767 1 779 1 794 1 811 1 825 1 831 1 836 1 838 1 843 1 867 1 901 1 908 1 916 1 918 2 925 1 926 1 953 1 982 1 138 1 165 1 183 1 196 1 206 1 217 1 220 1 257 1 263 1 280 1 301 1 304 1 318 1 333 1 337 1 339 1 368 1 377 1 418 1 426 1 476 1 482 1 492 1 517 1 520 1 533 1 545 1 568 1 577 1 608 1 615 1 625 1 634 1 638 1 649 1 680 1 694 1 703 1 724 1 729 1 733 1 753 1 763 1 776 1 784 1 793 1 851 1 909 1 920 1 933 1 935 1 1005 1 1018 1 
1 205 20 1 30 1 101 1 104 2 115 1 121 1 129 1 13 1 14 1 22 1 23 1 29 1 56 1 58 1 61 1 72 1 92 1 109 1 173 1 190 1 217 1 242 1 262 1 264 1 338 1 386 1 402 2 419 1 436 1 458 1 461 1 471 1 484 1 498 1 506 1 514 1 542 1 572 1 573 1 575 1 582 1 585 1 604 1 606 1 617 1 633 1 647 1 674 1 736 1 780 1 783 1 799 1 837 1 863 1 867 1 868 1 876 1 927 1 933 1 941 1 946 1 971 1 973 2 147 1 170 1 182 1 223 1 225 1 307 1 312 1 316 1 318 1 340 1 363 1 384 1 408 1 416 1 417 1 437 1 443 1 449 1 464 1 465 1 491 1 497 1 499 1 518 1 523 1 567 1 589 1 612 1 698 1 699 1 730 1 753 1 794 1 797 1 809 1 858 1 890 1 895 1 909 1 911 1 932 1 966 1 987 1 
1 207 25 1 95 1 114 1 123 1 4 1 33 1 54 1 67 1 72 1 73 1 77 1 80 1 101 1 184 1 204 1 209 1 211 1 236 1 243 1 258 1 262 1 320 1 327 1 332 1 349 1 361 2 364 1 374 1 390 1 408 1 414 1 433 1 436 1 440 1 447 1 458 1 492 1 585 2 589 1 591 1 610 1 617 1 622 1 657 1 685 1 687 1 690 1 705 1 706 1 710 1 740 1 750 1 791 1 822 1 832 1 836 1 852 1 853 1 878 1 891 1 922 1 937 1 949 1 950 1 956 1 994 1 140 1 157 1 187 1 190 1 222 1 227 1 241 1 253 1 264 1 275 1 292 1 294 1 297 1 298 1 315 1 322 1 334 1 357 1 372 1 397 1 406 1 429 1 467 1 475 1 479 1 511 1 525 1 547 1 562 1 565 1 572 1 580 1 603 1 609 1 636 1 660 1 686 1 696 1 698 1 708 1 737 1 763 1 768 1 785 1 805 1 812 1 859 1 866 1 877 1 885 1 912 1 971 1 974 1 989 1 995 1 1004 1 1017 1 
1 212 69 1 88 1 110 2 14 1 45 1 51 1 74 1 81 1 83 1 102 1 105 1 112 1 121 1 135 1 161 1 176 1 214 1 239 1 261 1 274 1 279 1 290 1 294 1 298 1 354 1 358 1 368 1 371 2 407 1 410 1 441 1 444 1 456 1 465 2 467 1 487 1 544 1 548 1 551 1 553 1 566 1 569 1 577 1 606 1 610 1 683 1 750 1 756 1 787 1 788 1 800 1 851 1 944 1 965 1 987 1 152 1 158 1 162 1 181 1 190 1 198 1 217 1 222 1 247 1 272 1 315 1 335 1 339 1 342 1 345 1 458 1 470 1 474 1 476 1 512 1 521 1 571 1 576 1 616 1 619 1 635 1 636 1 673 1 676 1 678 1 720 1 723 1 742 1 744 1 752 1 774 1 840 1 866 1 875 1 886 1 941 1 953 1 972 1 986 1 999 1 1002 1 1019 1 
1 212 16 1 50 1 78 1 83 1 108 1 6 1 15 1 17 1 27 1 55 1 63 1 73 1 91 1 141 1 150 1 200 1 202 1 240 1 278 1 311 1 313 1 327 1 332 1 343 1 398 1 403 1 404 1 413 1 434 1 443 1 461 1 481 2 509 1 543 1 554 1 613 1 621 1 653 1 661 1 680 1 692 1 701 1 708 2 709 1 765 1 779 1 803 1 810 1 811 1 836 1 843 1 851 1 869 1 873 1 886 1 936 1 943 1 947 1 953 1 961 1 970 1 974 1 992 1 994 2 142 1 144 1 151 1 159 1 160 1 179 1 186 1 220 1 224 1 226 1 245 1 286 1 298 1 344 1 357 1 367 1 374 1 377 1 378 1 384 1 436 1 459 1 579 1 585 1 605 1 612 1 670 1 676 1 688 1 694 1 698 1 715 1 738 1 828 1 852 1 897 1 903 1 919 1 930 1 932 1 951 1 960 1 963 1 1003 1 1004 1 1005 1 
1 213 4 1 17 1 62 1 74 1 76 1 103 1 106 1 128 1 29 1 41 1 75 1 80 1 114 1 137 1 154 1 189 1 198 2 222 1 230 1 248 1 263 1 269 1 270 1 273 1 278 2 285 1 321 2 335 1 346 1 375 1 377 1 378 1 387 1 408 1 409 1 443 1 465 2 467 1 471 1 481 2 496 1 520 1 523 1 525 1 533 1 538 1 560 1 599 1 634 1 667 1 677 1 683 2 686 1 690 1 727 1 737 1 755 1 773 1 790 1 795 1 809 1 815 1 853 1 860 1 874 1 892 1 927 1 973 1 974 2 975 1 996 1 150 1 155 1 160 1 286 1 290 1 294 1 345 1 356 1 361 1 428 1 437 1 478 1 503 1 527 1 542 1 578 1 602 1 605 1 631 1 649 1 656 1 660 1 709 1 733 1 762 1 774 1 792 1 826 1 838 1 886 1 923 1 928 1 955 1 970 1 990 1 999 1 1002 1 1004 1 
1 210 19 1 57 1 60 1 85 1 89 1 94 1 139 1 1 1 15 1 43 1 67 1 86 1 115 1 130 1 132 1 160 1 173 1 191 1 212 1 231 1 252 2 280 1 309 1 331 1 332 1 367 1 376 1 406 1 411 1 413 1 416 1 418 1 459 1 500 1 517 1 549 1 559 1 560 1 565 1 574 1 615 1 616 1 634 1 640 1 649 1 686 1 690 1 721 1 731 2 747 1 756 1 784 1 836 1 840 1 868 2 875 1 890 1 896 1 903 1 908 1 917 1 944 1 950 1 956 1 962 1 970 1 975 1 988 1 989 1 992 1 996 1 171 1 195 1 216 1 230 1 254 1 260 1 273 1 294 1 345 1 348 1 354 1 369 1 374 1 444 1 450 1 457 1 464 1 481 1 528 1 598 1 618 1 619 1 622 1 628 1 652 1 677 1 689 1 697 1 699 1 700 1 713 1 790 1 801 1 817 1 818 1 870 1 873 1 885 1 893 1 918 1 964 1 966 1 999 1 1000 1 1007 1 1016 1 
1 212 32 1 48 1 56 1 66 1 68 1 97 1 114 1 118 1 7 1 38 1 41 1 51 1 99 1 139 1 144 1 159 1 169 1 243 1 249 1 264 1 286 1 291 1 320 1 324 1 349 1 351 1 385 1 387 1 394 1 399 1 407 1 468 2 480 1 516 1 524 1 555 1 565 1 582 1 583 1 596 1 621 1 636 1 674 1 787 1 797 1 807 1 860 1 887 1 893 1 895 1 954 1 966 1 988 2 995 2 143 1 156 1 165 1 178 1 191 1 205 1 208 1 233 1 240 1 260 1 267 1 282 1 295 1 328 1 331 1 333 1 350 1 353 1 369 1 374 1 408 1 425 1 445 1 449 1 462 1 494 1 495 1 499 1 501 1 530 1 532 1 541 1 547 1 554 1 637 1 678 1 680 1 687 1 688 1 690 1 733 1 745 1 781 1 784 1 824 1 840 1 875 1 885 1 894 1 916 1 948 1 965 1 991 1 994 1 1002 1 1014 1 1015 1 1018 1 
1 217 2 1 3 1 30 1 31 1 39 1 46 2 55 1 59 1 69 1 77 1 91 2 93 1 129 1 135 2 16 1 22 1 102 1 104 1 142 1 163 1 181 1 184 1 186 1 227 1 248 1 260 1 263 1 265 1 284 1 291 1 311 1 335 1 339 1 398 1 406 1 448 2 464 1 475 1 480 1 496 1 511 1 524 1 567 1 589 1 594 1 621 1 659 1 661 1 673 1 681 1 711 1 732 1 750 2 768 1 780 1 784 1 809 2 812 1 853 2 854 1 867 1 936 1 937 1 939 1 952 1 963 1 992 1 995 1 145 1 153 1 177 1 211 1 264 1 272 1 307 1 340 1 350 1 400 1 404 1 414 1 445 1 457 1 459 1 460 1 463 1 499 1 535 1 551 1 565 1 608 1 622 1 628 1 642 1 662 1 695 1 716 1 737 1 743 1 762 1 765 1 782 1 801 1 863 1 880 1 922 1 928 1 940 1 948 1 950 1 957 1 1006 1 1009 1 1010 1 1016 1 
1 209 17 1 39 1 54 1 60 1 110 1 128 1 142 1 6 1 33 1 43 1 58 1 68 1 139 1 151 1 155 1 169 1 182 1 243 1 293 1 359 1 360 1 408 1 416 1 422 1 426 1 433 1 439 1 452 1 465 1 488 1 492 1 530 1 549 1 566 1 570 1 611 1 621 1 635 1 703 1 738 1 759 1 768 1 769 1 780 1 834 1 848 1 914 1 939 1 980 2 985 1 148 1 185 1 208 1 255 1 287 1 319 1 352 1 354 1 381 1 394 1 444 1 458 1 469 1 471 1 477 1 489 1 496 1 508 1 525 1 546 1 567 1 584 1 593 1 597 1 599 1 608 1 617 1 629 1 630 1 641 1 644 1 648 1 649 1 731 1 734 1 774 1 793 1 802 1 820 1 836 1 882 1 892 1 929 1 934 1 945 1 946 1 958 1 967 1 968 1 979 1 988 1 1002 1 1008 1 
1 209 26 1 57 1 67 2 73 1 88 1 107 1 114 1 121 1 124 1 131 1 54 1 62 1 105 1 143 1 157 1 190 1 203 1 209 1 215 1 241 1 245 1 259 1 268 1 277 1 278 1 281 1 300 1 308 1 344 1 352 1 380 1 384 1 394 1 455 1 464 1 483 1 499 1 505 2 524 1 643 1 650 1 660 1 682 1 689 1 698 1 713 1 733 1 740 1 745 1 789 1 791 1 803 1 807 2 815 1 842 1 878 1 896 1 900 1 922 1 938 1 960 1 968 1 969 1 975 2 992 1 158 1 162 1 229 1 237 1 255 1 263 1 274 1 375 1 376 1 379 1 389 1 398 1 406 1 408 1 463 1 482 1 484 1 518 1 581 1 587 1 684 1 700 1 715 1 737 1 760 1 769 1 778 1 818 1 823 1 836 1 858 1 887 1 909 1 915 1 918 1 941 1 944 1 951 1 987 1 1003 1 1014 1 1017 1 
1 213 8 1 11 1 69 1 6 1 33 1 89 1 101 1 120 1 156 2 159 1 178 1 185 1 235 1 237 1 288 1 299 1 308 1 309 1 318 1 319 1 330 1 332 1 342 2 351 1 352 1 387 1 391 1 393 1 407 1 415 1 419 1 450 2 474 1 480 1 500 1 501 1 507 1 511 1 552 1 584 1 585 1 634 1 641 1 685 1 690 1 691 1 709 1 713 1 717 1 720 1 725 1 788 2 791 1 807 1 822 1 835 1 844 1 888 1 909 1 924 1 926 1 937 1 950 1 974 1 176 1 193 1 196 1 206 1 252 1 285 1 290 1 295 1 316 1 334 1 346 1 363 1 366 1 403 1 416 1 429 1 441 1 471 1 472 1 484 1 498 1 503 1 554 1 562 1 574 1 615 1 646 1 650 1 667 1 737 1 744 1 760 1 773 1 800 1 811 1 813 1 847 1 857 1 879 1 900 1 914 1 929 1 946 1 1008 1 1010 1 1017 1 1018 1 
1 207 6 1 12 1 27 1 36 1 37 2 76 1 79 1 115 1 127 1 16 1 17 1 32 1 43 1 59 1 62 1 75 1 87 1 89 1 98 1 114 1 119 1 136 1 161 1 179 1 189 1 200 1 209 1 212 1 224 2 241 1 245 1 249 1 291 1 294 1 296 2 310 1 314 1 319 1 321 1 327 1 333 1 384 1 398 1 413 1 439 1 446 1 456 1 461 1 466 1 474 1 496 1 517 1 525 1 561 1 572 1 574 1 575 1 577 1 636 2 664 1 671 2 675 1 676 2 706 1 739 1 747 2 774 1 788 2 794 1 835 1 836 1 845 1 895 1 931 1 940 1 947 1 958 1 960 1 975 1 984 1 989 1 996 1 151 1 166 1 177 1 180 1 210 1 213 1 225 1 259 1 276 1 334 1 363 1 368 1 377 1 382 1 389 1 393 1 395 1 418 1 472 1 509 1 513 1 546 1 550 1 551 1 590 1 598 1 604 1 629 1 630 1 651 1 657 1 665 1 691 1 743 1 768 1 787 1 810 1 846 1 879 1 884 1 891 1 896 1 901 1 919 1 971 1 1007 1 
1 207 34 1 47 1 57 1 84 1 91 1 105 1 106 1 31 1 67 1 82 1 144 1 151 1 170 1 200 1 212 1 241 1 272 1 290 1 291 1 307 1 313 1 333 1 350 1 358 1 367 1 368 1 406 1 424 1 432 1 463 1 480 1 483 1 486 1 490 1 501 1 505 1 517 1 529 1 592 1 609 1 625 1 627 1 630 1 645 1 653 1 678 1 698 2 706 1 724 1 744 1 747 1 757 1 789 1 797 1 830 1 870 1 899 1 950 1 951 2 964 1 965 1 967 2 968 1 975 1 976 1 986 1 164 1 167 1 178 1 189 1 219 1 230 1 255 1 262 1 266 1 278 1 303 1 319 1 349 1 371 1 384 1 409 1 416 1 442 1 443 1 462 1 466 1 523 1 526 1 577 1 579 1 582 1 583 1 680 1 695 1 718 1 727 1 748 1 749 1 771 1 783 1 785 1 808 1 809 1 876 1 910 1 916 1 922 1 926 1 971 1 985 1 987 1 991 1 1015 1 
1 208 6 1 13 2 109 1 122 1 40 1 68 1 73 1 89 1 90 1 96 1 102 1 106 1 117 1 198 1 242 1 264 1 294 1 305 1 308 1 311 1 319 1 370 1 383 1 419 1 459 1 500 2 563 1 576 1 599 1 614 2 647 1 653 1 677 1 684 1 703 1 710 1 731 1 760 1 766 1 769 1 786 1 792 1 811 1 813 1 837 1 840 1 864 1 872 1 942 1 943 1 968 1 987 1 181 1 201 1 214 1 254 1 259 1 280 1 283 1 286 1 309 1 352 1 372 1 392 1 394 1 402 1 409 1 417 1 418 1 435 1 455 1 469 1 472 1 476 1 499 1 502 1 524 1 530 1 565 1 566 1 581 1 582 1 591 1 596 1 607 1 654 1 669 1 672 1 698 1 701 1 715 1 717 1 720 1 740 1 746 1 755 1 767 1 781 1 888 1 915 1 922 1 928 1 948 1 969 1 992 1 1000 1 1003 1 1011 1 1012 1 
1 209 1 1 21 1 24 1 37 1 43 1 61 1 75 1 84 2 91 1 92 1 135 1 139 1 38 1 48 1 54 1 82 1 90 1 98 1 104 1 140 1 151 1 176 1 179 1 193 1 207 1 210 1 254 1 267 1 275 1 283 1 291 1 323 1 327 1 333 1 341 1 353 1 397 1 416 1 440 1 482 1 501 1 525 1 532 1 563 1 566 1 591 1 596 1 615 1 619 1 620 1 630 1 652 2 662 1 670 1 671 1 704 1 713 1 811 1 835 1 908 1 914 1 926 1 932 1 939 1 948 1 951 1 956 1 961 1 182 1 183 1 197 1 215 1 216 1 218 1 222 1 235 1 238 1 253 1 268 1 274 1 299 1 328 1 331 1 357 1 376 1 395 1 413 1 433 1 453 1 459 1 462 1 496 1 540 1 543 1 545 1 560 1 567 1 577 1 590 1 618 1 646 1 667 1 687 1 689 1 705 1 715 1 718 1 747 1 750 1 757 1 801 1 812 1 840 1 854 1 860 1 863 1 874 1 881 1 893 1 910 1 965 1 969 1 973 1 978 1 1004 1 1008 1 1009 1 1013 1 1017 1 
1 206 15 1 35 1 43 1 60 1 70 1 80 1 87 1 111 1 127 1 135 1 144 1 148 1 150 1 18 1 21 1 29 1 46 1 97 1 103 1 116 1 134 1 139 1 147 1 153 1 156 1 164 1 238 1 243 1 254 1 285 1 325 1 357 1 422 1 431 1 442 1 453 1 465 1 484 1 487 1 489 1 505 1 510 1 515 1 516 1 547 1 550 1 574 1 579 1 593 1 614 1 629 1 656 1 733 1 757 1 789 1 864 1 866 1 887 1 888 1 898 1 903 1 974 1 976 1 213 1 223 1 244 1 279 1 317 1 364 1 374 1 383 1 424 1 427 1 443 1 447 1 480 1 506 1 508 1 520 1 524 1 541 1 560 1 568 1 573 1 632 1 642 1 669 1 673 1 676 1 703 1 708 1 727 1 730 1 739 1 770 1 778 1 792 1 799 1 834 1 839 1 849 1 897 1 902 1 913 1 921 1 946 1 948 1 959 1 963 1 998 1 
1 208 5 1 8 1 19 1 21 2 37 1 68 1 99 1 106 1 108 1 121 1 28 1 36 1 89 1 138 1 158 1 167 1 182 1 184 1 191 1 192 1 193 1 208 1 221 1 234 1 239 1 252 2 322 1 339 1 349 1 361 1 370 1 390 1 401 2 411 1 442 1 443 1 456 1 520 1 569 1 629 1 657 1 665 1 668 1 674 1 677 1 702 1 711 1 716 1 740 1 748 1 758 1 789 1 792 1 818 1 821 1 823 1 826 1 859 1 909 1 931 2 943 1 949 1 962 1 186 1 235 1 286 1 318 1 375 1 376 1 402 1 410 1 461 1 468 1 497 1 510 1 538 1 539 1 540 1 553 1 593 1 597 1 598 1 603 1 612 1 632 1 656 1 675 1 712 1 720 1 724 1 747 1 784 1 785 1 787 1 790 1 798 1 801 1 831 1 856 1 860 1 866 1 870 1 884 1 895 1 936 1 940 1 944 1 951 1 956 1 1016 1 1018 1 
1 212 2 1 11 1 53 2 57 1 66 1 67 1 68 1 94 1 118 1 151 1 30 1 35 1 36 1 43 1 83 1 117 1 120 1 143 1 169 1 198 1 222 1 241 1 257 1 277 1 285 1 305 1 379 1 389 1 393 1 410 2 423 1 431 1 435 1 478 1 488 1 502 2 521 1 553 1 562 1 565 1 577 1 580 2 590 1 647 1 669 2 682 1 711 1 721 1 739 1 769 1 790 1 794 1 846 1 935 1 940 1 952 1 960 1 964 1 968 1 979 1 980 1 984 1 155 1 164 1 167 1 186 1 202 1 242 1 255 1 260 1 275 1 298 1 319 1 325 1 337 1 339 1 348 1 433 1 436 1 469 1 514 1 529 1 550 1 552 1 575 1 579 1 583 1 609 1 613 1 628 1 651 1 656 1 695 1 738 1 762 1 796 1 808 1 815 1 823 1 836 1 837 1 845 1 894 1 897 1 907 1 911 1 914 1 921 1 923 1 934 1 946 1 953 1 965 1 992 1 999 1 1007 1 1016 1 1017 1 
1 209 11 1 14 1 28 1 67 1 78 1 101 2 126 1 140 1 13 1 50 1 70 1 115 1 124 1 157 1 172 2 180 1 190 1 211 1 230 1 239 1 244 1 262 1 277 1 289 1 290 1 400 1 411 1 412 1 432 1 455 1 473 1 479 1 504 1 506 1 510 1 527 1 528 1 537 1 574 1 576 1 578 1 583 1 596 1 613 1 666 1 689 1 693 1 710 1 719 1 745 1 747 2 763 1 780 1 789 1 797 1 825 1 850 1 852 2 893 1 935 1 942 1 943 1 944 1 955 2 979 1 980 1 985 1 992 1 997 1 175 1 203 1 218 1 237 1 238 1 286 1 301 1 315 1 345 1 356 1 372 1 408 1 416 1 445 1 454 1 459 1 470 1 493 1 499 1 505 1 515 1 535 1 546 1 554 1 586 1 594 1 597 1 657 1 687 1 692 1 702 1 716 1 722 1 759 1 765 1 767 1 769 1 770 1 804 1 818 1 847 1 863 1 873 1 875 1 883 1 908 1 910 1 926 1 958 1 971 1 973 1 974 1 1005 1 1009 1 
1 205 29 1 46 1 144 1 12 1 38 1 60 1 67 1 68 1 97 1 120 1 122 1 140 1 153 1 158 1 192 1 200 1 204 1 248 1 257 1 262 1 273 1 299 1 302 1 325 1 348 1 374 2 385 1 397 1 430 1 456 1 479 1 525 1 537 1 560 1 569 1 590 1 610 1 638 1 645 1 677 1 681 1 688 1 696 1 707 1 731 1 737 1 742 1 767 1 789 1 800 1 813 1 849 1 898 1 922 1 923 1 931 1 932 1 935 1 938 1 941 1 977 1 993 1 177 1 179 1 187 1 236 1 243 1 249 1 261 1 269 1 324 1 337 1 338 1 341 1 347 1 355 1 365 1 383 1 407 1 412 1 420 1 461 1 481 1 482 1 521 1 528 1 552 1 598 1 626 1 629 1 637 1 640 1 656 1 669 1 697 1 698 1 700 1 709 1 726 1 771 1 772 1 778 1 787 1 793 1 798 1 827 1 858 1 960 1 967 1 985 1 991 1 1006 1 
1 208 15 1 20 1 23 1 42 1 89 1 98 1 123 1 128 1 146 2 151 1 2 1 60 1 64 1 142 1 165 1 183 1 210 1 234 1 265 1 290 1 307 1 314 1 321 1 327 1 353 1 354 1 357 2 364 1 391 1 401 1 427 1 437 1 453 1 487 1 498 1 506 1 519 2 532 1 563 1 576 1 589 1 599 1 608 1 613 1 646 1 652 1 679 1 705 1 713 1 725 1 728 1 735 1 834 1 855 1 858 1 865 1 867 1 876 1 878 1 889 1 903 1 915 1 928 2 929 1 930 1 936 1 982 1 998 1 167 1 172 1 179 1 184 1 196 1 202 1 205 1 221 1 245 1 249 1 255 1 295 1 306 1 310 1 363 1 380 1 388 1 411 1 425 1 463 1 472 1 477 1 481 1 483 1 530 1 533 1 557 1 562 1 592 1 596 1 597 1 603 1 638 1 660 1 732 1 746 1 790 1 804 1 809 1 816 1 862 1 890 1 897 1 980 1 1013 1 1017 1 1018 1 
1 209 8 1 14 1 21 1 28 1 49 1 57 1 59 1 73 1 84 1 103 1 105 1 106 1 111 1 123 1 145 1 154 1 34 1 70 1 112 1 131 1 134 1 137 1 159 1 177 1 179 1 245 1 265 1 343 1 350 1 357 1 359 1 360 1 361 1 367 2 368 1 375 1 394 2 412 1 443 1 449 1 453 1 495 1 519 1 537 1 543 1 550 1 641 1 677 1 705 1 724 2 725 1 732 1 755 1 761 1 804 1 855 1 867 1 871 1 873 1 900 1 911 1 920 1 932 1 959 1 963 1 160 1 171 1 174 1 180 1 215 1 218 1 243 1 246 1 278 1 425 1 434 1 445 1 452 1 456 1 470 1 471 1 502 1 515 1 521 1 523 1 535 1 540 1 541 1 549 1 568 1 601 1 679 1 730 1 752 1 754 1 758 1 762 1 772 1 820 1 850 1 858 1 877 1 881 1 921 1 934 1 952 1 968 1 981 1 992 1 1002 1 1006 1 1014 1 
1 204 34 1 37 1 91 1 123 1 152 1 155 1 10 1 15 1 32 1 53 1 103 1 138 1 145 1 219 1 221 1 227 2 233 1 249 1 273 2 277 1 298 1 364 1 391 1 401 1 409 1 423 1 426 1 435 1 459 1 466 1 493 1 524 1 528 1 563 1 590 1 611 2 653 1 710 1 729 1 737 1 743 1 744 1 761 1 764 1 775 1 779 1 784 1 805 1 825 1 845 2 851 1 861 1 871 1 907 1 912 1 954 1 980 1 984 1 990 1 993 1 997 1 162 1 169 1 178 1 189 1 207 1 252 1 260 1 263 1 266 1 290 1 299 1 300 1 320 1 369 1 370 1 380 1 481 1 489 1 505 1 509 1 510 1 530 1 552 1 572 1 617 1 654 1 665 1 667 1 676 1 694 1 697 1 732 1 793 1 803 1 841 1 844 1 893 1 896 1 902 1 903 1 906 1 911 1 915 1 924 1 927 1 938 1 998 1 
1 212 16 1 28 2 71 1 117 1 142 1 146 1 157 1 12 1 32 1 56 1 65 1 68 1 126 1 127 1 129 1 139 1 167 1 219 1 295 1 302 1 304 1 328 1 329 1 331 2 365 1 383 1 404 1 430 1 440 1 455 1 508 1 509 1 516 1 524 1 538 2 551 1 563 1 604 1 611 1 628 1 642 1 645 1 685 1 695 1 719 1 727 1 740 1 805 1 806 1 830 1 844 1 896 1 911 1 913 1 916 1 932 1 940 1 946 1 980 2 989 1 998 1 164 1 177 1 178 1 182 1 189 1 224 1 239 1 255 1 303 1 306 1 313 1 314 1 352 1 379 1 396 1 401 1 414 1 419 1 422 1 448 1 486 1 489 1 503 1 558 1 589 1 594 1 601 1 622 1 633 1 639 1 676 1 687 1 689 1 690 1 698 1 755 1 801 1 811 1 828 1 851 1 852 1 863 1 878 1 886 1 887 1 892 1 914 1 959 1 961 1 966 1 991 1 1010 1 
1 212 6 1 18 1 22 1 68 1 69 1 76 1 86 1 132 1 134 1 141 1 10 1 38 1 45 1 65 1 79 1 93 1 110 1 139 1 140 1 157 1 174 1 179 1 182 1 199 1 209 1 212 1 214 1 221 1 237 1 283 1 298 2 357 1 369 1 372 1 392 1 396 1 399 1 408 1 414 1 430 1 446 2 530 1 532 1 544 1 549 1 550 1 556 1 563 1 580 1 606 1 616 1 667 1 684 2 690 1 718 1 749 1 764 1 771 1 783 1 813 1 818 1 820 1 827 1 842 1 844 1 845 2 869 1 878 1 891 1 932 1 933 1 954 1 170 1 196 1 201 1 204 1 226 1 246 1 253 1 350 1 358 1 361 1 365 1 417 1 438 1 456 1 481 1 495 1 512 1 515 1 575 1 578 1 594 1 600 1 601 1 609 1 660 1 663 1 685 1 706 1 708 1 711 1 724 1 734 1 735 1 742 1 777 1 788 1 789 1 824 1 846 1 854 1 882 1 909 1 917 1 969 1 1016 1 1017 1 
1 212 73 1 84 1 129 1 138 1 147 1 68 1 100 1 117 1 195 1 200 1 224 1 239 1 255 1 275 1 286 1 303 1 344 1 397 1 407 1 432 1 438 1 444 1 449 1 504 1 512 1 521 1 542 1 565 1 617 1 618 1 627 1 635 1 685 1 709 1 729 1 744 1 746 1 760 1 782 1 821 1 824 1 827 1 835 1 845 2 862 1 888 1 898 1 950 1 960 1 990 2 995 1 998 1 163 1 225 1 226 1 238 1 256 1 276 1 277 1 337 1 340 1 351 1 358 1 363 1 385 1 386 1 421 1 436 1 441 1 455 1 456 1 462 1 467 1 479 1 508 1 509 1 528 1 531 1 533 1 545 1 572 1 583 1 591 1 603 1 646 1 672 1 708 1 715 1 716 1 730 1 735 1 738 1 779 1 792 1 826 1 855 1 869 1 916 1 921 1 942 1 962 1 972 1 979 1 996 1 1018 1 
1 210 24 1 26 1 40 1 46 1 47 1 81 1 82 1 113 1 122 1 129 1 5 1 19 1 55 1 59 1 65 1 96 1 111 1 131 1 138 1 145 1 158 1 217 1 246 1 275 1 276 1 279 1 290 1 313 1 403 1 432 1 447 2 449 1 466 1 481 1 488 1 510 1 515 1 521 1 570 1 589 1 596 1 604 2 649 1 671 1 697 1 717 1 759 1 785 2 796 1 816 1 831 1 833 1 846 1 849 1 873 1 887 1 925 1 926 1 941 1 957 1 987 1 164 1 167 1 185 1 187 1 235 1 259 1 261 1 273 1 312 1 316 1 342 1 359 1 370 1 389 1 406 1 425 1 444 1 448 1 462 1 476 1 489 1 496 1 513 1 516 1 527 1 572 1 574 1 650 1 655 1 664 1 689 1 705 1 710 1 750 1 776 1 787 1 820 1 841 1 877 1 882 1 911 1 916 1 928 1 940 1 971 1 978 1 988 1 990 1 1002 1 1005 1 
1 206 6 1 9 1 11 1 27 1 59 2 83 1 100 1 117 1 132 1 143 1 1 1 46 1 64 1 94 1 103 1 109 1 112 1 128 1 129 1 161 1 168 1 199 1 221 1 223 1 225 1 233 1 251 1 258 1 285 1 332 1 335 1 382 1 390 1 411 1 423 2 444 1 463 1 470 1 492 1 494 1 516 1 520 1 595 1 610 1 652 1 657 1 664 1 683 1 700 1 702 1 703 1 712 1 737 1 752 2 769 1 805 1 810 1 890 1 901 1 913 1 934 2 953 1 974 1 998 1 164 1 167 1 195 1 200 1 208 1 216 1 220 1 238 1 280 1 284 1 291 1 303 1 327 1 329 1 342 1 373 1 399 1 414 1 428 1 441 1 452 1 461 1 503 1 508 1 513 1 557 1 583 1 634 1 673 1 705 1 719 1 729 1 755 1 800 1 825 1 833 1 834 1 838 1 844 1 860 1 863 1 880 1 884 1 900 1 946 1 955 1 959 1 
1 212 22 1 33 2 35 1 53 1 97 1 108 1 151 1 61 1 80 1 81 1 113 1 148 1 153 1 159 1 162 1 163 1 176 2 188 1 202 1 225 1 234 1 235 1 240 1 247 1 254 1 280 1 286 1 341 1 345 1 348 1 350 1 363 1 366 1 421 1 428 1 436 1 443 1 457 1 488 1 498 1 524 1 537 1 539 1 559 1 576 1 579 1 590 2 627 1 695 1 702 1 755 1 769 1 818 1 852 1 888 1 899 1 918 1 936 1 943 1 946 1 957 1 961 1 974 1 976 1 182 1 189 1 194 1 244 1 257 1 264 1 313 1 315 1 344 1 370 1 378 1 418 1 432 1 448 1 470 1 485 1 502 1 503 1 508 1 542 1 550 1 551 1 556 1 587 1 617 1 644 1 656 1 714 1 719 1 738 1 761 1 772 1 780 1 781 1 789 1 791 1 800 1 802 1 806 1 832 1 848 1 877 1 905 1 917 1 958 1 963 1 1007 1 1012 1 
1 207 33 1 44 1 76 1 79 1 94 1 95 1 99 1 105 1 131 1 156 1 23 1 55 1 75 1 89 1 106 1 128 1 130 1 135 1 142 1 179 1 182 1 183 2 192 1 208 2 229 1 247 1 268 1 269 1 271 1 275 1 320 1 376 1 397 1 420 1 423 2 426 1 434 1 466 2 472 1 505 1 511 1 532 1 548 1 551 1 577 1 609 1 643 1 682 1 683 1 696 1 704 1 711 1 719 1 736 1 748 1 763 1 767 1 796 1 806 1 836 1 838 1 841 1 869 1 884 1 894 1 918 1 923 1 927 1 966 1 985 1 986 1 167 1 187 1 189 1 201 1 217 1 243 1 246 1 251 1 260 1 273 1 279 1 285 1 287 1 296 1 301 1 311 1 314 1 321 1 332 1 354 1 358 1 363 1 380 1 394 1 450 1 487 1 519 1 542 1 568 1 583 1 597 1 621 1 650 1 654 1 657 1 658 1 687 1 755 1 759 1 778 1 779 1 835 1 837 1 850 1 860 1 928 1 991 1 995 1 1015 1 
1 208 3 1 17 1 82 1 92 1 113 1 124 1 38 1 48 1 51 1 52 1 63 1 66 1 73 1 89 1 99 1 118 1 122 1 123 1 127 1 147 1 172 1 175 1 186 1 235 1 238 1 245 1 262 1 281 1 282 1 287 1 376 1 396 1 435 1 438 1 442 1 450 1 453 1 462 1 494 1 504 1 505 1 516 1 558 1 561 1 588 1 592 1 625 1 650 1 651 1 655 1 659 1 669 1 711 1 758 1 763 1 768 1 792 1 809 1 829 1 871 1 904 1 906 1 969 1 970 1 982 1 996 1 176 1 188 1 195 1 196 1 199 1 214 1 240 1 251 1 259 1 291 1 312 1 323 1 333 1 348 1 413 1 461 1 467 1 491 1 529 1 544 1 567 1 598 1 627 1 633 1 639 1 723 1 731 1 732 1 740 1 756 1 764 1 819 1 836 1 838 1 840 1 862 1 875 1 889 1 891 1 901 1 912 1 923 1 930 1 940 1 946 1 948 1 951 1 952 1 958 1 984 1 1007 1 1014 1 
1 212 1 1 8 1 17 1 29 1 35 1 62 1 74 2 75 1 112 1 117 1 134 1 152 1 159 1 30 1 43 1 61 1 69 1 72 1 81 1 86 1 148 1 153 1 156 1 162 1 163 1 165 1 180 1 204 1 224 1 252 1 267 1 269 1 293 1 295 1 305 1 307 1 312 1 315 1 318 1 350 1 361 1 382 1 402 1 408 1 411 1 413 1 419 1 450 1 462 1 482 1 504 1 507 1 509 1 516 1 519 1 522 1 545 1 552 1 560 1 571 1 572 1 607 1 610 1 620 2 621 1 626 1 671 1 696 1 698 1 702 1 738 2 806 1 819 1 848 1 878 1 885 1 920 1 936 1 942 1 947 1 949 1 958 2 962 1 968 1 235 1 238 1 239 1 240 1 243 1 247 1 273 1 287 1 288 1 296 1 321 1 365 1 367 1 369 1 375 1 395 1 397 1 439 1 481 1 496 1 514 1 521 1 526 1 535 1 600 1 619 1 635 1 662 1 665 1 673 1 686 1 699 1 753 1 767 1 799 1 808 1 823 1 831 1 923 1 934 1 943 1 1001 1 1003 1 1004 1 1007 1 1009 1 1010 1 1018 1 
1 210 19 1 46 1 61 1 163 1 11 1 34 1 101 1 125 1 202 1 219 1 253 1 291 1 322 2 366 1 392 1 404 1 419 1 459 1 471 2 490 1 498 2 526 1 545 1 594 1 608 1 609 2 610 1 617 2 619 1 641 1 657 1 679 1 680 2 681 1 711 1 719 1 723 1 752 1 770 1 803 1 811 1 813 2 815 1 854 2 872 2 880 1 892 1 895 1 961 1 969 1 970 2 991 1 997 1 179 1 201 1 217 1 236 1 239 1 241 1 262 1 300 1 328 1 358 1 445 1 457 1 462 1 463 1 480 1 484 1 485 1 489 1 495 1 497 1 508 1 514 1 553 1 579 1 586 1 623 1 707 1 718 1 726 1 729 1 738 1 745 1 762 1 779 1 786 1 801 1 840 1 876 1 878 1 890 1 938 1 955 1 956 1 957 1 973 1 1000 1 1004 1 
1 206 3 1 5 1 7 1 19 1 42 1 52 1 55 1 56 1 64 1 78 1 86 1 119 1 142 1 144 1 153 1 16 1 43 1 51 1 87 1 100 1 130 1 158 1 208 1 253 1 269 1 272 1 295 1 310 1 320 1 334 1 344 1 350 1 377 1 388 1 435 2 463 1 466 1 505 1 511 1 515 1 516 1 519 1 540 1 546 1 553 1 590 1 599 1 606 1 610 1 621 1 624 1 629 1 647 1 679 1 682 1 683 1 696 1 779 1 787 1 790 1 826 1 837 1 849 2 857 1 858 1 888 1 912 1 942 1 955 1 969 1 990 1 192 1 198 1 205 1 215 1 216 1 288 1 300 1 338 1 352 1 353 1 356 1 386 1 387 1 389 1 446 1 451 1 475 1 481 1 521 1 539 1 557 1 560 1 563 1 597 1 614 1 636 1 638 1 661 1 738 1 747 1 783 1 796 1 809 1 874 1 875 1 877 1 893 1 895 1 898 1 903 1 916 1 919 1 923 1 1018 1 
1 213 61 1 65 1 69 1 74 1 77 1 86 2 126 1 148 1 18 1 30 1 40 1 54 1 70 1 73 1 91 1 96 1 104 1 125 1 136 1 160 1 173 1 182 1 184 1 193 1 206 1 214 1 215 1 224 2 243 1 247 1 260 1 292 1 343 1 390 1 392 1 405 1 412 1 424 1 428 1 433 1 449 1 489 1 496 2 522 1 525 1 529 1 554 1 562 1 567 2 584 1 585 2 589 1 620 1 625 1 661 2 667 1 697 1 713 1 752 1 755 1 757 1 787 1 818 1 837 1 853 1 877 1 882 1 922 1 953 1 987 1 196 1 231 1 238 1 242 1 267 1 278 1 280 1 291 1 294 1 303 1 312 1 314 1 383 1 385 1 400 1 437 1 444 1 451 1 455 1 487 1 493 1 504 1 515 1 542 1 555 1 556 1 598 1 603 1 624 1 682 1 716 1 761 1 785 1 789 1 791 1 797 1 865 1 897 1 900 1 911 1 928 1 946 1 996 1 998 1 1004 1 1010 1 1011 1 1013 1 
1 209 4 1 24 1 33 1 49 1 102 1 107 1 129 1 132 1 9 1 10 1 22 1 27 1 62 1 73 1 75 1 82 1 99 1 105 1 141 1 157 1 221 1 243 1 245 1 262 2 290 1 311 1 327 1 353 1 357 1 386 1 400 1 435 1 489 1 496 1 498 1 505 1 548 1 565 1 578 1 591 1 595 1 605 1 614 1 630 1 631 1 642 1 648 1 665 1 666 1 689 1 691 1 705 1 709 1 725 1 744 2 749 1 794 1 803 1 807 2 814 1 828 1 834 1 841 1 878 1 937 1 981 2 993 1 995 2 172 1 188 1 193 1 207 1 210 1 235 1 266 1 292 1 351 1 363 1 383 1 389 1 394 1 410 1 414 1 417 1 420 1 440 1 461 1 462 1 471 1 474 1 490 1 538 1 588 1 594 1 597 1 598 1 633 1 635 1 650 1 655 1 663 1 701 1 733 1 759 1 776 1 816 1 829 1 847 1 868 1 881 1 891 1 894 1 921 1 928 1 962 1 
1 213 48 2 52 1 53 1 55 1 82 1 89 1 126 1 154 2 166 1 34 1 90 1 119 1 121 1 156 1 171 1 187 1 202 1 217 1 227 1 268 1 287 1 297 1 308 1 315 1 318 1 327 1 329 1 341 1 372 1 380 1 410 1 415 1 433 1 448 1 469 1 470 1 471 1 478 2 517 1 551 1 553 1 581 1 626 1 673 1 735 1 754 1 758 1 760 1 772 1 776 1 777 1 782 1 790 1 795 1 806 1 823 1 847 1 881 1 895 1 933 1 967 2 970 1 971 1 174 1 184 1 190 1 226 1 236 1 250 1 298 1 330 1 331 1 348 1 356 1 359 1 370 1 407 1 411 1 425 1 439 1 449 1 455 1 459 1 461 1 463 1 467 1 492 1 504 1 514 1 516 1 518 1 526 1 535 1 566 1 573 1 582 1 604 1 653 1 681 1 691 1 716 1 722 1 732 1 774 1 810 1 813 1 814 1 831 1 833 1 902 1 906 1 922 1 940 1 995 1 
1 211 12 1 18 1 29 1 35 1 78 1 87 1 130 1 136 1 141 1 170 1 24 1 30 1 31 1 44 1 50 1 75 1 77 1 88 1 190 1 229 1 233 1 234 1 248 1 255 1 276 1 280 1 286 1 328 1 380 1 386 1 397 1 400 1 412 1 418 1 466 1 474 1 475 1 476 1 480 1 483 1 550 1 551 1 557 1 567 1 583 1 677 1 710 1 726 1 776 1 823 1 849 1 857 1 864 2 873 1 875 1 902 1 931 1 954 1 955 1 986 1 204 1 206 1 254 1 265 1 266 1 299 1 310 1 357 1 384 1 460 1 461 1 488 1 492 1 507 1 517 1 519 1 532 1 592 1 603 1 610 1 612 1 644 1 654 1 692 1 694 1 696 1 705 1 707 1 716 1 729 1 732 1 747 1 772 1 793 1 797 1 803 1 844 1 851 1 858 1 887 1 888 1 909 1 922 1 934 1 945 1 964 1 965 1 967 1 980 1 1008 1 1009 1 
1 207 16 1 27 1 47 1 61 1 72 1 77 1 86 1 99 1 125 1 160 1 100 1 114 1 130 1 157 1 172 1 187 1 189 1 206 1 220 1 252 1 275 1 289 1 290 1 292 1 325 1 338 1 339 1 341 1 346 1 386 1 401 1 415 1 425 1 442 1 453 1 456 1 479 1 514 1 519 1 527 1 546 1 574 1 607 1 684 1 724 1 758 1 792 1 793 1 799 1 801 1 820 1 827 1 831 2 839 1 886 2 904 1 909 1 936 2 937 1 939 2 997 1 211 1 253 1 266 1 349 1 353 1 361 1 371 1 383 1 421 1 441 1 443 1 447 1 450 1 473 1 475 1 499 1 500 1 512 1 534 1 538 1 553 1 625 1 637 1 640 1 647 1 653 1 656 1 671 1 697 1 712 1 732 1 737 1 745 1 767 1 774 1 779 1 800 1 813 1 823 1 871 1 878 1 883 1 914 1 918 1 921 1 949 1 959 1 996 1 
1 207 4 1 5 2 10 1 17 1 24 1 25 1 35 1 43 1 47 1 51 1 67 1 74 1 125 1 134 1 166 1 2 1 15 1 19 1 27 1 44 1 48 1 84 1 88 1 114 1 117 1 119 1 128 1 154 1 194 1 201 1 219 1 226 1 237 1 250 1 254 1 260 1 273 1 279 1 287 1 311 1 333 1 362 1 424 1 449 1 572 1 581 1 605 1 619 1 685 1 691 1 715 1 738 1 754 1 773 1 788 1 795 1 832 1 834 1 835 1 839 1 844 1 864 1 873 1 908 1 936 1 972 1 981 1 990 1 204 1 205 1 206 1 235 1 248 1 302 1 330 1 337 1 364 1 371 1 405 1 407 1 452 1 468 1 488 1 504 1 544 1 620 1 631 1 637 1 649 1 686 1 696 1 706 1 758 1 767 1 778 1 790 1 801 1 809 1 829 1 886 1 888 1 889 1 895 1 909 1 937 1 955 1 957 1 958 1 963 1 989 1 999 1 1002 1 1013 1 
1 208 29 1 52 1 106 1 113 1 138 1 150 1 164 2 62 1 67 1 88 1 114 1 119 1 146 1 166 1 181 1 187 1 197 1 198 1 223 1 270 1 278 1 283 2 303 2 343 1 357 1 417 1 421 1 425 1 461 1 463 1 466 1 482 1 491 1 505 1 515 1 520 1 530 1 532 1 539 1 570 1 597 1 606 1 607 1 616 1 622 1 672 1 686 1 748 1 833 2 834 1 867 1 893 1 918 1 921 1 943 1 944 1 991 1 994 1 185 1 188 1 204 1 221 1 228 1 242 1 244 1 249 1 287 1 293 1 312 1 313 1 317 1 362 1 386 1 433 1 440 1 472 1 481 1 489 1 498 1 516 1 537 1 542 1 563 1 593 1 627 1 630 1 635 1 663 1 680 1 718 1 733 1 798 1 805 1 860 1 878 1 881 1 882 1 902 1 908 1 913 1 930 1 956 1 962 1 965 1 980 1 1013 1 1017 1 
1 212 13 1 64 1 96 1 99 1 130 1 157 1 12 1 27 1 40 1 46 1 49 1 63 1 67 1 77 1 95 1 102 1 113 1 143 1 147 1 155 1 159 1 194 1 201 1 211 1 226 1 280 1 332 1 334 1 336 2 359 1 367 1 396 1 422 1 434 2 494 1 508 1 511 1 513 1 523 1 535 1 537 1 544 2 573 1 592 1 609 1 618 1 630 1 632 1 678 1 712 2 714 1 716 1 735 1 749 1 753 1 756 2 778 1 799 1 810 1 841 1 850 1 851 1 867 1 876 1 930 2 946 1 948 1 970 2 976 1 992 1 179 1 180 1 197 1 214 1 216 1 228 1 261 1 281 1 293 1 295 1 305 1 321 1 333 1 365 1 378 1 384 1 429 1 431 1 439 1 442 1 464 1 485 1 528 1 541 1 564 1 568 1 625 1 642 1 662 1 669 1 670 1 677 1 679 1 680 1 685 1 687 1 700 1 709 1 723 1 730 1 769 1 789 1 796 1 825 1 859 1 863 1 874 1 877 1 911 1 912 1 952 1 967 1 999 1 1007 1 1011 1 1015 1 
1 209 15 1 21 2 35 1 37 1 69 1 92 2 95 1 112 1 118 1 146 1 60 1 64 1 76 1 107 1 113 1 130 1 142 1 148 1 158 1 159 1 181 1 192 1 194 1 216 1 219 1 232 1 242 1 244 1 295 1 310 1 321 1 380 1 402 1 417 1 439 1 440 1 481 1 543 1 544 1 567 1 608 1 620 1 623 1 631 1 646 1 709 1 722 1 736 1 737 1 765 1 781 1 836 1 892 1 901 1 906 1 912 1 929 1 934 1 937 1 951 1 996 1 212 1 218 1 257 1 259 1 269 1 318 1 336 1 349 1 369 1 372 1 392 1 393 1 409 1 423 1 447 1 453 1 469 1 496 1 517 1 529 1 533 1 566 1 571 1 592 1 598 1 633 1 634 1 639 1 676 1 677 1 688 1 757 1 834 1 846 1 850 1 860 1 910 1 924 1 958 1 974 1 986 1 1001 1 1004 1 1016 1 1019 1 
1 211 5 1 16 1 18 1 26 1 65 1 66 1 76 1 122 1 133 1 147 1 150 1 157 1 160 1 165 1 17 1 28 1 60 1 68 1 69 1 88 1 110 1 139 1 155 1 156 1 168 1 177 1 183 1 240 1 243 1 253 1 262 1 264 1 278 1 302 1 314 1 326 1 331 1 347 1 349 1 381 1 384 1 394 1 400 1 427 1 485 1 493 1 500 2 522 1 538 1 547 1 587 1 627 1 652 1 719 1 732 1 772 1 775 1 787 1 793 1 815 1 827 1 855 1 880 1 899 1 907 1 908 1 909 1 939 1 966 1 974 1 994 1 191 1 193 1 199 1 204 1 211 1 216 1 225 1 252 1 274 1 299 1 301 1 312 1 346 1 348 1 350 1 355 1 361 1 375 1 377 1 383 1 385 1 397 1 410 1 426 1 439 1 452 1 457 1 574 1 606 1 609 1 620 1 622 1 650 1 656 1 671 1 693 1 718 1 728 1 729 1 737 1 750 1 762 1 778 1 786 1 789 1 798 1 813 1 822 1 845 1 846 1 889 1 922 1 962 1 975 1 982 1 997 1 1004 1 1005 1 
1 212 8 1 26 1 27 1 29 1 32 1 36 1 55 1 56 1 60 1 67 1 90 1 98 1 104 1 116 1 117 1 121 1 123 1 154 1 167 1 13 1 30 1 69 1 71 1 74 1 88 1 89 1 96 1 125 1 147 1 157 1 177 1 198 1 215 1 221 1 228 1 229 1 239 1 290 1 305 1 309 1 333 1 361 1 396 1 397 1 409 2 434 1 488 1 595 1 613 1 617 1 622 1 629 1 632 2 653 1 654 1 693 1 701 1 733 1 736 1 767 1 803 1 888 1 919 1 931 1 934 1 943 1 952 1 962 1 982 1 983 1 193 1 213 1 236 1 249 1 274 1 285 1 296 1 299 1 410 1 457 1 462 1 513 1 517 1 518 1 521 1 524 1 525 1 536 1 555 1 571 1 573 1 574 1 607 1 626 1 638 1 708 1 715 1 740 1 765 1 789 1 795 1 807 1 814 1 828 1 848 1 866 1 868 1 899 1 938 1 975 1 996 1 1007 1 1013 1 1017 1 
1 208 12 1 19 1 71 1 75 1 118 1 133 1 143 1 176 1 178 1 1 1 38 1 39 1 65 1 111 1 138 1 149 1 182 1 184 1 195 1 206 1 231 1 247 1 263 1 272 1 294 1 326 2 328 1 356 1 369 1 381 1 384 2 408 1 415 1 463 1 470 1 484 1 495 1 523 1 573 1 588 1 589 1 607 1 609 1 624 1 662 1 667 1 705 1 731 1 771 1 778 1 790 1 805 2 807 1 808 1 810 1 824 1 829 1 831 1 875 1 894 1 897 1 899 1 906 1 918 1 938 1 945 1 973 1 991 1 185 1 221 1 228 1 251 1 264 1 268 1 278 1 281 1 312 1 319 1 346 1 398 1 400 1 410 1 424 1 429 1 451 1 452 1 458 1 466 1 581 1 593 1 602 1 615 1 619 1 627 1 644 1 648 1 651 1 652 1 655 1 678 1 685 1 691 1 763 1 769 1 770 1 777 1 826 1 843 1 846 1 848 1 853 1 871 1 922 1 923 1 933 1 953 1 963 1 989 1 992 1 
1 216 9 1 43 1 61 1 70 1 103 1 106 1 144 1 152 1 160 1 165 1 170 1 181 1 2 1 28 1 30 1 51 1 52 1 95 1 107 1 111 1 136 1 150 1 159 1 164 1 192 1 210 1 218 2 219 1 224 1 225 1 240 1 247 1 259 1 269 1 272 1 287 1 331 1 333 1 338 1 350 1 353 1 378 1 383 1 386 2 431 1 441 1 455 2 463 1 507 1 531 1 563 1 581 1 585 1 601 1 612 1 637 1 643 1 656 1 657 1 662 1 680 1 691 1 706 1 712 1 713 1 763 1 770 2 787 1 795 1 808 1 862 1 891 1 906 1 908 1 932 1 187 1 203 1 221 1 242 1 251 1 300 1 308 1 330 1 337 1 358 1 364 1 370 1 395 1 432 1 449 1 461 1 464 1 486 1 487 1 491 1 493 1 498 1 558 1 568 1 594 1 595 1 604 1 611 1 660 1 689 1 722 1 761 1 819 1 822 1 832 1 905 1 911 1 957 1 960 1 971 1 972 1 989 1 997 1 1018 1 
1 208 7 1 13 1 62 1 65 2 66 2 69 1 101 1 113 1 120 1 124 1 156 1 165 2 179 1 4 1 11 1 17 1 38 1 51 1 53 1 61 1 71 1 85 1 116 1 135 1 150 1 187 1 194 1 209 1 214 1 220 1 230 1 240 1 247 1 264 1 275 1 307 1 321 1 330 1 334 1 385 1 401 1 402 1 423 2 438 1 475 1 492 1 522 1 543 1 571 1 586 1 596 1 619 1 658 1 661 1 671 1 676 1 718 1 728 1 786 1 814 1 831 1 845 1 852 1 863 1 875 1 895 1 905 1 912 1 957 1 962 1 967 1 986 1 996 1 195 1 234 1 245 1 249 1 251 1 297 1 314 1 315 1 340 1 358 1 362 1 363 1 381 1 386 1 404 1 405 1 418 1 432 1 477 1 526 1 527 1 631 1 680 1 703 1 766 1 823 1 836 1 859 1 865 1 916 1 927 1 978 1 988 1 1003 1 1007 1 1012 1 
1 209 7 1 19 2 29 1 71 1 86 1 99 2 101 1 131 1 137 1 143 1 152 1 170 1 181 1 34 1 73 1 74 1 115 1 119 1 124 1 156 1 172 1 187 2 209 1 215 1 246 1 286 1 312 1 320 1 323 2 336 1 365 2 413 1 415 1 418 1 421 1 429 1 430 1 451 1 458 1 463 1 477 1 478 1 517 1 520 1 533 1 569 1 602 2 619 1 621 1 628 1 637 1 669 1 673 1 674 1 720 1 726 1 743 1 746 1 768 2 789 1 807 1 844 1 852 1 854 1 858 1 893 1 904 1 957 1 977 1 983 1 222 1 274 1 278 1 291 1 369 1 389 1 390 1 419 1 438 1 454 1 489 1 507 1 522 1 528 1 549 1 566 1 570 1 583 1 587 1 622 1 641 1 672 1 731 1 755 1 782 1 809 1 835 1 847 1 918 1 928 1 961 1 967 1 998 1 1002 1 1004 1 1009 1 1014 1 
1 212 3 1 6 1 9 1 76 1 87 2 117 1 131 1 146 1 27 1 46 1 62 1 113 1 144 1 162 1 176 1 181 1 195 1 276 1 290 1 332 1 340 1 354 1 370 1 381 1 395 1 441 1 467 1 530 1 541 1 571 1 610 1 640 1 648 1 649 2 658 1 667 1 726 1 729 1 761 1 765 1 787 1 795 1 809 1 855 1 858 1 863 1 881 1 944 1 993 1 222 1 235 1 244 1 260 1 274 1 287 1 295 1 300 1 314 1 318 1 356 1 362 1 365 1 387 1 427 1 473 1 502 1 511 1 529 1 532 1 538 1 539 1 545 1 569 1 596 1 608 1 611 1 612 1 635 1 642 1 643 1 650 1 651 1 678 1 679 1 684 1 702 1 703 1 728 1 746 1 788 1 789 1 793 1 830 1 832 1 864 1 893 1 901 1 924 1 941 1 947 1 948 1 953 1 979 1 1011 1 1014 1 1015 1 1016 1 
1 209 35 1 79 1 80 1 98 1 114 1 143 1 166 1 33 1 52 1 57 1 58 1 59 1 64 1 84 1 97 1 118 1 139 1 152 1 153 1 214 1 216 1 273 1 275 1 292 1 311 1 379 1 415 1 416 1 420 1 441 1 452 1 466 1 476 1 484 1 490 1 532 1 553 1 559 1 573 1 579 1 580 1 586 1 593 1 621 1 657 1 736 1 739 1 740 1 748 1 752 1 758 1 759 1 763 2 815 1 843 1 889 1 895 1 898 1 904 1 917 1 957 2 976 1 980 1 196 1 260 1 294 1 297 1 352 1 357 1 358 1 369 1 385 1 391 1 433 1 458 1 469 1 494 1 509 1 529 1 531 1 535 1 551 1 555 1 557 1 567 1 576 1 577 1 583 1 602 1 636 1 645 1 646 1 677 1 687 1 742 1 747 1 772 1 780 1 828 1 849 1 852 1 856 1 906 1 920 1 925 1 935 1 942 1 953 1 963 1 981 1 1009 1 1013 1 
1 205 2 1 24 1 27 1 30 1 34 1 36 1 40 1 51 1 97 1 99 1 111 1 119 1 172 1 174 1 176 1 183 1 184 2 23 1 32 1 49 1 63 1 103 1 137 1 155 1 162 1 165 1 182 1 213 1 289 1 328 1 352 1 371 1 372 1 419 1 445 1 465 1 467 1 495 1 498 1 544 1 570 1 595 1 601 1 605 1 618 1 624 1 651 1 671 1 759 2 784 1 820 1 828 1 831 1 838 1 842 1 853 1 861 1 893 2 923 1 945 1 991 1 209 1 219 1 225 1 312 1 315 1 326 1 335 1 344 1 367 1 383 1 405 1 408 1 469 1 480 1 486 1 547 1 549 1 584 1 590 1 597 1 617 1 619 1 631 1 649 1 654 1 667 1 675 1 710 1 733 1 744 1 775 1 776 1 783 1 785 1 790 1 805 1 809 1 812 1 813 1 827 1 847 1 869 1 880 1 885 1 890 1 898 1 934 1 942 1 961 1 
1 212 36 1 56 1 68 1 75 1 95 1 112 1 115 1 128 1 131 1 164 1 15 1 30 1 64 1 67 1 70 1 77 1 125 1 166 1 171 1 176 1 205 1 220 1 245 1 254 1 255 1 284 1 296 1 297 1 302 1 306 1 312 1 339 1 356 1 363 1 371 1 423 1 434 1 445 1 469 1 470 1 548 1 561 1 562 1 569 1 625 1 644 1 645 1 663 1 679 1 691 1 719 1 759 1 777 1 782 1 801 1 805 1 806 1 811 1 815 1 831 1 839 1 840 1 854 1 870 1 880 1 919 1 953 1 975 1 986 1 191 1 198 1 269 1 327 1 331 1 370 1 378 1 380 1 395 1 438 1 473 1 483 1 499 1 502 1 505 1 511 1 572 1 582 1 583 1 584 1 627 1 639 1 652 1 661 1 671 1 708 1 720 1 722 1 823 1 837 1 846 1 867 1 874 1 884 1 889 1 921 1 927 1 952 1 978 1 1005 1 1007 1 1016 1 1019 1 
1 209 7 1 8 1 32 1 40 1 45 1 93 2 104 1 118 1 124 1 140 1 147 1 174 1 54 1 80 1 94 1 99 1 108 1 109 1 114 1 116 1 120 1 148 1 158 1 159 1 164 1 165 1 197 1 215 1 227 1 235 1 284 1 290 1 294 1 296 1 307 1 313 1 318 2 338 1 419 1 431 1 436 1 452 1 459 2 470 1 498 1 515 1 517 1 523 1 562 1 582 1 591 1 616 1 629 1 655 1 657 1 681 1 727 1 730 1 741 1 750 1 762 1 775 1 789 1 838 1 869 1 919 2 949 1 962 1 978 1 979 1 195 1 217 1 218 1 257 1 258 1 273 1 278 1 286 1 293 1 316 1 319 1 391 1 392 1 397 1 422 1 424 1 433 1 446 1 472 1 519 1 520 1 541 1 564 1 606 1 626 1 648 1 668 1 684 1 686 1 693 1 708 1 718 1 774 1 793 1 802 1 814 1 855 1 857 1 883 1 886 1 912 1 916 1 931 1 955 1 984 1 988 1 1009 1 1016 1 
1 210 12 1 22 1 23 1 58 1 61 1 80 1 92 1 130 1 132 1 136 1 145 1 154 1 173 1 59 1 67 1 76 1 134 1 137 1 138 1 172 1 192 2 254 1 263 1 283 2 313 1 347 1 351 1 357 1 373 1 374 1 388 1 398 1 406 1 457 1 479 1 499 2 505 1 517 1 558 1 563 1 605 1 608 1 612 1 628 1 632 1 636 1 661 1 695 1 698 1 704 1 709 1 716 1 731 1 734 1 757 1 758 1 764 1 774 1 797 1 804 1 813 1 838 1 870 1 872 1 874 1 878 1 911 1 973 1 191 1 214 1 215 1 216 1 290 1 318 1 363 1 365 1 407 1 424 1 426 1 428 1 434 1 445 1 450 1 454 1 463 1 473 1 483 1 503 1 587 1 591 1 596 1 597 1 655 1 673 1 678 1 800 1 802 1 806 1 839 1 843 1 854 1 887 1 906 1 912 1 918 1 928 1 955 1 1008 1 
1 213 22 1 65 1 70 1 71 1 92 1 97 1 141 1 152 1 11 1 15 1 31 1 37 1 42 1 43 1 51 1 67 1 79 1 114 1 142 1 179 1 188 1 190 1 201 1 205 1 237 1 271 1 281 1 317 1 334 1 357 2 414 1 421 1 422 1 423 1 429 1 458 1 513 1 528 1 555 1 603 1 640 1 647 1 651 1 655 1 693 2 701 1 745 1 750 1 760 1 764 1 797 2 820 1 825 1 829 1 840 1 854 2 855 1 860 1 871 1 886 1 899 1 902 1 910 1 912 1 913 1 917 1 926 1 928 1 930 1 957 1 964 1 972 1 977 1 984 1 225 1 240 1 261 1 275 1 305 1 325 1 339 1 401 1 435 1 439 1 442 1 461 1 472 1 478 1 482 1 535 1 536 1 561 1 563 1 574 1 593 1 645 1 649 1 669 1 675 1 717 1 720 1 751 1 752 1 789 1 816 1 861 1 862 1 876 1 879 1 892 1 923 1 940 1 948 1 953 1 969 1 988 1 1005 1 1009 1 1015 1 
1 207 10 1 39 1 54 1 59 1 65 1 70 1 82 1 94 1 96 1 110 1 115 1 118 2 123 1 124 1 130 1 152 1 155 1 165 1 178 1 182 1 190 2 14 1 32 1 49 1 76 1 91 1 105 1 127 1 169 1 206 1 211 1 212 1 213 1 224 1 236 1 270 1 272 1 279 1 284 1 306 1 309 1 320 1 330 1 332 1 378 1 388 1 391 1 405 1 419 1 429 1 444 1 446 1 479 1 484 2 491 1 492 1 494 1 514 1 518 1 527 1 536 1 545 1 549 1 553 1 577 1 585 1 589 1 591 1 610 1 611 1 617 1 635 1 656 1 677 1 690 1 705 1 707 1 718 1 730 2 737 1 739 1 753 1 785 1 787 1 802 1 804 1 830 1 868 1 871 1 873 1 888 1 893 1 898 1 903 1 937 1 943 1 967 1 990 1 998 1 205 1 251 1 258 1 273 1 287 1 297 1 304 1 312 1 340 1 364 1 385 1 410 1 435 1 441 1 456 1 458 1 486 1 637 1 671 1 680 1 685 1 688 1 692 1 731 1 776 1 779 1 780 1 791 1 844 1 846 1 877 1 960 1 981 1 1006 1 1007 1 1015 1 
1 213 3 1 13 1 15 1 26 1 109 1 150 1 152 1 170 1 35 1 39 1 102 1 105 1 119 1 127 1 132 1 146 1 171 1 179 1 180 1 194 1 214 1 224 2 262 1 274 1 282 1 288 1 305 1 319 1 331 1 349 1 370 1 394 1 415 1 421 1 444 1 459 1 486 2 493 1 494 1 513 1 525 1 533 1 547 1 566 1 569 1 582 1 622 1 641 1 663 1 672 1 678 1 685 1 752 1 753 1 769 1 773 1 785 1 800 1 813 1 861 1 865 1 878 1 883 1 896 1 905 1 910 1 911 1 919 1 934 1 937 1 944 1 980 1 983 1 993 2 998 1 227 1 242 1 291 1 314 1 344 1 347 1 352 1 386 1 392 1 399 1 402 1 416 1 425 1 481 1 497 1 502 1 542 1 583 1 592 1 605 1 633 1 643 1 695 1 697 1 732 1 734 1 744 1 797 1 835 1 867 1 879 1 895 1 899 1 908 1 909 1 914 1 932 1 955 1 971 1 978 1 1001 1 1003 1 1005 1 1010 1 1012 1 
1 203 9 1 13 1 16 1 21 1 25 2 35 1 40 1 49 1 54 1 56 1 57 1 75 1 84 1 124 1 175 1 177 1 178 1 183 1 193 1 53 1 55 1 71 1 97 1 121 1 127 1 164 1 203 2 222 1 245 1 246 1 272 1 273 1 289 1 298 2 299 1 323 1 324 1 327 1 343 1 366 1 374 1 408 1 412 1 419 1 435 1 438 1 465 1 481 1 513 1 532 1 554 1 565 1 608 1 611 1 632 1 646 1 657 1 683 1 691 1 699 1 715 1 718 1 738 1 764 1 775 1 886 1 904 1 917 1 932 1 938 1 957 1 962 1 966 1 967 1 992 1 207 1 252 1 259 1 283 1 293 1 321 1 378 1 387 1 399 1 414 1 431 1 450 1 457 1 486 1 493 1 499 1 528 1 567 1 580 1 582 1 590 1 595 1 623 1 633 1 668 1 669 1 671 1 686 1 690 1 711 1 746 1 784 1 804 1 805 1 820 1 834 1 899 1 964 1 979 1 
1 217 24 1 42 1 78 1 84 1 89 1 90 1 125 1 161 1 181 1 185 1 7 1 10 1 35 1 36 1 41 1 58 1 86 1 98 1 108 1 121 1 141 1 163 1 166 1 183 1 189 1 207 1 219 1 235 1 253 1 261 1 284 1 313 1 326 1 361 1 370 1 388 1 452 1 453 1 458 1 464 1 477 1 479 1 496 1 499 1 535 1 560 1 589 1 710 1 721 1 724 1 743 1 747 1 754 1 756 1 766 1 773 1 800 1 818 1 844 1 854 1 870 1 876 1 877 1 878 1 886 1 937 1 954 1 965 1 198 1 200 1 234 1 239 1 252 1 265 1 270 1 289 1 290 1 319 1 365 1 366 1 369 1 372 1 389 1 435 1 439 1 463 1 473 1 474 1 481 1 502 1 542 1 557 1 562 1 567 1 617 1 647 1 648 1 685 1 689 1 715 1 735 1 737 1 744 1 755 1 762 1 780 1 786 1 829 1 833 1 837 1 900 1 904 1 945 1 971 1 980 1 995 1 1003 1 1006 1 1016 1 1018 1 
1 208 10 1 26 1 31 1 69 1 84 1 89 1 90 1 100 1 108 1 114 1 128 1 129 1 22 1 32 1 39 1 40 1 50 1 53 1 65 1 66 1 99 1 126 1 135 1 146 1 156 1 160 1 166 1 170 1 186 1 197 1 217 1 223 1 234 1 244 1 259 1 275 1 289 1 376 1 379 1 382 1 397 1 401 2 462 1 475 1 490 2 513 1 515 1 519 1 531 1 560 1 568 1 574 1 598 1 618 1 640 1 645 1 646 1 650 1 656 1 660 1 662 1 690 1 699 1 704 2 706 1 724 1 733 1 748 1 800 1 805 1 819 1 836 1 848 1 850 1 879 1 891 1 895 1 937 1 951 1 953 1 971 1 994 1 222 1 242 1 272 1 277 1 287 1 307 1 311 1 345 1 349 1 360 1 369 1 396 1 402 1 419 1 428 1 455 1 471 1 480 1 481 1 500 1 533 1 537 1 555 1 606 1 608 1 628 1 727 1 752 1 774 1 881 1 884 1 890 1 902 1 916 1 935 1 972 1 988 1 989 1 990 1 1005 1 1007 1 1018 1 
1 214 42 1 61 1 65 2 75 1 90 1 91 1 120 1 176 1 189 1 196 1 3 1 10 1 25 1 66 1 68 1 129 1 150 1 177 1 202 1 235 1 237 1 243 1 245 1 254 1 277 1 327 1 357 1 369 1 402 1 420 1 421 1 433 1 457 1 467 1 532 1 533 1 536 1 545 1 559 1 570 1 575 1 587 1 644 1 652 1 675 2 686 1 742 1 747 1 757 1 771 1 773 1 822 1 827 1 829 1 858 1 861 1 870 1 874 1 879 2 895 1 919 1 921 1 936 1 963 1 968 1 971 1 988 1 990 1 994 1 201 1 240 1 264 1 267 1 287 1 293 1 296 1 302 1 324 1 343 1 355 1 383 1 391 1 510 1 540 1 543 1 578 1 582 1 636 1 647 1 648 1 669 1 679 1 691 1 703 1 726 1 745 1 761 1 775 1 785 1 787 1 823 1 828 1 898 1 903 1 943 1 964 1 1018 1 
1 208 9 1 13 1 31 1 72 1 73 1 93 1 100 1 112 1 115 2 116 1 140 2 149 1 153 1 176 1 180 1 11 1 16 1 26 1 43 1 61 1 67 1 117 1 125 1 138 1 169 1 188 1 195 1 212 1 242 1 277 1 282 1 291 1 314 1 379 1 386 1 438 1 444 1 470 1 474 1 490 1 491 1 493 1 546 1 556 1 571 1 577 1 581 1 628 1 635 1 653 1 657 1 665 1 691 1 706 1 745 1 770 1 776 1 789 1 793 1 797 1 801 1 821 1 828 1 829 1 850 1 859 1 878 1 880 1 900 1 903 1 913 1 928 1 953 1 975 1 982 1 995 1 998 1 199 1 224 1 265 1 270 1 285 1 303 1 304 1 307 1 324 1 336 1 346 1 354 1 404 1 443 1 476 1 494 1 570 1 599 1 601 1 615 1 644 1 659 1 660 1 681 1 724 1 747 1 767 1 800 1 856 1 858 1 869 1 871 1 930 1 934 1 954 1 994 1 1013 1 1015 1 
1 215 2 1 31 1 65 1 70 1 88 1 106 1 113 1 133 1 160 1 163 1 13 1 27 1 35 1 40 1 80 1 83 1 96 1 112 1 122 1 124 1 125 1 166 1 179 1 198 1 216 1 224 1 232 1 243 1 246 1 265 1 273 1 288 1 291 1 321 1 365 1 381 1 386 1 402 1 434 2 455 1 464 2 469 1 479 1 496 1 507 1 517 1 548 1 550 1 565 1 572 1 595 1 619 1 644 1 646 1 684 1 699 1 700 1 710 1 716 1 780 1 785 1 797 1 899 1 914 1 928 1 988 1 207 1 230 1 249 1 252 1 264 1 269 1 324 1 325 1 338 1 345 1 356 1 362 1 382 1 391 1 400 1 407 1 450 1 452 1 454 1 461 1 465 1 491 1 511 1 529 1 545 1 598 1 618 1 620 1 665 1 694 1 714 1 717 1 728 1 765 1 775 1 781 1 804 1 821 1 830 1 850 1 852 1 855 1 858 1 871 1 901 1 924 1 942 1 955 1 999 1 1005 1 
1 210 10 1 13 1 43 1 59 1 69 1 96 2 124 1 125 1 139 1 147 1 148 1 155 1 161 1 47 1 64 1 121 1 163 1 195 1 212 1 218 1 227 1 237 1 248 1 292 1 303 1 304 1 309 1 326 1 336 1 354 1 359 1 367 2 375 1 392 1 408 1 425 1 455 1 470 1 477 1 495 1 503 1 505 1 548 2 559 2 565 1 570 1 593 1 682 1 687 1 695 1 703 1 706 1 758 1 759 1 770 1 809 1 850 1 867 1 902 1 914 1 962 1 981 1 985 1 997 1 233 1 240 1 250 1 254 1 259 1 260 1 270 1 272 1 275 1 302 1 324 1 344 1 365 1 373 1 385 1 454 1 475 1 479 1 575 1 611 1 634 1 636 1 640 1 663 1 724 1 725 1 762 1 778 1 829 1 847 1 858 1 879 1 920 1 927 1 936 1 956 1 982 1 1006 1 1008 1 1012 1 1015 1 
1 206 8 1 28 1 40 1 54 2 58 1 62 1 81 1 94 1 95 1 101 1 110 1 134 1 175 1 177 1 191 1 11 1 13 1 22 1 74 1 130 1 149 1 160 1 165 1 168 1 197 1 238 1 270 1 292 2 297 1 314 1 320 1 322 1 329 1 337 1 339 1 369 1 389 1 395 1 421 1 491 1 515 2 542 1 553 1 563 1 599 1 604 1 628 1 660 1 675 1 705 1 764 1 768 1 796 1 804 1 805 1 846 1 848 1 869 1 878 1 897 1 926 1 928 1 932 1 959 2 969 1 974 1 983 1 225 1 233 1 268 1 274 1 285 1 316 1 344 1 356 1 364 1 386 1 394 1 410 1 416 1 440 1 445 1 449 1 450 1 458 1 464 1 467 1 500 1 517 1 523 1 525 1 535 1 607 1 627 1 636 1 666 1 686 1 693 1 694 1 711 1 775 1 801 1 852 1 862 1 888 1 900 1 913 1 930 1 942 1 1019 1 
1 216 32 1 47 1 53 1 58 2 61 1 111 1 121 1 139 1 164 1 168 1 172 1 197 1 48 1 51 1 52 1 72 1 73 1 76 1 78 1 93 1 114 1 153 1 156 1 202 1 202 1 203 1 213 1 223 1 286 1 292 1 296 1 306 1 344 2 345 1 381 1 389 1 399 1 403 1 408 1 419 1 421 1 436 1 438 1 467 1 473 1 498 1 533 1 567 1 584 1 598 1 607 1 621 1 645 1 739 1 744 1 787 1 812 1 843 2 847 2 868 1 894 1 908 1 980 1 988 1 240 1 241 1 242 1 254 1 255 1 304 1 313 1 327 1 360 1 373 1 386 1 404 1 409 1 414 1 426 1 435 1 468 1 475 1 490 1 506 1 649 1 651 1 664 1 676 1 683 1 704 1 708 1 720 1 742 1 764 1 795 1 830 1 835 1 838 1 857 1 886 1 889 1 956 1 959 1 965 1 968 1 986 1 992 1 1006 1 1009 1 1013 1 
1 212 9 1 14 1 25 1 63 1 70 1 100 1 109 1 111 1 128 1 131 1 145 1 194 2 202 1 16 1 22 1 31 1 35 1 50 1 52 1 74 1 87 1 108 1 154 1 182 1 208 1 210 1 214 1 303 1 334 1 341 1 353 1 370 1 383 1 417 1 445 1 446 1 468 1 488 1 547 1 559 1 563 2 569 1 570 1 601 1 675 1 686 1 703 2 737 1 749 1 763 1 768 1 803 1 804 1 826 1 830 1 833 1 834 1 860 1 866 1 890 1 891 2 943 1 959 1 223 1 231 1 255 1 273 1 288 1 335 1 337 1 344 1 348 1 372 1 382 1 438 1 465 1 491 1 518 1 585 1 619 1 620 1 621 1 624 1 627 1 647 1 680 1 715 1 753 1 760 1 832 1 840 1 859 1 875 1 1006 1 1007 1 1014 1 1019 1 
1 205 5 1 44 1 55 1 58 1 137 1 155 1 167 1 20 1 22 1 31 1 76 1 85 1 99 1 108 1 123 1 126 1 160 1 173 1 175 1 176 1 179 1 206 1 211 1 231 1 236 1 259 1 306 2 325 1 326 1 359 1 371 1 416 1 431 1 458 1 471 1 492 1 500 1 515 1 519 1 555 1 563 1 564 1 606 1 626 1 634 1 665 1 679 1 684 1 687 1 697 1 720 2 739 1 740 1 754 1 763 1 776 1 783 1 813 1 822 1 825 1 834 1 855 1 860 1 867 1 904 1 914 1 925 1 957 1 962 1 972 1 208 1 218 1 226 1 262 1 278 1 401 1 423 1 434 1 451 1 461 1 488 1 490 1 498 1 509 1 535 1 539 1 568 1 594 1 600 1 601 1 603 1 619 1 640 1 719 1 738 1 812 1 817 1 833 1 847 1 874 1 898 1 924 1 945 1 968 1 973 1 
1 214 4 1 11 1 28 1 32 1 37 1 51 1 57 1 61 1 102 1 105 1 110 1 123 1 129 1 188 1 191 1 3 1 10 1 35 1 45 1 53 1 59 1 60 1 68 1 74 1 75 1 86 1 98 1 99 1 109 1 111 1 114 1 125 1 127 1 142 1 156 1 169 1 175 1 192 1 219 1 222 1 250 1 258 1 259 1 268 2 276 1 306 1 349 2 378 1 383 1 403 1 410 1 441 1 451 1 457 1 469 1 474 1 488 1 499 1 522 1 525 1 561 1 576 1 612 1 614 1 640 1 645 1 651 1 658 1 712 1 715 1 720 1 753 1 780 1 792 1 858 1 878 1 906 1 911 1 938 1 943 1 955 1 960 1 213 1 240 1 244 1 365 1 374 1 379 1 390 1 407 1 422 1 462 1 475 1 477 1 503 1 518 1 527 1 532 1 553 1 671 1 674 1 678 1 699 1 721 1 732 1 750 1 754 1 759 1 778 1 802 1 805 1 806 1 811 1 828 1 844 1 885 1 903 1 904 1 907 1 933 1 965 1 974 1 979 1 1000 1 1011 1 
1 211 18 1 29 1 31 2 47 1 57 1 64 1 92 1 99 1 109 1 115 1 131 1 170 1 174 1 181 1 192 1 204 1 7 1 15 1 32 1 68 1 73 1 103 1 108 1 134 1 135 1 146 1 173 1 175 1 212 1 229 1 234 1 243 1 248 1 250 1 259 2 263 1 299 1 307 2 321 1 334 1 343 1 364 1 405 1 430 1 431 1 433 1 443 1 446 1 476 2 499 1 525 2 587 2 588 1 590 1 611 1 615 1 617 1 620 1 638 1 644 1 663 1 674 1 689 2 719 1 772 1 779 1 784 1 822 1 824 1 848 1 859 1 865 1 874 1 953 1 961 1 986 1 987 1 996 1 997 1 220 1 252 1 281 1 297 1 308 1 319 1 332 1 337 1 379 1 382 1 393 1 403 1 408 1 424 1 485 1 520 1 548 1 565 1 578 1 607 1 652 1 657 1 666 1 669 1 671 1 706 1 718 1 723 1 769 1 781 1 783 1 794 1 795 1 807 1 816 1 831 1 879 1 889 1 900 1 913 1 936 1 941 1 955 1 999 1 1006 1 1010 1 
1 207 1 1 6 1 78 2 112 1 125 1 150 1 195 1 8 1 68 1 94 1 98 1 124 1 131 1 158 1 171 1 194 1 199 1 227 1 232 1 242 1 256 1 261 1 275 1 294 1 324 2 331 1 341 1 382 1 406 1 431 1 441 1 482 1 497 1 499 1 528 1 548 2 562 1 567 1 589 1 619 2 744 1 815 1 836 1 844 1 854 1 857 1 877 1 884 1 885 1 959 2 966 1 974 1 994 1 215 1 218 1 222 1 233 1 237 1 247 1 258 1 262 1 264 1 280 1 282 1 283 1 304 1 334 1 339 1 354 1 379 1 400 1 423 1 439 1 460 1 463 1 469 1 472 1 479 1 496 1 503 1 515 1 519 1 537 1 546 1 552 1 593 1 599 1 611 1 649 1 685 1 686 1 758 1 788 1 797 1 827 1 840 1 846 1 880 1 891 1 901 1 904 1 945 1 955 1 957 1 968 1 977 1 1010 1 
1 210 30 1 38 1 46 1 53 1 54 1 61 1 73 1 79 1 110 1 129 1 135 1 152 1 165 2 169 1 203 1 12 1 69 1 98 1 100 1 104 1 111 1 134 1 142 1 144 1 163 1 204 1 212 1 223 1 226 1 241 1 283 1 305 1 350 1 358 1 362 1 372 1 385 1 386 2 394 1 423 1 437 1 443 1 445 1 452 1 460 1 463 1 482 1 488 1 508 1 519 1 552 2 574 1 603 1 649 1 654 1 679 1 718 1 734 1 749 1 755 1 780 1 782 1 786 1 793 1 825 1 827 1 863 1 875 1 889 1 907 1 916 1 963 1 218 1 245 1 289 1 295 1 296 1 311 1 355 1 360 1 367 1 383 1 413 1 434 1 439 1 453 1 471 1 501 1 535 1 558 1 569 1 578 1 581 1 585 1 587 1 598 1 599 1 624 1 631 1 639 1 651 1 682 1 698 1 732 1 736 1 753 1 785 1 808 1 822 1 874 1 906 1 931 1 965 1 969 1 987 1 992 1 996 1 1006 1 1009 1 1011 1 
1 207 5 1 11 1 55 1 96 1 137 1 145 1 147 1 160 1 183 1 184 1 2 1 14 1 24 1 51 1 52 1 62 1 70 1 77 1 79 1 95 1 102 1 132 1 187 1 209 1 209 1 217 1 223 1 252 1 257 1 277 1 283 1 306 1 343 1 346 1 356 1 371 1 378 1 416 1 451 1 455 1 467 1 468 1 471 1 482 1 498 1 536 1 542 1 598 1 634 1 638 1 649 1 656 1 667 2 677 1 678 1 706 1 722 1 737 1 741 1 776 1 779 1 860 1 869 2 885 1 214 1 233 1 246 1 263 1 288 1 294 1 325 1 330 1 332 1 338 1 345 1 351 1 355 1 388 1 401 1 407 1 421 1 428 1 457 1 474 1 496 1 503 1 507 1 529 1 550 1 559 1 565 1 626 1 644 1 704 1 718 1 720 1 731 1 732 1 788 1 804 1 806 1 818 1 823 1 830 1 859 1 888 1 902 1 918 1 930 1 936 1 944 1 
1 209 16 1 29 1 97 1 98 1 124 1 150 1 156 1 182 1 203 1 4 1 89 1 111 1 147 1 171 1 273 1 287 1 325 1 326 1 340 1 367 1 388 1 394 1 420 1 428 1 431 1 432 2 444 1 449 1 491 1 511 1 520 1 525 1 530 1 534 1 563 1 570 1 571 1 624 1 640 1 659 1 686 1 697 1 706 1 710 1 716 2 742 1 777 1 804 1 809 1 814 1 829 1 833 1 842 1 853 1 861 1 883 2 903 1 924 1 936 1 941 2 943 1 963 1 967 1 977 1 984 1 992 1 993 1 215 1 217 1 230 1 268 1 280 1 317 1 319 1 320 1 353 1 390 1 391 1 397 1 424 1 433 1 445 1 467 1 487 1 498 1 522 1 599 1 604 1 652 1 675 1 681 1 701 1 711 1 770 1 775 1 785 1 802 1 806 1 837 1 845 1 848 1 868 1 892 1 900 1 922 1 926 1 929 1 999 1 1008 1 
1 208 1 1 4 2 26 1 30 1 44 1 109 1 137 1 154 1 177 1 192 1 204 1 2 1 6 1 40 1 79 1 93 1 119 1 125 1 129 1 143 1 174 1 179 1 251 1 265 1 275 1 303 2 321 1 362 1 363 1 366 1 379 1 385 1 387 2 403 1 420 2 446 1 462 1 465 1 479 1 485 1 495 1 533 1 569 1 624 1 644 1 673 1 676 1 687 1 695 1 726 1 734 1 771 1 776 1 806 1 809 1 823 1 842 1 846 1 851 1 855 1 869 1 870 2 880 1 884 1 897 1 909 1 923 1 926 1 946 1 952 1 956 1 975 1 994 1 228 1 229 1 230 1 249 1 258 1 280 1 349 1 353 1 376 1 421 1 460 1 468 1 492 1 493 1 532 1 547 1 550 1 578 1 583 1 592 1 605 1 637 1 649 1 660 1 717 1 719 1 736 1 747 1 782 1 801 1 810 1 850 1 900 1 936 1 941 1 944 1 955 1 960 1 974 1 1003 1 
1 206 17 1 22 1 78 1 113 1 141 1 147 1 148 1 160 1 192 1 198 1 200 1 206 1 208 1 56 1 106 1 112 1 118 1 128 1 178 1 216 1 218 1 224 1 236 1 275 1 276 1 287 1 311 1 319 1 322 1 344 1 400 1 419 1 428 1 450 1 456 1 459 1 462 1 482 1 487 1 491 1 501 1 511 1 525 1 545 1 546 1 555 1 580 1 590 1 598 1 618 1 637 1 661 1 666 2 694 1 714 1 727 1 736 1 763 1 772 1 824 1 840 1 869 1 894 2 905 1 931 1 961 1 967 1 977 1 978 1 991 1 221 1 251 1 279 1 297 1 361 1 362 1 408 1 430 1 436 1 438 1 448 1 473 1 476 1 508 1 527 1 538 1 586 1 648 1 652 1 660 1 667 1 680 1 735 1 756 1 761 1 764 1 769 1 800 1 802 1 826 1 833 1 851 1 868 1 873 1 893 1 949 1 958 1 983 1 994 1 
1 212 5 1 12 1 39 1 55 1 65 1 132 1 187 1 192 1 202 1 10 1 21 1 45 1 63 1 83 1 101 1 111 1 118 1 147 1 151 1 180 1 205 1 213 1 213 1 217 2 234 1 240 1 276 1 316 1 318 1 386 1 400 1 401 1 410 1 417 2 438 1 443 1 464 1 503 1 521 1 533 1 546 1 554 1 558 1 563 1 572 1 583 2 588 1 612 1 613 1 631 1 635 1 637 2 649 1 650 1 659 1 662 1 684 1 699 1 700 1 740 1 742 1 754 2 772 1 775 1 776 1 777 1 783 1 785 1 820 1 821 1 829 1 831 1 848 1 879 1 902 1 949 1 956 1 977 1 995 1 228 1 243 1 275 1 284 1 292 1 293 1 326 1 362 1 370 1 396 1 399 1 433 1 449 1 465 1 466 1 499 1 508 1 535 1 547 1 585 1 597 1 607 1 614 1 661 1 694 1 713 1 718 1 738 1 741 1 743 1 793 1 796 1 808 1 827 1 850 1 852 1 880 1 892 1 899 1 988 1 990 1 1005 1 1012 1 1017 1 
1 206 44 1 51 1 71 1 75 1 78 1 104 1 133 1 138 1 160 1 170 1 183 1 186 1 193 1 203 1 7 1 9 1 21 1 36 1 79 1 116 1 123 1 124 1 128 1 149 1 166 1 177 1 190 1 209 1 218 1 226 1 232 1 234 1 250 1 261 1 273 1 284 1 373 1 389 1 392 1 413 1 427 1 450 1 454 2 484 1 513 1 537 1 547 1 557 1 575 1 579 1 586 1 594 1 652 1 672 1 685 1 711 1 716 1 719 1 722 1 734 1 740 1 752 1 765 1 786 1 826 1 858 1 864 1 876 1 885 1 903 1 914 1 932 1 933 1 978 1 981 1 266 1 280 1 288 1 321 1 329 1 338 1 344 1 351 1 355 1 357 1 364 1 376 1 410 1 417 1 426 1 442 1 443 1 449 1 452 1 472 1 482 1 488 1 495 1 512 1 539 1 556 1 577 1 584 1 612 1 640 1 649 1 660 1 667 1 678 1 687 1 697 1 706 1 709 1 730 1 748 1 764 1 795 1 808 1 813 1 846 1 849 1 907 1 934 1 937 1 960 1 992 1 999 1 1005 1 
1 210 28 2 55 1 72 1 91 1 124 1 145 1 170 1 180 1 184 1 189 1 15 1 19 1 30 1 56 1 62 1 63 1 67 1 77 1 83 1 87 1 105 1 150 1 157 1 169 1 190 1 207 1 210 1 234 1 264 1 269 1 271 1 277 1 288 1 299 1 315 1 364 1 370 1 383 1 421 1 425 1 435 1 453 1 455 1 460 1 471 1 515 1 528 1 549 1 552 1 574 1 594 1 619 1 623 1 648 2 689 1 694 1 722 1 811 1 858 1 865 1 874 1 877 1 998 1 220 1 241 1 261 1 279 1 310 1 319 1 324 1 337 1 343 1 361 1 382 1 398 1 426 1 437 1 440 1 474 1 482 1 506 1 519 1 522 1 539 1 604 1 609 1 614 1 615 1 629 1 640 1 673 1 675 1 683 1 684 1 696 1 697 1 728 1 745 1 841 1 845 1 850 1 853 1 856 1 864 1 891 1 895 1 919 1 963 1 972 1 976 1 983 1 1015 1 
1 210 12 1 13 2 14 1 60 1 68 1 81 1 91 1 94 1 102 1 104 1 108 1 111 1 115 1 121 1 130 1 135 1 178 1 186 1 199 1 212 1 11 1 45 1 73 1 141 1 150 1 163 1 169 1 177 1 179 1 190 1 225 1 239 1 245 1 255 1 260 1 269 1 323 1 357 1 369 1 376 1 393 1 395 1 413 1 427 1 446 1 458 1 494 1 509 1 523 1 539 1 565 1 578 1 586 1 629 1 639 1 640 2 676 1 681 1 688 1 700 1 701 1 709 1 715 1 746 1 801 1 819 1 833 1 842 1 852 1 863 1 886 1 919 2 929 1 941 1 956 1 990 1 223 1 224 1 226 1 251 1 271 1 315 1 325 1 329 1 334 1 348 1 362 1 370 1 379 1 380 1 387 1 392 1 431 1 459 1 475 1 502 1 520 1 545 1 584 1 604 1 615 1 649 1 650 1 658 1 702 1 757 1 794 1 796 1 808 1 818 1 868 1 897 1 907 1 934 1 949 1 983 1 985 1 989 1 992 1 1000 1 
1 217 22 1 33 1 34 1 47 1 56 1 83 1 115 1 123 1 129 1 134 2 136 1 162 1 172 1 196 1 209 1 213 2 20 1 50 1 63 1 65 1 87 1 90 1 100 1 112 1 135 1 138 1 165 1 168 1 189 1 210 1 239 1 259 1 267 1 286 1 294 1 383 1 397 1 401 1 419 1 447 1 488 1 513 2 567 1 586 1 587 1 637 1 643 1 651 1 708 1 736 1 741 1 744 1 759 1 766 1 772 1 786 1 794 1 802 1 824 1 829 1 842 1 850 1 907 1 917 1 942 1 952 1 954 2 959 1 962 1 968 1 972 1 980 1 249 1 260 1 280 1 302 1 348 1 392 1 449 1 455 1 463 1 481 1 483 1 506 1 511 1 532 1 553 1 561 1 572 1 644 1 681 1 705 1 715 1 722 1 732 1 749 1 776 1 778 1 787 1 822 1 888 1 889 1 911 1 931 1 960 1 1000 1 1002 1 1004 1 1007 1 
1 219 2 1 6 1 8 1 10 1 19 1 25 1 45 1 65 1 66 1 129 1 182 2 200 1 212 1 214 1 41 1 63 1 67 1 79 1 85 1 88 1 95 1 124 1 131 1 150 1 154 1 157 1 178 1 189 1 204 1 207 1 208 1 241 1 273 1 310 1 331 1 335 1 354 1 357 1 366 1 382 1 401 1 407 1 483 1 500 1 503 1 527 1 579 1 596 1 640 1 650 1 661 1 663 1 667 1 672 2 673 1 699 1 702 1 723 1 790 1 821 2 826 1 831 1 834 1 836 1 862 1 872 1 881 1 893 1 897 1 898 1 927 1 948 1 976 1 996 1 239 1 267 1 283 1 290 1 393 1 397 1 408 1 466 1 469 1 484 1 507 1 523 1 539 1 542 1 546 1 549 1 563 1 569 1 575 1 589 1 605 1 609 1 620 1 638 1 653 1 682 1 688 1 700 1 736 1 740 1 806 1 859 1 880 1 887 1 899 1 919 1 920 1 958 1 989 1 1000 1 1002 1 1004 1 1006 1 1009 1 1012 1 1015 1 
1 210 3 1 9 1 30 1 73 1 76 1 106 1 119 1 158 1 159 1 168 1 175 1 178 1 182 1 195 1 205 1 2 1 7 1 19 1 39 1 51 1 69 1 83 1 97 1 104 1 148 1 187 1 226 1 228 1 264 1 297 1 333 1 349 2 361 1 366 1 367 1 376 1 389 1 393 1 427 2 445 1 463 1 482 1 491 1 501 1 506 1 508 1 522 1 524 1 538 1 569 1 570 1 610 1 623 1 628 1 653 1 664 1 712 1 756 1 763 1 788 1 808 1 820 1 822 1 879 1 887 1 931 1 940 1 966 1 977 1 979 1 229 1 241 1 252 1 261 1 275 1 291 1 295 1 303 1 310 1 318 1 323 1 332 1 356 1 386 1 394 1 442 1 456 1 457 1 462 1 490 1 494 1 515 1 527 1 541 1 558 1 561 1 576 1 587 1 622 1 671 1 678 1 700 1 752 1 761 1 794 1 796 1 798 1 805 1 895 1 912 1 927 1 947 1 952 1 957 1 959 1 976 1 1010 1 1014 1 
1 209 5 1 9 1 48 1 57 1 59 1 76 1 105 1 134 1 174 1 183 1 188 1 4 1 8 1 14 1 62 1 85 1 89 1 130 1 135 1 139 1 163 1 206 1 215 1 228 2 243 1 264 1 294 1 298 1 303 1 311 1 340 1 388 1 398 1 409 1 415 1 449 1 461 1 480 1 488 2 514 1 536 1 575 1 614 1 624 1 625 1 627 1 643 1 653 1 669 1 674 1 687 1 690 1 693 1 702 1 704 1 705 2 758 1 794 1 823 1 832 2 838 1 852 1 862 1 884 1 892 1 900 2 927 1 928 1 986 1 224 1 226 1 231 1 285 1 297 1 308 1 318 1 326 1 339 1 352 1 358 1 371 1 384 1 386 1 389 1 400 1 412 1 457 1 485 1 506 1 520 1 549 1 566 1 573 1 578 1 581 1 582 1 585 1 593 1 604 1 610 1 632 1 657 1 663 1 682 1 738 1 781 1 797 1 815 1 844 1 849 1 865 1 896 1 916 1 969 1 975 1 1004 1 1006 1 1010 1 1014 1 
1 210 13 1 31 1 34 1 40 1 84 1 95 1 123 1 132 1 152 1 158 1 160 1 163 1 171 1 180 1 18 1 45 1 48 1 87 1 124 1 156 1 176 1 181 1 182 1 212 1 232 1 239 1 247 1 266 1 329 1 336 1 338 2 350 1 363 1 388 1 437 1 473 1 479 1 488 1 489 2 541 1 584 1 600 1 635 1 640 1 641 1 645 1 652 1 653 1 660 1 661 1 676 1 698 1 709 1 717 1 721 1 770 1 786 1 809 1 829 1 835 1 864 1 876 1 894 1 896 1 941 1 943 2 951 1 223 1 283 1 284 1 285 1 302 1 318 1 333 1 342 1 354 1 355 1 356 1 387 1 410 1 440 1 447 1 471 1 507 1 514 1 518 1 538 1 542 1 560 1 561 1 568 1 592 1 604 1 608 1 620 1 655 1 658 1 693 1 712 1 716 1 739 1 744 1 758 1 769 1 783 1 797 1 801 1 840 1 843 1 844 1 846 1 850 1 887 1 921 1 926 1 960 1 976 1 987 1 1002 1 1011 1 1012 1 1013 1 1019 1 
1 212 11 1 59 1 61 2 70 1 89 1 91 1 106 1 109 1 111 1 124 1 126 1 140 1 153 1 194 1 205 1 41 1 63 1 132 1 137 1 138 1 150 1 184 1 185 1 196 1 207 1 222 1 222 1 232 1 240 1 255 1 266 1 280 1 307 1 314 1 332 1 333 1 335 1 352 1 388 1 396 1 405 1 452 1 490 1 507 1 539 1 544 1 550 1 557 1 569 1 579 1 594 1 628 1 642 1 667 1 670 1 677 1 688 1 748 1 751 1 771 1 780 1 796 1 800 1 807 1 842 1 850 1 871 1 872 1 874 2 879 1 882 1 923 1 927 1 988 1 236 1 249 1 261 1 269 1 281 1 288 1 290 1 296 1 324 1 328 1 345 1 357 1 360 1 367 1 370 1 371 1 375 1 377 1 395 1 403 1 404 1 410 1 413 1 416 1 421 1 426 1 446 1 495 1 497 1 533 1 574 1 596 1 598 1 689 1 711 1 714 1 715 1 757 1 802 1 840 1 852 1 925 1 949 1 989 1 992 1 999 1 1005 1 1006 1 1008 1 
1 206 25 1 31 1 68 1 72 1 77 1 110 1 111 1 126 1 163 1 176 1 196 1 202 1 208 1 209 1 11 1 17 1 54 1 66 1 70 1 95 1 96 1 125 1 136 1 151 1 203 1 216 1 221 1 227 1 247 1 263 1 265 1 266 1 278 1 306 1 309 1 313 1 321 1 322 1 328 1 337 1 338 1 356 1 413 1 440 1 447 1 490 1 491 1 503 1 529 1 537 2 538 1 540 1 549 1 572 1 590 1 597 1 609 1 681 1 686 1 698 1 711 1 741 1 764 1 798 1 799 1 856 1 918 1 935 1 945 1 953 1 224 1 283 1 289 1 301 1 310 1 316 1 336 1 374 1 398 1 434 1 462 1 463 1 470 1 479 1 480 1 521 1 532 1 599 1 632 1 661 1 665 1 666 1 679 1 680 1 708 1 714 1 725 1 733 1 774 1 809 1 815 1 830 1 877 1 883 1 894 1 899 1 904 1 949 1 972 1 988 1 999 1 1007 1 1016 1 
1 207 1 1 99 1 116 1 119 1 147 2 161 1 167 1 170 2 182 1 192 1 193 2 199 1 212 1 18 1 34 1 35 1 51 1 87 1 105 1 106 1 121 1 139 1 159 1 198 1 216 1 220 1 223 1 227 1 231 2 269 2 287 2 299 1 304 1 305 1 321 1 372 1 381 1 431 1 448 1 469 1 483 2 493 1 582 1 586 1 589 1 596 1 602 1 632 1 644 1 667 1 670 1 701 1 712 1 714 1 716 2 735 1 758 1 793 1 817 1 825 1 851 1 921 1 922 1 928 1 935 1 948 1 954 1 956 1 272 1 282 1 325 1 326 1 334 1 340 1 366 1 418 1 423 1 437 1 440 1 454 1 458 1 463 1 477 1 569 1 581 1 657 1 666 1 687 1 734 1 750 1 756 1 760 1 768 1 818 1 833 1 858 1 874 1 910 1 914 1 964 1 966 1 971 1 995 1 1002 1 
1 211 16 1 27 1 42 1 68 1 72 1 85 1 99 1 103 1 115 1 163 1 164 1 182 1 216 1 14 1 36 1 87 1 130 1 136 1 147 1 161 1 179 1 187 1 191 1 201 1 237 1 251 1 323 1 381 1 456 1 461 1 463 1 466 1 503 1 506 1 538 1 546 1 573 1 591 1 610 1 620 1 646 1 648 1 684 2 706 1 717 1 728 1 733 2 740 1 747 1 767 2 774 2 777 2 791 1 793 1 807 1 905 1 914 2 945 1 951 1 956 1 228 1 233 1 272 1 291 1 301 1 329 1 351 1 376 1 377 1 428 1 447 1 453 1 470 1 492 1 504 1 519 1 530 1 544 1 557 1 578 1 593 1 625 1 635 1 641 1 665 1 675 1 696 1 741 1 752 1 790 1 795 1 804 1 810 1 840 1 843 1 861 1 879 1 916 1 925 1 944 1 976 1 985 1 989 1 1009 1 1019 1 
1 207 38 1 42 1 49 1 64 1 90 1 100 1 109 1 110 1 125 1 175 1 177 1 208 1 214 1 219 1 17 1 53 1 75 1 79 1 83 1 89 1 92 1 96 1 132 1 139 1 160 1 161 1 172 1 204 1 216 1 220 1 259 1 267 1 274 1 289 1 306 1 311 1 332 2 400 1 411 1 415 1 419 1 428 1 437 1 460 1 470 1 477 1 480 1 513 1 519 1 521 1 553 1 561 2 576 1 582 1 587 1 597 1 708 1 716 1 725 1 739 1 771 1 788 1 825 1 839 1 844 1 853 1 858 1 901 1 915 1 939 1 947 1 955 1 956 1 961 1 982 1 987 1 231 1 266 1 271 1 283 1 294 1 304 1 342 1 366 1 372 1 395 1 404 1 407 1 438 1 446 1 498 1 505 1 517 1 572 1 583 1 642 1 647 1 651 1 702 1 726 1 729 1 740 1 755 1 763 1 767 1 772 1 773 1 777 1 779 1 796 1 817 1 828 1 835 1 886 1 935 1 948 1 954 1 960 1 967 1 1017 1 
1 215 13 1 52 1 55 1 62 1 74 1 97 1 104 1 109 1 118 1 128 2 135 1 143 1 158 2 172 1 189 1 200 1 207 1 223 1 224 1 6 1 20 1 24 1 40 1 45 1 53 1 59 1 98 1 110 1 125 1 131 1 137 1 193 1 242 1 246 1 316 1 332 1 334 1 341 1 352 1 395 1 398 1 401 1 407 1 426 2 451 1 452 1 470 1 480 2 495 1 497 2 549 1 570 1 571 1 579 1 587 1 606 1 618 1 638 1 676 1 677 1 703 1 704 1 710 1 719 1 728 1 732 1 735 1 741 1 762 1 774 1 832 1 844 1 853 1 868 1 880 1 947 1 970 1 985 1 993 1 998 1 251 1 276 1 291 1 343 1 350 1 380 1 386 1 411 1 449 1 464 1 490 1 494 1 536 1 539 1 599 1 602 1 634 1 642 1 666 1 667 1 714 1 739 1 766 1 770 1 819 1 828 1 841 1 877 1 888 1 897 1 922 1 959 1 962 1 965 1 977 1 991 1 1002 1 1010 1 
1 214 3 1 12 1 14 2 33 1 46 1 51 1 57 1 68 1 80 1 81 1 115 1 123 1 124 1 180 1 219 1 220 2 17 1 34 1 53 1 66 1 70 1 82 1 85 1 129 1 132 1 176 1 177 1 181 1 211 1 213 1 225 1 237 1 241 1 247 1 288 1 304 1 312 2 332 1 401 1 406 1 411 1 416 1 454 1 457 1 484 1 513 1 530 1 554 1 598 1 599 2 655 1 659 1 664 1 689 1 695 1 696 1 706 1 734 1 755 1 764 1 768 2 782 1 800 1 803 2 807 1 846 1 848 1 857 2 868 1 870 1 878 1 890 1 894 1 900 1 910 1 912 1 934 1 947 1 955 1 958 1 960 1 962 1 983 1 990 1 998 2 256 1 279 1 295 1 313 1 314 1 318 1 324 1 327 1 336 1 341 1 367 1 388 1 405 1 423 1 476 1 480 1 490 1 491 1 501 1 548 1 556 1 559 1 564 1 588 1 614 1 619 1 623 1 649 1 662 1 701 1 707 1 709 1 710 1 736 1 756 1 757 1 758 1 773 1 856 1 865 1 873 1 925 1 944 1 961 1 995 1 1003 1 1009 1 1013 1 1018 1 
1 207 41 1 87 1 93 1 95 1 120 1 122 1 165 1 173 1 180 1 206 1 17 1 20 1 35 1 38 1 58 1 64 1 70 1 73 1 74 1 104 1 106 1 112 1 132 1 133 1 145 1 211 1 219 1 248 1 253 1 286 1 332 1 345 1 430 1 459 1 465 1 484 1 513 1 515 1 517 1 524 1 525 1 561 1 566 1 569 2 575 1 604 1 643 1 652 1 653 1 704 1 706 1 715 1 720 1 726 1 738 1 759 1 786 1 792 1 795 1 800 1 814 1 822 1 829 1 831 1 848 1 884 1 887 1 894 1 895 1 900 1 905 1 907 1 927 1 965 1 980 1 263 1 265 1 268 1 274 1 279 1 292 1 311 1 333 1 348 1 382 1 410 1 424 1 443 1 448 1 462 1 471 1 495 1 557 1 563 1 579 1 585 1 612 1 629 1 725 1 734 1 739 1 741 1 751 1 777 1 828 1 830 1 835 1 836 1 882 1 902 1 912 1 932 1 946 1 947 1 966 1 971 1 984 1 1010 1 1011 1 
1 211 13 1 16 1 28 1 54 1 71 1 78 1 110 1 119 1 121 1 140 1 154 1 183 1 4 1 15 1 51 1 57 1 95 1 98 1 103 1 104 1 118 1 131 1 141 1 148 1 199 1 210 1 211 1 254 1 255 1 298 1 302 1 315 1 330 1 438 1 459 1 461 1 471 1 504 1 511 1 524 2 530 2 573 1 580 1 589 1 601 1 638 1 647 2 723 2 724 1 750 1 765 1 773 1 786 1 789 1 793 1 797 1 799 1 816 1 832 1 879 1 889 1 939 1 947 1 958 2 980 1 981 1 987 1 245 1 265 1 277 1 300 1 333 1 335 1 343 1 346 1 357 1 367 1 370 1 384 1 392 1 418 1 478 1 482 1 493 1 521 1 522 1 554 1 581 1 630 1 644 1 669 1 675 1 691 1 707 1 721 1 733 1 735 1 762 1 764 1 817 1 818 1 840 1 847 1 861 1 862 1 863 1 909 1 999 1 1015 1 
1 207 5 1 56 1 141 1 181 1 204 1 224 2 17 1 41 1 44 1 118 1 124 1 134 1 170 1 203 1 220 1 226 1 241 1 246 1 257 1 259 1 263 1 302 1 304 1 360 1 362 1 375 1 414 1 417 1 462 1 511 1 522 1 528 1 539 1 551 1 569 1 576 1 579 2 593 1 608 1 611 1 628 1 631 1 679 1 682 1 688 1 689 1 692 1 705 1 706 2 707 1 724 1 739 1 747 1 748 1 758 1 768 1 795 2 843 1 845 1 865 1 868 1 878 1 889 1 925 1 942 1 945 1 951 1 963 1 967 1 989 1 265 1 277 1 279 1 282 1 366 1 386 1 395 1 399 1 420 1 461 1 514 1 524 1 526 1 529 1 559 1 584 1 588 1 614 1 625 1 630 1 638 1 662 1 673 1 694 1 700 1 728 1 731 1 736 1 746 1 776 1 780 1 792 1 805 1 812 1 838 1 852 1 877 1 883 1 884 1 929 1 949 1 971 1 997 1 1009 1 1010 1 1019 1 
1 211 9 1 12 1 13 1 28 1 32 1 40 1 50 1 57 1 73 1 94 1 125 1 178 1 199 1 207 1 214 1 221 1 222 1 2 1 17 1 20 1 31 1 61 1 70 1 244 1 254 2 358 2 369 1 381 1 382 2 392 1 398 1 418 1 430 1 434 1 487 1 499 1 502 1 530 1 561 1 689 1 697 1 698 1 729 1 760 1 769 1 787 1 807 1 811 1 823 1 850 1 867 1 873 1 903 1 913 1 932 1 947 1 958 1 959 1 966 1 996 1 236 1 246 1 248 1 255 1 285 1 292 1 300 1 330 1 342 1 348 1 351 1 352 1 386 1 415 1 429 1 437 1 461 1 475 1 483 1 507 1 539 1 540 1 576 1 581 1 592 1 595 1 616 1 639 1 656 1 716 1 719 1 728 1 733 1 742 1 758 1 773 1 858 1 866 1 879 1 901 1 902 1 905 1 908 1 929 1 938 1 969 1 970 1 994 1 1002 1 1010 1 1012 1 
1 206 31 1 54 1 60 1 112 1 117 1 128 1 130 1 158 1 163 1 173 1 7 1 36 1 85 1 100 1 142 1 200 1 201 1 207 1 209 1 225 1 277 1 294 1 315 1 351 1 383 1 399 1 402 1 518 1 525 1 532 1 549 1 550 1 572 1 576 1 590 1 604 1 606 1 644 1 668 1 690 1 702 1 716 2 741 1 747 1 806 1 811 1 816 1 827 1 838 1 846 1 851 1 877 1 913 1 920 1 955 1 976 1 997 1 245 1 270 1 300 1 311 1 320 1 321 1 336 1 341 1 344 1 353 1 406 1 409 1 427 1 433 1 442 1 444 1 465 1 479 1 481 1 489 1 502 1 506 1 529 1 539 1 551 1 558 1 580 1 589 1 599 1 601 1 643 1 648 1 654 1 665 1 672 1 686 1 699 1 705 1 723 1 758 1 781 1 783 1 787 1 788 1 791 1 847 1 854 1 905 1 922 1 946 1 947 1 958 1 998 1 
1 210 24 1 31 1 32 1 46 1 57 1 65 1 68 1 87 1 123 1 152 1 156 1 164 1 173 1 196 1 206 1 213 1 214 1 215 1 1 1 6 1 47 1 59 1 110 1 115 1 183 1 195 1 257 1 265 1 268 1 315 2 346 1 394 1 400 1 413 1 425 1 426 1 427 1 447 1 457 1 492 2 503 1 533 1 552 1 571 1 574 1 576 1 579 1 583 1 589 1 592 1 698 1 700 1 703 1 717 1 822 1 842 1 851 1 864 1 869 1 886 1 919 1 984 1 261 1 270 1 298 1 306 1 323 1 337 1 347 1 354 1 360 1 380 1 384 1 389 1 397 1 406 1 431 1 463 1 467 1 469 1 531 1 550 1 558 1 568 1 586 1 594 1 600 1 613 1 658 1 662 1 667 1 677 1 730 1 768 1 806 1 824 1 836 1 852 1 910 1 961 1 972 1 974 1 987 1 989 1 998 1 1009 1 1011 1 
1 209 3 2 6 1 60 1 73 1 89 1 94 1 110 1 146 1 164 1 166 1 189 1 195 1 197 1 26 1 51 1 84 1 88 1 99 1 102 1 150 1 152 1 162 1 167 1 171 1 175 1 185 1 271 1 283 1 287 1 303 1 314 1 318 1 353 1 357 1 372 1 405 1 463 1 478 1 490 1 504 1 507 1 514 1 553 1 563 1 571 1 581 1 584 1 614 1 618 1 632 1 633 1 652 1 655 1 732 2 733 1 736 1 793 1 800 1 808 1 812 1 814 1 823 1 826 1 827 1 837 1 850 2 861 1 932 1 939 1 964 1 984 1 256 1 257 1 262 1 279 1 289 1 292 1 308 1 310 1 327 1 401 1 412 1 418 1 434 1 467 1 475 1 480 1 556 1 567 1 579 1 611 1 616 1 627 1 638 1 646 1 654 1 673 1 694 1 703 1 715 1 744 1 748 1 767 1 769 1 784 1 809 1 848 1 856 1 869 1 924 1 957 1 974 1 982 1 1005 1 
1 210 2 1 3 1 6 1 12 1 18 1 64 1 67 1 70 1 84 1 104 1 105 1 122 1 137 1 192 1 204 1 212 1 7 1 14 1 19 1 95 1 127 1 155 1 168 1 172 1 180 1 222 1 232 1 248 1 251 1 263 1 269 1 274 1 276 1 283 2 290 1 326 1 380 1 390 1 408 2 425 2 462 1 463 1 473 1 505 2 567 1 568 1 577 1 598 1 628 2 637 1 686 1 710 1 735 1 777 1 779 1 783 1 815 1 836 1 878 1 887 1 898 1 929 1 949 2 965 1 969 1 970 1 977 1 985 1 262 1 264 1 268 1 295 1 334 1 342 1 354 1 356 1 432 1 438 1 449 1 453 1 523 1 585 1 618 1 627 1 650 1 654 1 694 1 701 1 750 1 751 1 756 1 760 1 782 1 807 1 814 1 829 1 830 1 866 1 882 1 890 1 900 1 911 1 921 1 927 1 939 1 981 1 988 1 1002 1 1009 1 1014 1 
1 209 36 1 51 1 60 1 107 1 121 1 146 1 160 1 175 1 191 1 197 1 200 1 225 1 228 1 27 1 33 1 40 1 62 1 67 1 75 1 89 1 92 1 123 1 127 1 145 1 154 1 207 1 251 1 287 1 296 1 301 1 347 1 350 1 355 1 383 1 395 1 397 1 432 1 436 1 437 1 456 1 472 1 485 1 488 1 502 1 508 1 511 1 530 1 544 1 624 1 637 1 660 1 675 1 698 1 710 1 724 1 731 1 733 2 736 1 751 1 767 2 774 1 778 1 804 1 809 2 816 1 832 1 848 1 857 1 893 1 907 1 915 1 924 1 927 1 929 1 932 1 933 1 958 2 959 1 992 1 257 1 272 1 304 1 306 1 307 1 310 1 342 1 378 1 409 1 430 1 453 1 482 1 516 1 517 1 519 1 526 1 527 1 549 1 607 1 626 1 635 1 659 1 758 1 761 1 764 1 779 1 782 1 821 1 830 1 839 1 840 1 865 1 866 1 867 1 880 1 886 1 887 1 904 1 913 1 925 1 928 1 934 1 987 1 1000 1 1007 1 
1 209 3 1 10 1 20 1 24 1 30 1 55 1 90 1 100 1 113 1 121 1 123 1 129 1 151 1 166 1 201 1 11 1 26 1 82 1 91 1 112 1 114 1 115 1 118 1 150 1 154 1 161 1 163 1 167 1 170 1 241 1 253 1 281 1 284 1 287 1 367 1 371 2 390 2 394 1 395 1 438 1 456 1 458 1 492 1 512 1 529 1 530 1 535 1 573 1 591 1 602 1 605 1 628 1 629 1 658 1 660 1 674 1 676 1 679 1 686 1 687 1 719 1 720 1 738 2 740 1 757 1 772 1 792 2 796 1 805 1 815 1 827 1 836 1 856 1 860 1 862 1 872 1 886 1 925 1 958 1 969 1 970 1 259 1 263 1 264 1 266 1 268 1 295 1 296 1 302 1 323 1 358 1 384 1 400 1 422 1 425 1 439 1 440 1 445 1 480 1 549 1 611 1 704 1 713 1 752 1 767 1 770 1 791 1 844 1 847 1 890 1 908 1 909 1 912 1 926 1 929 1 936 1 939 1 954 1 971 1 982 1 996 1 1000 1 1006 1 1015 1 1019 1 
1 207 5 1 76 1 77 1 95 1 107 1 138 1 152 1 154 1 161 1 180 1 216 1 217 1 221 1 9 1 52 1 67 1 114 1 118 1 131 1 159 1 167 1 168 1 195 1 218 1 241 1 250 1 262 1 277 1 292 1 309 1 356 1 360 1 369 1 386 1 532 1 537 1 566 1 603 2 626 1 700 1 713 1 720 1 726 1 730 1 740 1 748 2 752 1 757 1 771 1 810 1 818 1 820 1 835 1 843 1 847 1 850 1 856 1 871 2 872 1 880 1 917 1 938 1 249 1 251 1 259 1 274 1 278 1 319 1 326 1 327 1 343 1 348 1 352 1 358 1 381 1 407 1 414 1 422 1 447 1 458 1 525 1 533 1 655 1 673 1 686 1 694 1 701 1 717 1 747 1 780 1 808 1 837 1 838 1 848 1 851 1 854 1 930 1 939 1 973 1 976 1 993 1 1009 1 
1 212 1 1 23 1 24 1 30 1 34 1 101 1 108 1 120 1 139 1 164 1 179 1 182 1 183 1 213 1 222 1 2 1 20 1 35 1 40 1 70 1 103 1 142 1 166 1 167 1 191 1 197 1 200 1 202 1 205 1 242 1 249 1 250 1 254 1 292 1 306 1 312 1 316 1 340 2 346 1 358 1 372 1 379 1 382 1 434 1 461 1 466 1 499 1 518 1 519 1 531 1 532 1 558 1 578 1 593 1 615 1 616 1 625 1 690 1 695 1 721 1 777 1 778 1 799 1 824 1 849 1 863 1 864 1 870 1 879 1 893 1 910 1 941 1 945 1 947 1 952 1 960 2 964 1 986 1 989 1 281 1 282 1 285 1 297 1 308 1 313 1 315 1 344 1 357 1 360 1 381 1 384 1 401 1 410 1 433 1 435 1 442 1 444 1 472 1 473 1 494 1 503 1 509 1 576 1 588 1 604 1 635 1 656 1 658 1 660 1 682 1 691 1 703 1 717 1 724 1 729 1 733 1 741 1 743 1 768 1 800 1 802 1 829 1 841 1 867 1 889 1 895 1 939 1 950 1 956 1 962 1 967 1 981 1 984 1 1005 1 
1 211 11 1 14 1 17 1 50 1 125 1 126 1 145 1 147 1 148 1 153 1 208 1 218 1 228 1 231 1 238 1 239 1 9 1 39 1 47 1 56 1 66 1 79 1 92 1 101 1 111 1 113 1 123 1 129 1 137 1 168 1 202 1 215 1 219 1 265 1 311 1 349 1 355 1 392 1 418 1 438 1 445 1 453 1 477 1 482 1 504 1 517 1 520 1 566 1 572 1 575 1 603 1 609 1 644 2 666 1 726 1 736 1 775 1 839 1 909 1 921 2 924 1 927 1 963 1 967 1 970 1 997 1 243 1 257 1 269 1 292 1 307 1 309 1 321 1 328 1 341 1 353 1 357 1 373 1 391 1 426 1 463 1 465 1 479 1 515 1 526 1 564 1 567 1 598 1 599 1 613 1 616 1 622 1 626 1 652 1 674 1 697 1 698 1 703 1 706 1 718 1 746 1 754 1 757 1 782 1 793 1 800 1 834 1 845 1 888 1 907 1 910 1 911 1 968 1 993 1 995 1 1001 1 1011 1 
1 202 15 2 86 1 136 1 149 1 178 1 198 1 207 1 227 1 240 1 13 1 18 1 25 1 28 1 43 1 65 1 68 1 95 1 104 1 107 1 118 1 123 1 124 1 133 1 153 1 170 1 176 1 182 1 193 1 196 1 202 1 243 1 257 1 262 1 275 1 317 1 337 1 376 1 391 1 396 1 425 1 436 1 437 1 449 1 452 1 457 1 470 1 476 1 528 1 563 1 590 1 609 2 648 1 688 1 689 1 692 1 700 1 704 1 709 1 728 1 737 1 789 1 803 1 842 1 901 1 914 2 916 1 926 1 949 1 964 1 971 1 975 1 993 1 250 1 255 1 303 1 360 1 372 1 379 1 397 1 439 1 443 1 481 1 504 1 510 1 534 1 535 1 567 1 572 1 594 1 595 1 599 1 634 1 644 1 651 1 652 1 681 1 687 1 705 1 717 1 746 1 790 1 793 1 802 1 851 1 857 1 869 1 878 1 963 1 970 1 1013 1 
1 213 46 1 54 1 62 1 64 1 65 1 67 1 84 1 101 1 130 1 131 1 137 1 142 1 144 1 151 1 170 1 171 1 179 1 197 1 199 1 206 1 220 1 242 1 13 1 45 1 60 1 68 1 100 1 128 1 155 1 157 1 165 1 167 1 213 1 241 1 274 1 281 1 300 1 320 2 322 1 342 1 348 1 358 1 360 1 365 1 394 1 425 1 428 1 454 1 480 1 504 1 510 1 532 1 543 1 562 1 565 1 583 2 618 1 620 1 662 1 668 1 675 1 676 1 698 1 708 1 736 1 737 2 753 2 760 1 787 1 794 1 807 1 808 1 844 1 872 1 878 1 919 1 931 1 980 1 258 1 265 1 266 1 290 1 298 1 308 1 310 1 405 1 416 1 421 1 427 1 447 1 496 1 533 1 537 1 547 1 558 1 559 1 561 1 597 1 611 1 631 1 649 1 664 1 672 1 689 1 755 1 769 1 772 1 805 1 812 1 822 1 833 1 834 1 842 1 850 1 865 1 905 1 906 1 907 1 926 1 949 1 1006 1 1008 1 1014 1 1015 1 1018 1 
1 204 31 1 44 1 94 1 96 2 154 1 178 1 196 1 232 1 45 1 59 1 73 1 95 1 99 1 100 1 114 1 122 1 124 1 151 1 164 1 176 1 185 1 205 1 258 1 261 1 274 1 304 1 305 1 330 1 335 1 365 1 378 1 379 1 391 1 410 1 413 1 417 1 424 1 469 1 483 1 489 1 513 1 515 1 579 1 635 1 661 1 676 1 723 1 724 1 771 1 785 1 790 1 832 1 841 1 854 1 860 1 918 1 921 1 929 1 940 1 959 1 972 1 986 1 991 1 249 1 257 1 293 1 296 1 307 1 315 1 349 1 355 1 392 1 403 1 404 1 406 1 411 1 432 1 440 1 451 1 454 1 459 1 463 1 468 1 491 1 520 1 521 1 532 1 554 1 588 1 591 1 614 1 628 1 650 1 653 1 665 1 673 1 682 1 685 1 690 1 719 1 735 1 760 1 765 1 766 1 797 1 802 1 830 1 908 1 931 1 941 1 950 1 1006 1 
1 209 12 1 22 1 106 1 109 1 123 1 125 1 134 1 135 1 145 1 147 1 157 1 166 1 171 1 188 1 194 1 197 1 216 1 31 1 83 1 85 1 126 1 139 1 156 1 183 1 208 1 230 1 233 1 304 1 311 1 314 1 330 1 334 1 347 1 350 2 364 1 378 1 392 1 397 1 414 1 441 1 511 1 536 1 541 1 594 1 655 1 669 1 687 1 692 1 708 1 712 1 731 1 754 1 755 1 761 1 764 1 772 1 787 1 814 1 821 1 824 2 833 1 875 1 882 1 896 1 930 1 940 1 963 1 967 1 997 1 247 1 248 1 253 1 305 1 328 1 343 1 357 1 384 1 424 1 450 1 453 1 519 1 524 1 534 1 542 1 570 1 573 1 619 1 651 1 654 1 657 1 684 1 703 1 746 1 759 1 763 1 768 1 789 1 819 1 858 1 868 1 876 1 906 1 909 1 913 1 917 1 939 1 958 1 1002 1 1003 1 1008 1 
1 214 1 1 11 1 21 1 27 1 49 1 63 1 71 1 88 1 102 1 105 1 107 1 162 1 184 1 194 1 199 1 227 1 231 1 17 1 37 1 44 1 60 1 84 1 86 1 112 1 157 1 160 1 165 1 209 1 232 1 294 1 300 1 304 1 309 1 312 1 362 1 367 1 377 1 389 1 400 1 407 1 427 1 429 1 459 1 476 1 482 1 521 1 537 1 555 1 615 1 631 1 634 1 640 1 667 1 688 1 697 1 721 1 737 1 741 1 743 1 758 1 776 1 793 1 840 1 864 1 866 1 897 1 933 1 985 1 262 1 275 1 281 1 285 1 299 1 322 1 328 1 340 1 357 1 378 1 382 1 390 1 403 1 442 1 450 1 453 1 470 1 485 1 488 1 495 1 509 1 529 1 544 1 548 1 550 1 566 1 568 1 575 1 585 1 597 1 647 1 679 1 687 1 689 1 732 1 759 1 787 1 802 1 815 1 816 1 825 1 841 1 856 1 865 1 890 1 911 1 986 1 990 1 1012 1 1013 1 1015 1 1017 1 
1 213 5 1 6 1 90 1 112 1 132 1 164 1 165 1 170 1 181 1 182 1 183 1 221 1 223 1 228 1 11 1 24 1 28 1 82 1 94 1 100 1 125 1 138 1 167 1 207 1 245 1 253 2 261 1 302 1 303 1 322 1 362 1 391 1 406 1 471 1 473 1 478 1 510 1 553 2 583 1 585 1 614 1 674 1 682 1 687 1 701 1 715 1 718 1 729 1 743 1 775 1 785 1 790 1 795 1 800 1 826 1 839 2 848 1 885 2 911 1 921 1 974 1 254 1 275 1 279 1 286 1 289 1 292 1 360 1 363 1 393 1 397 1 399 1 400 1 434 1 442 1 448 1 459 1 476 1 483 1 494 1 546 1 551 1 556 1 557 1 597 1 607 1 610 1 613 1 645 1 661 1 664 1 680 1 699 1 713 1 719 1 728 1 754 1 784 1 805 1 810 1 820 1 837 1 858 1 905 1 910 1 912 1 931 1 939 1 945 1 971 1 987 1 1008 1 
1 209 38 1 45 1 53 1 63 1 65 1 66 1 68 1 93 2 102 1 140 1 143 1 155 1 173 1 200 1 206 1 229 1 236 1 22 1 33 1 67 1 84 1 94 1 111 1 129 1 175 1 232 1 245 1 257 1 260 1 276 1 278 1 303 1 311 1 315 1 319 1 324 1 337 1 372 1 388 1 396 1 404 1 405 1 408 1 443 1 474 1 484 1 490 1 516 1 546 1 551 1 554 1 561 1 564 1 582 1 596 1 613 2 637 1 647 1 662 1 670 1 689 1 716 1 721 1 757 1 763 1 769 1 778 1 785 1 803 1 807 1 868 1 874 1 879 1 893 2 924 1 948 1 949 1 964 1 966 1 989 2 262 1 287 1 362 1 382 1 385 1 389 1 411 1 454 1 485 1 487 1 506 1 511 1 513 1 520 1 527 1 560 1 568 1 607 1 632 1 634 1 675 1 719 1 726 1 747 1 760 1 827 1 869 1 870 1 871 1 909 1 910 1 920 1 921 1 926 1 940 1 960 1 961 1 990 1 1006 1 1010 1 
1 209 24 1 55 1 81 1 142 1 147 1 158 1 240 1 14 1 62 1 94 1 109 1 117 1 126 1 155 1 156 1 176 1 180 1 183 1 199 1 211 1 217 1 222 1 239 1 244 1 250 1 270 1 283 2 291 1 359 1 361 1 381 1 409 1 416 1 471 1 480 1 484 1 521 1 546 1 593 1 604 1 661 1 669 1 679 1 715 1 719 1 740 1 799 1 814 1 816 1 819 1 840 1 856 1 891 1 909 1 930 1 931 1 951 1 995 1 312 1 330 1 337 1 379 1 390 1 394 1 410 1 417 1 438 1 444 1 445 1 451 1 461 1 525 1 540 1 570 1 582 1 585 1 601 1 609 1 612 1 616 1 630 1 638 1 668 1 680 1 697 1 709 1 712 1 722 1 730 1 741 1 758 1 764 1 778 1 834 1 843 1 859 1 867 1 879 1 900 1 917 1 943 1 960 1 985 1 1005 1 1015 1 
1 211 16 1 19 1 28 1 32 1 35 1 37 1 58 1 121 2 175 1 205 1 206 1 214 1 239 1 240 1 249 1 8 1 15 1 52 1 81 1 100 1 101 1 102 1 172 1 200 1 242 1 296 1 297 1 298 1 328 1 332 1 358 1 389 1 397 1 399 1 409 1 424 1 440 1 450 1 536 1 578 1 584 1 596 1 606 1 616 1 675 1 676 1 686 1 707 1 712 1 715 1 719 1 779 2 789 1 790 1 807 1 853 1 864 1 899 2 904 1 907 1 914 1 937 1 938 1 949 1 991 1 262 1 299 1 305 1 309 1 325 1 375 1 380 1 422 1 441 1 476 1 482 1 484 1 488 1 497 1 516 1 524 1 565 1 573 1 576 1 583 1 614 1 618 1 630 1 637 1 674 1 696 1 701 1 740 1 749 1 785 1 791 1 804 1 829 1 879 1 903 1 952 1 955 1 982 1 1001 1 1004 1 1008 1 1010 1 
1 209 7 1 11 1 19 1 44 1 87 1 90 1 95 1 98 1 112 1 117 1 163 1 211 1 225 1 236 1 237 1 17 1 20 1 21 1 24 1 33 1 34 1 39 1 42 1 127 1 165 1 166 1 181 1 182 1 183 1 192 1 212 1 216 1 227 1 239 1 265 1 287 1 323 1 381 1 391 1 453 1 464 1 480 1 484 1 491 1 496 1 528 1 533 1 603 1 619 1 620 1 626 1 668 1 674 1 683 1 685 1 700 1 727 1 735 1 763 1 791 1 803 2 814 1 816 2 829 1 838 1 840 1 863 1 867 1 869 1 883 1 911 1 913 1 922 1 923 1 934 1 952 1 957 1 962 1 966 1 970 1 985 1 998 1 270 1 285 1 294 1 306 1 321 1 324 1 327 1 348 1 369 1 389 1 412 1 421 1 432 1 479 1 504 1 526 1 530 1 531 1 547 1 638 1 652 1 679 1 694 1 785 1 799 1 832 1 839 1 850 1 852 1 887 1 926 1 937 1 994 1 997 1 1002 1 
1 211 6 1 10 1 30 1 38 1 51 1 62 1 72 1 94 1 120 1 128 1 141 2 152 2 167 1 174 1 209 1 33 1 84 1 87 1 90 1 96 1 131 1 146 1 158 1 179 1 194 1 195 1 199 1 206 1 219 1 259 1 284 1 300 1 336 1 372 1 380 1 388 1 460 1 479 1 502 1 506 1 507 1 524 1 537 1 567 1 568 1 574 2 607 1 611 1 616 1 620 1 630 1 631 1 669 1 677 1 683 1 691 1 692 1 704 2 708 1 711 1 712 1 721 1 735 1 760 1 779 1 784 1 807 1 811 1 818 1 848 1 855 1 863 1 874 1 897 1 961 1 969 1 973 1 980 1 988 1 275 1 280 1 292 1 298 1 309 1 324 1 386 1 390 1 391 1 393 1 400 1 428 1 429 1 514 1 515 1 530 1 541 1 551 1 554 1 581 1 598 1 601 1 635 1 645 1 723 1 743 1 745 1 754 1 762 1 768 1 812 1 844 1 852 1 854 1 868 1 890 1 922 1 936 1 956 1 959 1 960 1 963 1 970 1 975 1 984 1 985 1 
1 210 4 1 60 1 84 1 90 1 103 1 109 1 125 1 168 1 169 1 179 1 195 1 229 1 238 1 247 2 1 1 8 1 19 1 36 1 39 1 66 1 85 1 105 1 127 1 137 1 150 1 160 1 174 1 245 1 259 1 271 1 281 1 290 1 304 1 325 1 327 1 335 1 337 1 392 1 420 1 427 1 446 1 450 1 462 1 471 2 497 1 535 1 544 1 569 1 572 1 585 1 592 1 593 1 638 1 641 1 686 1 694 1 699 1 702 1 715 1 747 1 754 1 763 1 774 1 791 1 799 1 835 1 837 1 848 1 858 1 875 1 904 1 918 1 924 1 936 1 953 1 976 1 980 1 985 1 264 1 279 1 297 1 301 1 306 1 313 1 372 1 374 1 423 1 432 1 435 1 452 1 489 1 503 1 505 1 525 1 543 1 551 1 557 1 577 1 595 1 606 1 611 1 618 1 637 1 660 1 672 1 673 1 682 1 721 1 740 1 749 1 751 1 777 1 810 1 824 1 825 1 869 1 886 1 890 1 911 1 958 1 971 1 989 1 1009 1 
1 212 31 1 33 1 43 1 45 1 98 1 150 1 151 1 164 1 175 1 188 1 190 1 197 1 230 1 232 2 240 1 10 1 20 1 35 1 40 1 55 1 64 1 78 1 91 1 96 1 126 1 141 1 149 1 173 1 200 1 202 1 247 1 256 1 270 1 285 1 349 1 389 2 426 1 455 1 461 1 492 1 543 1 544 1 545 1 548 1 549 1 561 1 563 1 565 1 567 1 585 1 614 1 618 2 619 1 636 1 638 1 706 1 713 1 724 1 725 1 808 1 814 1 823 1 837 1 859 1 875 1 877 1 900 1 972 1 975 1 987 1 263 1 303 1 322 1 341 1 355 1 380 1 396 1 415 1 419 1 424 1 451 1 470 1 510 1 569 1 601 1 622 1 627 1 658 1 672 1 682 1 696 1 710 1 715 1 738 1 765 1 778 1 798 1 813 1 816 1 822 1 826 1 852 1 857 1 872 1 902 1 918 1 926 1 948 1 989 1 997 1 1013 1 1019 1 
1 212 1 1 34 1 50 1 112 1 135 1 161 1 173 1 188 1 216 1 222 1 230 1 20 1 36 1 62 1 72 1 89 1 100 1 106 1 144 1 145 1 148 1 153 1 156 1 159 1 202 1 203 1 232 1 242 1 266 1 317 1 327 1 330 1 348 1 354 1 366 1 387 1 407 1 450 1 509 1 512 1 527 1 539 1 546 1 574 1 577 1 580 1 599 1 615 1 618 1 661 1 672 1 681 1 736 1 745 1 753 1 776 1 803 1 828 1 831 1 849 1 856 1 897 1 908 1 936 1 941 1 261 1 298 1 323 1 345 1 361 1 367 1 373 1 380 1 383 1 391 1 402 1 413 1 425 1 482 1 485 1 498 1 500 1 506 1 514 1 531 1 536 1 556 1 559 1 562 1 583 1 592 1 597 1 630 1 634 1 638 1 647 1 684 1 717 1 718 1 734 1 746 1 750 1 780 1 781 1 782 1 785 1 797 1 858 1 863 1 888 1 896 1 940 1 954 1 971 1 983 1 984 1 988 1 1000 1 1002 1 1004 1 1013 1 1015 1 1019 1 
1 207 7 1 30 1 31 1 35 2 73 1 95 1 103 1 135 2 207 1 254 1 18 1 47 1 60 1 67 1 75 1 81 1 93 1 105 1 123 1 161 1 228 1 235 1 256 1 256 1 275 1 303 1 317 1 329 1 336 1 355 1 369 1 387 1 391 1 397 1 415 2 430 1 451 1 464 1 480 1 487 1 499 1 506 1 523 1 537 1 572 1 581 1 631 1 633 1 638 1 656 1 667 1 682 1 687 1 740 1 810 2 858 1 864 1 870 1 874 1 891 1 918 2 933 1 943 1 965 1 993 1 997 1 313 1 314 1 331 1 335 1 359 1 363 1 371 1 372 1 413 1 429 1 457 1 465 1 483 1 485 1 504 1 517 1 521 1 527 1 531 1 544 1 549 1 561 1 601 1 612 1 626 1 647 1 657 1 660 1 673 1 721 1 734 1 737 1 739 1 786 1 796 1 814 1 823 1 824 1 826 1 841 1 905 1 911 1 915 1 936 1 964 1 1014 1 
1 207 26 1 153 1 155 1 209 1 231 1 234 1 242 1 248 1 17 1 20 1 54 1 58 1 91 1 93 1 94 1 98 1 135 1 164 1 178 1 189 1 235 1 237 1 241 1 244 1 258 1 310 1 319 1 322 1 338 1 339 1 346 1 370 1 371 1 384 1 395 1 402 1 404 1 413 1 420 1 437 1 440 1 450 1 501 1 521 1 522 1 538 1 542 1 545 1 555 1 561 1 600 1 626 1 644 1 659 1 674 1 687 1 701 1 773 1 786 1 792 1 820 1 867 1 889 1 893 1 916 1 940 1 945 1 961 1 980 1 270 1 279 1 281 1 282 1 300 1 305 1 315 1 337 1 351 1 352 1 356 1 368 1 409 1 417 1 436 1 473 1 474 1 489 1 496 1 500 1 508 1 528 1 536 1 562 1 578 1 581 1 583 1 593 1 613 1 619 1 623 1 628 1 655 1 672 1 676 1 688 1 731 1 732 1 733 1 736 1 739 1 778 1 800 1 806 1 828 1 836 1 847 1 849 1 864 1 877 1 938 1 942 1 946 1 948 1 952 1 1002 1 
1 214 18 1 24 1 67 1 85 1 88 1 109 1 115 1 117 1 137 1 163 1 205 1 244 1 257 1 43 1 65 1 70 1 94 1 96 1 114 1 128 1 130 1 189 1 192 1 207 1 211 1 243 1 270 1 274 1 292 1 322 1 326 1 353 1 385 1 396 1 400 1 424 1 430 1 442 1 450 1 464 1 473 1 498 1 557 1 571 1 586 1 598 1 600 1 606 1 612 1 613 1 618 1 627 1 633 1 636 1 660 1 697 1 756 1 795 1 812 1 850 1 864 1 867 1 870 1 875 1 877 1 896 1 923 1 938 1 948 1 969 1 994 1 332 1 337 1 340 1 375 1 377 1 378 1 397 1 398 1 429 1 440 1 444 1 499 1 521 1 556 1 575 1 589 1 641 1 654 1 705 1 712 1 717 1 725 1 736 1 760 1 790 1 794 1 802 1 817 1 823 1 902 1 926 1 939 1 982 1 1000 1 1001 1 1009 1 1012 1 
1 210 9 2 31 1 32 1 66 1 70 1 87 1 112 1 145 1 182 1 196 1 204 1 205 1 206 2 217 1 226 1 231 1 252 1 253 1 26 1 29 1 30 1 36 1 68 1 92 1 103 1 118 1 125 1 147 1 149 1 162 1 166 1 178 1 194 1 200 1 238 1 239 1 259 1 259 1 268 1 297 1 331 1 348 1 352 1 359 1 414 1 416 1 435 1 449 1 452 1 466 1 468 1 482 1 494 1 501 1 525 1 530 1 554 1 563 1 564 1 568 1 589 1 607 1 608 1 639 1 641 1 660 1 733 1 753 1 765 1 787 1 792 1 815 2 822 1 835 1 847 1 849 1 866 1 880 1 901 2 905 1 946 1 952 1 958 1 960 2 966 1 967 1 991 2 300 1 308 1 314 1 362 1 369 1 372 1 388 1 395 1 401 1 411 1 424 1 456 1 486 1 503 1 513 1 523 1 544 1 573 1 595 1 606 1 613 1 632 1 638 1 648 1 663 1 672 1 674 1 711 1 735 1 813 1 814 1 821 1 829 1 850 1 862 1 885 1 888 1 902 1 962 1 1000 1 1007 1 1010 1 1015 1 
1 212 8 1 28 1 68 2 98 1 106 1 112 1 143 1 170 1 175 1 216 1 248 1 2 1 14 1 63 1 105 1 113 1 141 1 142 1 153 1 158 1 165 1 185 1 186 1 200 1 217 1 296 1 304 1 330 1 364 1 380 1 383 1 403 1 414 1 462 1 507 1 538 1 542 2 547 1 551 1 579 1 588 1 594 2 606 1 637 1 658 1 689 1 698 1 729 1 732 1 778 1 797 1 844 1 865 1 875 1 877 1 881 1 889 1 898 1 986 1 987 1 995 1 272 1 279 1 282 1 327 1 342 1 349 1 450 1 465 1 491 1 504 1 506 1 512 1 530 1 634 1 635 1 643 1 683 1 716 1 718 1 745 1 760 1 771 1 798 1 810 1 816 1 825 1 845 1 848 1 890 1 893 1 910 1 920 1 930 1 940 1 946 1 975 1 1009 1 1018 1 1019 1 
1 206 9 2 29 1 35 1 48 1 56 1 59 1 80 1 86 1 126 1 131 1 132 1 138 1 195 1 207 1 214 1 244 1 247 1 3 1 13 1 28 1 38 1 63 1 71 1 72 1 90 1 155 1 162 1 177 1 191 1 215 1 219 1 222 1 234 1 255 1 268 1 281 1 339 1 341 1 350 2 356 2 371 1 379 1 430 1 440 1 447 1 453 2 469 1 479 1 485 1 534 1 566 1 581 1 624 1 670 1 694 1 704 1 705 1 715 1 731 1 746 1 752 1 754 1 790 1 800 1 835 1 838 1 847 2 849 1 850 1 896 1 909 1 912 1 918 1 927 1 960 1 963 1 293 1 307 1 310 1 318 1 342 1 385 1 422 1 460 1 467 1 484 1 519 1 528 1 533 1 564 1 589 1 614 1 617 1 675 1 677 1 691 1 696 1 703 1 706 1 733 1 744 1 755 1 761 1 766 1 840 1 864 1 891 1 892 1 894 1 935 1 936 1 988 1 994 1 1011 1 
1 209 9 1 16 1 22 1 49 1 58 1 136 1 137 1 154 1 155 1 166 1 171 2 179 1 193 1 239 1 242 1 4 1 5 1 26 1 55 1 61 1 94 1 103 1 108 1 112 1 148 1 168 1 204 1 207 1 235 1 236 1 246 1 248 1 250 1 263 1 264 1 277 1 289 1 310 1 314 1 332 1 373 1 388 1 393 1 395 1 407 1 408 1 410 1 419 1 438 1 467 1 489 1 495 1 507 1 521 1 523 1 529 1 534 1 538 1 541 1 547 1 559 1 577 1 608 1 639 1 640 1 642 1 653 1 662 1 672 1 714 1 720 1 759 1 787 1 796 1 816 1 820 1 849 1 863 1 864 1 888 1 898 1 908 1 985 1 276 1 288 1 298 1 303 1 319 1 329 1 331 1 336 1 355 1 364 1 390 1 397 1 400 1 448 1 450 1 479 1 487 1 501 1 511 1 535 1 549 1 551 1 562 1 567 1 585 1 614 1 679 1 690 1 724 1 728 1 765 1 833 1 874 1 906 1 915 1 920 1 923 1 933 1 946 1 971 1 984 1 993 1 994 1 1009 1 
1 210 37 1 55 2 67 1 88 1 118 1 128 1 140 1 143 1 181 1 190 1 206 1 223 1 231 1 236 1 262 1 7 1 9 1 62 1 63 1 72 1 79 1 93 1 96 1 108 1 113 1 114 1 133 1 134 1 135 1 145 1 158 1 209 1 229 1 238 1 254 1 287 1 308 1 328 2 356 1 364 1 371 1 383 1 391 1 398 1 504 1 511 2 529 1 540 1 542 1 565 1 579 1 595 1 606 1 624 1 637 1 658 1 671 1 691 1 733 1 772 1 785 1 888 1 908 1 923 1 929 1 938 1 949 1 954 1 965 1 297 1 317 1 326 1 330 1 363 1 370 1 379 1 385 1 423 1 427 1 434 1 448 1 513 1 530 1 556 1 576 1 594 1 598 1 605 1 615 1 636 1 645 1 670 1 686 1 719 1 744 1 750 1 777 1 784 1 804 1 821 1 837 1 874 1 905 1 907 1 911 1 932 1 942 1 966 1 977 1 996 1 1006 1 
1 207 6 1 29 1 45 1 73 1 98 1 100 1 103 1 136 1 142 1 149 1 179 1 183 1 215 1 219 1 220 1 262 1 4 1 8 1 17 1 20 1 50 1 63 1 74 1 75 1 92 1 112 1 126 1 137 1 143 1 164 1 181 1 197 1 199 1 207 1 236 1 238 1 253 1 321 1 350 1 388 1 427 1 430 2 454 1 524 1 562 1 580 1 592 1 610 1 617 1 630 1 638 1 644 2 664 1 692 1 742 2 752 1 769 1 786 1 791 1 812 1 842 1 844 1 851 1 917 1 921 2 923 1 938 1 985 1 992 1 993 1 272 1 326 1 333 1 365 1 384 1 390 1 442 1 447 1 462 1 464 1 476 1 481 1 485 1 495 1 497 1 550 1 555 1 561 1 563 1 565 1 606 1 658 1 735 1 759 1 805 1 833 1 838 1 847 1 897 1 899 1 911 1 918 1 937 1 942 1 971 1 987 1 991 1 1001 1 1007 1 
1 207 2 1 13 1 17 1 41 1 42 1 46 1 51 1 94 1 109 1 112 1 143 1 156 1 157 1 199 1 211 1 223 1 234 1 241 1 251 1 5 1 31 1 44 1 82 1 84 1 102 1 173 1 195 1 198 1 229 1 230 1 231 1 243 1 343 1 346 2 467 1 473 2 480 1 492 1 494 1 506 1 511 1 524 1 525 1 551 1 554 1 560 1 581 1 594 1 603 1 621 1 627 1 752 1 754 2 792 1 798 1 809 1 813 1 882 1 910 1 917 2 921 1 924 1 948 1 985 1 279 1 293 1 304 1 308 1 337 1 347 1 366 1 369 1 410 1 411 1 415 1 418 1 433 1 437 1 450 1 469 1 470 1 479 1 491 1 497 1 519 1 549 1 596 1 597 1 657 1 665 1 672 1 678 1 681 1 689 1 719 1 727 1 728 1 736 1 753 1 767 1 815 1 817 1 825 1 831 1 866 1 877 1 881 1 905 1 907 1 909 1 932 1 957 1 1000 1 1003 1 1012 1 1013 1 1015 1 
1 207 12 1 22 1 44 1 54 1 58 1 88 2 98 2 108 1 130 1 221 1 222 1 223 1 255 1 34 1 40 1 52 1 61 1 64 1 67 1 87 1 101 1 102 1 106 1 123 1 148 1 158 1 171 1 173 1 174 1 214 1 226 1 238 1 243 1 277 1 298 1 317 1 333 1 339 1 353 1 368 1 375 1 394 1 430 1 450 1 458 1 480 1 512 1 526 1 539 1 545 1 585 1 591 1 607 1 616 1 637 1 639 1 676 1 685 1 697 1 781 2 785 1 789 1 811 1 815 1 834 1 846 1 910 1 925 1 955 1 978 1 998 1 280 1 288 1 306 1 309 1 332 1 336 1 391 1 402 1 418 1 445 1 452 1 487 1 498 1 568 1 575 1 588 1 601 1 620 1 623 1 664 1 678 1 691 1 713 1 725 1 734 1 741 1 747 1 754 1 791 1 793 1 795 1 798 1 799 1 803 1 805 1 807 1 868 1 881 1 884 1 915 1 976 1 1007 1 1013 1 1018 1 
1 205 5 1 30 1 42 1 94 1 95 1 134 1 150 1 167 1 217 1 226 1 14 1 39 1 49 1 74 1 90 1 110 1 122 1 124 1 127 1 142 1 170 1 197 1 218 1 268 1 288 1 289 1 298 1 312 1 313 1 332 1 339 1 352 1 356 2 369 1 382 1 396 1 403 1 405 1 406 1 429 1 478 1 481 1 500 1 518 1 524 1 567 1 571 1 599 1 605 1 615 1 616 1 637 1 674 1 680 1 684 1 687 1 704 1 712 1 732 1 734 1 735 1 757 1 814 1 816 1 826 1 833 1 867 1 877 2 888 1 891 1 906 1 929 1 291 1 295 1 300 1 311 1 321 1 335 1 336 1 404 1 407 1 425 1 445 1 456 1 485 1 492 1 496 1 519 1 527 1 536 1 559 1 585 1 592 1 617 1 623 1 629 1 638 1 662 1 681 1 697 1 699 1 709 1 739 1 772 1 781 1 789 1 844 1 887 1 907 1 912 1 963 1 994 1 1006 1 
1 208 52 1 60 1 68 1 83 1 92 1 101 1 114 1 145 1 165 1 172 1 205 2 234 1 259 1 261 1 267 1 12 1 28 1 54 1 55 1 80 1 87 1 108 1 110 1 113 1 123 1 150 1 181 1 201 1 210 1 229 1 236 1 238 1 280 1 295 1 300 1 319 1 328 1 361 1 391 1 393 1 394 1 409 1 422 1 430 1 439 1 446 1 453 2 457 1 464 1 483 1 484 1 495 2 542 1 550 1 553 1 557 1 569 1 591 1 619 2 651 1 666 1 700 1 711 1 722 1 726 1 798 1 805 1 823 1 840 1 855 1 861 1 865 1 894 1 904 1 930 1 952 1 965 1 296 1 323 1 336 1 370 1 371 1 388 1 410 1 418 1 456 1 466 1 473 1 482 1 496 1 515 1 522 1 523 1 547 1 593 1 658 1 661 1 667 1 684 1 694 1 706 1 730 1 745 1 821 1 877 1 890 1 892 1 901 1 927 1 932 1 976 1 986 1 988 1 1004 1 
1 213 4 1 9 2 43 1 74 1 80 1 101 2 118 1 135 1 140 1 165 1 167 1 169 1 182 1 215 1 216 1 224 2 236 1 36 1 42 1 83 1 86 1 105 1 128 1 155 1 178 1 188 1 199 1 222 1 241 1 287 1 293 1 299 1 311 1 319 1 327 1 333 1 338 2 402 1 431 1 486 1 524 1 537 2 546 1 552 1 558 1 566 1 591 1 618 1 626 1 644 1 652 1 665 1 668 1 674 1 684 1 699 1 710 1 712 1 716 1 739 1 745 1 827 1 828 2 833 1 840 1 842 1 859 1 892 1 920 1 921 1 945 1 952 1 956 1 979 1 991 1 280 1 281 1 369 1 370 1 382 1 384 1 393 1 446 1 449 1 476 1 478 1 525 1 540 1 550 1 551 1 647 1 696 1 719 1 761 1 766 1 767 1 773 1 782 1 811 1 815 1 820 1 854 1 869 1 916 1 919 1 947 1 1017 1 
1 209 73 1 75 1 119 1 132 1 140 1 176 1 192 1 201 1 249 1 254 1 258 1 38 1 60 1 66 1 90 1 93 1 110 1 113 1 195 1 198 1 200 1 233 1 234 1 251 1 257 1 287 1 294 1 321 1 364 1 380 1 385 1 418 1 429 1 433 1 440 1 445 1 489 1 548 1 552 1 561 1 592 1 608 1 625 1 635 1 665 1 670 1 698 1 699 1 702 1 712 1 719 1 721 1 738 1 741 1 756 1 757 2 765 1 780 1 785 1 806 1 869 1 886 2 969 1 975 2 976 1 983 1 288 1 298 1 306 1 334 1 341 1 342 1 344 1 349 1 359 1 378 1 396 1 409 1 438 1 454 1 467 1 493 1 502 1 523 1 535 1 539 1 557 1 574 1 593 1 600 1 605 1 626 1 655 1 678 1 708 1 717 1 748 1 777 1 783 1 789 1 792 1 803 1 805 1 812 1 836 1 839 1 857 1 915 1 938 1 942 1 951 1 978 1 980 1 990 1 1003 1 1008 1 1013 1 
1 212 11 1 16 1 25 1 106 1 116 1 134 2 165 1 191 1 215 1 235 1 253 1 7 1 29 1 44 1 47 1 66 1 108 1 113 1 119 1 130 1 216 1 226 1 311 1 354 1 361 1 370 1 385 1 411 1 413 1 464 1 486 1 489 1 505 1 506 1 507 1 530 1 550 1 564 1 567 1 584 1 599 1 605 1 640 1 646 1 651 1 672 1 686 1 752 1 759 1 772 1 782 1 786 1 840 1 865 2 867 1 869 1 876 1 886 1 935 1 940 1 942 1 955 1 958 1 967 1 275 1 359 1 406 1 407 1 426 1 437 1 456 1 462 1 467 1 471 1 476 1 488 1 535 1 549 1 555 1 582 1 614 1 634 1 643 1 678 1 699 1 708 1 725 1 729 1 750 1 763 1 768 1 791 1 794 1 802 1 824 1 856 1 884 1 892 1 907 1 911 1 952 1 953 1 954 1 965 1 966 1 1002 1 1008 1 1013 1 1019 1 
1 207 76 1 79 2 89 1 104 1 105 1 117 1 132 1 148 1 169 1 181 1 182 1 192 1 194 1 9 1 47 1 50 1 56 1 88 1 97 1 121 1 131 1 138 1 143 1 196 1 200 1 224 1 225 1 237 1 260 1 264 1 279 1 350 2 377 1 378 1 388 1 400 1 402 1 406 2 416 1 417 1 423 1 439 1 468 1 527 1 567 1 572 1 590 1 593 1 630 1 655 1 680 1 702 1 703 1 704 1 715 1 732 1 744 1 746 1 751 1 766 1 773 1 783 2 804 1 810 1 842 1 843 1 852 1 891 1 892 1 897 1 945 1 961 1 969 1 976 1 980 1 983 1 988 1 282 1 303 1 306 1 355 1 365 1 403 1 427 1 453 1 456 1 471 1 486 1 508 1 511 1 513 1 514 1 541 1 547 1 574 1 580 1 587 1 609 1 642 1 663 1 675 1 701 1 717 1 722 1 733 1 734 1 753 1 778 1 784 1 788 1 808 1 829 1 838 1 841 1 859 1 861 1 865 1 877 1 878 1 932 1 964 1 966 1 992 1 995 1 1006 1 1010 1 
1 209 26 2 37 1 39 1 47 1 51 1 56 1 75 1 90 1 119 2 124 1 140 1 155 1 158 2 175 1 186 1 194 1 199 1 210 1 214 1 218 1 32 1 141 1 162 1 165 1 167 1 189 1 192 1 203 1 277 1 309 1 367 1 374 1 418 1 419 1 422 1 430 1 431 1 483 1 490 1 531 1 533 1 534 1 535 1 555 1 564 1 589 1 592 1 601 1 647 1 656 1 667 1 680 1 687 1 691 1 709 1 712 1 749 1 791 1 794 1 804 1 819 1 825 1 826 1 847 1 853 1 903 1 906 1 911 2 950 1 957 1 974 2 275 1 298 1 315 1 329 1 354 1 357 1 387 1 441 1 444 1 468 1 471 1 482 1 488 1 526 1 536 1 548 1 552 1 586 1 587 1 662 1 714 1 732 1 747 1 754 1 755 1 765 1 769 1 787 1 846 1 857 1 877 1 894 1 897 1 899 1 901 1 949 1 972 1 1002 1 
1 210 6 1 35 1 46 1 57 1 78 1 79 1 99 1 133 1 138 1 193 1 226 1 236 1 243 1 244 1 258 1 12 1 21 1 25 1 49 1 52 1 64 1 73 1 75 1 83 1 96 1 126 1 145 1 150 1 179 1 180 1 184 1 185 1 201 1 229 1 239 1 311 1 322 2 345 1 347 1 352 1 377 1 380 1 397 1 399 1 422 1 431 1 456 1 480 1 490 1 510 1 517 1 518 1 530 2 549 1 556 1 626 1 628 2 653 1 656 1 719 1 758 1 777 1 789 1 817 1 835 1 853 1 857 1 905 1 909 2 946 1 981 1 989 2 993 1 277 1 301 1 333 1 338 1 341 1 364 1 369 1 371 1 374 1 379 1 381 1 386 1 411 1 449 1 454 1 455 1 478 1 521 1 528 1 538 1 560 1 578 1 616 1 670 1 680 1 683 1 742 1 751 1 753 1 763 1 787 1 788 1 815 1 828 1 876 1 894 1 898 1 926 1 929 1 932 1 994 1 1003 1 1009 1 
1 211 1 1 13 1 16 1 23 1 29 1 71 1 74 1 83 1 88 1 92 1 97 1 124 1 150 1 161 1 162 1 165 1 174 1 183 1 186 1 196 1 207 1 211 1 212 1 242 1 256 1 32 1 39 1 41 1 50 1 77 1 102 1 133 1 137 1 153 1 191 1 200 1 213 1 219 1 246 1 247 1 252 1 271 1 273 1 309 1 326 1 362 1 395 1 402 1 415 1 417 1 433 1 434 1 442 1 500 1 520 1 549 1 554 1 578 1 583 1 595 1 673 1 675 1 709 1 716 1 729 1 747 1 751 1 783 1 795 1 801 1 812 1 814 1 860 1 874 1 879 1 952 1 962 1 284 1 298 1 313 1 331 1 341 1 343 1 352 1 363 1 391 1 429 1 462 1 473 1 513 1 570 1 577 1 597 1 611 1 669 1 695 1 705 1 760 1 763 1 773 1 793 1 798 1 826 1 850 1 852 1 855 1 868 1 877 1 966 1 968 1 976 1 985 1 1007 1 1009 1 1019 1 
1 206 7 1 33 1 57 1 64 1 116 1 119 1 131 1 162 1 173 1 185 1 205 1 212 1 213 1 236 1 248 1 30 1 101 1 108 1 147 1 161 1 227 1 262 1 283 1 305 1 328 1 339 1 341 1 361 2 387 1 392 1 405 1 407 1 418 2 421 1 472 1 479 2 499 1 501 1 514 1 543 2 569 1 576 2 608 1 647 1 655 1 682 1 693 1 716 1 722 1 727 1 805 1 830 1 841 1 852 1 877 1 878 1 881 1 891 2 897 1 908 1 909 1 934 1 944 1 945 1 949 1 957 1 975 1 986 1 338 1 402 1 415 1 437 1 441 1 509 1 528 1 539 1 572 1 606 1 618 1 634 1 650 1 666 1 672 1 724 1 748 1 753 1 767 1 777 1 836 1 854 1 884 1 920 1 937 1 952 1 956 1 1011 1 
1 210 9 1 29 1 31 1 50 1 62 2 99 1 100 1 127 1 145 1 153 1 154 1 158 1 197 1 198 1 209 1 215 1 233 1 239 1 262 1 266 1 273 1 48 1 53 1 57 1 77 1 78 1 88 1 104 1 105 1 122 1 161 1 196 1 230 1 231 1 274 1 288 1 333 1 345 1 363 1 393 1 416 1 480 1 486 1 545 1 577 1 599 1 622 1 642 1 670 1 697 1 723 1 733 1 747 1 756 1 775 1 776 1 844 1 908 1 914 1 969 1 974 1 977 2 986 1 988 2 997 1 343 1 354 1 360 1 365 1 375 1 380 1 381 1 473 1 482 1 492 1 500 1 523 1 546 1 558 1 570 1 574 1 602 1 609 1 643 1 656 1 666 1 678 1 715 1 717 1 743 1 759 1 764 1 809 1 846 1 858 1 894 1 912 1 926 1 984 1 989 1 1011 1 1013 1 
1 209 26 2 59 1 94 1 122 1 139 1 140 2 145 1 176 1 179 1 223 1 248 1 112 1 131 1 148 1 157 1 170 1 181 1 184 1 189 1 204 1 239 1 282 1 290 1 299 1 330 1 342 1 347 1 352 1 358 1 408 1 410 1 423 1 432 1 496 1 511 1 512 1 513 1 524 1 555 1 571 1 590 1 596 1 615 1 654 1 664 1 706 1 725 1 729 1 731 1 746 1 754 1 759 1 761 1 777 1 784 1 802 1 812 1 829 2 832 1 864 1 881 1 885 1 904 1 906 2 279 1 286 1 296 1 327 1 339 1 341 1 374 1 376 1 405 1 414 1 425 1 447 1 458 1 463 1 467 1 468 1 538 1 546 1 552 1 583 1 585 1 593 1 605 1 621 1 639 1 646 1 653 1 671 1 686 1 692 1 728 1 768 1 773 1 791 1 857 1 859 1 861 1 891 1 900 1 914 1 962 1 974 1 999 1 1002 1 1003 1 1016 1 
1 211 23 2 49 1 52 1 76 2 101 1 138 1 162 1 175 1 192 1 272 1 18 1 61 1 73 1 82 1 91 1 95 1 122 1 151 1 165 1 212 1 215 1 228 1 229 1 231 1 235 1 247 1 253 1 257 1 260 1 265 1 278 1 304 1 322 1 324 1 345 1 379 1 399 1 423 1 433 1 440 1 443 1 455 1 460 1 483 1 486 1 518 2 538 1 550 1 561 1 577 1 591 1 597 1 618 1 621 1 639 1 650 1 662 1 664 1 705 1 718 1 720 1 727 1 732 1 733 1 737 1 745 1 747 1 799 1 808 2 822 1 827 1 837 1 841 2 846 1 852 1 876 1 878 1 887 1 892 1 907 1 908 1 943 1 950 1 979 1 997 1 282 1 300 1 317 1 356 1 368 1 369 1 370 1 387 1 404 1 412 1 421 1 436 1 446 1 464 1 476 1 549 1 553 1 615 1 619 1 629 1 638 1 640 1 716 1 743 1 765 1 804 1 815 1 819 1 835 1 863 1 881 1 885 1 886 1 910 1 914 1 916 1 917 1 945 1 953 1 999 1 1008 1 1012 1 
1 212 12 1 41 1 79 1 116 1 141 1 164 1 173 1 177 1 222 1 268 1 29 1 47 1 69 1 74 1 76 1 94 1 123 1 135 1 149 1 163 1 170 1 207 1 210 1 211 1 214 1 217 1 252 1 266 1 269 1 297 1 317 1 352 1 361 1 374 1 398 1 408 1 412 1 424 1 468 1 485 1 493 1 543 1 639 1 648 1 669 1 698 1 707 1 711 1 732 1 744 1 792 1 796 1 798 1 812 1 822 1 823 1 824 1 872 1 888 1 899 1 901 1 927 1 938 1 944 1 949 1 981 1 288 1 289 1 300 1 307 1 310 1 315 1 337 1 359 1 410 1 414 1 416 1 436 1 529 1 547 1 573 1 597 1 606 1 608 1 617 1 618 1 649 1 673 1 683 1 728 1 737 1 757 1 800 1 830 1 856 1 866 1 873 1 910 1 937 1 962 1 968 1 991 1 992 1 1001 1 1012 1 1014 1 
1 208 13 1 16 1 17 1 67 1 89 1 111 1 120 1 126 1 128 1 134 1 145 1 166 1 191 1 238 1 243 1 253 1 261 1 7 1 27 1 45 1 53 1 65 1 83 1 88 1 124 1 177 1 181 1 206 1 222 1 240 1 246 1 257 1 269 1 293 1 301 1 305 1 306 1 317 1 327 1 333 1 340 1 362 1 376 2 381 1 402 2 426 1 432 1 442 1 466 1 499 1 507 1 509 2 547 1 582 1 621 1 642 1 660 1 674 2 758 1 775 1 776 1 779 1 782 1 803 1 807 1 812 1 840 1 856 1 865 1 897 1 899 1 912 1 962 1 968 1 282 1 289 1 296 1 364 1 371 1 396 1 413 1 439 1 452 1 454 1 515 1 534 1 556 1 583 1 589 1 618 1 634 1 646 1 654 1 690 1 691 1 709 1 715 1 732 1 754 1 765 1 787 1 793 1 850 1 854 1 882 1 920 1 935 1 942 1 943 1 964 1 983 1 999 1 
1 209 2 1 48 1 51 1 53 2 75 1 79 1 105 1 114 1 166 1 193 1 198 1 278 1 16 1 18 1 27 1 55 1 93 1 97 1 127 1 142 1 207 1 224 1 231 1 240 1 257 1 260 1 272 1 279 1 281 1 296 1 318 1 319 1 361 1 363 1 371 2 372 1 393 1 400 1 445 1 450 2 480 1 482 1 494 1 510 1 562 1 564 1 592 1 602 1 614 1 615 1 617 1 627 1 643 1 696 1 751 1 755 1 758 1 770 1 785 1 806 1 810 1 813 1 818 1 825 1 826 1 858 1 886 1 902 1 931 1 965 1 979 2 983 1 984 1 986 1 988 1 295 1 315 1 322 1 358 1 383 1 402 1 409 1 470 1 544 1 553 1 558 1 612 1 657 1 686 1 692 1 697 1 698 1 710 1 724 1 726 1 739 1 748 1 752 1 756 1 762 1 763 1 773 1 783 1 795 1 798 1 852 1 860 1 861 1 867 1 874 1 882 1 885 1 903 1 938 1 960 1 1006 1 1009 1 
1 212 1 1 12 1 32 1 60 1 100 1 120 1 150 1 160 1 176 2 190 2 208 1 209 1 235 1 236 2 249 2 276 1 4 1 22 1 24 1 38 1 39 1 51 1 58 1 70 1 77 1 94 1 149 1 194 1 207 1 218 1 221 1 223 1 226 1 294 1 297 1 316 2 325 1 345 1 347 1 355 1 362 1 390 1 394 1 438 1 467 1 468 1 495 1 502 1 552 1 558 1 572 1 573 1 604 1 626 1 632 1 676 1 686 1 698 1 699 1 735 1 736 1 796 1 839 1 859 1 870 1 905 1 944 1 945 1 950 1 953 1 957 1 963 1 995 1 284 1 307 1 319 1 360 1 367 1 376 1 395 1 402 1 403 1 415 1 422 1 423 1 448 1 454 1 464 1 476 1 478 1 527 1 602 1 619 1 643 1 677 1 706 1 716 1 731 1 739 1 771 1 787 1 807 1 819 1 842 1 844 1 852 1 878 1 923 1 929 1 935 1 938 1 961 1 968 1 973 1 1004 1 1012 1 
1 216 23 1 27 1 60 1 86 1 110 1 111 1 122 1 123 1 143 1 188 1 189 1 192 1 195 1 214 1 238 1 252 1 21 1 25 1 45 1 67 1 101 1 117 1 129 1 163 1 213 1 221 1 275 1 283 1 296 1 308 1 311 1 314 1 338 1 340 1 364 1 406 1 412 1 422 1 424 1 439 1 446 1 448 1 449 1 460 1 475 1 483 1 519 1 538 1 616 1 636 2 644 1 684 1 722 1 725 1 740 2 748 1 805 1 808 1 811 1 812 1 827 1 841 1 853 1 870 1 882 1 885 1 894 1 899 1 916 1 930 1 949 1 951 1 954 1 956 1 960 1 995 2 997 1 287 1 321 1 361 1 362 1 374 1 382 1 389 1 391 1 394 1 401 1 404 1 410 1 427 1 447 1 501 1 532 1 545 1 546 1 556 1 595 1 602 1 678 1 691 1 692 1 695 1 724 1 738 1 739 1 741 1 754 1 782 1 804 1 810 1 849 1 873 1 877 1 890 1 923 1 988 1 991 1 1004 1 1009 1 1014 1 1016 1 
1 214 5 2 40 1 99 1 106 1 116 1 140 1 151 1 153 1 163 1 254 1 30 1 49 1 61 1 77 1 84 1 91 1 123 1 124 1 146 1 165 1 180 1 198 1 201 1 220 1 221 1 232 1 240 1 246 1 251 1 293 1 340 1 342 1 349 1 356 1 383 1 388 1 414 1 446 1 454 1 471 1 496 1 498 1 534 2 537 1 579 2 650 1 652 1 700 1 717 1 721 1 810 1 814 1 817 1 822 1 831 1 848 1 862 1 868 1 894 1 900 1 936 1 939 1 954 1 976 1 298 1 300 1 303 1 326 1 337 1 345 1 355 1 373 1 387 1 396 1 424 1 437 1 438 1 461 1 495 1 509 1 521 1 571 1 576 1 583 1 597 1 666 1 671 1 727 1 731 1 738 1 758 1 790 1 798 1 838 1 856 1 870 1 885 1 888 1 937 1 942 1 971 1 985 1 991 1 992 1 993 1 1006 1 1009 1 1013 1 
1 211 3 1 4 1 6 1 14 2 16 1 29 1 37 1 60 1 85 1 101 1 102 1 108 1 142 1 161 1 164 1 173 1 184 1 202 1 217 1 229 1 5 1 9 1 21 1 77 1 89 1 109 1 115 1 120 1 139 1 140 1 149 1 152 1 154 1 189 1 247 1 278 1 323 1 355 1 440 1 454 1 468 1 470 1 490 2 530 1 536 1 542 1 557 1 563 1 598 1 600 1 603 1 622 1 632 1 677 1 718 2 721 1 725 1 733 1 734 1 740 1 744 1 753 1 797 1 798 1 808 1 822 1 829 1 895 1 896 1 900 1 922 1 939 1 966 1 969 2 985 1 295 1 307 1 314 1 337 1 349 1 388 1 406 1 408 1 445 1 448 1 452 1 471 1 472 1 487 1 500 1 514 1 518 1 529 1 535 1 554 1 575 1 585 1 588 1 592 1 595 1 596 1 626 1 657 1 663 1 673 1 766 1 773 1 777 1 781 1 782 1 789 1 819 1 827 1 834 1 944 1 961 1 1001 1 1002 1 1009 1 
1 212 19 1 47 2 48 1 50 2 67 1 83 1 87 1 96 1 121 1 130 1 166 1 172 1 175 1 182 1 210 1 212 1 224 2 235 1 237 1 238 1 251 1 263 1 269 1 270 1 8 1 25 1 42 1 78 1 98 1 144 1 165 1 167 1 176 1 185 1 192 1 196 1 197 1 248 1 284 1 305 1 317 1 375 1 393 1 398 1 417 1 478 1 488 1 530 1 542 1 570 1 585 1 590 1 596 1 619 1 626 1 630 1 633 1 646 1 656 1 666 1 670 1 688 1 702 1 705 1 715 1 737 1 738 1 758 1 801 1 841 1 854 1 859 1 860 1 867 1 910 1 927 1 973 1 979 1 296 1 301 1 332 1 335 1 340 1 352 1 354 1 370 1 371 1 401 1 415 1 421 1 432 1 438 1 439 1 464 1 502 1 520 1 613 1 648 1 687 1 748 1 751 1 764 1 776 1 781 1 831 1 853 1 872 1 895 1 912 1 914 1 918 1 943 1 959 1 982 1 983 1 992 1 1006 1 1016 1 
1 213 2 1 14 1 24 1 40 1 44 1 62 1 93 1 96 1 97 1 101 1 121 1 146 1 193 1 199 1 215 1 228 1 267 1 277 1 8 1 39 1 71 1 122 1 167 1 169 1 203 1 209 1 214 1 222 1 262 1 266 1 270 1 280 1 351 1 392 1 425 1 479 1 518 1 549 1 580 1 637 1 650 1 682 1 689 1 701 1 759 1 808 1 878 1 884 1 885 1 892 1 927 1 938 1 939 1 966 1 976 1 984 1 305 1 317 1 328 1 333 1 347 1 349 1 356 1 358 1 365 1 377 1 382 1 399 1 415 1 442 1 454 1 474 1 503 1 511 1 525 1 537 1 548 1 584 1 623 1 661 1 684 1 692 1 714 1 778 1 780 1 789 1 797 1 821 1 842 1 844 1 848 1 859 1 900 1 929 1 957 1 958 1 959 1 993 1 1001 1 1007 1 1013 1 1015 1 
1 215 17 1 18 1 77 1 123 1 132 1 154 1 174 1 187 1 194 1 196 1 226 1 262 1 267 1 29 1 37 1 81 1 85 1 195 1 208 1 223 1 235 1 247 1 280 1 281 1 323 1 337 1 364 1 404 2 406 1 431 1 440 1 466 1 491 1 501 2 514 1 562 1 596 1 605 1 611 1 634 1 652 1 663 1 667 1 694 1 695 1 713 1 730 1 736 1 764 1 785 1 787 1 795 1 797 1 825 1 834 2 841 1 858 1 873 1 895 1 960 1 964 1 987 1 992 1 291 1 296 1 311 1 314 1 315 1 344 1 345 1 357 1 362 1 367 1 391 1 408 1 415 1 421 1 427 1 441 1 469 1 517 1 521 1 525 1 538 1 539 1 547 1 549 1 566 1 567 1 603 1 604 1 623 1 640 1 672 1 686 1 708 1 714 1 723 1 746 1 747 1 770 1 790 1 811 1 819 1 837 1 860 1 867 1 879 1 915 1 919 1 932 1 938 1 954 1 998 1 1001 1 1011 1 1012 1 
1 212 1 1 11 1 21 1 69 1 127 1 138 1 148 1 154 1 156 1 162 1 171 1 174 1 180 1 185 1 189 1 236 1 253 1 278 1 9 1 22 1 23 1 80 1 91 1 116 1 125 1 130 1 140 1 146 1 158 1 190 1 195 1 218 1 222 1 243 1 293 2 310 1 318 1 321 1 330 1 337 1 362 1 372 1 373 1 437 1 456 1 462 1 468 1 493 1 502 1 512 2 520 1 539 1 552 1 595 1 604 1 610 1 613 1 629 1 642 1 646 1 787 1 788 1 818 1 832 1 837 1 842 1 844 1 882 1 888 1 913 1 922 1 933 1 955 1 963 1 980 1 989 1 995 1 998 1 301 1 303 1 322 1 387 1 396 1 403 1 412 1 413 1 433 1 440 1 453 1 454 1 536 1 537 1 541 1 579 1 618 1 630 1 635 1 650 1 657 1 662 1 672 1 676 1 678 1 683 1 688 1 708 1 727 1 735 1 765 1 766 1 784 1 822 1 852 1 859 1 861 1 887 1 944 1 962 1 969 1 983 1 1003 1 1015 1 
1 212 3 2 7 2 14 1 38 1 66 1 116 1 119 1 124 1 142 1 143 1 147 1 148 1 150 1 168 1 198 1 199 1 249 1 23 1 27 1 44 1 52 1 54 1 82 1 84 1 86 1 115 1 130 1 163 1 166 1 170 1 184 1 193 1 219 1 225 1 227 1 267 1 289 1 338 1 355 1 397 1 399 1 424 1 435 1 468 1 472 1 498 1 515 1 519 1 523 1 556 1 620 1 627 1 631 1 673 1 681 1 699 1 706 1 733 1 743 1 772 1 774 1 775 1 795 1 804 1 813 1 829 1 838 2 847 1 862 1 865 1 867 1 889 1 895 1 903 1 951 1 957 1 971 1 307 1 313 1 319 1 363 1 371 1 379 1 388 1 405 1 411 1 455 1 514 1 520 1 540 1 549 1 573 1 579 1 580 1 590 1 605 1 612 1 634 1 638 1 658 1 721 1 761 1 859 1 861 1 873 1 875 1 969 1 977 1 988 1 1004 1 1014 1 1018 1 1019 1 
1 209 11 1 35 2 38 1 74 1 96 1 120 1 170 1 174 1 186 1 200 1 201 2 202 1 239 1 240 1 258 1 14 1 20 1 68 1 88 1 101 1 137 1 171 1 213 1 229 1 232 1 235 1 241 1 247 1 252 1 294 1 310 1 330 1 336 1 358 1 376 1 413 1 418 1 459 1 478 1 491 2 494 1 519 2 525 1 528 1 530 1 548 1 561 1 575 1 616 1 660 1 678 1 701 1 712 1 745 2 749 1 765 1 772 1 796 1 797 1 810 1 820 1 824 1 829 2 837 1 845 1 854 1 867 1 883 1 913 1 924 1 942 1 944 1 963 1 989 1 991 1 996 1 301 1 303 1 305 1 321 1 342 1 344 1 354 1 384 1 412 1 414 1 453 1 477 1 481 1 483 1 501 1 547 1 550 1 554 1 563 1 581 1 594 1 600 1 606 1 615 1 618 1 654 1 655 1 656 1 667 1 671 1 690 1 696 1 700 1 709 1 725 1 731 1 774 1 818 1 846 1 851 1 855 1 887 1 936 1 949 1 959 1 960 1 975 1 976 1 977 1 985 1 1001 1 1008 1 
1 214 16 1 17 1 24 1 43 1 61 1 89 1 114 1 119 1 120 1 144 1 167 1 269 1 281 1 285 1 290 2 20 1 31 1 87 1 106 1 176 1 177 1 189 1 194 1 197 1 213 1 244 1 261 1 265 1 311 1 326 1 358 1 359 1 366 1 417 1 442 1 450 1 461 1 478 1 518 1 529 2 546 1 558 1 620 1 630 1 632 1 650 1 672 1 706 1 711 1 721 1 727 1 736 1 778 1 803 1 807 2 813 1 881 2 925 1 940 1 953 1 305 1 351 1 362 1 363 1 384 1 399 1 446 1 483 1 497 1 517 1 543 1 549 1 551 1 553 1 561 1 562 1 563 1 633 1 636 1 646 1 648 1 653 1 657 1 682 1 690 1 702 1 703 1 755 1 780 1 794 1 804 1 830 1 853 1 858 1 868 1 871 1 883 1 888 1 915 1 926 1 947 1 955 1 1014 1 1016 1 1017 1 1018 1 
1 211 14 1 43 1 54 1 66 1 82 1 86 2 87 1 94 1 110 1 133 1 138 1 147 1 149 1 181 1 189 1 207 1 217 1 220 1 233 1 246 1 270 1 283 1 292 1 32 1 39 1 40 1 42 1 61 1 79 1 83 1 112 1 124 1 137 1 140 1 141 1 170 1 186 1 209 1 226 1 251 1 336 1 362 1 405 2 418 1 443 1 520 1 537 1 598 1 615 1 638 1 651 1 657 1 660 1 662 2 665 1 668 1 669 1 734 1 745 1 757 1 760 1 806 1 832 1 876 1 889 1 903 1 908 1 909 1 930 1 944 1 949 1 985 2 986 1 352 1 359 1 369 1 382 1 541 1 544 1 576 1 581 1 621 1 623 1 634 1 658 1 694 1 729 1 736 1 741 1 796 1 799 1 810 1 842 1 846 1 857 1 870 1 945 1 959 1 988 1 1007 1 1018 1 
1 216 3 1 4 1 39 1 49 1 54 1 85 1 128 1 159 1 167 1 169 1 178 1 268 1 67 1 70 1 74 1 76 1 88 1 109 1 112 1 129 1 142 1 146 1 156 1 177 1 185 1 208 1 219 1 228 1 236 1 238 1 267 1 282 1 286 1 316 1 318 1 403 1 410 1 417 2 483 1 495 1 500 1 519 1 527 1 546 1 592 1 597 1 604 1 607 1 617 1 633 1 635 1 644 1 672 1 705 1 726 1 758 1 769 2 802 1 824 1 841 1 849 1 865 1 875 2 902 1 904 1 923 1 937 1 940 1 951 1 982 1 985 1 988 1 991 1 307 1 349 1 364 1 444 1 456 1 481 1 489 1 491 1 499 1 509 1 528 1 583 1 606 1 608 1 653 1 658 1 687 1 700 1 717 1 722 1 733 1 737 1 745 1 761 1 781 1 810 1 811 1 819 1 826 1 843 1 905 1 914 1 917 1 934 1 946 1 960 1 962 1 974 1 989 1 999 1 1006 1 1007 1 1012 1 1013 1 1016 1 1018 1 
1 208 15 1 16 1 28 1 47 1 59 1 84 1 110 1 147 2 188 1 189 1 202 1 237 1 250 1 260 1 282 1 284 1 6 1 21 1 48 1 52 1 76 1 86 1 91 1 99 1 117 1 121 1 123 1 165 1 167 1 180 1 197 1 208 1 222 1 238 1 244 1 268 1 278 1 281 1 287 1 289 1 297 1 299 1 330 1 392 1 434 1 443 1 471 1 473 1 527 1 533 1 536 1 537 1 572 1 576 1 611 1 617 1 656 1 659 2 687 2 690 1 694 1 699 1 720 1 726 1 742 1 744 1 746 1 763 1 764 1 775 1 780 1 813 1 833 1 845 1 859 1 869 1 874 1 931 1 933 1 956 1 968 1 977 2 298 1 321 1 383 1 390 1 425 1 436 1 470 1 485 1 513 1 514 1 531 1 543 1 560 1 583 1 592 1 660 1 671 1 738 1 751 1 803 1 807 1 821 1 830 1 832 1 838 1 871 1 879 1 907 1 910 1 916 1 928 1 969 1 985 1 999 1 1010 1 
1 209 20 1 26 1 41 1 45 1 59 1 73 1 75 1 92 1 172 1 188 1 201 1 219 1 250 1 259 1 280 1 283 1 296 1 4 1 22 1 23 1 38 1 44 1 48 1 51 1 65 1 67 1 88 1 89 1 90 1 106 1 129 1 137 1 183 1 186 1 192 1 206 1 212 1 220 1 240 1 253 1 263 1 309 1 334 1 349 1 364 1 424 2 444 1 445 2 469 1 479 2 505 1 518 1 556 1 598 1 608 1 612 1 626 1 635 1 680 1 682 1 709 1 711 1 733 1 745 1 752 1 779 1 826 1 848 1 891 1 894 1 917 1 945 1 965 1 348 1 360 1 361 1 377 1 428 1 431 1 436 1 475 1 488 1 503 1 504 1 531 1 560 1 642 1 655 1 662 1 665 1 716 1 719 1 755 1 786 1 806 1 812 1 854 1 920 1 936 1 942 1 960 1 971 1 975 1 
1 206 1 1 6 1 53 1 101 1 106 1 116 1 127 1 129 1 138 1 158 1 160 2 194 2 220 1 230 1 250 1 266 1 267 1 23 1 31 1 71 1 117 1 122 1 134 1 137 1 139 1 153 1 172 1 234 1 243 1 252 1 255 1 262 1 270 1 273 1 275 1 285 1 296 1 303 1 311 1 334 1 345 1 372 1 387 1 406 1 439 1 462 1 470 1 471 1 473 1 478 1 506 1 512 1 559 1 573 1 575 1 598 1 610 1 629 1 658 1 674 1 676 1 701 1 702 1 715 1 718 1 722 1 774 1 781 1 806 1 858 1 884 1 903 1 908 1 914 1 923 1 932 1 942 1 944 2 963 1 977 1 982 1 995 1 315 1 412 1 432 1 441 1 497 1 500 1 539 1 564 1 594 1 618 1 647 1 667 1 683 1 687 1 695 1 699 1 712 1 758 1 762 1 776 1 814 1 822 1 848 1 856 1 924 1 938 1 947 1 953 1 964 1 985 1 
1 210 14 1 59 1 60 1 87 1 97 1 114 1 146 1 155 1 194 1 206 1 215 1 224 1 269 1 278 1 296 1 5 1 10 1 13 1 52 1 78 1 94 1 102 1 105 1 107 1 131 1 150 1 158 1 173 1 179 1 180 1 246 1 250 1 302 1 321 1 339 2 340 1 363 2 374 1 407 1 416 1 423 1 435 1 437 1 461 1 474 1 482 1 487 1 514 1 516 1 524 1 541 1 576 1 601 1 604 1 613 1 633 1 634 1 662 1 671 1 675 1 687 1 695 1 702 1 705 1 720 1 724 1 738 1 739 1 754 1 780 2 795 1 798 1 802 1 813 1 820 1 845 1 848 1 850 1 878 1 880 1 886 1 892 1 904 1 937 2 961 1 979 1 988 2 997 1 319 1 329 1 332 1 337 1 373 1 454 1 457 1 462 1 464 1 465 1 494 1 501 1 523 1 548 1 551 1 566 1 570 1 606 1 610 1 626 1 638 1 647 1 670 1 677 1 715 1 726 1 742 1 807 1 816 1 831 1 832 1 851 1 854 1 895 1 896 1 917 1 938 1 960 1 971 1 1000 1 1004 1 1010 1 
1 212 27 1 40 1 44 1 56 1 61 1 74 1 109 1 120 1 124 1 145 1 243 1 246 1 252 1 268 1 23 1 119 1 122 1 130 1 158 1 168 1 169 1 182 1 185 1 230 1 232 1 233 1 257 1 259 1 267 1 279 1 280 1 285 1 344 1 346 1 392 1 397 1 400 1 401 1 406 1 414 1 426 1 430 1 447 1 455 1 458 1 459 1 462 1 472 1 489 1 503 2 512 1 527 1 531 1 545 1 562 2 602 1 604 1 608 1 617 2 621 1 648 1 686 1 711 1 725 1 749 1 782 1 812 1 817 1 846 1 859 1 897 1 912 1 933 1 937 1 982 1 993 1 366 1 451 1 485 1 535 1 550 1 552 1 596 1 615 1 633 1 672 1 677 1 678 1 716 1 743 1 779 1 798 1 824 1 876 1 879 1 892 1 900 1 916 1 949 1 972 1 977 1 1002 1 1010 1 1012 1 1018 1 
1 207 10 1 14 1 22 1 30 1 75 1 90 1 237 1 281 1 8 1 11 1 35 1 36 1 52 1 53 1 66 1 70 1 72 1 76 1 133 1 135 1 154 1 165 1 179 1 223 1 225 1 253 1 274 1 287 1 290 1 292 1 310 1 331 1 344 1 351 1 363 1 434 1 441 1 459 1 473 2 492 1 501 1 524 1 533 1 575 1 611 1 612 1 631 1 648 1 658 1 684 1 687 1 692 1 703 1 712 1 713 1 742 1 779 1 782 1 849 1 857 1 913 1 935 1 941 2 972 1 989 1 993 1 994 1 306 1 347 1 362 1 389 1 392 1 397 1 415 1 417 1 429 1 452 1 454 1 502 1 517 1 529 1 541 1 552 1 556 1 564 1 570 1 577 1 578 1 601 1 661 1 705 1 717 1 735 1 775 1 776 1 828 1 861 1 874 1 880 1 885 1 889 1 890 1 898 1 903 1 909 1 914 1 924 1 931 1 947 1 959 1 1011 1 1013 1 1017 1 
1 207 29 1 50 2 67 1 84 1 89 1 99 1 108 1 113 2 120 1 127 1 128 1 135 1 155 1 159 1 179 1 188 1 230 1 231 1 247 1 299 1 58 1 61 1 68 1 71 1 91 1 124 1 175 1 197 1 200 1 217 1 221 1 238 1 302 1 302 1 326 1 331 1 336 1 343 1 354 2 367 1 377 2 395 1 420 1 421 1 429 1 487 2 502 1 510 1 518 1 519 1 524 1 558 1 589 1 601 2 640 1 642 1 643 1 649 1 658 1 666 1 670 1 685 1 752 1 762 1 765 1 776 1 797 1 818 1 833 1 844 1 849 1 872 1 927 1 938 1 947 1 956 1 966 1 373 1 374 1 384 1 397 1 437 1 450 1 459 1 486 1 516 1 582 1 588 1 612 1 626 1 653 1 704 1 712 1 734 1 745 1 800 1 802 1 863 1 892 1 916 1 928 1 940 1 963 1 971 1 978 1 989 1 999 1 1004 1 1019 1 
1 215 14 1 28 1 38 1 41 1 58 1 74 1 90 1 95 1 161 1 176 2 200 1 203 1 211 2 220 1 235 1 247 1 248 1 256 1 298 1 3 1 12 1 35 1 44 1 47 1 65 1 67 1 80 1 113 1 132 1 148 1 159 1 163 1 170 1 198 1 219 1 242 1 254 1 262 1 272 1 285 1 290 1 292 1 348 1 350 1 382 1 405 1 408 1 424 1 429 1 451 1 497 1 500 1 572 1 574 1 583 1 617 1 629 1 677 1 699 1 708 1 710 1 739 1 747 1 751 1 753 1 762 1 792 1 794 1 814 1 838 1 866 1 877 2 883 1 891 1 897 2 923 1 950 1 966 1 973 1 990 1 308 1 315 1 370 1 373 1 425 1 430 1 522 1 523 1 524 1 529 1 533 1 598 1 600 1 610 1 643 1 662 1 700 1 778 1 779 1 780 1 789 1 798 1 823 1 857 1 889 1 898 1 899 1 905 1 907 1 934 1 943 1 959 1 964 1 974 1 983 1 1001 1 1003 1 1006 1 1007 1 1012 1 1013 1 
1 209 12 2 23 1 77 1 88 1 100 1 159 1 200 1 224 1 228 1 231 1 244 1 245 1 246 1 253 1 260 1 279 1 5 1 22 1 52 1 54 1 65 1 107 1 108 1 110 1 135 1 192 1 198 1 202 1 207 1 226 1 237 1 265 1 324 1 339 1 349 1 350 1 360 1 378 1 402 1 406 1 423 1 446 1 457 1 512 1 513 1 515 1 557 1 566 1 574 1 576 1 592 1 607 1 609 1 612 1 637 1 638 1 641 1 646 1 653 1 679 1 687 1 690 1 710 1 720 1 721 1 745 1 749 1 767 1 794 1 799 1 812 1 816 1 831 1 847 1 899 1 919 1 927 1 941 1 948 1 959 1 960 1 978 1 996 1 997 1 317 1 337 1 353 1 356 1 361 1 365 1 377 1 385 1 399 1 409 1 430 1 470 1 485 1 500 1 516 1 517 1 528 1 540 1 560 1 579 1 580 1 587 1 590 1 626 1 639 1 669 1 694 1 698 1 707 1 725 1 730 1 740 1 742 1 755 1 858 1 921 1 925 1 957 1 1002 1 1018 1 
1 211 14 1 23 1 94 1 149 1 153 1 167 1 180 1 193 1 208 1 224 1 244 1 276 1 281 1 287 1 24 1 55 1 62 1 78 1 96 1 131 1 177 1 191 1 245 1 250 1 257 1 288 1 292 1 293 1 308 1 310 1 338 1 355 1 363 1 364 1 376 1 379 1 386 1 397 1 402 1 419 1 429 1 444 1 473 1 478 1 491 1 525 1 527 1 544 1 567 1 579 1 584 1 586 1 626 2 630 2 666 2 667 2 705 1 721 1 726 1 742 1 744 1 754 1 789 1 814 1 823 1 838 1 852 1 856 1 862 1 870 2 899 1 900 1 907 1 919 1 928 1 941 1 945 1 954 1 307 1 362 1 365 1 418 1 435 1 437 1 447 1 454 1 461 1 483 1 493 1 497 1 523 1 528 1 533 1 536 1 553 1 568 1 570 1 577 1 587 1 590 1 599 1 605 1 616 1 629 1 634 1 636 1 639 1 656 1 672 1 722 1 730 1 741 1 749 1 760 1 773 1 805 1 809 1 828 1 865 1 869 1 872 1 874 1 881 1 883 1 897 1 931 1 956 1 961 1 1008 1 1016 1 1017 1 
1 212 4 1 62 1 68 1 92 1 107 1 109 1 131 1 135 1 188 1 192 1 202 1 204 2 205 1 209 1 223 1 226 1 240 1 281 1 26 1 51 1 58 1 77 1 116 1 118 1 156 1 159 1 234 1 237 1 251 1 253 1 266 1 270 1 272 1 301 1 322 1 345 1 346 1 358 1 405 1 414 1 423 1 434 1 436 1 438 1 442 1 462 1 475 1 504 1 508 1 517 1 524 1 532 1 547 1 554 1 567 1 583 1 587 1 610 1 611 1 623 1 627 1 633 1 645 1 646 2 648 1 649 1 655 1 680 1 686 1 707 1 732 1 747 1 750 1 754 1 757 1 761 1 798 1 805 1 829 1 834 1 835 1 842 1 860 1 887 1 913 1 978 1 994 1 996 1 314 1 318 1 326 1 336 1 341 1 360 1 383 1 385 1 391 1 394 1 409 1 432 1 449 1 460 1 467 1 512 1 531 1 535 1 565 1 566 1 571 1 577 1 603 1 659 1 682 1 705 1 752 1 770 1 824 1 830 1 890 1 892 1 901 1 919 1 939 1 947 1 975 1 999 1 1001 1 1004 1 1006 1 1008 1 1018 1 
1 215 13 1 70 1 71 1 78 1 79 2 80 1 115 1 133 1 148 1 156 1 167 1 183 1 189 1 206 2 222 1 28 1 34 1 49 1 62 1 72 1 99 1 112 1 116 1 129 1 136 1 143 1 196 1 198 1 237 1 241 1 244 1 261 1 280 1 283 1 286 1 291 1 295 1 305 1 325 1 332 1 351 1 360 1 361 1 413 1 421 1 435 1 460 1 468 1 482 1 489 1 549 1 556 1 613 1 624 1 633 1 655 2 668 1 673 1 677 1 693 1 699 1 702 1 742 1 750 1 753 1 783 1 786 1 793 1 851 1 876 1 887 1 901 1 935 1 317 1 343 1 354 1 370 1 377 1 379 1 395 1 396 1 411 1 433 1 441 1 490 1 505 1 508 1 526 1 536 1 538 1 546 1 562 1 586 1 596 1 605 1 606 1 621 1 653 1 674 1 743 1 772 1 782 1 795 1 801 1 821 1 870 1 975 1 1001 1 1003 1 1005 1 1015 1 
1 217 9 1 20 1 32 1 56 1 60 1 64 1 77 1 105 1 106 1 113 1 117 1 118 1 119 1 131 1 145 1 146 1 149 1 172 1 263 1 284 1 305 1 25 1 41 1 48 1 70 1 182 1 206 1 220 1 235 1 240 1 243 1 259 1 265 1 303 1 308 1 308 1 350 2 351 1 355 1 374 1 386 1 396 1 426 1 438 1 448 1 459 1 461 2 469 1 512 1 536 1 567 1 585 1 597 1 616 2 620 2 642 1 669 1 683 1 717 1 726 1 750 1 766 1 789 1 792 1 799 1 817 1 831 1 841 1 842 1 886 1 993 1 314 1 328 1 347 1 366 1 401 1 451 1 458 1 475 1 476 1 513 1 524 1 525 1 532 1 554 1 612 1 613 1 622 1 636 1 662 1 699 1 715 1 719 1 725 1 730 1 746 1 747 1 755 1 795 1 860 1 862 1 878 1 904 1 912 1 914 1 915 1 920 1 926 1 948 1 955 1 990 1 996 1 1000 1 1006 1 1011 1 1016 1 1017 1 
1 211 29 1 54 1 56 1 60 1 68 1 80 1 95 1 99 1 133 1 141 1 146 1 180 1 192 1 200 1 223 1 239 1 246 1 273 1 275 1 297 1 1 1 10 1 11 1 25 1 91 1 94 1 116 1 121 1 123 1 149 1 241 1 250 1 252 1 266 1 309 1 309 1 312 1 322 1 325 1 368 1 378 1 390 1 393 1 446 1 473 1 494 1 531 1 552 1 565 1 622 1 661 1 678 1 770 1 796 1 814 1 820 1 846 1 879 1 882 1 884 1 897 1 900 1 919 1 944 1 950 1 983 1 996 1 317 1 375 1 403 1 423 1 437 1 440 1 466 1 503 1 507 1 518 1 527 1 530 1 546 1 579 1 596 1 597 1 617 1 644 1 707 1 727 1 729 1 731 1 743 1 750 1 767 1 774 1 788 1 795 1 812 1 823 1 832 1 850 1 883 1 886 1 894 1 954 1 979 1 985 1 991 1 1002 1 1008 1 1014 1 
1 208 14 1 25 1 49 1 58 1 71 1 76 1 85 1 104 1 114 1 147 1 169 1 178 1 218 1 257 1 262 1 290 1 292 1 301 1 305 1 32 1 50 1 63 1 156 1 173 1 215 1 219 1 223 1 235 1 237 1 243 1 261 1 280 1 330 1 344 1 378 1 407 1 410 1 415 1 423 1 430 1 446 1 453 1 468 2 471 1 516 1 541 1 546 1 559 1 600 1 606 1 636 1 650 1 657 1 660 1 665 1 678 1 699 1 727 1 783 1 798 1 830 1 841 1 858 1 866 1 889 1 943 1 953 1 957 1 960 1 975 1 982 1 993 1 336 1 338 1 339 1 374 1 391 1 404 1 406 1 419 1 426 1 440 1 490 1 491 1 492 1 508 1 519 1 526 1 533 1 539 1 550 1 553 1 571 1 572 1 594 1 597 1 614 1 620 1 640 1 646 1 648 1 667 1 673 1 674 1 700 1 710 1 732 1 745 1 760 1 764 1 765 1 767 1 802 1 808 1 840 1 847 1 886 1 914 1 926 1 962 1 978 1 979 1 991 1 1000 1 1006 1 
1 212 9 1 99 1 102 1 105 1 139 1 143 1 149 1 171 1 175 1 186 1 212 1 220 1 226 1 241 1 245 1 248 1 269 1 271 1 274 1 284 1 293 1 298 1 7 1 15 1 29 1 52 1 58 1 118 1 119 1 120 1 128 1 165 1 196 1 208 1 229 1 233 1 267 1 289 1 321 1 323 2 340 1 353 1 380 1 393 1 423 1 436 1 441 1 452 1 462 1 482 1 485 1 489 1 511 1 547 1 567 1 584 1 592 1 604 1 654 2 670 1 675 1 709 1 722 2 727 1 770 1 777 1 783 1 787 1 795 1 796 1 871 1 886 1 892 1 914 1 919 1 922 1 928 1 937 1 975 1 987 1 342 1 383 1 388 1 390 1 396 1 430 1 454 1 490 1 491 1 520 1 528 1 553 1 559 1 564 1 568 1 580 1 587 1 612 1 616 1 634 1 646 1 649 1 652 1 685 1 701 1 706 1 728 1 729 1 732 1 809 1 818 1 838 1 846 1 862 1 882 1 902 1 917 1 932 1 940 1 996 1 1005 1 1010 1 1011 1 1014 1 
1 211 2 1 6 1 21 1 26 1 33 1 34 1 42 1 50 1 63 1 70 1 106 1 111 1 113 1 127 1 167 1 184 1 188 1 228 2 240 1 246 1 267 1 309 1 10 1 18 1 22 1 54 1 65 1 99 1 100 1 107 1 132 1 136 1 162 1 166 1 170 1 176 1 179 1 181 1 187 1 192 1 249 1 315 1 359 1 385 1 413 1 426 1 439 1 446 1 461 1 462 1 484 1 510 1 533 1 573 1 582 1 596 1 618 1 638 1 655 1 660 1 664 1 691 1 692 1 714 1 716 1 742 1 753 1 760 1 763 1 789 1 791 1 819 2 849 1 850 1 856 1 865 1 873 1 875 1 889 1 890 1 894 1 907 1 909 1 939 1 970 2 317 1 318 1 402 1 453 1 519 1 522 1 524 1 540 1 549 1 557 1 591 1 595 1 597 1 599 1 615 1 678 1 680 1 681 1 698 1 707 1 787 1 798 1 806 1 813 1 828 1 902 1 932 1 936 1 945 1 952 1 964 1 1004 1 1007 1 1014 1 
1 208 1 1 4 1 12 1 39 1 46 1 89 1 93 1 101 1 113 1 126 1 134 1 135 1 139 1 148 1 162 1 189 1 190 1 195 1 223 1 267 1 3 1 55 1 58 1 127 1 133 1 159 1 164 1 176 1 202 1 228 1 240 1 253 1 256 1 275 1 291 1 316 1 347 1 348 1 349 1 370 1 382 1 403 1 405 1 423 1 464 1 474 1 524 1 540 1 541 1 585 1 593 1 625 1 634 1 659 1 671 1 677 1 679 1 726 1 743 1 748 1 786 1 806 1 807 1 817 1 825 1 835 1 842 1 844 1 863 1 902 1 943 1 945 1 948 1 962 1 963 2 315 1 317 1 330 1 353 1 354 1 367 1 381 1 387 1 444 1 448 1 459 1 491 1 504 1 506 1 521 1 630 1 637 1 653 1 670 1 700 1 747 1 762 1 766 1 775 1 804 1 845 1 862 1 870 1 874 1 876 1 885 1 906 1 913 1 922 1 973 1 1015 1 
1 216 11 2 17 1 54 1 55 2 67 1 98 1 118 1 129 1 147 1 156 1 179 1 198 1 201 1 222 1 235 1 245 1 262 1 284 1 8 1 10 1 22 1 25 1 31 1 61 1 76 1 121 1 159 1 165 1 170 1 183 1 185 1 193 1 228 1 256 1 259 1 286 1 289 1 306 1 308 1 318 1 426 1 433 1 476 2 479 1 486 1 495 1 497 1 508 1 527 1 540 1 545 1 564 1 565 1 575 1 588 1 609 1 626 1 630 2 633 1 646 1 668 1 679 1 701 1 729 1 730 1 748 1 755 2 761 1 786 1 793 1 858 1 874 1 896 1 902 1 904 1 920 1 928 1 935 1 940 1 948 1 955 1 979 2 338 1 390 1 409 1 420 1 528 1 529 1 581 1 591 1 612 1 625 1 631 1 667 1 674 1 688 1 726 1 728 1 735 1 740 1 754 1 757 1 773 1 779 1 781 1 785 1 802 1 807 1 811 1 821 1 829 1 890 1 905 1 914 1 960 1 968 1 976 1 989 1 1011 1 1018 1 
1 208 7 1 13 1 14 1 21 1 41 1 62 1 65 1 105 1 107 1 109 1 115 1 117 1 122 1 132 1 167 1 172 1 215 1 230 1 233 1 234 2 248 1 312 1 1 1 20 1 28 1 79 1 94 1 101 1 137 1 138 1 154 1 164 1 183 1 187 1 216 1 240 1 244 1 257 1 273 1 280 1 282 1 289 1 298 1 303 1 313 1 328 1 333 1 346 2 349 1 354 1 357 1 359 1 362 1 403 1 413 1 415 1 421 1 424 1 482 1 486 1 506 1 509 1 529 1 543 1 554 1 664 1 665 1 672 1 689 1 697 1 702 1 712 1 724 2 728 1 732 1 734 1 736 1 754 1 755 1 774 1 793 1 794 1 819 1 866 1 877 1 878 1 889 1 903 1 905 1 945 1 965 1 970 1 977 1 316 1 326 1 344 1 386 1 400 1 439 1 440 1 467 1 478 1 489 1 501 1 521 1 548 1 581 1 591 1 596 1 609 1 634 1 666 1 694 1 715 1 748 1 785 1 822 1 840 1 851 1 879 1 883 1 915 1 963 1 964 1 986 1 989 1 1004 1 1009 1 
1 210 39 1 42 1 50 1 62 1 96 1 121 1 132 1 213 1 227 1 240 1 283 2 295 1 313 1 5 1 24 1 31 1 33 1 36 1 48 1 54 1 64 1 114 1 115 1 119 1 136 1 146 1 162 1 189 1 201 1 223 1 315 1 323 1 338 1 355 1 359 1 364 1 369 1 389 1 392 1 396 1 410 1 425 1 523 1 534 2 548 1 577 1 588 1 600 2 603 2 627 1 656 1 727 1 759 1 771 1 867 1 884 1 892 1 918 1 921 1 923 1 960 1 972 1 986 1 335 1 337 1 353 1 361 1 376 1 380 1 401 1 436 1 443 1 452 1 453 1 457 1 482 1 485 1 492 1 510 1 512 1 535 1 541 1 570 1 580 1 594 1 607 1 622 1 625 1 660 1 703 1 709 1 740 1 763 1 764 1 823 1 848 1 850 1 915 1 919 1 924 1 925 1 943 1 975 1 1002 1 1005 1 1018 1 1019 1 
1 210 17 1 20 1 39 1 43 1 48 1 49 1 66 1 75 1 89 1 103 1 114 1 191 1 242 1 255 1 256 1 266 1 280 1 281 1 287 1 2 1 51 1 59 1 63 1 73 1 96 1 98 1 101 1 151 1 176 1 210 1 263 1 279 1 288 1 304 1 307 1 309 1 312 1 313 1 327 1 328 1 348 1 350 1 352 1 366 1 378 1 451 1 479 1 497 1 500 1 521 2 563 1 567 1 588 1 596 1 602 1 615 1 619 1 629 1 633 1 652 1 663 1 666 1 691 1 695 1 702 1 706 1 707 2 718 1 720 1 723 1 761 1 800 1 806 1 815 2 833 1 839 1 873 1 906 1 932 1 939 1 958 1 959 1 960 1 971 1 980 1 987 1 996 1 336 1 337 1 363 1 377 1 380 1 436 1 439 1 467 1 485 1 487 1 492 1 496 1 520 1 528 1 555 1 559 1 572 1 576 1 581 1 603 1 609 1 621 1 626 1 640 1 648 1 664 1 674 1 693 1 726 1 732 1 737 1 751 1 756 1 764 1 798 1 799 1 803 1 820 1 823 1 826 1 854 1 952 1 1010 1 
1 211 30 1 46 1 100 1 146 1 167 1 172 1 189 2 213 1 235 1 282 1 290 1 295 1 314 1 7 1 24 1 45 1 83 1 99 1 106 1 108 1 109 1 111 1 112 1 135 1 136 1 152 1 178 1 185 1 190 1 219 1 220 1 221 1 228 1 261 1 306 1 312 1 338 1 349 1 365 1 368 1 396 1 400 1 419 1 428 1 449 1 458 2 490 1 497 1 537 1 540 1 545 1 549 1 555 1 586 1 617 1 629 1 651 1 665 1 697 1 738 1 752 1 771 1 782 1 786 1 790 1 799 1 835 1 854 1 858 1 866 1 911 1 914 1 923 1 928 1 941 1 948 1 955 1 965 2 977 1 984 1 996 1 329 1 333 1 350 1 363 1 379 1 410 1 425 1 429 1 434 1 437 1 477 1 511 1 517 1 526 1 535 1 569 1 572 1 575 1 650 1 672 1 681 1 707 1 741 1 791 1 833 1 836 1 839 1 870 1 952 1 960 1 971 1 972 1 979 1 1002 1 1011 1 1012 1 1015 1 
1 209 3 1 12 1 41 1 63 1 79 1 92 1 94 1 146 1 147 1 149 1 193 1 212 1 248 1 257 1 268 1 269 1 282 1 47 1 78 1 90 1 109 1 116 1 144 1 148 1 153 1 181 1 189 1 195 1 206 1 210 1 215 1 239 1 262 1 283 1 291 1 299 1 340 1 374 1 389 1 421 1 445 1 456 1 509 1 526 1 549 1 554 1 574 1 593 1 603 1 605 1 616 1 638 1 651 1 710 1 720 1 722 1 726 1 734 1 745 1 783 2 793 1 795 1 830 1 862 1 873 1 879 1 884 1 894 1 899 1 917 1 935 1 948 1 963 1 989 1 359 1 376 1 380 1 416 1 448 1 484 1 485 1 493 1 500 1 501 1 515 1 532 1 545 1 561 1 564 1 609 1 621 1 628 1 643 1 657 1 661 1 675 1 677 1 690 1 692 1 693 1 715 1 738 1 748 1 752 1 754 1 759 1 832 1 852 1 860 1 897 1 905 1 931 1 975 1 997 1 1003 1 1014 1 
1 208 38 1 60 1 77 1 88 1 93 1 137 1 142 1 165 1 169 1 184 1 192 1 201 1 243 2 37 1 51 1 58 1 84 1 122 1 158 1 210 1 233 1 364 1 378 1 384 1 385 1 399 1 409 1 442 1 449 1 467 1 499 1 508 1 531 1 573 1 594 1 604 2 612 1 617 1 670 1 672 2 692 2 711 1 723 1 753 1 777 1 779 1 815 1 851 1 858 1 861 1 884 1 900 1 909 1 926 1 934 1 997 1 346 1 354 1 358 1 362 1 386 1 407 1 412 1 413 1 440 1 459 1 474 1 481 1 552 1 575 1 576 1 580 1 589 1 592 1 599 1 631 1 648 1 676 1 682 1 703 1 713 1 716 1 720 1 727 1 734 1 767 1 802 1 839 1 849 1 857 1 874 1 892 1 914 1 928 1 935 1 948 1 956 1 973 1 991 1 1000 1 1005 1 1010 1 1012 1 
1 211 33 1 35 1 36 1 41 1 82 1 93 1 111 1 123 2 140 2 147 1 156 1 178 1 183 1 199 1 206 1 211 1 223 1 224 1 264 1 270 1 290 1 299 1 311 1 29 1 47 1 81 1 94 1 107 1 108 1 165 1 167 1 177 1 194 1 214 1 233 1 241 1 251 1 267 1 284 1 292 1 296 1 376 1 387 1 389 1 432 1 453 1 469 1 564 1 570 1 583 1 593 1 613 1 618 1 683 1 711 1 717 1 729 2 736 1 756 1 773 1 788 1 797 1 812 2 813 1 814 1 820 1 835 1 844 1 857 1 867 1 902 1 913 1 935 2 979 1 322 1 330 1 336 1 351 1 353 1 384 1 403 1 448 1 456 1 465 1 475 1 507 1 516 1 531 1 546 1 552 1 560 1 584 1 606 1 654 1 657 1 692 1 695 1 724 1 754 1 850 1 859 1 861 1 865 1 872 1 878 1 881 1 912 1 940 1 943 1 955 1 961 1 962 1 969 1 999 1 1014 1 
1 205 35 1 41 1 82 1 87 1 92 1 134 1 152 1 168 2 201 1 212 1 223 1 243 1 247 1 257 1 258 1 274 2 279 1 306 1 309 1 19 1 30 1 42 1 53 1 57 1 63 1 75 1 114 1 118 1 122 1 125 1 137 1 246 1 254 1 282 1 290 1 321 1 330 1 348 1 369 1 402 1 409 1 414 1 448 1 459 1 488 1 497 1 519 1 528 1 543 1 546 1 554 1 563 1 591 1 602 1 617 1 628 1 629 1 656 1 695 1 706 1 708 1 769 1 796 1 799 1 862 1 889 1 900 1 925 1 930 1 948 1 979 1 992 1 336 1 350 1 362 1 430 1 457 1 467 1 470 1 494 1 501 1 548 1 567 1 576 1 577 1 605 1 619 1 620 1 647 1 652 1 654 1 676 1 678 1 680 1 687 1 709 1 727 1 755 1 760 1 782 1 787 1 791 1 847 1 861 1 870 1 885 1 901 1 946 1 947 1 953 1 995 1 
1 216 2 2 23 1 42 1 46 1 67 1 78 1 88 1 118 1 134 1 150 1 184 2 194 1 216 1 225 1 251 1 286 1 289 1 311 2 316 1 25 1 29 1 31 1 32 1 96 1 166 1 219 1 234 1 238 1 255 1 268 1 351 1 394 2 423 1 436 1 440 2 495 1 497 1 512 1 521 1 540 1 550 1 577 1 581 1 582 1 598 1 629 1 632 1 639 1 641 1 677 1 678 1 693 1 741 1 767 2 776 1 796 1 805 1 814 1 820 1 825 1 829 1 877 1 889 2 901 1 913 1 921 1 934 1 950 1 984 1 990 1 993 1 995 1 409 1 414 1 429 1 433 1 443 1 447 1 460 1 476 1 477 1 479 1 494 1 566 1 573 1 576 1 597 1 605 1 617 1 633 1 659 1 662 1 730 1 745 1 755 1 763 1 770 1 786 1 831 1 878 1 887 1 898 1 899 1 914 1 947 1 949 1 956 1 970 1 997 1 1000 1 1012 1 1017 1 1018 1 1019 1 
1 209 23 1 36 1 60 1 81 1 99 1 100 1 106 1 142 1 194 1 207 2 248 1 279 1 304 1 12 1 27 1 51 1 61 1 65 1 70 1 75 1 80 1 85 1 89 1 109 1 130 1 155 1 197 1 198 1 199 1 200 1 215 1 222 1 228 1 251 1 252 1 343 1 348 1 354 1 365 1 377 1 386 1 397 1 424 1 472 1 485 1 492 1 496 1 504 1 526 1 537 1 593 1 633 1 643 1 647 2 669 1 671 1 704 1 731 1 750 1 776 1 791 1 799 1 820 1 840 1 844 1 865 1 869 2 892 1 911 1 919 1 925 1 929 1 934 1 977 1 990 2 997 1 327 1 372 1 385 1 399 1 430 1 448 1 450 1 479 1 507 1 513 1 519 1 527 1 561 1 575 1 592 1 649 1 659 1 661 1 673 1 684 1 686 1 689 1 701 1 703 1 726 1 759 1 784 1 828 1 831 1 835 1 853 1 861 1 898 1 967 1 1000 1 
1 212 38 2 52 1 87 1 112 1 132 1 133 1 135 1 151 1 155 1 174 1 204 1 210 1 253 1 283 1 307 1 309 1 3 1 9 1 13 1 32 1 57 1 64 1 71 1 153 1 191 1 199 1 209 1 216 1 224 1 250 1 331 1 333 2 356 1 366 1 405 1 452 1 470 1 486 1 522 1 543 1 567 1 654 1 662 2 703 1 706 1 709 1 718 1 723 1 725 1 796 1 799 1 831 1 851 1 861 1 910 1 921 1 945 1 956 1 961 1 970 1 973 1 996 1 359 1 397 1 438 1 459 1 461 1 478 1 490 1 500 1 506 1 511 1 515 1 565 1 566 1 570 1 577 1 613 1 668 1 671 1 687 1 704 1 705 1 713 1 714 1 734 1 766 1 787 1 790 1 824 1 832 1 842 1 848 1 866 1 872 1 874 1 889 1 892 1 908 1 982 1 1006 1 1007 1 1015 1 
1 216 42 1 57 1 72 1 74 1 76 1 84 1 126 1 179 1 181 2 195 1 200 1 204 1 210 1 236 1 258 1 275 1 293 1 302 1 18 1 79 1 94 1 96 1 103 1 112 1 118 1 119 1 130 1 187 1 213 1 220 1 224 1 239 1 263 1 264 1 285 1 306 1 315 1 361 1 380 1 392 1 419 2 462 1 489 1 531 1 537 1 563 1 585 1 617 1 618 1 626 1 631 1 633 1 659 1 746 1 761 1 762 1 783 1 801 1 852 1 869 1 888 1 921 1 924 1 938 1 940 1 946 1 965 1 988 1 995 1 355 1 366 1 372 1 379 1 382 1 383 1 400 1 418 1 426 1 472 1 482 1 516 1 544 1 557 1 560 1 561 1 572 1 584 1 640 1 653 1 665 1 692 1 698 1 706 1 734 1 755 1 759 1 764 1 803 1 812 1 834 1 877 1 884 1 885 1 890 1 899 1 905 1 920 1 949 1 953 1 971 1 974 1 985 1 1015 1 1017 1 1019 1 
1 208 3 1 80 1 81 1 100 1 117 1 122 1 124 1 128 1 132 1 137 1 139 1 147 1 150 1 156 1 171 1 172 1 194 1 197 1 253 1 255 1 269 1 281 1 317 1 10 1 36 1 37 1 46 1 50 1 51 1 63 1 91 1 163 1 188 1 202 1 228 1 235 1 239 1 251 1 260 1 278 1 324 1 339 1 351 1 353 1 362 1 383 1 396 1 412 1 448 2 465 1 469 1 498 1 559 1 592 1 601 1 616 1 657 1 664 1 691 1 697 1 703 1 748 1 749 1 753 1 766 1 773 1 810 1 830 1 881 1 897 1 912 1 938 1 969 1 971 1 989 1 368 1 369 1 372 1 380 1 386 1 401 1 418 1 425 1 429 1 451 1 452 1 542 1 555 1 563 1 570 1 572 1 573 1 582 1 587 1 623 1 649 1 656 1 699 1 706 1 757 1 770 1 826 1 838 1 847 1 862 1 866 1 886 1 898 1 913 1 915 1 932 1 957 1 960 1 972 1 978 1 
1 207 6 1 17 1 42 1 75 1 77 1 85 1 104 1 159 1 173 1 181 1 187 1 223 1 250 1 263 2 268 1 276 1 315 1 317 1 54 1 92 1 110 1 113 1 129 1 142 1 150 1 168 1 222 1 241 1 245 1 246 1 288 1 308 1 355 1 423 1 425 2 433 1 449 1 460 1 487 1 495 1 519 2 545 1 565 1 585 1 618 1 628 1 641 1 653 1 665 1 704 1 755 2 773 1 782 1 804 1 835 1 853 1 864 1 871 1 876 1 886 1 895 1 904 1 907 1 917 1 925 1 937 1 955 1 958 1 964 1 969 1 981 1 997 2 334 1 342 1 377 1 399 1 402 1 406 1 409 1 424 1 438 1 470 1 498 1 509 1 516 1 538 1 568 1 570 1 572 1 593 1 602 1 605 1 608 1 616 1 617 1 624 1 649 1 672 1 677 1 729 1 730 1 751 1 763 1 790 1 800 1 820 1 821 1 822 1 857 1 860 1 934 1 935 1 940 1 966 1 987 1 988 1 1000 1 1001 1 1008 1 
1 210 28 1 39 1 57 1 59 1 71 1 90 1 104 1 121 2 159 1 172 1 201 1 221 1 256 1 3 1 21 1 32 1 35 1 50 1 53 1 73 1 97 1 99 1 111 1 123 1 125 1 163 1 214 1 216 1 225 1 262 1 273 1 299 1 318 1 334 1 338 1 344 1 347 1 357 1 413 1 431 1 444 1 481 1 483 1 485 1 494 1 519 1 526 1 530 1 537 1 562 1 578 1 598 1 599 1 618 1 664 1 685 1 700 2 713 1 744 1 773 1 785 1 797 1 799 1 802 1 809 1 810 1 821 1 853 1 876 1 888 1 890 1 925 1 926 1 943 1 967 1 969 1 971 1 337 1 352 1 355 1 361 1 362 1 368 1 384 1 395 1 416 1 445 1 448 1 454 1 455 1 471 1 473 1 480 1 482 1 488 1 500 1 501 1 536 1 586 1 587 1 605 1 617 1 621 1 639 1 654 1 655 1 731 1 738 1 748 1 760 1 763 1 767 1 774 1 792 1 820 1 863 1 865 1 917 1 920 1 954 1 972 1 975 1 1009 1 
1 208 10 1 21 1 32 1 78 1 110 1 129 1 134 1 146 1 183 1 192 1 230 1 244 1 245 1 255 1 260 1 278 1 290 1 292 1 296 1 310 1 322 1 20 1 43 1 114 1 126 1 172 1 175 1 182 1 209 1 232 1 249 1 263 1 313 1 321 1 362 1 370 1 400 1 405 1 413 1 417 1 454 1 466 1 470 1 476 1 477 1 483 1 488 1 495 1 506 1 511 1 534 1 540 1 569 1 575 1 580 1 585 1 610 1 617 1 643 1 665 1 691 1 702 1 710 1 721 1 768 1 778 1 803 2 864 1 875 1 909 1 942 1 953 1 956 1 974 1 334 1 344 1 346 1 371 1 402 1 410 1 418 1 421 1 453 1 460 1 478 1 499 1 516 1 522 1 523 1 524 1 573 1 595 1 597 1 622 1 629 1 636 1 680 1 697 1 708 1 719 1 730 1 749 1 767 1 772 1 855 1 871 1 879 1 957 1 992 1 1002 1 1011 1 
1 207 2 1 5 1 6 1 9 2 17 1 30 2 31 1 36 1 37 1 53 1 55 1 64 1 70 1 88 1 135 1 141 1 159 2 179 1 182 1 193 1 207 1 218 1 259 1 301 1 302 1 325 1 44 1 46 1 50 1 72 1 84 1 112 1 142 1 150 1 172 1 188 1 256 1 262 1 275 1 333 2 335 1 342 1 344 1 352 1 356 1 359 1 379 1 412 1 454 1 469 1 586 1 587 1 607 1 612 1 615 1 618 1 624 1 642 1 669 1 677 1 680 1 713 1 743 1 756 1 782 1 793 2 808 1 815 1 830 1 895 1 948 2 952 2 964 1 981 1 986 2 996 1 381 1 411 1 415 1 419 1 429 1 456 1 472 1 480 1 482 1 507 1 516 1 518 1 537 1 598 1 647 1 665 1 676 1 694 1 731 1 732 1 769 1 817 1 832 1 837 1 862 1 870 1 873 1 885 1 897 1 904 1 920 1 927 1 975 1 1019 1 
1 216 43 1 79 1 83 1 90 2 107 1 137 1 139 1 141 1 146 1 163 1 177 1 185 1 192 1 222 1 226 2 227 1 228 1 229 1 250 1 262 1 267 1 307 1 8 1 17 1 18 1 32 1 100 1 104 1 108 1 116 1 165 1 206 1 209 1 219 1 258 1 266 1 287 1 299 1 367 1 384 2 401 1 405 1 419 1 489 1 560 1 586 1 590 1 600 2 621 1 625 1 633 1 641 1 645 1 660 1 664 1 666 1 673 1 702 1 735 1 737 2 751 1 758 1 774 1 779 1 806 1 813 1 833 1 834 1 838 1 847 1 855 1 870 1 871 2 882 1 893 1 336 1 341 1 369 1 375 1 413 1 433 1 438 1 474 1 533 1 540 1 543 1 550 1 556 1 565 1 569 1 570 1 591 1 599 1 601 1 614 1 637 1 668 1 670 1 723 1 734 1 750 1 752 1 776 1 803 1 804 1 825 1 903 1 953 1 958 1 962 1 1013 1 
1 209 11 1 28 1 57 1 97 1 105 1 107 1 114 2 124 1 147 1 148 1 150 1 175 1 180 1 182 1 219 1 222 1 266 1 269 1 277 1 281 1 315 1 325 2 331 2 8 1 54 1 65 1 67 1 69 1 70 1 74 1 75 1 89 1 93 1 135 1 142 1 166 1 177 1 221 1 229 1 230 1 264 1 274 1 288 1 318 1 336 1 350 1 367 1 383 1 384 1 411 1 416 1 449 2 465 1 479 1 492 1 512 1 535 1 549 1 573 1 591 1 616 1 624 1 656 2 666 1 766 1 800 1 814 1 821 1 829 1 842 2 851 1 889 1 961 1 966 1 977 1 994 1 996 2 345 1 355 1 390 1 393 1 429 1 481 1 528 1 531 1 609 1 625 1 659 1 675 1 704 1 714 1 723 1 728 1 756 1 771 1 806 1 820 1 840 1 880 1 883 1 890 1 901 1 923 1 937 1 1000 1 1010 1 
1 205 9 2 13 2 27 1 50 1 54 1 58 1 75 1 95 1 100 1 132 1 134 1 169 1 177 1 183 1 191 1 203 1 206 1 227 1 245 1 297 1 298 1 329 1 18 1 19 1 43 1 45 1 59 1 74 1 97 1 137 1 146 1 147 1 207 1 216 1 224 1 236 1 270 1 328 1 330 1 334 1 334 1 335 1 358 1 364 1 384 1 388 1 400 1 423 1 424 1 508 1 538 1 552 1 556 1 566 2 623 1 655 1 665 1 683 1 694 1 706 1 744 1 750 1 753 1 788 2 791 1 795 1 808 1 826 1 827 1 860 1 863 2 868 1 877 1 898 1 920 1 925 1 927 1 938 1 952 1 961 1 374 1 382 1 408 1 410 1 479 1 507 1 515 1 533 1 541 1 550 1 551 1 603 1 607 1 628 1 631 1 645 1 696 1 698 1 728 1 773 1 796 1 798 1 836 1 837 1 840 1 850 1 862 1 870 1 871 1 903 1 905 1 914 1 919 1 929 1 951 1 956 1 960 1 977 1 979 1 990 1 999 1 1005 1 
1 212 51 1 65 1 66 1 73 1 78 1 82 1 87 1 91 1 116 1 130 1 140 1 143 1 163 1 218 1 222 1 244 1 253 1 331 1 334 1 31 1 33 1 42 1 44 1 53 1 61 1 70 1 79 1 84 1 103 1 113 1 138 1 187 1 203 1 230 1 256 1 267 1 287 1 316 1 342 1 368 1 388 1 411 1 424 1 426 1 443 1 451 1 455 1 457 1 475 1 485 1 533 1 542 2 550 1 559 1 564 1 614 1 624 2 640 2 684 2 686 1 687 1 719 1 729 1 741 1 806 1 810 1 830 1 860 1 880 1 908 1 930 1 931 2 343 1 344 1 348 1 378 1 392 1 393 1 431 1 450 1 459 1 473 1 516 1 525 1 546 1 547 1 554 1 579 1 583 1 584 1 591 1 604 1 610 1 645 1 668 1 708 1 709 1 720 1 754 1 792 1 864 1 872 1 879 1 886 1 895 1 938 1 1005 1 1012 1 1017 1 1019 1 
1 210 12 1 41 1 47 1 50 1 59 2 63 1 76 1 130 1 177 2 184 1 200 1 221 1 252 1 256 1 292 1 294 1 302 1 333 1 2 1 19 1 29 1 31 1 35 1 64 1 69 1 101 1 123 1 126 1 178 1 198 1 223 1 228 1 233 1 262 1 266 1 267 1 268 1 306 1 310 1 317 1 321 1 322 1 332 1 352 1 355 1 357 1 365 1 371 1 388 1 396 1 398 1 402 1 407 2 411 1 423 1 429 1 432 1 439 1 475 1 489 2 492 1 500 1 511 1 520 1 524 1 532 1 537 1 549 1 554 1 588 1 627 1 631 1 634 1 636 1 638 1 642 1 730 1 748 1 757 1 762 1 770 1 831 1 851 1 941 1 943 1 964 1 965 1 992 1 387 1 414 1 428 1 454 1 474 1 502 1 523 1 539 1 581 1 608 1 680 1 710 1 711 1 713 1 723 1 750 1 787 1 793 1 802 1 825 1 840 1 844 1 857 1 870 1 908 1 920 1 926 1 929 1 944 1 945 1 960 1 988 1 1010 1 1014 1 
1 216 1 1 24 1 53 1 72 1 115 1 122 1 201 1 223 1 242 1 248 1 253 1 289 1 290 1 17 1 39 1 58 1 85 1 86 1 104 1 135 1 153 1 155 1 161 1 175 1 182 1 203 1 206 1 215 1 234 1 249 1 257 1 258 1 265 1 280 1 285 1 286 1 299 1 304 1 316 1 317 1 329 1 342 1 412 1 419 1 439 1 451 1 460 1 472 1 511 1 528 1 533 1 570 1 573 1 602 1 619 1 635 1 657 1 717 1 736 1 741 1 788 1 800 1 818 1 819 1 827 1 866 1 878 2 892 2 917 1 937 1 954 1 971 1 973 1 364 1 378 1 390 1 396 1 407 1 428 1 438 1 440 1 447 1 454 1 464 1 481 1 493 1 496 1 515 1 517 1 538 1 542 1 561 1 574 1 603 1 611 1 631 1 677 1 698 1 719 1 733 1 745 1 759 1 766 1 780 1 783 1 799 1 804 1 830 1 844 1 858 1 871 1 873 1 883 1 897 1 922 1 933 1 967 1 968 1 1002 1 1005 1 1009 1 
1 212 6 1 56 2 65 1 72 1 128 1 136 1 174 1 182 1 189 1 221 2 223 1 257 1 269 2 284 1 291 1 305 1 316 1 318 1 329 1 8 1 11 1 20 1 41 1 46 1 53 1 93 1 155 1 169 1 199 1 209 1 214 1 274 1 276 1 310 1 314 1 341 1 355 1 399 1 432 1 441 1 468 1 473 1 493 1 538 1 540 1 541 2 545 2 605 1 654 1 663 1 664 1 667 1 669 1 682 1 706 1 724 1 731 1 757 2 790 1 799 1 830 1 880 1 932 1 953 1 970 2 973 1 988 1 994 1 344 1 403 1 415 1 428 1 444 1 448 1 455 1 467 1 526 1 533 1 560 1 569 1 582 1 610 1 661 1 670 1 689 1 713 1 719 1 737 1 776 1 777 1 787 1 814 1 837 1 847 1 891 1 968 1 971 1 999 1 1012 1 
1 207 37 1 43 1 48 2 80 1 93 1 110 2 126 1 143 1 152 1 174 1 188 1 201 1 257 1 261 1 266 1 267 1 276 1 299 2 304 1 327 1 4 1 19 1 26 1 44 1 102 1 108 1 118 1 135 1 138 1 153 1 191 1 207 1 220 1 278 1 310 1 366 2 378 1 420 1 428 1 444 1 472 1 496 1 498 1 520 1 523 1 542 1 547 1 559 1 563 1 567 1 579 2 586 1 599 2 635 1 727 1 730 1 772 1 789 1 834 1 838 1 884 1 906 1 920 1 928 1 997 1 341 1 346 1 347 1 370 1 402 1 416 1 427 1 462 1 480 1 506 1 606 1 612 1 629 1 637 1 648 1 650 1 676 1 704 1 712 1 715 1 726 1 741 1 748 1 761 1 762 1 846 1 853 1 871 1 874 1 885 1 891 1 934 1 937 1 949 1 
1 213 13 1 25 1 28 1 38 1 92 1 112 1 185 1 210 1 220 1 240 2 281 1 284 1 285 1 299 1 311 1 319 1 54 1 65 1 77 1 94 1 124 1 136 1 143 1 161 1 183 1 192 1 224 1 246 1 258 1 287 1 342 1 350 1 364 1 440 2 454 1 459 1 465 1 477 1 499 1 530 2 534 1 551 1 555 1 561 1 573 1 575 1 598 1 607 1 635 1 641 1 668 2 682 1 684 2 707 1 723 1 747 1 751 1 793 1 801 1 827 1 831 1 836 1 844 1 851 1 862 1 880 1 908 1 916 1 936 1 963 1 345 1 348 1 362 1 372 1 383 1 397 1 412 1 418 1 451 1 460 1 471 1 484 1 492 1 504 1 515 1 525 1 552 1 586 1 592 1 652 1 667 1 704 1 818 1 823 1 859 1 889 1 924 1 937 1 969 1 988 1 1001 1 1013 1 1014 1 1015 1 1016 1 
1 214 20 1 47 1 76 1 79 1 89 2 122 2 128 1 135 1 150 1 164 1 172 1 174 1 203 1 207 1 227 1 261 1 276 1 338 1 12 1 28 1 48 1 62 1 77 1 78 1 80 1 155 1 228 1 233 1 241 1 254 1 270 1 274 1 275 1 278 1 306 1 332 1 339 1 343 1 344 1 361 1 365 1 398 1 399 1 404 1 420 1 422 1 424 1 426 1 464 1 472 1 475 1 490 1 495 1 498 1 521 1 541 1 548 1 572 1 610 2 629 1 655 1 656 1 667 1 671 1 677 2 686 2 691 1 705 1 778 1 787 1 799 1 812 1 813 1 819 1 838 1 842 1 847 1 857 1 868 1 870 1 875 1 931 1 962 1 975 1 989 1 347 1 411 1 439 1 441 1 447 1 453 1 454 1 462 1 479 1 480 1 496 1 497 1 501 1 505 1 574 1 587 1 591 1 599 1 640 1 659 1 702 1 715 1 723 1 780 1 824 1 843 1 867 1 869 1 887 1 892 1 898 1 925 1 930 1 967 1 978 1 1004 1 1009 1 1011 1 1013 1 
1 213 20 1 26 1 34 1 35 1 96 1 115 1 146 2 243 1 278 1 285 1 331 1 335 1 337 1 340 1 3 1 5 1 7 1 27 1 50 1 71 1 81 1 101 1 138 1 162 1 163 1 221 1 226 1 232 1 236 1 237 1 260 1 261 1 270 1 292 1 311 1 328 1 344 1 347 1 362 1 378 1 389 2 468 2 482 1 484 1 515 1 535 1 552 1 573 1 591 1 596 1 599 1 600 1 631 1 671 1 673 1 675 1 678 1 685 1 713 1 747 1 768 1 803 1 842 1 846 2 856 1 857 1 868 1 889 1 893 1 906 1 935 2 950 1 955 1 956 1 962 1 972 1 982 1 983 1 345 1 403 1 438 1 472 1 479 1 493 1 501 1 512 1 518 1 556 1 564 1 589 1 593 1 627 1 630 1 634 1 669 1 698 1 707 1 736 1 741 1 746 1 758 1 805 1 815 1 838 1 913 1 916 1 918 1 920 1 924 1 925 1 929 1 948 1 953 1 969 1 984 1 1008 1 
1 210 4 1 18 2 26 1 45 1 56 1 61 1 94 1 115 1 121 1 123 1 134 1 139 1 157 1 170 1 176 1 194 1 206 1 209 1 265 1 302 1 324 1 341 1 41 1 59 1 70 1 78 1 80 1 104 1 126 1 197 1 215 1 227 1 230 1 239 1 245 1 275 1 277 1 307 1 335 1 354 1 360 1 366 1 382 1 411 1 417 1 420 2 430 1 446 1 448 1 466 1 471 1 480 2 503 1 535 1 543 1 559 1 594 1 608 1 634 1 642 2 676 1 686 1 698 1 714 1 719 1 743 1 761 1 806 1 861 1 884 1 906 1 944 1 974 1 989 1 355 1 363 1 432 1 518 1 522 1 537 1 538 1 540 1 575 1 591 1 595 1 615 1 616 1 619 1 620 1 647 1 651 1 670 1 671 1 673 1 678 1 695 1 704 1 711 1 744 1 745 1 751 1 753 1 755 1 758 1 789 1 790 1 802 1 818 1 829 1 850 1 862 1 890 1 897 1 905 1 943 1 965 1 973 1 1013 1 1017 1 
1 212 80 1 92 1 95 1 112 1 132 1 145 1 161 1 169 1 202 2 212 1 300 1 301 1 310 1 329 1 331 1 341 1 342 1 7 1 11 1 59 1 65 1 79 1 99 1 139 1 164 1 187 1 193 1 200 1 201 1 203 1 214 1 233 1 240 1 270 1 289 1 292 1 315 1 330 1 335 1 338 1 348 1 369 1 402 1 433 1 464 1 484 1 500 1 505 2 574 1 576 1 581 1 585 1 650 1 653 1 672 2 674 1 675 1 698 1 701 1 716 1 735 1 758 1 765 1 816 1 831 1 848 1 858 1 861 1 891 1 908 1 930 1 946 1 988 1 990 1 994 1 365 1 397 1 413 1 446 1 456 1 473 1 474 1 475 1 488 1 492 1 503 1 516 1 517 1 518 1 528 1 530 1 539 1 580 1 689 1 690 1 708 1 715 1 724 1 739 1 788 1 809 1 810 1 811 1 837 1 851 1 868 1 883 1 925 1 929 1 945 1 951 1 955 1 958 1 960 1 1007 1 
1 212 3 1 9 1 11 1 21 1 33 1 38 1 39 1 46 1 49 1 57 1 82 1 87 1 132 1 164 1 202 1 229 1 274 1 277 1 279 1 283 1 298 1 306 1 5 1 12 1 25 1 71 1 73 1 75 1 86 1 97 1 118 1 127 1 131 1 138 1 140 1 141 1 154 1 196 1 199 1 209 1 222 1 255 1 285 1 289 1 333 1 340 1 342 1 354 1 355 1 370 1 385 1 387 1 407 1 429 1 439 1 461 1 472 1 476 1 506 1 513 1 532 1 593 1 622 1 624 1 634 1 667 1 675 2 677 1 690 1 695 1 707 1 775 1 809 1 821 1 843 1 852 1 862 1 875 1 890 1 912 1 944 1 949 1 989 1 398 1 401 1 413 1 422 1 441 1 449 1 454 1 505 1 526 1 544 1 550 1 581 1 611 1 625 1 626 1 628 1 639 1 652 1 713 1 734 1 754 1 759 1 765 1 768 1 783 1 800 1 823 1 828 1 831 1 833 1 867 1 870 1 896 1 916 1 940 1 960 1 963 1 964 1 985 1 1012 1 
1 213 26 1 28 1 32 1 46 1 51 1 83 1 88 1 89 1 95 1 127 1 140 1 174 1 209 1 234 1 240 1 257 1 265 2 300 1 306 1 315 2 13 1 23 1 57 1 59 1 111 1 125 1 126 1 146 1 179 1 181 1 198 1 230 1 320 1 330 1 339 1 352 1 354 1 371 2 405 1 417 1 432 1 444 1 446 1 449 1 497 1 519 1 521 1 525 1 549 2 550 1 587 1 598 1 602 1 626 1 675 1 688 1 705 1 720 1 725 1 739 1 763 2 784 1 807 1 831 2 874 1 894 1 935 1 936 1 938 1 967 1 975 1 365 1 368 1 379 1 396 1 408 1 447 1 451 1 481 1 503 1 512 1 557 1 558 1 642 1 646 1 652 1 653 1 659 1 677 1 691 1 770 1 772 1 781 1 791 1 794 1 828 1 880 1 886 1 941 1 971 1 979 1 1004 1 1008 1 1012 1 1014 1 
1 211 32 1 84 1 118 1 125 1 129 1 179 1 190 1 237 1 245 1 274 1 278 1 283 1 313 1 329 1 342 1 2 1 66 1 79 1 96 1 155 1 193 1 234 1 265 1 288 1 301 1 308 1 339 1 341 1 354 1 387 1 391 1 403 1 409 1 420 1 425 1 434 1 474 1 521 1 615 1 624 1 633 1 638 1 657 1 660 1 666 1 683 1 688 1 712 1 755 1 757 1 788 1 802 2 806 1 824 1 825 2 858 1 880 1 883 1 897 1 922 1 936 1 945 1 953 1 961 1 967 1 978 2 995 1 358 1 359 1 360 1 363 1 368 1 414 1 440 1 477 1 494 1 523 1 535 1 537 1 544 1 564 1 567 1 572 1 589 1 612 1 650 1 678 1 738 1 742 1 746 1 760 1 782 1 787 1 795 1 796 1 845 1 881 1 930 1 931 1 932 1 933 1 962 1 964 1 970 1 975 1 976 1 1003 1 1009 1 
1 213 8 1 62 1 65 1 155 1 164 1 243 1 255 1 259 1 303 1 313 1 317 1 322 1 324 1 344 1 3 1 16 1 27 1 55 1 92 1 112 1 141 1 153 1 166 1 172 1 179 1 203 1 216 1 217 1 229 1 232 1 239 1 251 1 297 1 335 1 340 1 354 1 364 1 376 1 409 1 413 1 419 1 432 1 433 1 471 1 473 1 497 1 512 1 557 1 567 1 578 1 610 1 624 1 637 1 647 1 687 1 697 1 703 1 706 1 713 1 729 1 738 1 746 1 749 1 750 1 766 1 770 1 790 1 805 1 815 1 828 1 853 1 854 1 866 1 905 1 942 1 961 1 972 1 987 1 989 1 349 1 353 1 356 1 366 1 406 1 411 1 414 1 428 1 437 1 450 1 455 1 532 1 540 1 550 1 564 1 565 1 568 1 576 1 620 1 658 1 693 1 714 1 740 1 788 1 794 1 802 1 812 1 827 1 882 1 892 1 912 1 916 1 920 1 968 1 982 1 999 1 1003 1 1008 1 1013 1 1018 1 
1 210 11 1 13 1 15 1 97 1 137 1 142 1 152 1 179 1 193 1 205 2 219 2 241 1 254 1 285 1 297 1 304 1 313 1 315 1 318 1 12 1 27 1 33 1 36 1 37 1 46 1 57 1 80 1 134 1 148 1 174 1 178 1 196 1 211 1 244 1 260 1 270 1 286 1 288 1 295 1 348 1 373 1 383 1 390 2 397 1 401 1 415 1 445 1 461 1 487 2 503 1 510 2 542 1 562 1 573 1 582 1 583 1 632 1 639 1 661 1 663 1 719 1 724 1 733 1 767 1 784 1 807 1 810 1 815 1 818 1 819 1 829 1 835 1 848 1 863 1 864 1 866 1 877 2 884 1 920 1 941 1 965 1 992 1 363 1 368 1 396 1 398 1 429 1 439 1 440 1 448 1 454 1 459 1 467 1 476 1 489 1 529 1 541 1 549 1 550 1 579 1 617 1 655 1 677 1 683 1 707 1 769 1 782 1 836 1 840 1 854 1 870 1 880 1 889 1 934 1 955 1 994 1 1001 1 1004 1 1010 1 1013 1 
1 210 7 1 30 1 40 1 93 2 110 1 148 1 157 1 164 1 167 1 169 1 182 1 208 1 221 1 237 1 245 2 261 2 264 1 272 2 303 1 304 1 308 2 317 1 333 1 340 1 16 1 33 1 38 1 42 1 46 1 48 1 66 1 90 1 98 1 116 1 127 1 142 1 143 1 160 1 179 1 227 1 318 1 322 1 353 1 391 1 410 1 411 1 442 1 449 1 458 1 466 1 500 1 524 1 540 1 545 1 598 1 629 1 635 1 664 1 668 2 672 1 678 1 689 1 694 1 744 1 808 1 817 1 829 1 840 1 926 1 938 1 941 1 944 1 969 1 976 1 980 1 987 1 362 1 374 1 412 1 415 1 419 1 428 1 475 1 499 1 512 1 531 1 552 1 561 1 564 1 565 1 579 1 584 1 638 1 676 1 682 1 718 1 726 1 732 1 735 1 749 1 772 1 789 1 833 1 852 1 858 1 866 1 871 1 913 1 927 1 928 1 939 1 958 1 971 1 997 1 1010 1 1011 1 1019 1 
1 204 7 1 24 1 52 1 61 1 69 1 94 1 110 1 113 1 127 1 142 1 146 1 190 1 233 1 288 1 301 1 307 1 308 1 323 1 327 1 18 1 26 1 82 1 86 1 89 1 109 1 112 1 126 1 161 1 171 1 209 1 214 1 225 1 232 1 257 1 293 1 321 1 351 1 351 1 363 1 380 1 399 1 403 2 427 1 437 1 464 1 493 1 560 1 577 1 578 1 582 1 592 1 599 1 600 1 621 1 630 1 634 1 689 1 694 1 704 1 732 1 764 1 794 1 797 1 820 1 834 1 844 1 874 1 881 1 882 1 886 1 909 1 937 1 952 1 979 1 989 1 994 2 377 1 382 1 396 1 400 1 414 1 417 1 458 1 489 1 499 1 538 1 602 1 607 1 616 1 617 1 659 1 673 1 678 1 717 1 739 1 748 1 749 1 753 1 755 1 768 1 786 1 796 1 819 1 824 1 880 1 925 1 930 1 934 1 950 1 953 1 969 1 973 1 1001 1 1018 1 
1 209 3 1 6 1 24 2 59 1 65 1 77 1 108 1 125 1 130 1 134 2 145 1 146 1 187 1 222 1 227 1 259 1 267 1 274 1 278 1 280 1 317 1 331 1 336 1 346 1 12 1 43 1 74 1 79 1 92 1 103 1 104 1 144 1 149 1 159 1 169 1 186 1 193 1 220 1 232 1 239 1 257 1 275 1 287 1 294 1 329 1 353 1 393 1 412 1 413 1 474 1 532 1 548 1 561 1 580 1 592 1 594 1 611 1 651 1 672 1 709 1 716 2 720 1 733 1 740 1 759 1 786 1 797 1 817 1 827 1 840 1 862 1 871 1 879 1 928 1 932 1 935 1 941 1 953 1 967 1 985 1 996 1 380 1 397 1 425 1 441 1 443 1 482 1 554 1 555 1 567 1 600 1 625 1 645 1 650 1 699 1 762 1 765 1 787 1 792 1 864 1 878 1 884 1 887 1 898 1 924 1 937 1 938 1 939 1 959 1 
1 213 6 1 28 1 33 1 39 1 61 1 62 1 100 1 129 1 130 1 150 1 156 1 171 1 182 1 203 1 235 1 258 1 266 1 311 1 327 1 350 1 352 1 8 1 17 1 41 1 65 1 120 1 122 1 133 1 142 1 169 1 174 1 210 1 211 1 233 1 241 1 304 1 313 1 316 1 321 1 348 1 357 1 372 1 378 1 410 1 473 1 488 1 502 1 503 1 507 1 518 1 519 1 602 1 682 1 692 1 696 1 738 1 754 1 763 1 770 1 775 1 780 1 786 1 835 1 845 1 854 1 873 1 874 1 900 1 903 1 907 1 916 1 920 1 921 1 947 1 995 2 365 1 390 1 394 1 400 1 404 1 405 1 445 1 476 1 482 1 492 1 528 1 530 1 540 1 549 1 557 1 567 1 573 1 585 1 593 1 610 1 633 1 697 1 701 1 714 1 720 1 734 1 768 1 778 1 795 1 804 1 812 1 827 1 832 1 851 1 868 1 870 1 871 1 893 1 908 1 937 1 968 1 971 1 985 1 997 1 1002 1 1004 1 
1 210 15 1 16 1 109 1 116 1 124 2 138 1 156 1 185 1 200 1 218 1 255 1 271 1 302 2 315 1 324 1 343 1 345 1 346 1 347 1 348 1 17 1 20 1 37 1 47 1 57 1 71 1 89 1 107 1 141 1 144 1 165 1 198 1 207 1 221 1 234 1 236 1 273 1 277 1 287 1 292 1 307 1 313 1 320 1 361 1 375 1 401 1 443 1 513 1 519 1 532 1 542 2 551 1 553 1 558 1 562 1 563 1 577 1 581 1 582 1 583 1 635 1 654 1 707 1 715 2 782 1 783 1 904 1 913 1 927 1 942 1 952 1 956 1 974 1 996 1 394 1 423 1 427 1 457 1 467 1 477 1 483 1 514 1 529 1 543 1 560 1 601 1 605 1 613 1 614 1 615 1 675 1 678 1 686 1 704 1 712 1 744 1 758 1 777 1 798 1 801 1 821 1 887 1 909 1 911 1 916 1 926 1 945 1 971 1 981 1 1000 1 1012 1 
1 208 3 1 10 1 23 1 28 1 39 2 43 1 59 1 78 2 92 1 133 1 237 1 241 1 256 1 283 1 286 1 291 1 305 1 308 1 316 1 328 1 336 1 338 1 345 1 32 1 55 1 58 1 65 1 71 1 90 1 155 1 179 1 197 1 208 1 209 1 214 1 221 1 244 1 254 1 262 1 272 1 285 1 326 1 329 1 333 1 343 1 364 1 371 1 383 1 402 1 424 1 429 1 430 1 449 1 451 1 459 1 469 1 535 1 562 1 578 1 580 1 613 1 637 1 646 1 656 1 699 1 726 1 770 1 771 1 774 1 786 1 790 1 832 1 838 2 868 1 882 1 883 1 893 1 899 1 911 1 952 1 983 1 986 1 456 1 463 1 484 1 520 1 523 1 529 1 544 1 549 1 597 1 616 1 622 1 629 1 657 1 659 1 664 1 687 1 697 1 705 1 707 1 716 1 723 1 739 1 791 1 803 1 840 1 878 1 898 1 942 1 961 1 979 1 994 1 1019 1 
1 210 4 1 21 1 36 1 39 1 45 1 72 2 80 1 107 1 110 1 130 1 181 1 188 1 209 1 223 1 239 1 261 2 263 1 267 2 285 1 325 1 331 1 33 1 52 1 83 1 91 1 93 1 116 1 120 1 121 1 140 1 154 1 169 1 172 1 185 1 199 1 201 1 219 1 221 1 236 1 257 1 279 1 288 1 304 1 348 1 411 1 412 1 413 1 430 1 437 1 460 1 462 1 463 2 480 1 487 1 496 1 527 1 528 1 536 1 563 1 569 1 602 1 610 1 617 1 649 1 658 1 671 2 682 1 697 1 702 1 709 1 717 1 719 1 723 1 737 1 750 1 757 1 769 1 782 1 831 2 846 1 868 1 880 1 883 1 887 1 898 1 981 1 988 1 363 1 384 1 395 1 438 1 441 1 512 1 516 1 520 1 545 1 577 1 585 1 590 1 604 1 642 1 651 1 655 1 668 1 724 1 726 1 728 1 736 1 746 1 751 1 777 1 791 1 825 1 847 1 851 1 865 1 882 1 925 1 933 1 951 1 960 1 963 1 1002 1 1015 1 1019 1 
1 214 19 1 47 1 60 2 71 1 151 1 156 2 157 1 160 1 171 1 176 1 190 1 191 2 197 1 216 1 218 1 235 1 315 1 329 1 336 1 353 1 13 1 30 1 38 1 44 1 70 1 100 1 104 1 119 1 120 1 134 1 137 1 139 1 150 1 173 1 186 1 214 1 222 1 230 1 240 1 241 1 245 1 246 1 273 1 289 1 401 1 427 1 440 1 453 1 468 1 471 1 525 1 600 1 607 1 619 1 620 1 625 1 627 1 641 1 645 1 652 1 670 1 676 1 703 1 739 2 757 2 762 1 765 1 814 1 823 1 843 1 860 1 866 1 876 2 897 1 926 1 941 1 948 1 955 1 370 1 395 1 405 1 414 1 426 1 456 1 483 1 488 1 514 1 533 1 580 1 586 1 640 1 687 1 721 1 736 1 737 1 788 1 819 1 824 1 832 1 838 1 851 1 887 1 909 1 942 1 945 1 950 1 964 1 966 1 974 1 1003 1 1013 1 1019 1 
1 215 53 1 65 1 98 2 126 2 131 2 138 1 148 1 208 1 232 2 240 1 243 1 250 1 278 1 292 1 293 1 306 1 334 1 15 1 59 1 132 1 160 1 161 1 165 1 168 1 182 1 183 1 186 1 220 1 238 1 239 1 282 1 288 1 320 1 347 1 370 2 373 1 376 1 385 1 438 1 442 1 457 1 474 1 477 1 515 1 525 1 538 1 569 1 587 1 668 1 706 1 744 1 779 1 787 1 800 1 816 1 840 1 851 1 861 1 895 2 908 1 929 2 953 1 956 1 363 1 390 1 393 1 398 1 406 1 409 1 422 1 425 1 458 1 470 1 476 1 484 1 514 1 552 1 590 1 628 1 644 1 655 1 679 1 681 1 698 1 722 1 740 1 749 1 755 1 781 1 825 1 839 1 906 1 911 1 916 1 960 1 982 1 985 1 1004 1 1012 1 1013 1 
1 206 11 1 17 2 40 2 55 1 74 1 79 1 89 1 91 1 92 1 97 1 118 1 124 1 127 1 131 1 132 1 144 1 157 1 177 1 200 1 204 1 249 1 259 1 293 1 312 1 315 1 316 1 331 1 32 1 33 1 43 1 95 1 98 1 100 1 162 1 172 1 256 1 270 1 271 1 280 1 294 1 319 1 325 1 347 1 363 1 367 1 419 2 420 1 432 1 446 1 493 1 503 1 514 1 544 1 591 1 611 1 642 1 662 2 665 1 682 1 702 1 705 1 714 1 716 1 732 1 780 1 800 1 805 1 817 1 841 1 856 1 885 1 938 1 962 1 963 1 985 1 364 1 378 1 438 1 472 1 482 1 528 1 551 1 552 1 555 1 587 1 608 1 609 1 614 1 617 1 640 1 653 1 692 1 730 1 731 1 743 1 772 1 801 1 808 1 835 1 842 1 853 1 866 1 880 1 902 1 914 1 969 1 970 1 991 1 995 1 1003 1 
1 205 4 1 22 1 34 1 44 1 60 1 63 1 73 1 75 1 96 1 98 1 108 1 120 1 126 2 134 2 144 1 157 1 231 1 239 1 243 1 304 1 307 1 343 1 7 1 14 1 57 1 61 1 67 1 118 1 125 1 196 1 202 1 208 1 222 1 234 1 240 1 242 1 247 1 277 1 283 1 297 1 306 1 347 1 362 1 377 1 379 1 388 1 421 1 431 1 482 1 499 1 500 1 510 1 521 1 540 1 559 1 582 1 643 1 656 1 669 1 707 1 757 1 795 1 812 1 813 1 825 1 830 1 858 1 860 1 867 1 868 1 917 1 924 1 927 1 945 1 973 2 984 1 990 1 371 1 391 1 401 1 432 1 453 1 467 1 475 1 502 1 507 1 519 1 535 1 572 1 575 1 581 1 625 1 645 1 649 1 677 1 694 1 710 1 748 1 749 1 756 1 802 1 818 1 822 1 882 1 890 1 909 1 925 1 926 1 955 1 969 1 982 1 
1 211 1 1 11 1 21 1 26 1 48 1 62 1 69 2 73 1 79 1 83 2 117 1 129 1 137 2 152 1 157 1 167 1 180 1 195 1 219 1 249 1 268 1 271 1 276 2 280 1 282 1 307 1 326 1 341 1 354 1 8 1 30 1 40 1 82 1 106 1 125 1 140 1 160 1 174 1 179 1 212 1 215 1 255 1 284 1 297 1 304 1 316 1 329 1 366 1 396 1 414 1 432 1 435 1 441 1 442 1 492 1 498 1 507 1 508 1 510 1 534 1 539 1 559 1 584 1 609 2 636 1 650 1 722 1 747 1 787 1 809 1 816 1 911 1 926 2 928 1 937 1 951 2 955 1 983 1 380 1 382 1 392 1 401 1 434 1 444 1 462 1 471 1 486 1 497 1 499 1 517 1 533 1 536 1 555 1 557 1 583 1 592 1 629 1 646 1 648 1 661 1 697 1 737 1 743 1 764 1 771 1 797 1 806 1 822 1 835 1 844 1 852 1 877 1 910 1 913 1 921 1 938 1 972 1 999 1 1012 1 
1 213 47 1 49 1 50 1 53 1 64 1 67 1 76 1 108 1 134 1 175 1 208 1 211 1 231 1 246 1 247 1 275 1 281 1 283 1 290 1 294 1 315 1 327 1 330 1 342 1 360 1 33 1 34 1 102 1 110 1 119 1 123 1 176 1 183 1 185 1 199 1 212 1 213 1 216 1 248 1 259 1 284 1 289 1 293 1 301 1 305 1 320 1 322 1 329 1 340 1 350 1 416 1 462 1 497 1 538 1 560 1 566 1 568 1 581 1 587 1 607 1 623 1 634 1 659 1 663 1 670 1 676 1 699 1 720 1 750 1 792 1 797 1 839 1 842 1 844 2 863 1 874 1 895 1 916 1 934 1 982 1 382 1 387 1 394 1 408 1 414 1 415 1 418 1 420 1 431 1 451 1 467 1 487 1 509 1 541 1 569 1 571 1 580 1 611 1 617 1 622 1 642 1 654 1 667 1 697 1 735 1 742 1 752 1 809 1 830 1 862 1 892 1 904 1 908 1 909 1 910 1 930 1 984 1 1005 1 1006 1 1012 1 1015 1 1016 1 1019 1 
1 204 15 1 20 1 25 1 30 1 41 1 49 1 66 1 102 1 164 1 188 1 211 1 221 1 277 1 282 1 299 2 301 1 305 1 351 1 359 1 4 1 16 1 129 1 136 1 146 1 147 1 156 1 161 1 165 1 171 1 183 1 190 1 247 1 256 1 263 1 275 1 291 1 293 1 317 1 318 1 343 1 347 1 349 1 356 1 358 1 365 1 385 1 401 1 426 1 449 1 462 1 473 1 488 1 510 1 512 1 514 1 531 1 541 1 578 1 590 1 633 1 642 1 646 1 706 1 707 1 719 1 730 1 746 1 754 1 759 1 776 1 779 1 807 1 810 1 812 1 831 1 841 1 863 1 874 2 883 1 907 1 920 1 928 1 992 1 373 1 395 1 435 1 464 1 481 1 487 1 495 1 506 1 509 1 518 1 556 1 561 1 580 1 587 1 598 1 610 1 644 1 647 1 654 1 692 1 708 1 712 1 717 1 720 1 751 1 764 1 811 1 848 1 870 1 887 1 909 1 911 1 985 1 993 1 1002 1 
1 210 6 1 17 1 19 1 35 1 39 1 103 1 134 1 137 1 156 1 158 1 206 1 215 1 245 1 260 1 263 1 270 1 284 1 289 1 297 1 305 1 316 1 320 1 334 1 340 1 348 1 355 1 15 1 22 1 49 1 58 1 67 1 81 1 86 1 101 1 102 1 133 1 151 1 175 1 182 1 192 1 201 1 214 1 262 1 274 1 281 1 295 1 337 1 359 1 371 1 375 1 420 1 447 1 456 1 485 1 490 1 492 1 543 1 548 1 568 1 576 1 601 1 646 1 675 1 677 1 678 1 688 1 690 1 705 1 707 1 769 1 771 1 835 1 836 1 855 1 857 1 867 1 903 1 904 1 917 1 921 1 923 1 929 1 934 1 940 1 964 1 970 1 975 1 989 1 997 1 367 1 379 1 432 1 439 1 469 1 514 1 527 1 553 1 558 1 561 1 571 1 579 1 592 1 631 1 653 1 670 1 683 1 686 1 730 1 732 1 764 1 779 1 828 1 829 1 853 1 878 1 879 1 897 1 915 1 926 1 932 1 949 1 959 1 977 1 983 1 1000 1 1016 1 1017 1 
1 208 2 1 24 1 53 1 55 1 96 1 107 1 109 1 159 1 184 2 199 1 243 1 244 1 318 1 324 1 336 1 341 1 363 1 33 1 34 1 38 1 79 1 132 1 155 1 160 1 167 1 177 1 185 1 190 1 195 1 200 1 205 1 264 1 272 1 277 1 288 1 304 1 305 1 344 1 346 1 353 1 365 1 365 1 372 1 390 1 411 1 413 1 428 1 462 1 464 1 486 1 493 1 566 1 580 1 589 1 611 1 623 1 641 1 644 1 654 1 675 1 693 1 697 1 701 1 724 2 760 1 770 1 820 1 825 1 866 1 888 1 897 1 913 1 929 1 940 1 943 1 955 1 409 1 419 1 421 1 424 1 441 1 454 1 490 1 511 1 539 1 541 1 544 1 550 1 555 1 559 1 568 1 598 1 613 1 626 1 656 1 659 1 695 1 719 1 761 1 783 1 822 1 827 1 870 1 872 1 878 1 881 1 938 1 939 1 969 1 978 1 990 1 
1 208 8 1 33 1 44 1 50 1 60 1 85 1 92 1 129 1 130 1 164 1 168 1 194 1 211 1 218 1 219 1 255 1 293 1 317 1 325 1 339 2 343 1 361 1 13 1 21 1 36 1 58 1 67 1 78 1 93 1 104 1 114 1 122 1 146 1 195 1 224 1 226 1 231 1 265 1 300 1 308 1 326 1 348 1 371 1 373 1 375 1 386 1 406 1 407 1 434 1 452 1 462 1 467 1 491 1 500 1 512 1 568 1 569 1 605 1 614 1 648 1 657 2 683 1 685 1 690 1 702 1 705 1 740 1 749 1 778 1 795 1 819 1 834 1 856 1 895 1 896 1 908 1 920 1 940 1 381 1 397 1 421 1 448 1 475 1 495 1 498 1 517 1 531 1 600 1 606 1 626 1 629 1 631 1 644 1 652 1 673 1 699 1 701 1 746 1 755 1 794 1 803 1 805 1 837 1 873 1 875 1 897 1 918 1 930 1 976 1 979 1 1008 1 1017 1 
1 207 20 1 41 1 47 1 76 1 112 1 117 1 141 1 148 1 157 2 177 1 200 2 210 1 219 1 238 1 246 1 273 1 302 1 332 1 333 1 359 1 21 1 32 1 72 1 111 1 120 1 126 1 139 1 167 1 187 1 208 1 222 1 228 1 230 1 255 1 283 1 289 1 313 1 364 1 381 1 397 1 412 1 459 1 477 1 478 1 520 1 524 1 526 1 532 1 536 1 556 1 571 1 622 1 632 1 663 1 668 1 678 1 691 1 695 1 736 1 753 1 767 1 807 1 815 1 854 2 872 1 882 1 888 1 935 1 961 1 969 1 997 1 380 1 384 1 394 1 408 1 411 1 420 1 447 1 466 1 490 1 497 1 531 1 581 1 618 1 627 1 651 1 665 1 679 1 723 1 737 1 783 1 804 1 818 1 822 1 840 1 843 1 844 1 881 1 916 1 945 1 951 1 965 1 979 1 983 1 1006 1 1011 1 1016 1 
1 210 45 2 75 2 93 1 112 1 133 1 138 1 148 1 157 1 266 1 309 1 318 1 335 1 5 1 10 1 12 1 28 1 30 1 61 1 90 1 116 1 128 1 135 1 147 1 257 1 279 1 327 1 329 1 346 1 347 1 349 1 373 1 387 1 394 1 400 1 433 1 450 1 454 1 458 1 462 2 467 1 482 1 527 1 538 1 543 1 545 1 547 1 658 1 662 1 686 1 689 1 691 1 704 1 734 1 756 1 761 1 766 1 795 1 861 1 862 1 885 1 889 1 905 1 929 1 947 1 948 1 978 1 989 1 389 1 395 1 411 1 418 1 451 1 474 1 476 1 487 1 492 1 503 1 505 1 525 1 552 1 558 1 559 1 561 1 573 1 599 1 612 1 633 1 639 1 647 1 653 1 682 1 696 1 706 1 708 1 721 1 733 1 737 1 746 1 799 1 808 1 814 1 818 1 824 1 828 1 839 1 849 1 919 1 927 1 930 1 932 1 940 1 956 1 965 1 971 1 980 1 990 1 1000 1 1004 1 1013 1 
1 207 77 2 101 1 115 1 122 1 160 1 181 1 197 1 201 1 216 1 232 1 239 1 256 1 267 1 316 1 322 1 344 1 3 1 33 1 35 1 55 1 56 1 74 1 79 1 86 1 112 1 133 1 141 1 142 1 158 1 167 1 178 1 184 1 186 1 195 1 196 1 251 1 259 1 265 1 269 1 274 1 279 1 294 1 327 1 332 1 433 1 449 1 485 1 526 1 538 1 552 1 553 1 559 1 561 2 586 1 606 1 621 1 631 1 642 1 649 1 660 1 699 1 701 1 722 1 743 1 782 1 784 1 788 1 814 1 816 1 831 1 834 2 854 1 858 1 859 1 865 1 924 1 968 1 973 1 981 1 984 1 995 1 378 1 381 1 386 1 398 1 446 1 453 1 460 1 463 1 488 1 494 1 506 1 520 1 523 1 525 1 543 1 563 1 569 1 572 1 615 1 616 1 626 1 658 1 670 1 672 1 687 1 703 1 737 1 801 1 819 1 842 1 860 1 862 1 878 1 883 1 889 1 915 1 921 1 939 1 940 1 945 1 985 1 996 1 1009 1 1013 1 1018 1 
1 215 19 2 26 1 44 1 45 1 92 1 95 1 100 1 122 1 149 1 152 1 185 1 193 1 195 1 203 1 215 1 257 1 271 1 313 1 330 1 345 1 358 2 7 1 10 1 24 1 36 1 85 1 119 1 158 1 162 1 164 1 172 1 182 1 188 1 213 1 216 1 222 1 230 1 263 1 268 1 269 1 279 1 287 1 303 1 307 1 339 1 357 1 380 1 399 1 403 1 420 1 457 1 486 1 501 1 504 1 546 1 547 1 564 1 570 1 578 1 580 1 592 2 619 2 627 1 656 1 660 1 665 1 676 1 682 1 693 1 695 1 697 1 728 1 737 1 750 1 756 1 794 1 801 2 850 1 863 1 909 1 926 1 928 1 988 1 388 1 402 1 439 1 456 1 472 1 534 1 590 1 605 1 615 1 624 1 653 1 692 1 701 1 706 1 717 1 723 1 744 1 777 1 820 1 843 1 847 1 865 1 915 1 916 1 921 1 941 1 946 1 948 1 956 1 959 1 966 1 969 1 1014 1 
1 212 22 1 60 2 72 1 76 1 86 1 91 1 138 2 187 1 188 1 204 1 209 1 238 2 257 1 261 1 263 1 282 2 336 1 346 2 355 1 364 1 366 1 2 1 20 1 25 1 27 1 50 1 56 1 59 1 84 1 95 1 119 1 148 1 174 1 175 1 220 1 222 1 256 1 268 1 274 1 281 1 287 1 291 1 330 1 360 1 387 1 389 1 399 1 416 1 455 1 462 2 484 1 490 1 495 1 537 2 544 1 545 1 596 1 620 1 625 1 635 1 663 1 666 1 669 1 674 1 683 1 688 1 705 1 707 1 719 1 732 1 746 1 759 2 774 1 777 1 783 1 810 1 815 1 826 1 830 1 842 1 849 1 869 1 877 1 884 1 887 1 905 1 939 1 945 1 989 1 380 1 400 1 429 1 435 1 446 1 488 1 492 1 493 1 497 1 511 1 532 1 565 1 574 1 579 1 584 1 586 1 609 1 633 1 643 1 657 1 677 1 681 1 690 1 694 1 712 1 713 1 760 1 765 1 770 1 775 1 803 1 820 1 868 1 929 1 973 1 977 1 980 1 996 1 999 1 1000 1 1010 1 
1 207 20 1 25 1 36 1 58 1 82 1 89 1 94 1 116 1 130 1 134 1 160 1 172 1 187 1 208 1 224 1 235 1 240 1 248 1 252 1 282 1 290 1 298 1 353 1 365 1 2 1 9 1 23 1 26 1 37 1 64 1 67 1 73 1 100 1 111 1 119 1 137 1 149 1 154 1 178 1 195 1 203 1 226 1 242 1 253 1 256 1 259 1 324 1 326 1 327 1 340 1 376 1 382 1 387 1 402 1 403 1 441 1 459 1 460 1 494 1 499 2 509 1 514 1 598 1 622 1 717 1 748 1 761 1 776 1 784 1 790 2 793 1 801 1 829 1 851 1 856 1 880 1 898 1 910 2 930 1 935 1 943 1 955 1 962 1 965 1 966 1 982 1 998 1 374 1 393 1 397 1 420 1 471 1 481 1 492 1 495 1 501 1 512 1 534 1 535 1 557 1 558 1 579 1 609 1 658 1 693 1 695 1 710 1 716 1 726 1 728 1 729 1 746 1 811 1 825 1 833 1 847 1 886 1 890 1 928 1 939 1 944 1 949 1 963 1 975 1 994 1 1012 1 1016 1 
1 207 4 1 22 1 30 1 39 1 43 1 55 1 64 1 65 1 89 1 117 1 121 1 133 1 190 1 214 1 262 1 290 1 349 1 358 1 366 1 368 1 10 1 25 1 70 1 77 1 91 1 98 1 163 1 200 1 202 1 241 1 255 1 285 1 299 1 302 1 303 1 363 1 382 1 383 1 392 2 396 1 409 2 443 1 452 1 476 1 514 1 517 1 530 2 555 1 558 1 571 1 596 1 599 1 639 1 641 1 644 1 650 1 660 1 676 1 678 2 685 1 706 1 709 1 710 1 728 1 732 1 754 1 756 1 809 1 873 1 903 1 909 1 925 1 926 1 930 1 931 1 956 1 959 1 962 1 978 1 980 1 995 1 997 1 378 1 387 1 431 1 436 1 440 1 446 1 450 1 465 1 472 1 478 1 508 1 525 1 529 1 531 1 570 1 582 1 586 1 602 1 625 1 646 1 662 1 692 1 713 1 723 1 731 1 798 1 808 1 901 1 906 1 938 1 951 1 952 1 981 1 982 1 987 1 1009 1 1018 1 
1 207 36 1 40 1 42 1 137 1 155 2 190 1 194 1 273 1 280 1 299 1 308 1 319 1 34 1 43 1 56 1 63 1 82 1 98 1 126 1 139 1 141 1 142 1 151 1 205 1 223 1 253 1 274 1 278 1 284 1 302 1 310 1 334 1 350 1 372 1 377 1 379 1 407 1 408 1 411 1 424 1 425 1 429 1 456 1 487 1 494 1 506 1 530 1 542 1 546 1 547 1 552 1 564 1 580 1 617 1 636 2 669 1 685 1 688 1 746 1 767 1 778 1 798 1 804 1 863 1 902 1 909 1 943 1 944 1 949 1 955 2 958 1 966 2 978 1 384 1 388 1 397 1 402 1 426 1 431 1 449 1 471 1 481 1 490 1 532 1 535 1 538 1 570 1 572 1 588 1 603 1 614 1 620 1 627 1 634 1 660 1 672 1 704 1 781 1 821 1 840 1 859 1 869 1 905 1 939 1 940 1 963 1 969 1 982 1 986 1 991 1 1014 1 
1 216 19 1 39 1 53 2 58 1 78 1 81 2 91 1 97 1 119 1 125 1 140 1 157 1 200 1 231 1 266 1 287 1 354 1 364 1 366 1 20 1 25 1 49 1 71 1 75 1 110 1 116 1 123 1 133 1 145 1 152 1 167 1 179 1 222 1 250 1 258 1 277 1 309 1 332 1 380 1 421 1 453 1 495 1 512 1 516 1 520 1 543 2 589 1 597 1 606 1 642 1 655 1 706 1 719 1 720 1 751 1 811 1 815 1 838 1 839 1 841 1 843 1 850 1 859 2 873 1 878 1 879 1 911 1 953 1 973 1 978 1 388 1 402 1 436 1 446 1 462 1 463 1 485 1 514 1 517 1 552 1 568 1 575 1 579 1 601 1 619 1 629 1 633 1 638 1 641 1 665 1 667 1 670 1 675 1 677 1 680 1 716 1 726 1 731 1 762 1 766 1 778 1 781 1 782 1 837 1 844 1 851 1 864 1 895 1 921 1 925 1 942 1 954 1 962 1 997 1 1005 1 1012 1 
1 211 72 1 88 1 102 1 141 1 165 1 166 1 196 1 216 1 219 1 242 1 281 2 292 1 305 1 321 1 348 1 358 1 372 1 37 1 56 1 57 1 61 1 64 1 71 1 79 1 93 1 97 1 100 1 112 1 115 1 145 1 150 1 152 1 211 1 214 1 225 1 278 1 283 1 316 1 319 1 388 1 454 1 466 1 491 1 522 1 534 1 559 2 561 2 571 1 575 1 584 1 590 1 605 1 621 1 625 1 629 1 639 1 641 1 666 1 683 1 715 1 723 2 745 1 752 1 757 1 805 1 835 1 883 1 884 1 919 1 966 1 981 1 984 1 992 1 998 1 418 1 427 1 433 1 440 1 450 1 453 1 482 1 483 1 493 1 521 1 541 1 593 1 597 1 626 1 660 1 667 1 709 1 749 1 772 1 783 1 785 1 797 1 806 1 847 1 865 1 908 1 929 1 939 1 950 1 969 1 1001 1 1007 1 1014 1 1017 1 1019 1 
1 210 30 1 38 1 41 1 44 1 71 1 75 1 87 1 113 1 117 1 125 1 131 1 140 1 169 1 246 1 272 1 274 1 302 2 324 1 360 1 374 1 21 1 27 1 52 1 129 1 134 1 135 1 139 1 147 1 179 1 222 1 225 1 258 1 288 1 297 1 304 1 307 1 317 1 328 1 351 1 393 1 410 1 421 1 441 1 472 1 478 1 501 1 534 1 537 1 545 1 557 1 581 1 599 1 671 1 688 1 703 1 754 1 775 1 776 1 834 1 841 1 843 1 878 1 880 1 884 1 899 1 914 1 915 1 921 1 938 1 943 1 944 1 954 1 957 1 964 1 990 1 394 1 406 1 413 1 469 1 511 1 512 1 542 1 543 1 565 1 620 1 639 1 666 1 678 1 730 1 734 1 745 1 751 1 769 1 773 1 814 1 827 1 848 1 857 1 863 1 875 1 901 1 945 1 994 1 995 1 1002 1 1005 1 1008 1 
1 216 27 1 33 1 44 1 48 1 80 2 101 1 140 1 182 1 192 1 205 1 209 1 244 1 245 1 272 1 304 1 309 1 310 1 317 1 320 1 339 1 342 1 353 1 14 1 50 1 58 1 71 1 100 1 118 1 139 1 164 1 177 1 188 1 194 1 237 1 246 1 258 1 270 1 335 1 337 1 359 1 369 1 373 1 380 1 414 1 442 1 473 1 511 1 529 1 530 1 531 1 559 1 583 1 591 1 593 1 600 2 618 1 624 1 625 1 647 1 673 1 691 1 710 1 720 2 723 1 771 1 774 1 799 2 811 1 813 1 848 1 851 1 853 1 865 1 885 1 895 1 934 1 992 1 379 1 381 1 402 1 466 1 467 1 478 1 504 1 515 1 517 1 562 1 579 1 608 1 617 1 635 1 656 1 658 1 660 1 667 1 684 1 712 1 724 1 727 1 765 1 777 1 780 1 819 1 835 1 843 1 859 1 871 1 873 1 877 1 882 1 898 1 918 1 939 1 947 1 967 1 999 1 1003 1 1005 1 1013 1 1015 1 
1 209 11 1 14 1 36 2 41 1 61 1 77 1 83 1 98 2 101 1 114 1 115 1 122 1 123 1 153 1 186 1 196 1 198 1 211 1 240 1 244 1 261 1 279 1 305 1 331 1 360 1 374 1 35 1 39 1 52 1 56 1 134 1 145 1 159 1 205 1 206 1 207 1 216 1 242 1 249 1 263 1 274 1 291 1 307 1 318 1 326 1 346 1 364 1 378 1 469 1 527 1 573 1 575 1 598 2 640 1 659 1 689 1 693 1 730 1 746 1 769 1 770 1 775 1 776 2 813 2 832 1 855 1 858 1 868 1 891 1 921 1 961 1 965 2 976 1 381 1 394 1 397 1 398 1 400 1 408 1 432 1 511 1 523 1 524 1 542 1 546 1 549 1 551 1 561 1 563 1 613 1 638 1 674 1 688 1 708 1 767 1 816 1 835 1 866 1 877 1 914 1 915 1 920 1 927 1 949 1 956 1 997 1 1003 1 
1 210 5 1 17 1 32 1 35 1 39 1 52 1 110 1 112 1 117 1 145 1 172 1 173 1 178 1 236 1 252 1 260 1 270 1 274 1 311 1 326 1 351 1 370 1 375 1 378 1 29 1 44 1 76 1 80 1 89 1 127 1 156 1 158 1 165 1 188 1 216 1 227 1 234 1 250 1 254 1 255 1 277 1 316 1 317 1 319 1 327 1 352 1 361 1 367 1 371 1 406 1 428 1 430 1 434 1 469 1 480 1 530 1 533 1 558 1 560 1 561 1 604 1 620 1 651 2 659 1 685 1 704 1 720 1 730 1 738 1 751 1 753 1 755 1 768 1 770 1 773 1 780 1 802 1 811 1 817 1 818 1 837 1 841 1 843 1 875 1 881 1 886 1 895 1 915 1 984 1 397 1 401 1 433 1 488 1 496 1 521 1 568 1 572 1 583 1 650 1 676 1 688 1 713 1 731 1 734 1 752 1 765 1 772 1 785 1 813 1 832 1 833 1 867 1 871 1 891 1 900 1 923 1 936 1 947 1 970 1 973 1 994 1 1003 1 1009 1 1017 1 
1 208 6 1 7 1 13 1 34 2 44 1 54 1 69 1 76 1 77 1 86 1 91 1 94 2 135 1 179 1 181 1 185 1 199 1 202 1 224 1 225 1 232 1 249 1 251 1 281 1 367 1 63 1 70 1 97 1 98 1 119 1 144 1 183 1 239 1 240 1 274 1 277 1 313 1 331 1 366 1 369 1 378 1 379 1 388 1 394 1 401 1 403 1 413 1 442 1 443 1 474 1 477 1 489 1 498 1 506 1 511 1 544 1 557 1 567 1 637 1 661 1 711 1 757 1 758 1 761 1 763 1 764 1 770 1 797 1 821 1 824 2 838 1 854 1 861 1 910 1 911 1 929 1 977 1 984 1 404 1 428 1 495 1 528 1 570 1 573 1 597 1 617 1 619 1 631 1 643 1 655 1 665 1 678 1 679 1 685 1 691 1 697 1 698 1 712 1 723 1 735 1 747 1 748 1 760 1 826 1 874 1 875 1 876 1 880 1 883 1 904 1 932 1 934 1 942 1 976 1 
1 214 3 1 22 1 63 1 69 1 81 1 102 1 114 1 118 1 134 1 163 1 167 1 196 1 207 1 218 1 232 2 240 1 267 1 303 1 313 1 343 1 372 1 373 1 4 1 6 1 16 1 51 1 75 1 111 1 119 1 147 1 199 1 203 1 206 1 215 1 229 1 246 1 248 1 269 1 284 1 288 1 294 1 326 1 334 1 351 1 361 1 362 1 399 1 402 1 428 1 457 1 480 1 494 1 513 1 569 1 595 1 622 1 623 1 649 1 665 1 667 1 711 1 718 1 727 1 742 1 752 1 797 1 809 1 813 1 820 1 842 1 867 2 877 1 932 1 938 1 963 1 994 1 404 1 409 1 416 1 445 1 453 1 454 1 464 1 478 1 495 1 510 1 515 1 540 1 545 1 548 1 561 1 598 1 605 1 614 1 629 1 631 1 674 1 682 1 709 1 720 1 724 1 730 1 737 1 754 1 774 1 810 1 821 1 828 1 856 1 878 1 879 1 885 1 927 1 955 1 969 1 975 1 985 1 997 1 1005 1 1008 1 
1 210 3 1 22 1 71 1 89 1 118 1 131 1 149 1 159 1 182 1 203 1 205 1 215 1 217 1 233 1 237 1 260 1 263 1 285 1 327 1 333 1 349 1 355 1 373 1 8 1 45 1 50 1 69 1 100 1 125 1 126 1 151 1 155 1 170 1 171 1 174 1 179 1 187 1 197 1 208 1 255 1 282 1 296 1 306 1 311 1 326 1 340 1 399 1 408 1 417 1 426 1 427 2 436 1 449 1 455 1 477 1 502 1 525 1 530 1 585 1 591 1 628 1 637 1 655 1 657 1 681 1 691 1 704 1 766 1 778 1 797 1 803 2 806 1 817 2 858 1 889 1 890 1 896 1 909 1 940 1 951 1 966 1 398 1 432 1 470 1 494 1 505 1 507 1 526 1 537 1 565 1 574 1 576 1 580 1 601 1 606 1 644 1 654 1 699 1 702 1 703 1 736 1 740 1 755 1 782 1 789 1 796 1 818 1 851 1 864 1 866 1 891 1 893 1 912 1 924 1 939 1 981 1 1008 1 1010 1 1013 1 1014 1 1018 1 
1 209 23 1 71 1 86 1 134 1 145 1 147 1 179 1 181 2 257 1 320 1 332 2 333 1 334 1 7 1 21 1 27 1 49 1 50 1 67 1 72 1 81 1 87 1 89 1 136 1 139 1 148 1 173 1 177 1 220 1 230 1 234 1 238 1 240 1 245 1 264 1 269 1 292 1 293 1 302 1 321 1 329 1 356 1 367 1 374 1 385 1 397 1 401 1 402 1 413 1 420 1 467 1 473 1 488 1 524 1 528 1 530 1 540 1 566 1 586 1 605 1 611 1 620 1 641 1 654 1 728 1 740 1 763 1 779 1 786 1 794 1 822 1 867 1 878 1 891 1 909 1 926 1 953 1 966 1 970 1 978 1 993 1 387 1 393 1 404 1 412 1 418 1 457 1 477 1 522 1 553 1 558 1 560 1 579 1 582 1 609 1 637 1 639 1 642 1 650 1 672 1 691 1 701 1 752 1 760 1 764 1 769 1 797 1 798 1 816 1 841 1 849 1 855 1 899 1 920 1 947 1 984 1 1000 1 1002 1 1010 1 1017 1 
1 207 4 1 13 1 17 1 22 1 38 1 110 1 115 1 124 1 142 1 155 1 183 1 208 1 211 1 258 1 270 1 271 1 312 1 320 1 345 1 358 1 363 1 384 1 30 1 70 1 85 1 106 1 123 1 132 1 161 1 170 1 179 1 186 1 192 1 200 1 248 1 261 1 263 1 304 1 306 1 324 1 389 1 391 1 413 1 419 1 441 1 481 1 485 1 486 1 530 1 578 1 598 1 608 1 624 1 625 1 637 1 661 1 668 1 673 1 678 1 679 1 683 1 686 1 687 1 731 2 735 1 821 1 829 1 834 2 836 1 839 1 853 1 862 1 880 1 882 1 910 1 919 1 929 1 930 1 936 1 961 1 993 1 417 1 453 1 467 1 471 1 479 1 501 1 506 1 507 1 517 1 526 1 533 1 547 1 555 1 587 1 595 1 628 1 631 1 676 1 682 1 697 1 715 1 723 1 767 1 796 1 797 1 817 1 835 1 851 1 860 1 871 1 892 1 942 1 953 1 982 1 989 1 1007 1 1011 1 
1 209 5 1 36 1 52 1 67 1 120 2 125 1 129 1 136 1 171 1 173 1 174 1 182 2 198 1 199 1 208 2 213 1 239 1 305 1 308 1 324 1 366 1 6 1 15 1 58 1 62 1 82 1 88 1 104 1 106 1 123 1 132 1 133 1 161 1 169 1 176 1 183 1 193 1 201 1 202 1 219 1 220 1 227 1 231 1 232 1 252 1 274 1 315 1 320 1 327 1 369 1 393 1 409 1 419 1 427 1 436 1 482 1 491 1 502 1 512 1 514 1 517 1 551 1 570 1 598 1 615 1 622 1 629 1 635 1 658 1 660 2 667 1 669 1 684 1 695 1 719 2 757 1 798 1 800 2 810 1 878 1 885 1 947 1 952 1 958 1 966 1 973 1 400 1 418 1 444 1 468 1 478 1 501 1 503 1 505 1 531 1 585 1 587 1 649 1 653 1 664 1 673 1 706 1 727 1 765 1 797 1 799 1 848 1 891 1 900 1 907 1 931 1 941 1 961 1 994 1 
1 210 19 1 21 1 35 1 44 1 61 1 63 1 64 1 72 1 79 1 98 1 99 1 135 1 140 1 142 1 146 1 211 2 255 1 256 1 276 1 298 1 321 1 345 1 347 1 368 1 371 1 372 1 6 1 68 1 88 1 96 1 119 1 169 1 185 1 194 1 216 1 221 1 273 1 279 1 285 1 290 1 313 1 336 1 362 1 373 1 384 1 387 1 387 1 395 1 397 1 415 1 425 1 427 1 438 1 455 1 459 1 482 1 487 1 491 1 499 1 500 2 521 1 524 1 526 1 529 1 550 1 568 1 585 2 589 1 598 1 626 1 658 1 694 1 706 1 716 1 718 1 739 1 767 1 770 1 781 2 783 1 789 1 801 2 814 1 835 1 855 1 865 1 873 1 875 2 876 1 907 1 913 1 922 1 931 1 937 1 947 1 952 1 957 1 990 1 394 1 400 1 413 1 435 1 437 1 458 1 466 1 474 1 502 1 511 1 534 1 552 1 582 1 586 1 616 1 622 1 641 1 648 1 671 1 681 1 700 1 703 1 715 1 729 1 775 1 786 1 790 1 794 1 803 1 821 1 853 1 885 1 905 1 917 1 929 1 960 1 961 1 963 1 966 1 971 1 985 1 1001 1 1002 1 1004 1 
1 207 2 1 18 1 20 1 30 1 46 1 70 1 73 1 80 1 95 1 111 1 135 1 169 1 190 1 192 1 195 1 210 1 220 1 221 1 222 1 248 1 252 1 262 1 264 1 272 1 285 1 334 1 335 1 336 1 360 1 376 1 381 1 6 1 22 1 84 1 98 1 104 1 119 1 122 1 156 1 209 1 228 1 259 1 268 1 286 1 291 1 311 1 370 1 374 1 375 1 442 1 444 1 447 1 458 1 460 1 466 1 490 1 505 1 517 1 525 1 530 1 533 1 545 1 547 1 550 1 610 1 623 1 636 1 667 1 670 1 672 1 686 1 709 1 721 1 732 1 760 1 772 1 779 1 781 1 789 1 817 1 837 1 868 1 877 1 912 1 920 2 942 1 955 1 959 1 981 2 988 1 991 1 994 1 394 1 406 1 445 1 450 1 494 1 536 1 553 1 569 1 570 1 598 1 613 1 632 1 633 1 684 1 689 1 693 1 728 1 729 1 757 1 796 1 821 1 838 1 856 1 872 1 926 1 984 1 1002 1 1008 1 1015 1 
1 207 11 1 12 1 33 1 56 1 80 1 118 1 130 1 153 1 201 1 202 1 214 1 219 1 246 1 250 1 254 2 316 1 319 1 321 1 342 2 371 1 385 1 24 1 41 1 62 1 126 1 145 1 147 1 162 1 169 1 171 1 184 1 195 1 220 1 234 1 248 1 251 1 284 1 301 1 368 1 397 1 406 2 414 1 435 1 443 1 455 1 461 1 468 1 475 1 478 1 524 1 536 2 555 1 558 1 570 1 601 1 620 2 650 1 670 1 672 1 701 2 735 1 754 1 757 1 777 1 824 1 848 1 856 1 901 1 910 1 958 1 960 1 975 1 984 1 989 1 409 1 416 1 423 1 440 1 446 1 450 1 463 1 467 1 538 1 548 1 549 1 562 1 585 1 591 1 611 1 613 1 625 1 626 1 631 1 646 1 647 1 667 1 696 1 725 1 729 1 753 1 759 1 820 1 830 1 851 1 853 1 861 1 863 1 866 1 880 1 903 1 919 1 920 1 930 1 955 1 1002 1 1005 1 1011 1 1016 1 
1 210 36 1 37 1 52 1 54 2 55 1 64 1 72 1 86 1 114 2 137 1 152 1 163 1 170 1 236 1 238 2 283 1 309 1 349 2 365 1 42 1 75 1 79 1 88 1 111 1 184 1 205 1 210 1 246 1 249 1 252 1 262 1 264 1 296 1 311 1 314 1 333 1 337 1 353 1 358 1 392 1 408 1 414 2 437 1 449 1 508 1 520 1 543 1 547 1 551 1 553 1 612 1 618 1 645 1 674 1 683 1 691 1 717 1 727 1 743 1 764 1 778 1 793 1 815 1 817 2 824 1 845 1 847 1 849 1 853 1 860 1 861 1 875 1 887 1 889 1 902 1 989 1 394 1 419 1 443 1 446 1 462 1 463 1 515 1 552 1 560 1 585 1 589 1 611 1 635 1 652 1 653 1 657 1 693 1 706 1 713 1 722 1 754 1 769 1 782 1 802 1 836 1 846 1 856 1 880 1 894 1 898 1 934 1 963 1 965 1 1011 1 1015 1 
1 210 4 1 33 1 130 1 132 1 146 1 156 1 158 1 192 1 242 1 244 1 247 1 251 1 256 1 263 1 268 1 347 1 350 1 385 1 34 1 44 1 73 1 95 1 107 1 122 1 131 1 186 1 189 1 197 1 199 1 210 1 241 1 252 1 255 1 266 1 275 1 284 1 289 1 306 1 310 1 360 1 408 1 438 1 443 1 452 1 455 1 456 1 492 1 500 1 501 1 521 1 523 1 533 2 588 1 595 1 618 1 705 1 716 1 729 1 742 1 747 1 751 1 797 1 807 1 809 2 816 1 839 1 846 1 853 1 868 1 919 2 935 1 937 1 942 1 943 1 946 1 964 2 982 1 424 1 442 1 453 1 470 1 473 1 480 1 504 1 505 1 552 1 570 1 581 1 592 1 625 1 634 1 700 1 706 1 745 1 755 1 761 1 763 1 790 1 802 1 813 1 814 1 838 1 840 1 842 1 874 1 885 1 887 1 926 1 980 1 1001 1 1004 1 1005 1 1017 1 
1 208 17 1 41 1 97 1 117 1 160 1 168 1 170 1 200 1 214 1 232 1 241 1 245 1 253 1 276 1 288 1 296 1 300 1 316 1 326 1 373 2 390 1 3 1 24 1 52 1 67 1 78 1 108 1 130 1 149 1 178 1 189 1 193 1 216 1 217 1 230 1 244 1 301 1 335 1 361 1 398 1 405 1 425 1 457 1 465 1 503 1 522 1 524 1 544 1 593 1 595 1 596 1 597 1 634 1 642 1 694 1 708 1 725 1 746 2 776 1 803 1 825 1 833 1 849 1 852 1 864 1 891 1 905 1 974 1 984 1 400 1 430 1 448 1 461 1 471 1 489 1 506 1 512 1 513 1 526 1 542 1 550 1 552 1 566 1 582 1 627 1 676 1 713 1 720 1 747 1 749 1 757 1 797 1 816 1 819 1 834 1 855 1 856 1 863 1 871 1 875 1 879 1 883 1 902 1 922 1 934 1 936 1 955 1 961 1 969 1 982 1 990 1 1003 1 1006 1 
1 216 3 2 4 1 43 1 46 2 55 1 72 1 84 1 102 1 110 1 146 1 153 1 216 1 219 1 262 1 268 1 277 1 282 1 287 1 309 1 311 1 352 1 377 1 386 1 13 1 25 1 64 1 68 1 69 1 82 1 83 1 87 1 105 1 114 1 116 1 147 1 178 1 206 1 218 1 247 1 252 1 269 1 333 1 335 1 358 1 372 1 384 1 393 1 393 1 398 1 428 1 448 1 463 1 464 1 468 1 476 2 479 2 484 1 503 1 515 1 540 1 554 1 609 1 635 1 652 1 675 1 708 1 738 1 759 2 772 1 792 1 843 1 851 1 862 1 868 1 888 1 911 2 918 1 951 1 952 1 399 1 412 1 417 1 421 1 433 1 435 1 444 1 450 1 465 1 469 1 471 1 505 1 508 1 509 1 548 1 616 1 642 1 645 1 672 1 686 1 699 1 724 1 731 1 746 1 811 1 819 1 833 1 839 1 879 1 894 1 939 1 941 1 968 1 971 1 1007 1 1009 1 1013 1 1017 1 
1 209 49 1 51 1 61 1 68 1 73 1 80 1 108 1 142 1 145 1 157 2 179 1 193 1 208 1 210 1 234 1 238 1 243 1 266 1 268 1 283 1 323 2 368 1 381 1 13 1 16 1 17 1 28 1 30 1 41 1 44 1 46 1 76 1 98 1 112 1 144 1 149 1 165 1 171 1 201 1 219 1 249 1 284 1 306 1 353 1 354 1 362 1 367 1 377 1 379 1 387 1 388 1 390 1 452 1 467 1 495 1 508 1 561 1 562 1 589 1 591 1 613 1 627 1 655 1 663 1 671 1 672 1 681 1 691 2 708 1 713 1 719 1 740 1 741 2 761 1 766 1 771 1 799 1 802 1 829 1 841 1 844 1 847 1 938 1 939 1 957 1 987 1 996 1 997 1 401 1 407 1 416 1 432 1 500 1 501 1 515 1 525 1 568 1 583 1 606 1 607 1 614 1 616 1 641 1 673 1 690 1 718 1 737 1 763 1 806 1 815 1 872 1 878 1 922 1 968 1 972 1 1011 1 
1 208 13 1 38 1 44 1 48 1 68 1 90 1 134 1 185 1 201 1 216 1 227 1 237 1 238 1 257 1 262 1 275 1 302 1 387 1 11 1 21 1 49 1 56 1 72 1 74 1 92 1 104 1 147 1 150 1 167 1 182 1 188 1 222 1 226 1 231 1 259 1 283 1 307 1 329 1 356 1 357 1 363 1 368 1 404 1 405 1 406 1 410 2 422 1 436 1 448 1 458 1 494 1 584 1 595 1 621 1 662 1 680 1 696 1 737 1 744 1 750 1 758 1 769 2 808 1 813 1 833 1 835 1 850 2 872 1 884 1 897 1 898 1 932 1 962 1 968 1 975 1 992 1 396 1 402 1 427 1 467 1 528 1 553 1 586 1 610 1 623 1 628 1 647 1 650 1 661 1 676 1 691 1 698 1 799 1 823 1 826 1 828 1 836 1 839 1 848 1 867 1 871 1 894 1 931 1 980 1 986 1 994 1 997 1 1000 1 1001 1 1013 1 
1 209 15 1 48 1 85 1 87 1 160 1 166 1 177 1 180 1 222 1 242 1 248 1 258 1 267 1 308 1 316 1 318 1 327 1 336 1 361 1 373 1 53 1 57 1 81 1 98 1 111 1 112 1 120 1 132 1 159 1 196 1 213 1 254 1 270 1 281 1 285 1 290 1 307 1 311 1 337 1 346 1 349 1 351 1 395 1 400 1 401 1 404 1 419 1 427 1 442 1 444 1 452 1 456 1 465 1 501 1 572 1 586 1 592 1 593 1 629 1 644 1 701 1 723 1 725 1 727 1 728 1 743 2 772 1 792 1 817 1 888 1 899 1 915 2 921 1 937 1 938 1 941 1 952 1 972 1 984 1 994 1 429 1 438 1 454 1 474 1 478 1 482 1 515 1 520 1 561 1 567 1 570 1 583 1 596 1 609 1 614 1 635 1 653 1 663 1 690 1 721 1 736 1 811 1 834 1 887 1 890 1 945 1 971 1 988 1 997 1 1001 1 1008 1 1012 1 
1 212 22 1 31 1 32 1 42 1 45 1 56 1 66 1 73 1 111 1 150 1 155 1 161 1 165 1 173 1 180 1 196 1 217 1 237 1 245 1 250 1 256 1 274 1 291 1 300 1 305 1 324 1 349 1 367 1 384 1 387 1 389 1 27 1 30 1 33 1 34 1 37 1 46 1 57 1 75 1 102 1 118 1 134 1 137 1 167 1 179 1 189 1 210 1 218 1 234 1 242 1 247 1 258 1 262 1 301 1 302 1 325 1 340 1 344 1 352 1 366 1 372 1 374 1 379 1 380 1 407 1 417 1 422 1 432 2 444 1 459 1 529 1 556 1 562 1 585 1 597 1 612 1 627 1 661 1 683 1 704 1 709 1 727 1 748 1 749 1 771 1 816 1 833 1 844 1 854 2 898 1 930 1 960 1 976 1 986 1 992 1 408 1 411 1 423 1 452 1 457 1 458 1 469 1 485 1 568 1 578 1 580 1 605 1 618 1 622 1 693 1 711 1 762 1 769 1 775 1 778 1 795 1 804 1 823 1 827 1 853 1 871 1 877 1 888 1 903 1 946 1 990 1 1006 1 1013 1 1015 1 1018 1 
1 209 21 1 26 1 54 1 75 1 109 1 120 1 126 1 139 1 143 1 147 1 190 1 220 1 227 1 232 1 263 1 280 1 287 1 336 1 341 1 392 1 393 1 1 1 39 1 57 1 62 1 83 1 89 1 130 1 145 1 181 1 215 1 223 1 258 1 345 1 349 1 358 1 369 1 379 1 383 1 422 1 429 1 435 1 441 1 458 1 504 1 505 1 506 1 509 1 529 2 541 1 549 1 559 1 630 1 661 1 671 1 673 1 675 1 696 1 770 1 788 1 796 1 800 1 805 1 811 1 824 2 827 1 904 1 925 1 931 1 935 1 947 1 979 1 993 1 998 1 409 1 412 1 423 1 452 1 456 1 500 1 517 1 551 1 575 1 578 1 601 1 606 1 612 1 632 1 640 1 657 1 681 1 688 1 689 1 700 1 711 1 712 1 713 1 743 1 755 1 762 1 799 1 818 1 820 1 851 1 887 1 890 1 895 1 901 1 902 1 910 1 978 1 994 1 1017 1 
1 216 10 1 14 1 57 1 63 1 87 1 97 1 102 1 120 1 142 1 160 1 202 1 233 1 250 1 274 1 279 1 291 1 320 1 338 1 341 1 351 1 370 1 371 1 382 1 383 1 8 1 22 1 43 1 56 1 86 1 110 1 131 1 163 1 193 1 194 1 213 1 231 1 247 1 288 1 293 1 304 1 324 1 328 1 393 1 423 1 440 1 469 1 480 1 487 1 490 1 510 1 530 1 535 1 550 1 577 1 605 2 618 1 624 1 635 1 638 1 643 1 655 1 663 1 665 1 666 1 687 1 703 1 739 1 764 2 770 1 799 1 815 1 834 1 835 2 881 1 888 1 915 1 924 1 938 1 951 1 403 1 410 1 411 1 528 1 554 1 569 1 604 1 661 1 696 1 725 1 732 1 735 1 744 1 755 1 763 1 794 1 808 1 811 1 848 1 856 1 857 1 890 1 901 1 934 1 942 1 964 1 969 1 1002 1 1006 1 1007 1 1009 1 1010 1 1018 1 
1 212 17 1 37 1 43 1 68 1 101 1 134 1 135 2 154 1 171 1 173 1 179 1 212 1 213 1 226 1 234 1 246 1 258 1 272 1 282 1 300 1 318 1 330 1 334 1 368 1 396 1 2 1 10 1 28 1 45 1 57 1 143 1 170 1 181 1 199 1 207 1 220 1 238 1 247 1 252 1 262 1 315 1 326 1 351 1 353 1 371 1 379 1 386 1 387 1 392 1 422 1 426 1 430 1 431 1 446 1 464 1 492 1 500 1 561 1 573 1 577 2 650 1 669 1 695 1 705 1 707 1 711 2 741 1 757 1 761 1 769 1 774 1 784 1 787 1 814 1 832 1 862 1 876 1 879 1 887 1 899 1 920 1 921 1 931 1 950 1 960 1 962 1 965 1 966 1 973 1 975 1 976 1 983 1 992 1 420 1 433 1 438 1 458 1 484 1 488 1 531 1 551 1 569 1 584 1 622 1 640 1 643 1 656 1 670 1 682 1 688 1 690 1 722 1 772 1 811 1 824 1 825 1 831 1 881 1 915 1 922 1 936 1 961 1 996 1 999 1 1010 1 1018 1 1019 1 
1 203 1 1 21 1 25 1 39 1 49 1 104 1 113 1 117 1 120 1 123 1 134 1 135 1 152 2 156 1 158 1 174 1 183 1 196 2 213 1 217 1 218 1 227 1 228 1 300 1 332 1 349 1 354 1 357 1 363 1 381 1 384 1 396 1 13 1 32 1 45 1 65 1 159 1 191 1 204 1 209 1 235 1 240 1 259 1 284 1 287 1 308 1 316 1 327 1 345 1 360 1 361 1 380 1 394 1 401 1 401 1 430 1 467 1 487 1 500 2 502 1 538 1 581 1 592 1 612 1 634 1 699 1 700 1 712 1 717 1 722 1 766 1 768 1 773 1 793 1 815 1 823 2 839 1 877 1 879 1 886 1 895 1 899 1 918 1 942 1 945 1 950 1 958 1 963 1 984 1 988 1 405 1 478 1 510 1 516 1 598 1 608 1 609 1 620 1 625 1 627 1 633 1 645 1 669 1 671 1 710 1 746 1 748 1 776 1 800 1 804 1 821 1 835 1 859 1 860 1 863 1 872 1 878 1 900 1 905 1 922 1 923 1 926 1 947 1 960 1 983 1 986 1 
1 213 12 1 33 1 34 1 89 1 101 1 136 2 167 1 178 1 183 1 197 1 199 1 233 1 257 1 269 1 272 1 275 1 281 2 304 1 305 1 322 1 336 1 344 1 355 1 372 1 382 1 384 1 6 1 15 1 74 1 97 1 116 1 149 1 152 1 193 1 196 1 255 1 266 1 276 1 282 1 283 1 312 1 328 1 330 1 339 1 370 1 374 1 375 1 378 1 395 1 405 1 430 1 436 2 446 1 451 1 455 1 462 1 504 1 529 1 542 1 578 1 600 1 609 1 628 2 639 1 649 1 753 1 760 1 763 1 779 1 782 1 792 1 797 1 820 1 875 1 884 1 921 1 924 1 940 1 947 1 969 1 985 1 990 1 449 1 456 1 469 1 492 1 502 1 534 1 593 1 597 1 598 1 625 1 652 1 656 1 668 1 676 1 696 1 711 1 738 1 745 1 781 1 785 1 809 1 834 1 859 1 889 1 892 1 897 1 908 1 928 1 937 1 943 1 979 1 983 1 992 1 1004 1 1005 1 1013 1 1015 1 
1 212 15 2 36 1 46 1 54 1 62 1 83 1 91 1 117 1 139 1 162 1 202 1 205 1 211 1 260 1 267 1 295 1 313 1 315 1 347 1 351 2 370 1 372 1 381 1 53 1 66 1 81 1 102 1 127 1 131 1 146 1 206 1 222 1 244 1 246 1 272 1 283 1 290 1 309 1 321 1 338 1 342 1 399 1 427 1 470 1 473 1 483 1 509 1 529 1 568 1 572 1 607 1 635 1 642 1 653 1 659 1 674 1 712 1 728 1 738 1 741 1 743 1 793 1 803 1 864 1 898 1 901 1 902 1 934 1 935 1 945 1 964 1 977 1 987 1 405 1 412 1 421 1 422 1 435 1 458 1 474 1 478 1 504 1 521 1 533 1 534 1 566 1 574 1 605 1 606 1 629 1 715 1 730 1 737 1 744 1 790 1 816 1 830 1 831 1 842 1 845 1 854 1 856 1 877 1 912 1 924 1 939 1 960 1 985 1 986 1 999 1 1008 1 1015 1 
1 209 19 1 28 1 56 1 61 1 86 1 139 1 159 1 168 1 248 1 257 1 289 2 341 1 395 1 396 1 9 1 36 1 54 1 58 1 79 1 93 1 108 1 143 1 183 1 198 1 202 1 222 1 226 1 244 1 267 1 279 1 284 1 310 1 353 1 381 1 382 1 384 1 405 1 440 1 441 1 455 1 463 1 479 1 555 1 556 1 588 1 590 1 595 1 613 1 630 1 639 1 661 1 664 1 687 1 691 1 700 2 711 2 723 1 776 1 780 1 805 1 809 2 819 1 834 1 841 2 849 1 925 1 944 1 957 1 978 1 979 1 998 2 428 1 478 1 492 1 498 1 545 1 546 1 602 1 608 1 633 1 654 1 655 1 667 1 707 1 732 1 768 1 773 1 779 1 789 1 815 1 844 1 850 1 863 1 866 1 880 1 887 1 909 1 949 1 958 1 974 1 1004 1 1007 1 1009 1 1012 1 
1 208 37 1 38 1 40 1 72 1 78 1 81 1 100 1 112 1 118 1 170 1 192 1 206 1 222 1 235 1 248 1 267 1 276 1 294 2 303 1 306 1 313 1 325 1 330 1 332 1 346 1 392 1 395 1 402 1 404 1 9 1 102 1 103 1 133 1 175 1 183 1 187 1 228 1 243 1 278 1 291 1 353 1 357 1 401 1 403 1 423 1 431 1 439 1 451 1 453 1 473 1 477 1 481 1 497 1 505 1 526 1 586 1 643 1 664 1 666 1 695 1 713 2 739 1 743 1 751 1 766 1 768 2 798 1 816 1 817 1 826 1 831 1 839 1 853 1 859 2 877 1 886 2 902 1 908 1 917 1 966 1 413 1 447 1 456 1 493 1 518 1 522 1 541 1 567 1 578 1 584 1 591 1 597 1 623 1 624 1 638 1 661 1 680 1 709 1 717 1 720 1 722 1 795 1 813 1 832 1 879 1 905 1 910 1 952 1 954 1 972 1 997 1 1005 1 1012 1 
1 208 6 1 20 1 34 1 54 1 62 1 83 1 88 1 114 1 123 1 141 1 143 1 148 1 190 1 207 1 228 1 247 1 267 1 272 2 284 1 289 1 298 1 300 1 304 1 366 1 380 1 389 2 395 1 9 1 40 1 73 1 75 1 81 1 86 1 92 1 137 1 145 1 162 1 233 1 234 1 244 1 271 1 286 1 310 1 328 1 348 1 358 1 377 1 388 1 410 1 415 1 438 1 446 1 472 1 476 1 505 1 506 1 514 1 555 1 581 1 589 1 603 1 627 1 629 1 657 1 683 1 700 1 711 1 722 1 774 1 786 1 790 1 796 1 801 1 802 1 803 1 833 1 879 1 921 1 929 1 931 1 940 1 969 1 998 1 461 1 477 1 509 1 513 1 545 1 572 1 573 1 623 1 640 1 643 1 659 1 713 1 767 1 772 1 800 1 818 1 820 1 826 1 844 1 872 1 942 1 953 1 954 1 965 1 994 1 1011 1 1013 1 
1 209 11 1 12 2 39 1 67 1 138 1 142 1 146 1 161 1 218 1 227 1 246 1 255 1 262 1 276 1 299 1 310 1 336 2 345 1 366 1 374 1 397 1 6 1 38 1 63 1 66 1 72 1 87 1 90 1 118 1 123 1 155 1 172 1 175 1 190 1 199 1 205 1 209 1 226 1 239 1 267 1 271 1 320 1 337 1 394 1 418 1 421 1 439 1 445 1 463 1 492 1 508 1 527 1 551 1 591 1 607 1 611 1 621 1 629 1 653 1 672 1 686 1 687 1 690 1 702 1 715 1 747 1 758 1 790 1 803 1 815 1 833 2 847 1 856 1 867 1 873 1 884 1 891 1 913 1 919 1 960 1 410 1 433 1 460 1 466 1 475 1 488 1 501 1 505 1 509 1 552 1 566 1 570 1 576 1 582 1 588 1 600 1 620 1 639 1 658 1 669 1 688 1 699 1 707 1 714 1 725 1 765 1 771 1 773 1 778 1 783 1 810 1 849 1 874 1 875 1 889 1 920 1 931 1 952 1 978 1 985 1 986 1 988 1 999 1 1010 1 1015 1 
1 218 13 1 62 1 79 1 98 1 100 1 103 1 126 1 128 1 137 1 140 1 144 1 160 1 167 1 181 1 194 1 200 1 202 1 236 2 248 1 262 1 278 1 280 1 303 1 374 1 383 1 390 1 391 1 24 1 45 1 74 1 75 1 77 1 102 1 112 1 133 1 136 1 142 1 145 1 154 1 187 1 206 1 212 1 218 1 286 1 289 1 334 1 346 1 362 1 367 1 379 1 397 1 415 1 443 1 457 1 463 1 475 1 489 1 521 1 526 1 532 1 574 2 579 1 581 1 594 1 597 1 605 2 618 1 629 1 652 1 654 1 690 1 699 1 726 1 729 1 740 1 769 1 792 1 796 1 800 1 822 1 837 1 857 1 869 1 913 1 925 1 420 1 461 1 510 1 530 1 560 1 575 1 602 1 606 1 634 1 638 1 642 1 679 1 680 1 696 1 705 1 721 1 722 1 738 1 747 1 771 1 785 1 847 1 859 1 871 1 882 1 885 1 908 1 914 1 965 1 982 1 999 1 
1 209 31 1 46 1 69 1 115 1 131 1 140 1 158 1 180 2 220 1 249 1 250 1 268 1 320 1 322 1 347 1 348 1 373 2 386 1 4 1 6 1 19 1 24 1 30 1 52 1 56 1 73 1 101 1 148 1 149 1 178 1 202 1 233 1 237 1 257 1 270 1 282 1 304 1 306 1 314 1 323 1 328 1 358 1 365 1 382 1 389 1 398 1 435 1 451 1 456 1 458 1 470 1 488 1 503 1 523 1 550 1 572 1 582 1 599 1 603 1 608 1 616 1 628 1 629 1 641 1 646 1 671 1 675 1 677 1 716 1 755 1 783 1 785 1 798 1 799 1 811 1 828 1 831 1 837 1 846 1 921 1 939 1 949 1 416 1 469 1 473 1 496 1 501 1 506 1 508 1 510 1 526 1 558 1 568 1 570 1 598 1 627 1 660 1 662 1 664 1 709 1 715 1 771 1 801 1 803 1 825 1 842 1 881 1 899 1 907 1 909 1 954 1 979 1 994 1 1006 1 1009 1 1016 1 
1 212 15 1 40 1 46 1 65 1 70 1 138 1 153 2 172 1 205 1 213 1 244 1 262 1 278 1 295 1 310 1 316 1 350 1 353 1 377 1 395 2 406 1 22 1 54 1 56 1 72 1 116 1 152 1 171 1 179 1 180 1 181 1 192 1 201 1 214 1 221 1 222 1 229 1 240 1 249 1 265 1 268 1 280 1 284 1 318 1 330 1 334 1 399 1 407 1 446 1 488 2 496 1 504 1 510 1 513 1 516 1 517 1 527 1 544 1 562 1 567 1 607 1 612 1 634 1 635 1 644 1 648 1 650 1 651 1 658 1 669 1 679 1 707 1 746 1 755 1 757 1 775 1 796 1 797 1 801 1 816 1 851 1 866 1 891 1 915 1 919 1 923 1 935 1 952 1 970 1 980 1 448 1 466 1 500 1 508 1 563 1 565 1 573 1 592 1 597 1 641 1 649 1 695 1 728 1 737 1 785 1 786 1 818 1 821 1 833 1 842 1 852 1 872 1 925 1 938 1 940 1 947 1 978 1 1009 1 1019 1 
1 211 1 1 29 1 31 1 47 1 48 1 53 1 106 1 107 1 115 1 120 1 122 1 123 2 141 1 152 1 154 1 163 1 167 1 226 1 228 1 271 1 333 1 335 1 336 1 343 1 350 1 356 1 365 1 374 1 14 1 25 1 44 1 59 1 134 1 156 1 172 1 227 1 244 1 248 1 259 1 265 1 274 1 291 1 307 1 331 1 341 1 348 1 367 1 368 1 397 1 399 1 414 1 431 1 432 1 449 1 467 1 482 1 510 1 515 1 546 1 560 1 612 1 614 1 624 1 655 2 670 1 690 1 705 1 726 1 743 1 762 1 796 1 799 1 810 1 838 1 854 1 864 2 871 1 879 1 897 1 914 1 952 1 961 1 962 1 430 1 447 1 451 1 465 1 466 1 520 1 532 1 533 1 535 1 555 1 563 1 607 1 611 1 645 1 712 1 733 1 747 1 783 1 817 1 818 1 845 1 868 1 891 1 899 1 901 1 955 1 966 1 1016 1 
1 210 4 1 105 1 115 1 154 1 157 1 170 1 173 1 194 1 280 1 284 1 327 1 331 1 337 1 352 1 356 1 367 1 27 1 48 1 55 1 68 1 85 1 121 1 128 1 155 1 220 1 235 1 251 1 279 1 290 1 292 1 298 1 320 1 340 1 350 1 384 1 393 1 398 1 403 1 420 1 425 2 470 1 472 1 479 1 503 1 504 1 512 1 551 1 562 1 591 1 597 1 605 1 631 1 658 1 666 1 683 1 686 1 699 1 701 1 728 1 736 2 740 1 742 1 748 1 756 1 768 1 769 1 778 1 795 1 796 1 826 1 914 1 959 1 972 1 983 1 990 1 430 1 435 1 436 1 452 1 461 1 480 1 485 1 493 1 524 1 541 1 543 1 549 1 561 1 587 1 612 1 623 1 627 1 645 1 671 1 673 1 749 1 755 1 786 1 807 1 829 1 853 1 859 1 892 1 912 1 915 1 918 1 921 1 950 1 961 1 977 1 989 1 1005 1 1012 1 
1 209 2 1 4 2 6 1 27 1 31 1 49 1 55 1 61 1 68 1 93 1 94 1 102 1 121 1 139 1 141 1 147 1 167 1 184 1 214 1 216 1 223 1 234 1 244 1 257 1 271 1 292 1 307 1 312 1 315 1 329 1 330 1 348 1 352 1 356 1 365 1 381 1 384 1 385 1 10 1 42 1 120 1 130 1 150 1 166 1 208 1 222 1 255 1 256 1 281 1 290 1 320 1 332 1 344 1 345 1 377 1 387 1 405 1 421 1 478 1 484 2 508 1 517 1 520 1 622 1 632 1 637 1 644 1 667 1 687 1 688 2 705 1 708 2 782 1 794 1 796 1 805 2 806 1 817 1 819 1 835 2 859 1 864 1 866 1 876 1 880 1 889 1 903 1 925 1 944 1 978 1 980 1 466 1 472 1 502 1 514 1 528 1 533 1 537 1 573 1 595 1 631 1 641 1 689 1 710 1 727 1 730 1 735 1 793 1 795 1 799 1 801 1 887 1 904 1 948 1 950 1 951 1 959 1 989 1 1008 1 1019 1 
1 208 18 1 26 2 36 1 73 1 88 1 113 1 137 1 160 1 191 1 231 1 245 1 259 1 260 1 285 1 300 1 306 1 322 1 361 1 378 1 389 1 390 2 411 1 1 1 44 1 87 1 118 1 128 1 143 1 159 1 163 1 171 1 194 1 202 1 239 1 278 1 280 1 292 1 323 1 336 1 347 1 348 1 351 1 357 1 362 1 444 1 448 1 485 1 509 1 522 1 564 1 568 1 577 1 597 1 609 2 630 1 640 1 660 1 663 1 680 1 683 1 689 1 697 1 698 1 720 1 724 1 737 1 739 1 744 1 751 1 756 1 781 1 826 1 837 1 848 1 852 1 885 1 886 1 905 1 921 1 932 1 952 1 962 1 980 1 989 1 465 1 467 1 474 1 506 1 544 1 561 1 584 1 600 1 614 1 629 1 632 1 650 1 695 1 705 1 714 1 729 1 759 1 773 1 804 1 815 1 818 1 821 1 831 1 864 1 867 1 871 1 888 1 890 1 909 1 926 1 928 1 937 1 946 1 955 1 959 1 964 1 1003 1 1013 1 
1 212 3 1 10 1 24 1 31 1 56 1 75 2 115 1 132 1 146 1 172 1 174 1 181 1 184 1 186 1 193 1 220 1 226 1 256 2 275 1 310 1 315 1 349 1 387 1 406 1 408 1 1 1 70 1 86 1 91 1 100 1 117 1 232 1 254 1 265 1 276 1 283 1 287 1 288 1 289 1 301 1 331 1 338 1 350 1 362 1 457 1 459 1 467 1 473 1 500 1 512 1 526 1 557 1 560 1 575 1 595 1 597 1 620 1 629 1 650 2 671 1 685 1 695 1 711 1 723 1 739 1 771 2 794 1 803 1 827 1 838 1 860 1 879 1 887 1 894 1 905 1 912 1 926 1 948 1 958 1 969 1 971 1 977 1 979 1 980 1 982 1 995 1 996 1 997 1 424 1 439 1 463 1 525 1 528 1 589 1 593 1 614 1 615 1 668 1 670 1 672 1 705 1 735 1 743 1 753 1 773 1 781 1 795 1 812 1 829 1 851 1 896 1 913 1 916 1 938 1 941 1 970 1 981 1 984 1 991 1 1002 1 1008 1 1010 1 
1 213 7 1 14 1 135 1 141 1 144 1 150 1 186 1 204 1 209 1 228 1 249 1 259 1 272 1 277 1 299 1 333 1 362 1 371 1 17 1 54 1 55 1 80 1 111 1 136 1 146 1 148 1 154 1 193 1 201 1 222 1 243 1 280 1 319 1 329 1 339 1 382 1 389 1 394 1 409 1 422 1 428 1 429 1 433 1 435 1 440 1 445 1 450 1 456 1 479 1 481 1 485 1 508 1 519 1 531 1 542 1 545 1 551 1 555 2 588 1 594 1 610 1 630 1 637 1 639 1 650 1 671 1 675 1 681 1 705 1 721 1 725 1 728 1 732 1 763 1 794 1 802 1 805 1 814 1 830 1 842 1 883 1 884 1 895 1 920 1 928 1 936 1 958 1 976 1 986 1 987 1 992 1 434 1 462 1 475 1 480 1 482 1 493 1 504 1 517 1 523 1 529 1 559 1 615 1 629 1 641 1 646 1 652 1 688 1 693 1 706 1 735 1 815 1 843 1 844 1 851 1 852 1 860 1 868 1 893 1 966 1 978 1 988 1 990 1 991 1 997 1 1016 1 
1 208 14 1 49 1 57 1 67 1 97 1 111 1 120 1 125 1 176 1 178 1 203 1 213 2 231 1 244 1 272 1 275 1 287 1 293 1 295 2 330 1 343 1 346 1 383 1 397 1 11 1 53 1 56 1 81 1 91 1 136 1 149 1 160 1 171 1 214 1 249 1 257 1 301 1 351 1 385 1 393 1 417 1 417 1 431 2 446 1 485 1 518 1 522 1 548 1 553 1 559 1 561 1 578 1 611 1 617 1 648 2 675 1 707 1 717 2 722 1 751 1 757 1 770 1 827 1 847 1 867 1 890 1 893 1 922 1 941 1 943 1 951 1 419 1 524 1 525 1 537 1 573 1 575 1 607 1 637 1 649 1 650 1 656 1 724 1 733 1 741 1 769 1 772 1 802 1 811 1 819 1 822 1 834 1 842 1 880 1 910 1 917 1 923 1 926 1 928 1 929 1 932 1 949 1 960 1 991 1 1003 1 
1 209 2 1 13 1 25 1 28 1 60 1 80 1 100 1 121 1 141 1 173 1 184 1 232 1 241 1 270 1 273 1 276 2 292 1 294 1 407 1 20 1 21 1 22 1 34 1 54 1 90 1 99 1 135 1 147 1 149 1 164 1 183 1 224 1 230 1 235 1 265 1 266 1 268 1 305 1 326 1 327 1 330 1 340 1 362 1 368 1 376 1 384 1 386 1 450 2 452 1 479 1 508 1 511 1 512 1 514 1 529 1 689 1 710 1 726 1 729 1 738 1 770 1 782 1 796 1 834 1 855 1 880 1 887 1 920 1 944 1 946 1 947 1 951 1 960 1 984 1 475 1 487 1 495 1 498 1 526 1 533 1 537 1 554 1 558 1 568 1 599 1 665 1 681 1 712 1 730 1 750 1 761 1 768 1 812 1 815 1 819 1 822 1 842 1 859 1 864 1 868 1 870 1 873 1 905 1 922 1 929 1 953 1 986 1 997 1 999 1 1018 1 
1 209 52 1 80 1 129 1 136 1 146 1 149 1 167 1 168 1 187 1 189 1 192 1 194 1 202 1 212 1 217 1 226 1 262 1 273 1 305 1 318 1 326 2 332 1 337 1 348 1 359 2 385 1 386 1 396 1 1 1 6 1 23 1 42 1 44 1 83 1 106 1 111 1 118 1 133 1 159 1 184 1 196 1 254 1 310 1 331 1 350 1 365 1 390 1 417 1 425 1 429 1 452 1 475 1 501 1 503 1 509 1 523 1 543 1 588 1 601 1 602 1 611 1 643 2 650 1 651 1 653 1 692 2 713 1 719 1 804 1 806 1 818 1 874 1 883 1 898 1 914 1 918 1 927 1 931 1 480 1 510 1 515 1 549 1 554 1 572 1 582 1 609 1 632 1 638 1 672 1 675 1 682 1 683 1 684 1 703 1 708 1 727 1 743 1 773 1 783 1 785 1 824 1 842 1 876 1 882 1 909 1 917 1 935 1 953 1 967 1 986 1 1001 1 1015 1 
1 207 7 1 67 2 92 1 94 1 129 1 165 1 186 1 197 1 210 1 211 2 253 1 257 1 302 1 339 1 341 1 343 2 347 1 359 1 364 1 370 1 384 1 412 1 12 1 43 1 44 1 65 1 76 1 100 1 107 1 155 1 171 1 231 1 314 1 362 1 367 1 372 1 400 1 408 1 431 1 446 1 447 1 464 1 465 1 472 1 514 1 516 1 530 1 595 2 608 1 609 1 627 1 633 1 645 1 667 2 677 1 680 1 688 1 690 1 710 1 714 1 716 1 722 1 727 1 735 1 769 1 805 1 856 2 866 1 890 1 898 1 900 1 994 1 997 1 425 1 448 1 456 1 503 1 524 1 532 1 570 1 603 1 620 1 622 1 649 1 656 1 661 1 695 1 711 1 741 1 752 1 796 1 799 1 836 1 861 1 872 1 881 1 885 1 901 1 911 1 931 1 961 1 1000 1 1003 1 
1 215 6 1 13 1 70 1 77 1 116 2 128 1 132 1 164 1 176 1 184 1 191 1 193 1 197 1 201 1 202 1 215 1 276 1 302 1 307 1 315 1 319 1 360 1 375 1 377 1 407 1 413 1 12 1 25 1 89 1 93 1 107 1 114 1 121 1 123 1 127 1 161 1 174 1 209 1 211 1 222 1 243 1 251 1 279 1 287 1 289 1 330 1 365 1 366 1 393 1 403 1 430 1 432 1 466 1 468 2 484 1 497 1 521 1 533 1 549 1 558 2 561 1 595 1 597 1 599 2 616 1 624 1 650 1 668 1 705 1 714 1 760 1 762 1 785 1 786 1 809 1 815 1 816 1 846 1 850 1 851 1 863 1 885 1 890 1 903 1 918 1 919 1 975 1 997 1 433 1 439 1 445 1 453 1 496 1 505 1 525 1 564 1 590 1 601 1 626 1 657 1 707 1 745 1 790 1 819 1 826 1 834 1 856 1 862 1 872 1 878 1 884 1 908 1 938 1 960 1 965 1 999 1 1000 1 1003 1 1007 1 1012 1 
1 212 4 1 27 1 30 1 35 2 63 1 79 1 86 1 112 1 123 1 134 1 135 1 144 1 151 1 177 1 191 1 268 1 273 1 274 1 284 1 341 1 395 1 397 1 398 1 400 1 416 1 14 1 34 1 36 1 47 1 55 1 57 1 59 1 74 1 84 1 92 1 93 1 159 1 189 1 205 1 238 1 239 1 250 1 261 1 283 1 345 1 358 1 403 1 423 1 437 1 456 1 471 1 532 1 536 1 537 1 541 1 571 2 575 1 598 1 603 1 616 1 636 1 669 1 733 1 771 1 801 1 809 1 835 1 859 1 860 1 872 1 907 1 919 1 936 1 945 1 957 1 963 1 985 1 988 1 990 1 991 1 994 1 427 1 459 1 465 1 486 1 497 1 516 1 540 1 545 1 567 1 568 1 574 1 631 1 654 1 681 1 697 1 698 1 707 1 737 1 740 1 743 1 748 1 757 1 775 1 782 1 830 1 834 1 840 1 902 1 942 1 987 1 993 1 1006 1 1008 1 1014 1 1018 1 
1 207 6 1 19 1 46 1 57 1 104 1 115 1 116 1 125 1 153 1 158 1 163 2 165 2 183 2 188 1 191 1 208 1 272 1 278 1 279 1 299 1 304 1 306 1 310 1 311 1 313 1 323 1 328 1 334 1 336 1 399 1 405 1 422 1 3 1 53 1 61 1 66 1 70 1 78 1 114 1 178 1 204 1 207 1 224 1 228 1 253 1 263 1 283 1 309 1 354 1 389 1 397 1 398 1 454 1 464 1 467 1 514 1 564 1 607 1 616 1 646 1 654 1 669 1 678 2 687 2 736 1 739 1 769 1 777 1 787 1 801 1 834 1 857 1 875 1 883 1 887 1 891 1 945 1 471 1 485 1 490 1 510 1 515 1 521 1 579 1 599 1 612 1 656 1 670 1 684 1 726 1 733 1 759 1 786 1 803 1 806 1 839 1 840 1 862 1 870 1 885 1 913 1 924 1 925 1 950 1 981 1 982 1 990 1 1011 1 
1 210 16 2 18 1 25 1 48 1 52 1 78 1 87 1 98 1 100 1 103 1 115 1 148 1 170 1 175 1 244 1 250 1 258 1 280 1 284 1 291 1 297 2 303 1 315 1 324 1 334 1 335 1 341 1 355 1 374 1 10 1 21 1 81 1 91 1 151 1 181 1 189 1 190 1 206 1 210 1 229 1 245 1 254 1 259 1 285 1 328 1 365 1 391 1 415 1 424 1 424 1 441 1 454 2 477 1 478 1 509 1 524 1 529 1 577 1 621 1 633 1 670 1 683 1 701 1 751 1 791 1 797 1 848 1 859 1 878 1 922 1 947 1 948 1 952 1 973 1 994 1 446 1 489 1 513 1 540 1 559 1 586 1 587 1 604 1 623 1 632 1 634 1 635 1 648 1 661 1 676 1 686 1 705 1 719 1 729 1 744 1 770 1 774 1 802 1 824 1 827 1 836 1 866 1 877 1 937 1 939 1 959 1 1017 1 1019 1 
1 211 2 1 10 1 21 1 30 1 33 1 82 1 83 1 96 1 121 1 174 1 176 1 200 1 215 1 234 1 236 2 242 1 243 1 288 1 316 1 328 2 347 1 374 1 387 1 392 1 412 2 419 1 35 1 51 1 123 1 142 1 156 1 157 1 162 1 172 1 193 1 238 1 255 1 267 1 278 1 296 1 303 1 318 1 327 1 352 1 358 1 420 1 425 1 425 1 451 1 467 1 475 1 502 1 512 1 525 1 553 1 558 1 574 1 583 1 607 1 609 1 624 1 633 1 644 1 650 1 656 1 661 1 663 1 698 1 699 1 707 1 722 1 777 1 846 1 885 1 900 1 922 1 944 1 989 1 472 1 480 1 503 1 507 1 546 1 557 1 563 1 565 1 569 1 585 1 587 1 631 1 643 1 669 1 674 1 686 1 706 1 742 1 747 1 770 1 823 1 927 1 940 1 943 1 946 1 962 1 972 1 1003 1 1011 1 
1 206 36 1 40 1 67 1 88 1 93 1 144 1 158 1 165 1 227 2 234 1 254 1 281 1 300 1 308 1 312 1 314 1 335 1 341 1 363 1 383 1 400 1 22 1 27 1 55 1 107 1 135 1 179 1 190 1 202 1 214 1 215 1 222 1 241 1 271 1 310 1 326 1 357 1 374 1 429 2 431 1 434 1 472 1 474 1 490 1 499 1 511 1 531 1 543 1 554 1 622 1 644 1 650 1 652 1 680 1 690 1 701 1 705 1 722 1 744 1 750 1 781 1 788 1 794 1 797 1 820 1 831 1 837 1 849 1 859 1 885 1 889 1 894 1 943 1 967 1 983 1 984 1 997 1 438 1 457 1 463 1 520 1 522 1 523 1 546 1 558 1 578 1 579 1 585 1 592 1 614 1 664 1 673 1 688 1 694 1 776 1 808 1 834 1 835 1 855 1 857 1 879 1 886 1 904 1 932 1 990 1 1004 1 
1 207 8 1 59 1 84 1 97 1 112 1 118 1 119 1 156 1 179 1 214 1 216 1 219 2 234 1 246 1 253 1 264 1 351 1 357 1 383 2 386 1 387 1 396 1 403 1 20 1 76 1 79 1 103 1 123 1 151 1 185 1 233 1 243 1 263 1 272 1 284 1 289 1 339 1 354 1 376 1 395 1 422 1 428 1 437 1 440 1 450 1 456 1 508 1 550 1 585 1 623 1 630 1 649 1 652 1 670 1 686 1 697 1 735 1 742 1 796 1 802 1 837 1 840 1 870 1 885 1 889 1 932 1 938 1 944 1 956 1 980 1 433 1 439 1 452 1 455 1 504 1 506 1 540 1 546 1 577 1 586 1 602 1 603 1 615 1 629 1 634 1 635 1 650 1 654 1 687 1 698 1 708 1 722 1 724 1 778 1 781 1 792 1 811 1 838 1 847 1 850 1 872 1 874 1 884 1 907 1 918 1 941 1 945 1 974 1 975 1 994 1 1003 1 1009 1 
1 207 10 1 20 1 24 1 34 1 85 1 88 2 104 2 119 1 164 1 170 1 210 1 212 1 226 1 243 1 318 1 339 1 365 1 380 1 382 1 393 1 416 1 427 1 19 1 33 1 42 1 99 1 111 1 140 1 163 1 190 1 196 1 209 1 225 1 252 1 297 1 336 1 337 1 338 1 348 1 350 1 381 1 404 1 443 1 450 1 468 2 512 1 516 1 518 1 526 1 528 1 591 1 593 1 609 1 619 1 627 1 639 1 675 1 696 1 697 1 713 1 752 1 787 1 819 1 840 1 871 1 880 1 909 1 923 1 971 1 972 1 448 1 481 1 506 1 515 1 525 1 534 1 536 1 568 1 582 1 586 1 601 1 615 1 632 1 665 1 684 1 694 1 700 1 742 1 760 1 767 1 776 1 801 1 804 1 832 1 843 1 858 1 927 1 928 1 933 1 936 1 949 1 979 1 999 1 1002 1 
1 214 33 1 48 1 53 1 91 1 110 1 124 1 127 1 134 1 135 1 184 1 191 1 192 1 246 1 267 1 270 1 302 1 303 1 305 1 336 1 345 1 355 1 374 1 398 1 416 1 419 1 426 2 14 1 99 1 103 1 112 1 119 1 137 1 146 1 177 1 181 1 232 1 252 1 256 1 258 1 275 1 301 1 318 1 323 1 327 1 331 1 333 1 349 1 371 1 396 1 447 1 512 1 514 1 542 1 552 1 559 1 564 1 592 1 597 1 613 1 616 1 622 1 637 1 651 1 665 1 687 1 696 1 716 1 726 1 762 1 776 1 823 1 864 1 869 1 878 2 897 1 969 1 986 1 987 1 993 1 432 1 438 1 439 1 448 1 450 1 465 1 489 1 503 1 543 1 576 1 626 1 642 1 657 1 667 1 703 1 705 1 715 1 718 1 724 1 730 1 768 1 809 1 817 1 830 1 843 1 844 1 876 1 881 1 893 1 909 1 921 1 948 1 949 1 957 1 968 1 984 1 991 1 998 1 999 1 1001 1 
1 209 28 1 36 1 48 1 69 1 71 1 75 1 76 1 90 1 91 1 155 1 159 1 160 1 184 1 206 1 229 1 232 1 256 1 258 1 261 1 264 2 266 1 268 1 273 1 300 1 310 1 343 1 355 1 356 1 380 1 400 1 401 1 402 1 421 1 31 1 47 1 49 1 57 1 84 1 97 1 101 1 104 1 109 1 112 1 118 1 127 1 212 1 237 1 303 1 304 1 311 1 322 1 324 1 392 1 411 1 412 1 456 1 461 1 465 1 488 1 489 1 494 1 521 1 532 1 575 1 661 1 668 1 698 1 739 1 749 1 761 1 766 1 781 1 807 1 846 1 860 1 871 1 873 2 878 1 883 1 886 1 888 1 894 1 895 1 906 1 926 1 927 2 951 1 997 1 442 1 464 1 508 1 510 1 517 1 524 1 554 1 596 1 603 1 625 1 681 1 745 1 786 1 794 1 808 1 834 1 844 1 848 1 867 1 901 1 905 1 920 1 940 1 985 1 1003 1 1011 1 1012 1 1018 1 1019 1 
1 209 30 1 40 2 41 1 103 1 116 1 120 1 125 1 151 1 153 1 182 1 189 1 204 1 206 1 207 1 210 1 224 1 269 1 273 1 274 1 289 1 329 1 360 1 400 1 405 1 411 1 417 2 420 1 426 1 10 1 34 1 47 1 51 1 52 1 89 1 92 1 105 1 109 1 134 1 177 1 194 1 216 1 234 1 297 1 335 1 362 1 373 1 374 1 457 1 459 1 498 1 519 1 520 1 531 1 535 2 581 1 598 1 623 1 628 1 693 1 702 2 735 1 787 1 794 1 804 1 838 1 855 1 873 1 888 1 893 1 905 1 906 1 912 1 935 1 951 1 448 1 454 1 472 1 490 1 493 1 497 1 501 1 503 1 505 1 511 1 545 1 550 1 553 1 571 1 639 1 641 1 653 1 660 1 662 1 679 1 685 1 697 1 711 1 728 1 732 1 752 1 769 1 773 1 777 1 806 1 821 1 823 1 843 1 861 1 887 1 889 1 901 1 929 1 948 1 985 1 1003 1 
1 208 23 1 27 1 44 1 53 1 79 1 148 1 154 1 161 1 162 1 210 2 237 1 278 1 281 1 321 1 336 1 338 1 346 1 348 1 359 1 361 1 397 2 411 1 421 1 6 1 22 1 67 1 70 1 72 1 75 1 76 1 106 1 108 1 115 1 164 1 182 1 183 1 236 1 244 1 251 1 253 1 287 1 298 1 306 1 343 1 360 1 364 1 379 1 383 1 394 1 429 1 438 1 444 1 473 1 565 1 585 1 598 1 600 1 608 1 614 1 615 1 623 1 634 1 646 1 665 1 713 1 715 1 725 1 734 1 748 1 762 1 790 1 793 1 840 2 866 1 875 1 876 1 901 1 915 1 937 1 939 1 968 1 978 1 543 1 564 1 572 1 578 1 603 1 637 1 657 1 694 1 695 1 707 1 711 1 732 1 754 1 779 1 801 1 808 1 820 1 871 1 879 1 889 1 894 1 956 1 961 1 967 1 977 1 988 1 1001 1 1005 1 
1 205 1 1 74 1 97 1 98 1 113 1 137 1 144 1 170 1 172 1 197 1 206 1 270 1 275 1 279 1 314 1 328 1 344 1 348 1 368 1 369 1 416 1 13 1 15 1 53 1 63 1 83 1 95 1 133 1 150 1 153 1 176 1 186 1 189 1 210 1 213 1 233 1 240 1 265 1 290 1 307 1 323 1 332 1 376 1 380 1 393 1 400 1 407 1 421 1 427 1 442 1 454 1 455 1 465 1 474 1 508 1 517 2 524 1 526 1 535 1 546 1 585 1 588 1 593 1 619 1 635 1 668 1 670 1 690 1 711 1 723 1 743 1 745 1 752 1 770 1 830 1 837 1 854 1 879 1 884 1 886 1 889 1 934 1 952 1 953 1 974 1 976 1 987 1 481 1 533 1 554 1 578 1 579 1 582 1 595 1 605 1 634 1 641 1 646 1 701 1 710 1 724 1 747 1 803 1 825 1 870 1 899 1 920 1 923 1 926 1 942 1 951 1 993 1 
1 211 28 1 33 1 81 1 98 1 104 1 121 1 139 1 165 1 177 2 180 1 188 1 199 2 232 1 240 1 275 1 296 1 301 1 306 1 347 1 366 1 380 1 426 1 14 1 19 1 37 1 42 1 48 1 93 1 102 1 106 1 117 1 157 1 190 1 204 1 208 1 223 1 235 1 247 1 263 1 318 1 361 1 416 1 464 1 480 1 496 1 501 1 502 1 507 1 510 2 513 1 531 1 540 1 566 1 577 1 597 1 610 1 667 1 677 1 679 1 692 1 716 1 733 2 738 1 744 1 752 1 754 1 768 1 771 1 785 1 795 1 805 2 846 2 855 1 860 2 865 1 876 1 880 1 902 1 919 1 939 2 441 1 463 1 478 1 484 1 505 1 509 1 528 1 532 1 563 1 570 1 621 1 640 1 643 1 659 1 702 1 703 1 739 1 747 1 755 1 766 1 767 1 769 1 775 1 793 1 797 1 808 1 814 1 836 1 838 1 874 1 877 1 904 1 909 1 928 1 932 1 942 1 973 1 1000 1 1007 1 
1 209 9 1 25 1 31 1 56 1 87 1 153 1 158 1 166 1 169 2 171 1 194 1 215 1 259 1 291 1 299 1 307 1 361 1 389 1 398 1 409 1 416 1 22 1 24 1 54 1 67 1 71 1 89 1 125 1 127 1 149 1 191 1 192 1 195 1 202 1 240 1 253 1 305 1 363 1 371 1 387 1 393 1 403 1 412 1 474 1 532 1 598 1 601 1 613 1 624 1 628 1 665 1 678 1 680 1 685 1 696 1 699 1 719 1 725 1 733 1 776 1 816 1 842 1 847 1 853 1 858 1 860 2 906 1 914 1 924 1 928 1 934 1 953 1 962 1 975 1 978 1 981 1 992 1 441 1 456 1 470 1 472 1 473 1 494 1 529 1 577 1 580 1 621 1 655 1 658 1 663 1 675 1 703 1 713 1 734 1 737 1 751 1 754 1 764 1 778 1 799 1 813 1 826 1 846 1 881 1 893 1 897 1 945 1 955 1 965 1 979 1 990 1 995 1 1005 1 1018 1 
1 214 5 1 73 1 79 2 95 1 106 1 125 1 128 1 136 1 137 1 164 1 189 1 202 1 237 1 242 1 306 1 311 1 323 1 383 1 386 1 395 1 402 2 8 1 38 1 47 1 65 1 139 1 153 1 161 1 212 1 257 1 279 1 280 1 296 1 297 1 316 1 317 1 373 1 375 1 412 1 473 1 474 1 508 1 514 1 515 1 517 1 539 1 575 2 593 1 628 1 648 1 661 1 666 1 668 1 679 1 694 1 710 1 715 1 716 1 717 1 730 1 734 1 754 1 756 1 781 1 848 1 874 1 905 1 912 1 918 1 948 2 952 1 963 2 449 1 469 1 510 1 527 1 542 1 552 1 573 1 574 1 580 1 595 1 622 1 633 1 672 1 690 1 704 1 736 1 751 1 759 1 783 1 793 1 815 1 835 1 877 1 897 1 956 1 967 1 971 1 981 1 999 1 1002 1 1007 1 1017 1 
1 214 25 1 28 1 57 1 67 1 72 1 80 2 82 1 84 1 94 2 109 2 112 1 120 1 156 1 208 1 221 1 226 1 237 1 242 1 257 1 290 1 299 1 351 1 356 1 390 1 422 1 427 1 14 1 43 1 68 1 132 1 136 1 140 1 170 1 215 1 224 1 232 1 265 1 271 1 276 1 285 1 302 1 305 1 309 1 318 1 348 1 387 1 466 1 469 1 498 1 502 1 503 1 505 1 524 1 549 1 555 1 557 1 562 1 589 1 630 1 638 1 660 1 678 1 710 1 737 1 757 1 783 1 789 1 796 1 818 1 830 1 833 1 854 2 870 1 875 1 897 1 904 1 931 1 953 1 993 1 492 1 493 1 496 1 517 1 602 1 632 1 651 1 652 1 663 1 669 1 672 1 686 1 687 1 689 1 750 1 753 1 755 1 776 1 790 1 795 1 836 1 840 1 862 1 864 1 948 1 963 1 967 1 968 1 970 1 991 1 999 1 1003 1 1008 1 1015 1 
1 210 7 1 37 1 47 1 60 1 62 1 71 1 72 1 94 1 109 1 116 1 132 1 161 1 166 1 183 1 194 1 198 1 202 1 213 1 230 1 238 1 241 1 262 1 283 1 306 1 308 1 358 1 387 1 391 1 406 1 432 1 70 1 108 1 112 1 118 1 160 1 184 1 188 1 203 1 212 1 226 1 236 1 249 1 270 1 285 1 287 1 325 1 328 1 332 1 337 1 342 1 356 1 359 1 396 1 400 1 426 1 429 1 451 1 466 1 475 1 478 1 533 1 538 1 545 1 555 1 568 1 571 1 639 1 643 1 656 1 661 1 707 1 720 1 722 2 734 1 762 1 782 1 791 1 793 1 800 1 852 1 860 1 871 1 886 1 887 1 893 1 909 1 920 1 933 1 958 1 987 1 442 1 509 1 540 1 542 1 546 1 575 1 593 1 602 1 638 1 646 1 659 1 670 1 690 1 704 1 719 1 726 1 732 1 789 1 823 1 836 1 853 1 874 1 888 1 890 1 899 1 906 1 908 1 918 1 926 1 938 1 965 1 966 1 968 1 981 1 1006 1 1010 1 
1 209 22 2 32 1 49 1 53 1 55 1 106 1 107 2 121 1 127 1 144 1 147 1 178 1 268 1 272 1 284 1 298 1 312 1 336 1 337 1 345 1 405 1 407 1 16 1 52 1 57 1 58 1 76 1 97 1 167 1 172 1 177 1 179 1 191 1 195 1 207 1 208 1 238 1 242 1 281 1 287 1 315 1 317 1 341 1 349 1 364 1 370 1 415 1 421 1 427 1 429 1 440 1 453 1 475 1 538 1 539 1 540 1 548 1 553 1 555 1 577 1 669 1 682 1 731 1 745 1 747 1 750 1 794 1 818 1 840 1 844 1 879 1 886 1 895 1 904 1 926 1 931 1 958 1 967 1 981 1 441 1 449 1 451 1 530 1 531 1 536 1 543 1 572 1 590 1 641 1 670 1 671 1 716 1 718 1 741 1 749 1 767 1 828 1 871 1 892 1 909 1 912 1 913 1 940 1 953 1 961 1 969 1 971 1 973 1 980 1 1000 1 1007 1 1011 1 
1 208 30 1 37 1 42 1 48 1 64 1 65 1 81 1 100 1 110 1 115 1 127 1 137 1 150 1 159 1 178 1 223 1 250 1 257 1 261 1 270 1 279 1 286 1 289 1 323 2 340 2 357 1 399 1 404 1 416 1 427 1 439 1 20 1 36 1 76 1 102 1 129 1 134 1 171 1 176 1 201 1 215 1 221 1 224 1 238 1 244 1 258 1 290 1 309 1 310 1 315 1 320 1 337 1 347 1 349 1 373 1 376 1 389 1 450 1 460 1 516 1 524 1 528 1 539 1 572 1 604 1 611 1 635 1 664 1 708 1 713 1 741 1 749 1 774 1 787 1 793 1 822 1 823 1 851 1 874 1 887 1 897 1 908 1 915 1 919 1 924 1 949 1 953 1 988 1 453 1 489 1 493 1 533 1 536 1 540 1 620 1 629 1 630 1 675 1 688 1 695 1 707 1 742 1 752 1 763 1 764 1 795 1 804 1 810 1 836 1 892 1 902 1 920 1 938 1 962 1 973 1 981 1 983 1 987 1 1017 1 
1 210 22 1 35 1 42 1 80 1 82 1 94 1 109 1 138 1 182 1 185 1 186 1 205 1 207 1 245 1 301 1 311 1 338 1 361 1 372 1 377 1 385 1 398 1 404 1 424 1 1 1 5 1 17 1 23 1 30 1 39 1 74 1 76 1 113 1 146 1 161 1 163 1 174 1 192 1 250 1 273 1 276 1 289 1 298 1 307 1 341 1 345 1 352 1 356 1 365 1 434 1 435 1 439 1 441 1 441 1 488 1 492 1 497 1 554 1 566 1 572 1 589 2 597 1 613 1 631 1 643 1 648 1 667 1 685 1 686 1 698 1 705 1 741 1 755 1 798 1 804 1 807 1 812 1 849 1 888 1 912 1 917 1 924 1 942 2 945 1 963 1 969 1 992 1 457 1 503 1 506 1 518 1 522 1 539 1 549 1 562 1 568 1 573 1 580 1 609 1 619 1 664 1 665 1 666 1 692 1 693 1 729 1 730 1 837 1 839 1 887 1 904 1 948 1 966 1 1002 1 1004 1 1016 1 1017 1 
1 210 13 1 19 1 48 1 49 1 59 1 68 1 84 2 91 1 123 1 133 1 151 1 152 1 166 1 174 1 258 1 275 1 281 1 293 1 306 1 320 1 350 1 358 1 361 1 378 1 381 1 388 1 396 1 433 1 36 1 69 1 103 1 148 1 177 1 191 1 214 1 219 1 233 1 240 1 246 1 247 1 264 1 288 1 391 1 430 1 438 1 442 1 442 1 454 1 473 1 485 1 497 1 509 1 520 2 528 1 541 1 555 1 583 1 604 1 606 1 613 1 614 1 616 1 639 2 642 1 645 1 652 1 653 1 668 1 680 1 688 1 713 1 715 1 719 1 731 1 747 1 751 1 769 1 827 1 831 1 869 1 911 1 941 1 948 1 950 1 455 1 459 1 538 1 550 1 551 1 572 1 636 1 649 1 708 1 716 1 729 1 766 1 795 1 810 1 829 1 843 1 848 1 850 1 926 1 930 1 953 1 972 1 975 1 987 1 988 1 997 1 998 1 1001 1 1006 1 1009 1 1012 1 
1 210 45 1 46 1 61 1 139 1 140 1 152 1 157 1 164 1 206 1 208 1 213 1 248 1 279 1 294 1 296 1 335 1 354 1 373 1 381 1 389 1 391 1 408 1 428 1 9 1 28 1 32 1 60 1 95 1 99 1 105 1 123 1 133 1 136 1 148 1 151 1 174 1 198 1 214 1 229 1 242 1 316 1 323 1 352 1 390 1 454 1 497 1 532 1 537 1 580 1 611 1 638 1 644 1 645 1 658 1 683 1 690 1 691 1 699 1 702 1 718 1 729 1 808 1 814 1 828 1 832 1 834 1 844 1 876 1 877 1 895 1 988 1 989 2 449 1 496 1 500 1 517 1 550 1 563 1 596 1 608 1 612 1 636 1 662 1 686 1 785 1 809 1 819 1 835 1 839 1 840 1 848 1 859 1 867 1 874 1 881 1 899 1 914 1 940 1 958 1 961 1 1002 1 1003 1 1018 1 
1 214 19 1 31 1 39 1 69 1 99 1 138 1 161 1 163 1 192 1 193 1 198 1 210 1 297 1 305 1 329 1 339 1 346 1 388 1 396 1 397 1 414 1 432 1 8 1 9 1 17 1 46 1 88 1 98 1 111 1 141 1 144 1 162 1 170 1 233 1 240 1 249 1 258 1 273 1 295 1 313 1 338 1 361 1 386 1 393 1 448 1 458 1 461 1 478 2 498 1 537 2 554 1 571 1 599 1 614 1 631 1 687 1 705 1 783 1 803 1 804 1 805 2 818 1 827 1 869 1 878 1 886 1 892 1 894 1 896 1 900 1 919 1 921 1 930 1 944 1 955 1 968 1 997 1 998 2 449 1 457 1 466 1 492 1 494 1 496 1 512 1 519 1 521 1 530 1 548 1 559 1 573 1 575 1 579 1 598 1 607 1 627 1 637 1 642 1 656 1 667 1 682 1 696 1 719 1 735 1 745 1 748 1 751 1 765 1 794 1 797 1 823 1 830 1 837 1 838 1 854 1 874 1 879 1 880 1 915 1 936 1 950 1 962 1 984 1 1002 1 1005 1 
1 206 28 1 78 1 88 1 91 1 95 1 112 1 113 1 121 1 187 1 188 1 203 1 208 1 219 1 241 1 270 1 282 1 297 2 319 1 349 1 407 1 416 1 48 1 55 1 73 1 80 1 103 1 127 1 132 1 142 1 143 1 154 1 157 1 168 1 190 1 201 1 210 1 238 1 249 1 266 1 267 1 286 1 329 1 353 1 382 1 388 1 421 1 447 1 493 1 516 1 544 1 559 1 600 1 614 1 621 1 644 1 659 1 670 1 679 1 688 1 701 1 707 1 711 1 714 1 756 1 779 1 782 1 807 1 813 1 828 1 830 1 840 1 902 1 922 1 955 1 458 1 468 1 472 1 473 1 477 1 483 1 536 1 574 1 623 1 625 1 629 1 657 1 662 1 666 1 677 1 687 1 691 1 702 1 710 1 716 1 721 1 740 1 749 1 754 1 763 1 820 1 839 1 852 1 855 1 856 1 887 1 928 1 937 1 938 1 963 1 977 1 989 1 1003 1 1005 1 
1 212 18 1 30 1 58 1 66 1 83 1 106 1 147 1 160 2 192 1 203 1 206 1 211 1 216 1 253 1 268 1 284 1 285 1 304 1 309 1 310 1 312 1 343 1 346 1 359 1 400 1 402 1 406 1 410 1 417 1 420 1 35 1 42 1 48 1 169 1 189 1 222 1 226 1 269 1 279 1 293 1 344 1 369 1 371 1 373 1 375 1 389 1 390 1 424 1 457 1 489 1 508 1 530 1 566 1 567 1 603 1 664 1 666 1 713 1 758 1 765 1 770 1 772 1 779 1 805 1 811 1 822 1 842 1 844 1 870 1 877 1 891 1 914 1 939 1 940 1 974 1 488 1 500 1 521 1 534 1 540 1 560 1 578 1 609 1 625 1 638 1 643 1 651 1 662 1 692 1 722 1 738 1 777 1 815 1 827 1 851 1 889 1 897 1 913 1 934 1 949 1 950 1 953 1 977 1 992 1 1005 1 1008 1 1009 1 1012 1 
1 210 7 1 29 1 43 1 72 2 77 1 105 1 137 1 162 2 217 1 223 1 234 1 261 1 300 1 364 1 388 1 420 1 429 1 445 1 45 1 50 1 110 1 112 1 132 1 151 1 174 1 178 1 221 1 225 1 239 1 243 1 264 1 278 1 284 1 305 1 323 1 337 1 341 1 346 1 367 1 405 1 411 1 470 1 498 1 502 1 519 1 527 1 531 2 548 1 564 1 625 1 635 1 648 1 667 1 675 1 702 1 714 2 722 1 751 1 762 1 789 1 796 1 828 1 831 1 853 1 858 1 892 1 897 1 933 1 940 1 953 1 955 1 986 1 997 1 464 1 472 1 488 1 500 1 524 1 545 1 553 1 554 1 561 1 574 1 576 1 581 1 623 1 624 1 641 1 645 1 677 1 692 1 707 1 713 1 716 1 728 1 747 1 767 1 774 1 866 1 875 1 927 1 949 1 981 1 994 1 999 1 1004 1 1005 1 1008 1 1017 1 
1 208 32 1 41 1 43 1 48 1 60 1 88 1 108 1 114 1 132 1 143 2 172 1 224 1 284 1 308 1 322 1 327 2 343 1 393 1 395 1 414 1 444 1 9 1 93 1 94 1 121 1 130 1 159 1 162 1 164 1 212 1 229 1 247 1 262 1 263 1 283 1 286 1 313 1 319 1 321 1 324 1 329 1 338 1 349 1 366 1 392 1 410 1 420 1 428 1 429 1 431 1 472 1 480 1 495 1 496 1 499 1 520 1 523 1 561 1 576 1 604 1 621 1 638 2 688 1 698 1 708 1 721 1 725 1 728 1 741 1 750 1 758 1 760 1 850 1 861 1 873 1 884 1 894 1 917 1 923 1 928 1 950 1 454 1 459 1 466 1 539 1 569 1 584 1 633 1 653 1 654 1 659 1 671 1 683 1 705 1 726 1 730 1 740 1 754 1 756 1 761 1 828 1 860 1 863 1 892 1 910 1 953 1 971 1 989 1 1006 1 1009 1 
1 206 4 1 6 1 27 1 31 1 38 1 74 1 76 1 100 1 115 1 118 1 131 1 157 1 161 1 162 1 170 1 175 1 210 1 220 1 242 1 259 1 284 1 318 1 320 1 328 1 333 2 346 1 350 1 355 1 363 1 369 1 383 1 390 1 411 1 8 1 32 1 65 1 69 1 78 1 92 1 104 1 105 1 136 1 142 1 172 1 182 1 201 1 213 1 214 1 217 1 227 1 236 1 269 1 274 1 306 1 345 1 374 1 402 1 436 1 439 1 443 1 444 1 487 1 530 1 541 1 559 1 568 1 574 1 600 1 619 1 656 2 662 1 672 1 679 2 685 1 689 1 691 1 697 1 710 1 718 1 737 1 750 2 835 1 848 1 865 1 934 1 949 1 965 1 970 1 998 2 539 1 542 1 579 1 584 1 596 1 610 1 635 1 655 1 666 1 721 1 732 1 738 1 743 1 748 1 751 1 763 1 767 1 821 1 827 1 856 1 861 1 906 1 950 1 960 1 976 1 994 1 997 1 1005 1 1011 1 
1 204 4 1 24 1 31 1 49 1 62 1 132 1 146 2 166 1 167 1 212 1 214 1 250 1 253 1 255 1 257 1 258 1 266 1 282 2 293 1 368 1 416 1 418 2 427 1 428 1 440 1 5 1 10 1 72 1 76 1 89 1 97 1 112 1 141 1 165 1 174 1 190 1 194 1 199 1 201 1 245 1 246 1 260 1 262 1 265 1 302 1 324 1 335 1 348 1 373 1 376 1 388 1 389 1 393 1 429 1 466 1 479 1 484 1 491 1 514 1 536 1 545 1 553 1 575 2 601 1 611 1 629 1 663 1 666 1 687 1 750 1 752 1 753 1 793 1 814 1 818 1 856 1 862 1 879 1 893 1 898 2 916 1 927 1 931 1 944 1 948 1 961 1 972 1 983 1 463 1 478 1 489 1 493 1 520 1 580 1 630 1 635 1 647 1 661 1 665 1 706 1 802 1 803 1 833 1 872 1 881 1 945 1 956 1 966 1 995 1 997 1 1002 1 1006 1 
1 213 35 1 40 1 57 1 65 1 95 1 107 1 111 1 116 1 184 1 205 1 209 1 227 1 256 1 303 1 317 1 335 1 337 1 355 1 402 1 405 1 409 1 425 1 438 1 21 1 39 1 42 1 48 1 64 1 77 1 100 1 124 1 169 1 170 1 181 1 204 1 244 1 249 1 254 1 300 1 308 1 327 1 340 1 346 1 362 1 368 1 411 1 439 1 472 1 488 1 515 1 516 1 520 1 524 1 532 1 536 1 609 1 628 1 668 1 675 1 701 1 738 1 747 1 761 1 762 1 775 1 800 1 825 1 836 1 837 2 853 1 880 1 886 1 897 1 900 1 904 1 926 1 968 1 972 1 991 1 465 1 482 1 513 1 517 1 534 1 540 1 576 1 581 1 584 1 601 1 607 1 643 1 648 1 651 1 657 1 662 1 677 1 702 1 741 1 745 1 759 1 763 1 765 1 774 1 776 1 780 1 784 1 804 1 822 1 828 1 873 1 889 1 892 1 911 1 913 1 932 1 1007 1 1009 1 
1 210 14 1 17 1 40 1 51 2 65 1 66 1 87 1 89 1 112 1 122 1 132 1 144 1 186 1 189 1 195 1 208 1 222 1 227 1 242 1 259 1 311 1 325 1 366 1 373 1 391 1 394 1 396 1 418 1 419 1 3 1 6 1 11 1 50 1 52 1 92 1 133 1 157 1 163 1 175 1 179 1 181 1 199 1 214 1 253 1 266 1 281 1 286 1 301 1 316 1 327 1 397 1 398 1 412 1 427 1 469 1 477 1 503 1 537 1 594 1 597 1 631 1 637 1 652 1 657 1 659 1 699 1 706 1 713 1 732 1 765 1 771 1 783 1 874 1 906 1 909 1 922 1 944 1 950 1 955 1 970 1 972 1 982 2 993 1 997 1 473 1 476 1 489 1 500 1 536 1 544 1 576 1 600 1 627 1 635 1 678 1 695 1 701 1 709 1 712 1 725 1 737 1 752 1 761 1 768 1 773 1 788 1 800 1 806 1 809 1 815 1 849 1 861 1 862 1 864 1 893 1 1007 1 1011 1 
1 209 2 1 18 1 63 1 81 1 83 1 84 1 88 1 151 1 156 1 157 1 166 1 174 1 195 1 215 1 241 1 251 1 261 2 268 2 310 1 321 1 357 1 375 1 405 1 439 1 31 1 38 1 77 1 100 1 106 1 121 1 127 1 150 1 178 1 208 1 225 1 236 1 237 1 245 1 246 1 272 1 290 1 292 1 312 1 316 1 330 1 341 1 360 1 369 1 376 1 382 1 385 1 391 1 421 1 440 1 463 1 465 1 468 1 511 1 520 1 524 1 559 1 561 1 596 1 609 1 610 1 623 1 629 1 631 1 672 1 700 1 709 1 762 1 779 1 780 1 807 1 880 1 887 1 895 1 982 1 985 1 467 1 503 1 525 1 531 1 550 1 556 1 578 1 614 1 645 1 653 1 656 1 657 1 721 1 723 1 731 1 732 1 734 1 743 1 748 1 754 1 818 1 838 1 852 1 856 1 870 1 875 1 890 1 955 1 984 1 986 1 1003 1 
1 209 64 1 75 1 81 1 84 1 89 1 99 1 105 1 131 1 134 1 214 2 228 1 243 1 264 1 285 1 286 1 330 1 331 1 340 1 368 1 376 1 423 1 424 2 433 1 442 1 443 1 2 1 9 1 16 1 19 1 23 1 38 1 49 1 51 1 54 1 73 1 118 1 154 1 184 1 190 1 199 1 200 1 224 1 244 1 248 1 270 1 274 1 281 1 283 1 288 1 290 1 299 1 301 1 305 1 311 1 329 1 336 1 337 1 341 1 345 1 349 1 365 1 382 1 396 1 431 1 448 1 524 1 531 1 534 1 536 1 560 1 596 1 603 1 618 1 627 1 629 2 664 1 667 1 668 1 670 1 680 1 683 1 684 1 691 1 692 1 729 1 743 1 754 1 776 1 784 1 829 1 861 1 865 1 871 1 894 1 907 1 912 1 913 1 955 1 957 1 958 1 965 1 974 1 990 1 991 1 994 1 469 1 483 1 485 1 487 1 492 1 497 1 507 1 515 1 577 1 578 1 583 1 602 1 636 1 643 1 655 1 673 1 705 1 724 1 725 1 736 1 747 1 760 1 774 1 805 1 843 1 846 1 847 1 869 1 930 1 1004 1 1008 1 1015 1 
1 217 3 1 9 1 14 1 22 1 27 1 41 1 72 1 93 1 108 1 126 2 135 1 145 1 154 1 159 1 182 2 199 1 200 1 209 1 215 1 254 1 279 1 300 1 335 1 371 1 383 1 387 1 389 1 391 1 402 1 404 1 433 1 35 1 52 1 61 1 109 1 119 1 127 1 149 1 161 1 170 1 172 1 196 1 217 1 274 1 291 1 329 1 338 1 348 1 427 1 442 1 455 1 455 1 475 1 518 1 520 1 521 1 530 1 533 1 543 1 544 1 549 1 556 1 572 1 582 1 584 1 590 2 610 1 616 1 641 1 661 1 666 1 691 1 716 1 752 1 756 1 758 1 784 1 786 1 807 1 817 1 848 1 852 2 864 1 877 1 891 1 914 1 937 1 949 1 956 1 456 1 463 1 464 1 508 1 524 1 532 1 632 1 651 1 670 1 692 1 703 1 766 1 819 1 850 1 851 1 859 1 867 1 910 1 919 1 923 1 981 1 986 1 1005 1 1008 1 1018 1 
1 211 25 1 54 2 77 1 110 1 117 2 118 1 130 1 138 1 147 1 152 1 155 1 174 1 212 1 225 1 237 1 238 1 274 1 290 1 319 1 364 1 374 1 391 1 396 1 409 1 416 1 422 1 427 1 430 1 47 1 59 1 94 1 119 1 134 1 157 1 160 1 161 1 192 1 219 1 259 1 267 1 268 1 271 1 272 1 295 1 321 1 331 1 344 1 355 1 357 1 370 1 398 1 402 1 405 1 420 1 435 1 455 1 471 1 482 1 539 1 559 1 562 1 577 1 602 1 612 1 616 1 625 2 637 1 644 1 656 1 664 1 674 1 680 1 691 1 703 1 755 1 760 1 784 1 799 2 824 1 845 1 846 1 847 1 858 1 865 1 905 1 923 1 927 1 963 1 974 1 984 1 995 2 457 1 484 1 516 1 525 1 605 1 610 1 630 1 684 1 699 1 701 1 713 1 717 1 724 1 751 1 774 1 798 1 821 1 834 1 873 1 876 1 882 1 899 1 907 1 938 1 951 1 952 1 954 1 965 1 975 1 999 1 1003 1 1012 1 1018 1 
1 212 12 1 16 1 36 1 43 1 47 1 63 2 75 1 77 1 89 1 96 1 102 1 110 1 131 1 133 1 164 1 190 1 197 1 205 1 228 1 234 1 242 1 268 1 304 1 335 1 358 1 370 1 382 1 392 1 408 1 415 1 431 1 446 1 13 1 20 1 23 1 31 1 74 1 79 1 141 1 143 1 168 1 179 1 180 1 194 1 209 1 219 1 220 1 256 1 299 1 316 1 322 1 354 1 384 1 397 1 426 1 441 1 444 1 456 1 478 1 519 1 521 1 524 1 597 1 601 1 634 1 658 1 662 1 735 1 741 1 745 1 753 1 760 1 782 1 787 1 788 1 790 1 795 1 810 2 835 1 915 1 925 2 931 1 961 1 965 1 970 1 980 1 992 1 462 1 482 1 540 1 548 1 552 1 612 1 621 1 655 1 677 1 693 1 695 1 718 1 762 1 781 1 807 1 811 1 826 1 828 1 830 1 886 1 927 1 952 1 958 1 982 1 984 1 988 1 995 1 1008 1 
1 208 8 1 74 2 90 1 128 1 136 1 137 1 184 1 191 1 195 1 204 1 216 1 238 1 266 1 300 1 318 2 350 1 368 1 388 1 395 1 398 1 409 1 444 1 9 1 30 1 33 1 42 1 45 1 107 1 114 1 116 1 127 1 130 1 138 1 144 1 181 1 186 1 192 1 201 1 224 1 239 1 278 1 308 1 351 1 358 1 387 1 397 1 400 1 403 1 445 1 493 1 511 1 517 1 523 1 527 1 549 1 553 1 577 1 590 1 607 1 629 1 635 1 652 1 664 1 674 2 688 1 698 1 713 1 724 1 753 1 758 1 780 1 790 1 813 1 855 1 857 1 865 1 894 1 910 1 943 1 972 1 981 1 991 1 469 1 470 1 472 1 524 1 559 1 566 1 581 1 586 1 602 1 608 1 625 1 649 1 653 1 673 1 708 1 716 1 725 1 737 1 741 1 762 1 765 1 779 1 786 1 819 1 833 1 836 1 866 1 872 1 882 1 921 1 948 1 950 1 970 1 977 1 1002 1 1012 1 1018 1 
1 208 12 1 91 1 113 1 123 1 127 1 131 1 141 1 149 1 158 1 168 1 189 2 193 1 212 1 229 1 230 1 246 1 292 1 300 1 301 1 308 1 322 1 340 1 355 1 367 1 372 1 387 1 397 1 415 1 431 1 3 1 5 1 24 1 31 1 39 1 41 1 50 1 95 1 106 1 117 1 139 1 143 1 150 1 154 1 172 1 216 1 244 1 247 1 302 1 313 1 320 1 325 1 335 1 349 1 422 1 442 1 448 1 465 1 471 1 491 1 517 1 526 1 592 1 643 1 646 1 709 1 748 1 756 1 769 2 771 1 775 1 792 1 794 1 809 1 811 1 857 1 903 1 913 1 952 1 960 1 968 1 969 1 981 1 989 1 528 1 530 1 549 1 567 1 597 1 611 1 615 1 616 1 642 1 664 1 671 1 685 1 711 1 715 1 739 1 780 1 784 1 791 1 820 1 835 1 840 1 846 1 855 1 856 1 914 1 920 1 931 1 942 1 959 1 971 1 997 1 999 1 
1 209 7 1 29 1 36 1 68 1 75 1 131 1 133 1 208 1 215 1 226 1 252 1 279 1 284 1 307 1 328 1 337 1 356 1 372 1 388 1 440 1 2 1 25 1 39 1 47 1 53 1 70 1 105 1 107 1 143 1 173 1 207 1 211 1 261 1 306 1 323 1 330 1 340 1 369 1 407 1 485 2 486 1 498 1 519 1 529 1 532 1 591 1 595 1 607 1 608 1 632 1 636 1 673 1 771 1 773 1 796 2 814 1 822 1 823 1 839 2 875 1 896 1 900 1 902 1 927 1 985 1 461 1 488 1 535 1 553 1 572 1 577 1 578 1 584 1 596 1 597 1 652 1 663 1 691 1 702 1 714 1 718 1 719 1 734 1 736 1 749 1 759 1 801 1 810 1 818 1 866 1 884 1 894 1 899 1 918 1 951 1 955 1 970 1 976 1 982 1 987 1 991 1 1003 1 1015 1 
1 209 13 1 32 1 34 1 53 1 70 2 73 1 136 1 139 1 147 1 176 1 220 1 225 1 230 1 240 1 254 1 293 1 299 1 308 2 312 1 345 1 349 1 389 1 430 1 444 1 22 1 33 1 42 1 43 1 78 1 152 1 155 1 163 1 166 1 171 1 172 1 173 1 182 1 191 1 199 1 204 1 231 1 232 1 249 1 285 1 305 1 325 1 392 1 406 1 408 1 412 1 460 1 492 1 504 1 522 1 543 1 563 1 588 1 599 1 628 1 641 1 662 1 669 1 723 1 724 1 749 1 793 1 820 1 825 1 848 1 868 1 869 1 870 1 916 1 959 1 463 1 464 1 466 1 476 1 484 1 513 1 551 1 552 1 561 1 596 1 604 1 611 1 617 1 618 1 620 1 632 1 634 1 659 1 699 1 747 1 758 1 760 1 795 1 798 1 806 1 809 1 885 1 921 1 930 1 934 1 945 1 951 1 955 1 957 1 958 1 992 1 1002 1 1017 1 1018 1 
1 209 8 1 31 1 33 1 60 1 69 1 75 1 83 2 89 1 94 1 103 2 106 1 166 1 167 1 196 1 211 1 212 1 231 1 236 1 253 1 260 1 290 1 298 1 300 1 306 1 311 1 312 1 326 1 356 1 362 1 363 1 365 1 366 1 368 2 371 2 402 1 1 1 43 1 87 1 93 1 95 1 124 1 126 1 142 1 148 1 150 1 161 1 162 1 168 1 171 1 180 1 205 1 219 1 223 1 229 1 264 1 271 1 275 1 299 1 339 1 341 1 361 1 375 1 390 1 416 1 457 1 469 1 497 1 500 1 506 1 521 1 599 1 640 1 645 1 646 1 662 1 722 1 744 1 762 1 791 1 800 1 811 1 816 1 822 1 841 1 850 1 906 1 930 1 958 2 980 1 995 1 471 1 474 1 494 1 499 1 535 1 549 1 581 1 583 1 601 1 625 1 696 1 707 1 718 1 727 1 734 1 755 1 760 1 799 1 843 1 875 1 876 1 896 1 911 1 919 1 943 1 946 1 960 1 978 1 994 1 1007 1 1014 1 
1 211 2 1 7 1 11 1 64 1 68 1 72 1 86 1 91 1 92 1 105 1 148 1 163 1 169 1 176 1 181 1 182 1 184 1 208 1 219 1 225 1 235 1 236 1 356 2 393 1 404 1 407 1 408 1 453 1 5 1 14 1 32 1 36 1 52 1 55 1 70 1 75 1 96 1 143 1 145 1 156 1 168 1 172 1 190 1 195 1 207 1 217 1 223 1 224 1 234 1 241 1 244 1 278 1 355 1 369 1 375 1 389 1 390 1 415 1 426 1 434 1 450 1 455 1 461 1 504 1 524 1 529 1 548 1 572 1 576 1 607 1 628 1 656 1 673 1 682 1 710 1 721 1 734 1 742 2 751 1 753 1 765 1 802 1 878 1 881 1 884 1 889 1 897 1 900 1 903 1 943 1 487 1 498 1 499 1 516 1 517 1 518 1 556 1 565 1 586 1 588 1 596 1 629 1 651 1 659 1 664 1 713 1 757 1 759 1 786 1 788 1 795 1 807 1 829 1 851 1 898 1 901 1 911 1 932 1 952 1 971 1 984 1 1007 1 1014 1 1018 1 
1 206 12 1 15 1 22 1 55 1 58 1 63 1 67 1 85 1 106 1 117 1 131 1 133 1 143 1 145 1 195 1 199 2 213 1 251 1 256 1 258 1 268 1 271 1 313 1 341 1 344 1 351 1 365 1 393 1 400 1 420 1 423 1 434 1 1 1 21 1 48 1 69 1 76 1 92 1 98 1 108 1 112 1 128 1 130 1 136 1 141 1 177 1 182 1 201 1 227 1 264 1 279 1 283 1 287 1 299 1 337 1 363 1 382 1 430 1 447 1 455 1 461 1 465 1 473 1 530 1 568 1 586 1 603 1 616 1 621 1 623 1 652 1 659 1 711 1 714 1 716 1 734 1 791 1 798 1 817 1 822 1 852 1 853 1 870 1 882 1 894 1 902 1 934 1 479 1 513 1 515 1 549 1 558 1 576 1 577 1 590 1 599 1 605 1 629 1 687 1 703 1 748 1 750 1 762 1 769 1 800 1 805 1 808 1 860 1 889 1 941 1 946 1 961 1 997 1 1000 1 1008 1 1017 1 
1 209 3 1 6 1 17 1 24 1 36 1 68 1 80 1 102 1 105 1 108 1 134 2 138 2 140 2 144 1 151 1 187 1 194 1 211 1 229 1 327 1 333 1 340 1 392 1 396 1 420 1 430 1 433 1 453 1 459 1 464 1 16 1 60 1 62 1 69 1 87 1 101 1 127 1 136 1 199 1 203 1 213 1 233 1 241 1 256 1 260 1 299 1 321 1 373 1 393 1 411 1 414 1 422 1 429 1 451 1 471 1 493 1 499 1 500 1 508 1 510 1 522 1 543 1 559 1 574 1 601 1 606 1 624 1 645 1 660 1 671 1 680 1 691 1 709 1 729 2 736 1 761 1 794 2 850 1 874 1 894 1 968 1 485 1 491 1 495 1 528 1 534 1 545 1 579 1 611 1 636 1 650 1 714 1 734 1 749 1 754 1 756 1 759 1 766 1 773 1 778 1 792 1 799 1 814 1 853 1 867 1 872 1 881 1 903 1 910 1 911 1 945 1 956 1 978 1 1002 1 
1 209 6 1 17 1 24 1 28 1 29 2 78 1 92 1 119 1 123 1 124 2 135 1 147 1 158 1 162 1 165 2 169 1 173 1 176 1 186 1 225 1 240 1 259 1 281 1 289 1 330 1 343 1 350 1 376 1 388 1 421 1 437 1 438 1 450 1 82 1 109 1 148 1 181 1 213 1 218 1 268 1 309 1 367 1 378 1 387 1 407 1 410 1 411 1 413 1 444 1 448 1 461 1 468 1 478 1 515 1 563 1 593 1 657 1 664 1 696 1 699 1 718 1 723 1 748 1 754 1 773 1 787 1 799 1 893 1 897 1 904 1 927 1 936 1 961 1 975 1 976 1 994 1 512 1 523 1 526 1 558 1 595 1 597 1 645 1 674 1 685 1 742 1 768 1 782 1 798 1 812 1 823 1 837 1 872 1 883 1 901 1 903 1 914 1 943 1 945 1 952 1 955 1 971 1 980 1 1003 1 1012 1 
1 210 5 1 18 1 21 1 28 1 31 1 72 1 106 1 119 1 126 1 138 1 140 1 185 1 187 1 197 1 202 1 209 1 262 1 265 1 283 1 320 1 366 1 368 1 384 1 394 1 401 1 411 1 415 1 423 1 425 1 90 1 92 1 93 1 114 1 122 1 137 1 161 1 166 1 172 1 201 1 210 1 234 1 235 1 261 1 270 1 271 1 278 1 306 1 315 1 317 1 322 1 338 1 349 1 354 1 360 1 362 1 378 1 385 1 389 1 395 1 414 1 453 1 490 1 492 1 507 1 526 1 551 1 552 1 566 1 570 1 589 1 593 1 607 1 614 2 623 1 642 1 669 1 696 1 703 1 710 1 724 1 733 1 741 1 769 1 773 1 774 1 800 1 864 1 865 1 896 1 924 1 947 1 971 1 995 1 996 1 470 1 488 1 538 1 555 1 568 1 588 1 613 1 632 1 635 1 655 1 668 1 708 1 709 1 776 1 799 1 840 1 857 1 867 1 910 1 911 1 914 1 943 1 979 1 992 1 994 1 1003 1 1006 1 1009 1 1016 1 
1 208 7 1 27 1 38 1 43 1 55 2 57 1 62 1 74 2 142 2 203 1 209 1 259 1 272 1 280 1 283 1 286 1 290 1 291 1 307 1 310 2 338 1 342 2 357 1 389 1 393 1 421 2 428 2 453 1 466 1 13 1 47 1 70 1 91 1 113 1 124 1 134 1 152 1 175 1 202 1 211 1 244 1 273 1 278 1 386 1 445 1 471 1 483 1 549 1 552 2 559 1 569 1 575 1 602 1 604 2 643 1 649 1 658 1 661 1 682 1 685 1 696 1 704 1 710 1 712 1 761 1 784 1 785 1 802 1 876 1 908 1 922 1 923 1 937 1 979 1 499 1 506 1 536 1 545 1 561 1 587 1 597 1 631 1 654 1 672 1 687 1 688 1 717 1 730 1 736 1 739 1 758 1 789 1 831 1 844 1 898 1 901 1 915 1 938 1 961 1 987 1 1003 1 1010 1 
1 209 19 1 69 1 92 1 95 1 104 1 108 2 118 1 172 1 188 1 199 1 205 1 224 1 244 1 261 1 297 1 308 1 321 1 327 1 331 1 355 1 379 1 380 1 399 1 437 1 452 1 462 1 6 1 14 1 18 1 98 1 131 1 144 1 149 1 153 1 178 1 186 1 187 1 207 1 218 1 234 1 265 1 289 1 364 1 377 1 393 1 397 1 402 1 409 1 436 1 454 1 458 1 471 1 481 1 483 2 489 1 490 1 518 1 540 1 544 1 564 1 594 1 614 1 654 1 657 1 679 1 683 1 703 1 714 1 717 1 728 1 742 1 758 1 793 1 801 1 802 1 811 1 831 1 842 1 854 1 889 1 909 1 938 2 941 1 948 1 952 1 963 1 969 1 989 1 501 1 502 1 548 1 567 1 591 1 629 1 675 1 705 1 743 1 750 1 759 1 794 1 796 1 814 1 830 1 832 1 840 1 862 1 874 1 875 1 876 1 915 1 930 1 942 1 953 1 958 1 978 1 979 1 993 1 1005 1 
1 213 5 1 13 1 37 1 49 1 61 1 80 1 133 1 135 1 163 1 172 1 181 1 188 1 189 1 198 1 200 1 226 1 227 1 242 1 286 1 298 1 325 1 330 1 403 1 409 1 412 1 447 1 3 1 11 1 26 1 42 1 46 1 87 1 128 1 138 1 154 1 157 1 164 1 223 1 225 1 246 1 254 1 265 1 282 1 296 1 304 1 322 1 328 1 358 1 383 1 391 1 435 1 458 1 467 1 475 1 481 1 484 1 504 1 524 1 562 1 567 1 569 1 604 2 608 1 609 1 640 1 665 1 672 1 681 1 695 1 701 1 742 1 749 1 756 1 789 1 808 1 854 1 869 1 876 1 880 1 903 1 926 1 933 1 958 2 959 2 966 1 974 1 986 1 995 1 477 1 496 1 510 1 583 1 616 1 628 1 631 1 635 1 636 1 637 1 678 1 683 1 708 1 757 1 761 1 763 1 766 1 768 1 820 1 821 1 824 1 862 1 881 1 899 1 909 1 932 1 942 1 960 1 982 1 1000 1 1010 1 1018 1 
1 208 23 1 39 1 47 1 48 1 55 1 70 1 83 1 95 1 99 1 104 1 121 1 133 1 136 1 140 1 168 2 172 1 204 1 209 1 215 1 230 1 247 1 249 1 253 2 285 1 296 1 298 1 310 1 343 1 348 1 357 1 422 1 456 1 459 1 465 1 468 1 469 1 7 1 46 1 52 1 96 1 97 1 109 1 116 1 127 1 129 1 144 1 146 1 157 1 171 1 196 1 208 1 221 1 229 1 271 1 272 1 273 1 286 1 329 1 340 1 361 1 372 1 374 1 385 1 392 1 393 1 423 1 462 1 472 1 490 1 527 1 578 1 587 1 589 1 590 1 594 1 615 1 642 1 663 2 681 1 685 1 686 1 687 1 725 1 745 1 746 1 799 1 836 1 846 1 851 1 872 1 875 1 940 1 953 1 955 1 980 1 996 1 475 1 499 1 515 1 562 1 566 1 570 1 582 1 596 1 630 1 664 1 691 1 700 1 701 1 730 1 731 1 770 1 818 1 878 1 883 1 909 1 941 1 968 1 1016 1 
1 209 62 1 81 1 118 1 121 1 128 1 131 1 134 1 165 1 237 1 276 1 291 1 300 1 324 1 337 1 339 1 341 1 345 1 377 1 406 1 412 1 420 1 426 1 448 1 451 1 471 1 48 1 60 1 72 1 76 1 89 1 146 1 147 1 149 1 156 1 176 1 189 1 191 1 207 1 214 1 240 1 286 1 326 1 331 1 342 1 359 1 370 1 373 1 413 1 425 1 431 1 435 1 445 1 447 1 458 1 503 1 529 1 541 1 547 1 558 1 569 1 572 2 583 1 629 1 647 1 653 1 661 1 678 1 708 1 709 1 730 1 738 1 800 1 832 1 836 2 840 1 857 1 863 1 868 1 896 1 909 1 933 1 940 1 947 1 967 1 483 1 489 1 490 1 497 1 513 1 545 1 559 1 582 1 602 1 612 1 613 1 633 1 634 1 638 1 681 1 697 1 716 1 729 1 750 1 772 1 778 1 820 1 828 1 838 1 866 1 883 1 903 1 952 1 965 1 970 1 973 1 999 1 1003 1 1015 1 
1 214 22 1 24 2 37 1 40 1 61 1 78 1 92 1 108 1 134 1 135 1 154 1 202 1 221 1 236 1 247 1 258 1 265 2 296 1 298 1 301 2 305 1 309 1 338 1 348 1 353 1 363 1 378 1 384 1 403 1 405 1 415 1 432 1 436 1 442 1 464 1 23 1 48 1 56 1 66 1 84 1 95 1 174 1 185 1 188 1 190 1 195 1 212 1 240 1 257 1 268 1 275 1 277 1 329 1 335 1 344 1 391 1 409 1 435 1 445 1 452 1 514 1 535 2 538 1 556 1 573 1 593 1 612 2 667 1 674 1 690 1 726 1 779 2 798 1 811 1 828 1 846 1 862 1 883 1 896 1 897 1 939 2 948 1 974 1 992 1 998 1 475 1 485 1 524 1 547 1 575 1 614 1 622 1 649 1 654 1 657 1 689 1 693 1 706 1 714 1 717 1 725 1 739 1 778 1 781 1 793 1 842 1 844 1 866 1 886 1 942 1 952 1 969 1 1000 1 1014 1 1019 1 
1 210 18 1 53 1 80 1 97 1 103 1 107 1 111 1 119 1 146 1 147 1 173 1 198 1 205 1 248 1 299 1 313 1 347 1 352 1 358 1 381 1 426 1 433 1 435 1 436 1 16 1 47 1 57 1 69 1 105 1 109 1 121 1 134 1 138 1 171 1 195 1 209 1 215 1 257 1 288 1 320 1 332 1 336 1 344 1 368 1 387 1 396 1 403 1 414 1 462 1 481 1 522 1 533 1 542 1 547 1 556 1 570 1 572 1 598 1 602 1 613 1 635 1 654 1 717 1 723 2 744 1 774 1 794 1 849 1 852 1 859 1 868 1 934 1 965 1 510 1 559 1 571 1 581 1 593 1 639 1 720 1 743 1 745 1 781 1 793 1 799 1 800 1 836 1 873 1 894 1 912 1 930 1 946 1 950 1 961 1 967 1 971 1 972 1 975 1 999 1 1011 1 1016 1 
1 212 9 1 75 1 84 2 86 1 122 1 143 1 173 1 183 1 196 1 284 1 306 1 335 1 336 1 341 1 389 1 408 1 419 1 425 1 438 1 439 1 455 1 470 1 11 1 31 1 32 1 36 1 93 1 137 1 169 1 174 1 200 1 202 1 205 1 216 1 232 1 235 1 297 1 308 1 321 1 344 1 350 1 360 1 366 1 407 1 416 1 418 1 471 1 473 1 479 1 483 1 505 1 509 1 534 1 540 1 565 1 648 1 670 1 710 1 712 1 727 1 738 1 740 2 746 1 761 1 779 2 819 1 838 2 844 1 848 1 851 1 909 1 928 1 946 1 961 2 978 1 524 1 537 1 550 1 564 1 574 1 579 1 584 1 606 1 614 1 622 1 628 1 630 1 638 1 640 1 683 1 693 1 771 1 794 1 807 1 827 1 830 1 850 1 861 1 867 1 869 1 881 1 899 1 902 1 907 1 910 1 947 1 954 1 976 1 977 1 1006 1 1013 1 
1 213 1 1 5 1 10 1 20 1 33 1 42 1 45 1 65 1 94 1 120 1 124 2 129 1 173 1 186 1 206 2 242 1 246 1 314 2 330 1 345 1 373 1 393 2 406 1 70 1 71 1 74 1 79 1 111 1 113 1 117 1 135 1 138 1 149 1 162 1 198 1 212 1 228 1 247 1 250 1 264 1 269 1 271 1 279 1 283 1 308 1 323 1 349 1 353 1 358 1 368 1 452 1 461 1 483 1 485 1 503 1 505 1 514 1 527 1 528 1 529 1 545 1 548 2 582 1 595 1 626 1 640 1 642 1 650 1 660 1 669 1 673 1 698 1 703 1 714 1 721 1 729 1 744 1 747 1 748 2 755 1 759 1 770 1 801 2 826 1 832 2 838 1 842 1 865 1 867 1 917 2 936 1 973 1 981 1 982 1 540 1 556 1 583 1 622 1 633 1 638 1 647 1 679 1 709 1 725 1 726 1 730 1 785 1 795 1 813 1 841 1 884 1 913 1 933 1 937 1 939 1 948 1 992 1 1001 1 1012 1 1013 1 1017 1 
1 216 60 1 73 1 83 1 94 1 102 1 109 2 124 1 184 1 195 1 200 1 226 1 241 1 330 1 340 1 358 1 367 1 381 1 383 1 405 1 424 1 452 1 1 1 13 1 17 1 26 1 37 1 65 1 126 1 144 1 156 1 183 1 205 1 224 1 292 1 318 1 323 1 347 1 354 1 384 1 406 1 445 1 470 1 480 1 506 1 508 1 519 1 520 1 525 1 535 1 579 1 596 1 605 1 618 1 625 1 630 1 631 2 660 1 692 1 697 1 704 1 705 1 711 1 732 1 749 1 773 1 778 1 798 2 854 1 907 1 941 1 968 1 997 1 492 1 515 1 545 1 588 1 602 1 610 1 620 1 633 1 636 1 655 1 688 1 702 1 717 1 746 1 748 1 756 1 757 1 762 1 768 1 779 1 782 1 784 1 788 1 803 1 804 1 839 1 865 1 886 1 893 1 935 1 958 1 959 1 974 1 987 1 993 1 999 1 1006 1 1009 1 1014 1 1018 1 
1 220 6 1 18 1 21 1 35 1 46 1 90 1 104 1 153 1 172 2 184 1 235 1 247 1 267 1 287 1 292 1 293 1 298 1 305 1 367 1 377 1 389 1 413 1 424 1 438 1 444 2 457 1 466 1 15 1 19 1 25 1 50 1 51 1 56 1 83 1 101 1 107 1 140 1 191 1 230 1 269 1 274 1 283 1 315 1 325 1 330 1 373 1 378 1 382 1 386 1 396 1 401 1 403 1 404 1 434 1 450 1 493 1 494 1 503 1 504 1 548 1 550 1 553 1 555 1 564 1 575 1 593 1 625 2 641 1 718 1 725 1 752 2 755 2 759 1 780 1 782 1 813 1 859 1 871 1 891 1 914 1 915 1 978 1 483 1 486 1 506 1 512 1 536 1 539 1 558 1 599 1 615 1 619 1 620 1 635 1 638 1 644 1 646 1 650 1 662 1 672 1 696 1 708 1 714 1 748 1 792 1 801 1 830 1 855 1 856 1 876 1 884 1 900 1 910 1 935 1 957 1 983 1 994 1 1007 1 1008 1 1010 1 1013 1 1018 1 
1 207 11 1 25 1 27 1 32 1 35 1 39 1 85 1 154 1 155 1 174 1 190 1 192 1 195 1 199 1 211 1 221 1 252 1 261 1 276 2 288 1 297 2 314 1 317 1 333 1 393 2 404 1 412 1 416 1 418 1 450 1 475 1 9 1 46 1 83 1 95 1 99 1 113 1 128 1 134 1 137 1 161 1 200 1 207 1 223 1 233 1 241 1 251 1 262 1 265 1 323 1 324 1 334 1 341 1 342 1 385 1 464 1 481 1 485 1 509 1 532 1 549 2 555 1 558 1 566 1 592 1 593 1 595 1 602 1 619 1 623 1 655 1 659 1 662 1 679 1 693 1 710 1 729 1 733 1 764 1 765 1 792 1 826 1 891 1 903 1 909 1 939 1 972 1 976 1 480 1 504 1 514 1 547 1 552 1 557 1 561 1 563 1 565 1 610 1 614 1 632 1 633 1 675 1 687 1 699 1 708 1 778 1 779 1 791 1 811 1 821 1 845 1 906 1 929 1 950 1 959 1 960 1 980 1 981 1 
1 212 2 1 35 1 36 1 45 1 50 1 78 1 100 1 128 1 142 1 143 1 146 1 148 1 173 1 220 1 226 1 227 2 243 1 249 1 251 1 256 1 265 1 266 1 274 1 277 1 282 1 343 2 356 1 380 1 382 1 399 1 434 1 448 1 477 1 41 1 60 1 61 1 107 1 117 1 151 1 168 1 187 1 196 1 223 1 228 1 235 1 238 1 329 1 331 1 339 1 341 1 391 1 412 1 416 1 419 1 425 1 479 1 528 2 531 1 535 1 539 1 555 1 557 1 570 1 583 1 590 1 619 1 652 1 704 1 763 1 776 1 777 1 784 2 794 1 795 1 819 1 827 1 835 1 893 1 900 1 903 2 904 1 947 1 984 1 489 1 507 1 516 1 529 1 530 1 559 1 582 1 632 1 640 1 644 1 680 1 697 1 701 1 725 1 818 1 820 1 821 1 823 1 881 1 890 1 918 1 927 1 955 1 958 1 962 1 970 1 976 1 
1 211 27 1 28 1 45 1 51 1 55 1 66 1 70 1 112 1 122 2 133 1 139 2 140 2 162 1 178 1 194 1 267 1 329 1 385 1 405 1 416 1 469 1 470 1 474 1 479 1 17 1 22 1 23 1 43 1 44 1 49 1 61 1 104 1 134 1 141 1 155 1 156 1 158 1 160 1 167 1 169 1 176 1 193 1 195 1 196 1 217 1 233 1 242 1 264 1 292 1 295 1 320 1 333 1 337 1 346 1 363 1 372 1 374 1 428 1 433 1 503 1 504 1 522 1 530 1 538 1 540 1 544 1 596 1 601 1 622 1 639 1 643 1 675 1 733 1 734 1 760 1 792 2 803 1 816 1 821 2 833 1 855 1 856 1 858 2 861 1 944 1 965 1 986 1 990 1 992 1 998 1 487 1 490 1 499 1 533 1 547 1 574 1 619 1 620 1 646 1 676 1 681 1 686 1 689 1 692 1 739 1 754 1 770 1 773 1 800 1 807 1 812 1 815 1 851 1 877 1 890 1 900 1 933 1 982 1 984 1 1006 1 1016 1 1019 1 
1 207 34 1 51 1 80 2 93 2 96 1 121 1 125 1 150 1 167 1 176 1 207 1 208 1 209 1 212 1 219 1 241 1 246 1 259 1 282 1 299 1 307 1 311 1 315 1 342 1 360 1 368 1 386 1 387 1 411 1 456 1 16 1 27 1 35 1 49 1 61 1 123 1 135 1 145 1 155 1 191 1 214 1 215 1 230 1 237 1 250 1 255 1 268 1 273 1 277 1 316 1 326 1 329 1 331 1 352 1 353 1 359 1 376 1 396 1 416 1 451 1 457 1 509 1 517 2 525 1 545 1 568 2 570 1 604 1 611 1 645 1 651 1 663 1 666 1 689 1 696 1 701 1 759 1 760 1 763 1 786 1 789 1 791 1 819 1 832 1 839 1 846 1 860 1 861 1 866 1 891 1 901 1 920 1 923 1 939 2 978 1 987 1 487 1 492 1 493 1 521 1 531 1 536 1 591 1 597 1 603 1 617 1 620 1 622 1 630 1 693 1 695 1 700 1 743 1 745 1 746 1 779 1 790 1 830 1 880 1 897 1 910 1 938 1 948 1 982 1 984 1 985 1 
1 210 24 1 48 1 67 1 71 1 92 1 95 1 112 1 117 1 130 1 145 1 148 1 173 1 218 1 224 2 244 1 268 1 273 1 279 1 284 1 295 1 329 1 330 1 403 1 468 1 469 2 475 1 476 1 11 1 28 1 43 1 51 1 84 1 94 1 103 1 113 1 156 1 188 1 190 1 217 1 232 1 247 1 256 1 292 1 293 1 305 1 354 1 357 1 376 1 445 1 454 1 472 1 478 1 485 1 494 1 510 1 526 1 545 1 550 1 555 1 558 1 582 1 593 1 612 1 679 1 695 1 712 1 733 1 760 1 786 1 803 1 808 1 811 1 833 1 839 1 840 1 849 1 854 1 882 1 897 1 903 1 923 1 929 1 933 1 973 1 982 1 528 1 540 1 572 1 578 1 606 1 665 1 671 1 681 1 683 1 704 1 727 1 752 1 753 1 834 1 836 1 837 1 842 1 863 1 908 1 918 1 927 1 943 1 944 1 946 1 978 1 984 1 1001 1 1003 1 1012 1 
1 209 23 1 26 1 27 1 34 2 79 1 83 1 87 1 96 1 136 1 151 1 181 1 186 1 192 2 214 1 228 1 229 1 248 1 249 1 251 1 268 1 312 1 342 1 344 1 371 1 393 1 413 2 421 1 450 1 470 1 12 1 16 1 17 1 30 1 48 1 50 1 55 1 82 1 104 1 145 1 146 1 168 1 218 1 250 1 261 1 319 1 340 1 355 1 358 1 400 1 434 1 456 1 461 1 505 1 506 1 571 1 605 1 608 1 653 1 675 1 681 1 696 2 703 1 706 1 718 1 729 1 756 1 767 1 780 1 803 1 857 1 872 1 884 1 928 1 933 2 946 2 973 1 979 1 988 1 993 1 510 1 516 1 588 1 591 1 596 1 606 1 625 1 650 1 654 1 668 1 731 1 732 1 758 1 784 1 811 1 846 1 854 1 881 1 891 1 902 1 919 1 924 1 930 1 958 1 971 1 997 1 1008 1 1010 1 1018 1 
1 207 29 1 61 1 64 1 67 1 74 1 80 1 111 1 179 1 211 1 237 1 261 1 280 1 311 1 324 1 329 1 335 1 364 1 369 1 385 1 414 1 416 1 417 1 442 1 460 2 476 1 479 1 483 1 10 1 27 1 33 1 47 1 68 1 71 1 90 1 109 1 118 1 129 1 164 1 168 1 177 1 206 1 220 1 246 1 248 1 255 1 256 1 264 1 267 1 296 1 300 1 304 1 316 1 317 1 319 1 375 1 397 1 412 1 423 1 454 1 465 1 473 1 488 1 499 1 506 1 511 1 523 1 534 2 565 1 566 1 597 1 598 1 630 1 634 1 639 1 659 1 677 1 682 1 694 1 703 1 715 1 728 2 733 1 767 2 783 1 788 1 804 1 839 1 868 1 873 1 942 1 948 1 956 1 957 1 987 1 486 1 493 1 495 1 520 1 531 1 560 1 586 1 640 1 641 1 655 1 656 1 670 1 676 1 705 1 738 1 747 1 785 1 842 1 864 1 866 1 880 1 884 1 896 1 963 1 992 1 998 1 1001 1 1010 1 
1 208 13 1 18 1 37 1 47 1 52 1 53 1 60 1 70 1 85 1 92 1 117 2 131 1 148 1 193 2 269 1 271 1 277 1 279 1 314 1 315 1 325 1 365 1 370 1 385 1 460 1 7 1 54 1 79 1 86 1 94 1 115 1 159 1 182 1 187 1 192 1 194 1 259 1 272 1 302 1 361 1 422 1 478 1 485 1 519 1 548 1 572 1 575 1 580 1 668 1 672 1 687 1 750 1 751 1 752 1 768 1 771 1 775 1 777 1 782 1 798 1 833 1 841 1 865 1 890 1 895 1 943 1 947 1 955 1 974 1 977 1 987 1 997 1 505 1 538 1 547 1 556 1 564 1 601 1 619 1 646 1 656 1 663 1 665 1 708 1 712 1 718 1 733 1 755 1 788 1 810 1 884 1 905 1 938 1 952 1 957 1 962 1 965 1 969 1 970 1 976 1 1006 1 1009 1 1012 1 
1 217 4 1 6 1 23 1 42 1 52 1 68 1 71 1 74 1 81 1 119 1 129 1 130 1 138 1 151 1 156 1 212 1 232 1 256 1 299 1 302 2 328 1 349 2 356 1 374 1 387 1 399 1 401 1 449 1 36 1 56 1 59 1 84 1 90 1 92 1 98 1 116 1 165 1 170 1 182 1 210 1 248 1 262 1 266 1 286 1 317 1 362 1 363 1 368 1 418 1 454 1 463 1 481 1 482 1 528 1 531 1 532 1 563 1 566 1 582 1 619 1 630 1 646 1 648 1 667 1 716 1 728 1 744 1 785 1 796 1 845 1 853 1 870 1 875 1 919 1 997 1 523 1 573 1 623 1 673 1 688 1 694 1 720 1 721 1 736 1 753 1 756 1 768 1 787 1 798 1 808 1 815 1 850 1 862 1 883 1 884 1 889 1 898 1 903 1 926 1 942 1 953 1 1006 1 1007 1 1009 1 1015 1 
1 215 22 1 79 1 91 1 100 1 119 1 123 1 132 1 144 1 153 1 162 1 164 1 180 1 203 1 205 1 208 1 217 1 220 2 221 1 237 1 287 1 322 1 330 1 353 1 363 1 384 1 409 1 410 2 430 1 441 1 451 1 485 1 9 1 36 1 39 1 56 1 97 1 108 1 110 1 173 1 175 1 204 1 214 1 246 1 250 1 271 1 273 1 297 1 329 1 344 1 357 1 369 1 371 1 380 1 400 1 407 1 446 1 447 1 460 1 467 1 515 1 516 1 529 1 536 1 594 1 619 1 625 1 635 1 658 1 672 1 690 1 692 1 718 1 739 1 751 1 762 1 776 1 789 1 791 1 818 1 829 1 838 1 850 1 867 1 870 1 882 2 883 2 902 1 920 1 937 1 939 1 942 1 953 1 958 1 962 1 980 1 983 1 489 1 501 1 508 1 527 1 543 1 545 1 549 1 567 1 621 1 669 1 680 1 687 1 699 1 708 1 711 1 777 1 780 1 785 1 812 1 836 1 861 1 864 1 893 1 897 1 905 1 907 1 917 1 982 1 1012 1 1013 1 1018 1 
1 211 6 1 17 1 25 1 57 1 64 1 70 1 87 1 120 1 151 1 170 1 171 1 221 2 244 1 262 1 270 1 271 1 300 1 307 1 311 1 326 1 332 1 336 2 381 1 408 1 430 1 446 1 469 1 18 1 21 1 32 1 33 1 35 1 46 1 58 1 71 1 109 1 144 1 158 1 159 1 162 1 168 1 176 1 184 1 233 1 253 1 257 1 295 1 315 1 349 1 351 1 392 1 424 1 429 1 440 1 450 1 452 1 472 1 480 1 488 1 499 2 517 2 518 1 560 1 568 1 596 1 657 1 659 1 696 1 722 1 728 1 733 1 745 1 794 1 819 1 821 1 844 1 848 1 860 1 870 1 877 1 888 1 903 1 935 1 958 1 964 2 512 1 537 1 554 1 558 1 598 1 616 1 627 1 633 1 651 1 665 1 705 1 734 1 738 1 759 1 784 1 786 1 791 1 812 1 836 1 853 1 864 1 882 1 996 1 1001 1 1008 1 1010 1 1018 1 
1 212 26 2 39 1 58 1 85 1 86 1 109 1 120 1 130 1 148 1 168 1 186 1 196 2 198 1 222 1 223 1 235 1 248 1 273 1 274 1 286 2 318 1 341 1 364 1 371 1 388 1 399 1 426 1 467 1 469 1 471 1 20 1 46 1 91 1 126 1 171 1 202 1 204 1 219 1 227 1 228 1 307 1 310 1 311 1 325 1 365 1 367 1 374 1 423 1 431 1 472 1 481 1 493 1 497 1 498 1 522 1 535 1 550 1 564 2 582 1 588 1 596 1 623 1 625 1 640 2 647 1 657 1 672 1 685 1 701 1 723 1 727 1 733 2 748 1 766 2 815 1 818 1 856 1 894 1 918 1 931 1 933 2 959 1 981 1 983 1 984 1 986 1 503 1 512 1 569 1 578 1 609 1 617 1 638 1 655 1 679 1 683 1 757 1 767 1 771 1 772 1 791 1 805 1 817 1 869 1 879 1 881 1 884 1 917 1 919 1 955 1 987 1 996 1 1008 1 1009 1 
1 208 18 1 80 1 82 2 85 1 117 1 131 1 176 1 192 1 198 1 201 1 210 1 212 1 219 1 223 1 251 1 289 1 292 2 305 1 366 1 376 1 386 1 387 1 450 1 459 1 38 1 44 1 47 1 56 1 59 1 105 1 136 1 166 1 182 1 199 1 203 1 228 1 244 1 260 1 265 1 295 1 310 1 311 1 313 1 465 1 497 1 500 1 507 1 533 1 560 1 602 1 610 1 616 2 621 1 622 1 667 1 692 1 695 1 696 1 711 1 726 1 736 1 759 1 771 2 786 1 809 1 822 1 825 1 832 1 837 1 850 1 866 1 874 1 875 1 912 1 918 1 941 1 970 1 511 1 521 1 580 1 588 1 592 1 595 1 668 1 684 1 705 1 713 1 722 1 723 1 792 1 821 1 842 1 873 1 881 1 887 1 920 1 928 1 940 1 986 1 1000 1 1010 1 1014 1 1015 1 
1 205 1 2 13 1 40 1 44 1 53 1 137 1 144 1 163 1 183 1 192 1 204 1 234 2 238 1 254 1 265 1 301 1 324 1 333 1 336 1 361 1 364 1 391 1 400 1 407 1 441 1 461 1 467 1 15 1 24 1 106 1 117 1 119 1 131 1 135 1 172 1 173 1 211 1 225 1 267 1 277 1 310 1 316 1 317 1 340 1 344 1 353 1 368 1 371 1 372 1 402 1 404 1 437 1 444 1 454 1 477 1 482 1 493 1 497 1 500 1 528 1 562 1 592 1 593 1 656 1 672 1 689 1 714 1 780 1 819 1 833 1 835 1 843 1 856 1 876 1 877 1 910 1 943 2 957 1 964 2 970 1 985 1 996 1 564 1 577 1 578 1 600 1 617 1 643 1 652 1 674 1 719 1 734 1 765 1 798 1 813 1 815 1 834 1 854 1 857 1 858 1 878 1 893 1 894 1 903 1 940 1 956 1 958 1 962 1 986 1 
1 206 1 1 8 1 25 1 35 1 45 1 57 1 65 1 69 1 76 1 101 1 109 1 158 1 179 1 193 1 198 1 224 1 280 1 290 1 338 1 351 1 359 1 365 1 445 1 458 1 465 1 478 1 490 1 492 1 9 1 40 1 43 1 46 1 56 1 81 1 83 1 119 1 154 1 170 1 182 1 194 1 211 1 230 1 270 1 305 1 319 1 337 1 342 1 371 1 376 1 405 1 412 1 416 1 431 1 437 1 440 1 450 1 482 1 485 1 512 1 517 1 534 1 540 1 550 1 564 2 584 1 627 1 641 1 676 1 692 1 722 2 733 1 735 1 753 1 764 1 770 1 799 1 809 1 819 1 839 1 854 1 858 1 870 1 933 1 495 1 510 1 569 1 609 1 640 1 680 1 686 1 689 1 697 1 698 1 709 1 758 1 778 1 788 1 846 1 848 1 869 1 893 1 930 1 970 1 998 1 1017 1 
1 211 14 1 27 1 30 1 81 1 86 1 93 1 119 1 163 1 166 1 177 1 192 1 193 1 216 1 259 1 265 1 282 1 292 1 309 1 329 1 372 1 374 1 382 1 395 1 430 1 478 1 483 1 19 1 42 1 54 1 142 1 186 1 198 1 219 1 227 1 240 1 247 1 299 1 322 1 323 1 347 1 369 1 383 1 388 1 435 1 444 1 462 1 505 1 522 1 524 1 563 1 590 1 607 2 635 1 659 1 663 1 701 1 714 1 724 1 741 1 748 1 767 1 777 1 781 1 785 1 817 1 839 1 842 1 871 1 895 1 934 1 957 1 983 1 501 1 508 1 539 1 577 1 604 1 654 1 681 1 688 1 711 1 735 1 756 1 784 1 816 1 831 1 832 1 854 1 863 1 874 1 883 1 900 1 903 1 930 1 932 1 969 1 970 1 982 1 994 1 1004 1 1010 1 
1 210 18 1 33 2 38 1 56 1 66 1 72 1 157 1 181 1 187 1 200 1 211 1 227 1 262 1 268 2 283 1 295 1 314 1 323 1 328 1 330 1 341 1 371 1 375 1 394 1 448 1 7 1 12 1 13 1 16 1 52 1 91 1 95 1 142 1 160 1 168 1 214 1 222 1 229 1 246 1 264 1 285 1 363 1 366 1 372 1 381 1 382 1 418 1 465 1 485 1 493 1 517 1 525 1 558 1 568 1 583 1 603 1 609 1 614 1 628 1 630 1 639 1 683 1 777 1 783 1 788 1 789 1 790 1 811 1 859 1 860 1 884 1 906 1 931 1 941 1 961 1 977 1 980 1 982 1 514 1 520 1 573 1 590 1 596 1 597 1 605 1 612 1 661 1 695 1 700 1 721 1 762 1 805 1 834 1 848 1 856 1 898 1 912 1 914 1 915 1 917 1 929 1 
1 208 15 1 26 1 45 1 49 1 70 1 75 1 80 1 88 1 104 1 121 1 126 1 132 1 140 1 143 1 147 1 170 2 171 1 195 1 199 1 251 1 278 1 285 1 324 1 339 1 356 1 410 1 434 1 448 1 35 1 42 1 85 1 86 1 87 1 91 1 134 1 144 1 150 1 162 1 167 1 178 1 207 1 209 1 243 1 257 1 267 1 268 1 317 1 337 1 341 1 380 1 409 1 421 1 437 1 443 1 444 1 470 1 499 1 503 1 537 1 550 1 561 1 588 1 591 1 649 1 653 1 668 1 708 1 713 1 719 1 772 1 800 1 813 1 857 1 889 1 894 2 925 1 928 1 937 1 977 1 978 1 991 1 497 1 517 1 523 1 536 1 595 1 648 1 698 1 702 1 722 1 739 1 745 1 795 1 812 1 832 1 844 1 861 1 862 1 885 1 904 1 942 1 952 1 957 1 959 1 966 1 995 1 1009 1 
1 213 20 1 26 1 82 1 105 1 117 1 120 1 207 1 227 2 253 1 303 1 314 1 317 1 318 1 322 1 323 1 346 1 348 1 362 1 405 1 421 1 441 1 442 1 443 1 462 1 490 1 491 1 492 1 50 1 54 1 63 1 75 1 101 1 110 1 132 1 136 1 152 1 168 1 193 1 222 1 250 1 264 1 265 1 293 1 298 1 305 1 341 1 361 1 367 1 371 1 422 1 431 1 454 1 472 1 496 1 509 1 514 1 547 1 581 1 587 1 591 1 598 1 599 1 600 1 661 1 695 1 700 1 706 1 707 1 711 1 712 1 721 1 744 2 747 2 765 1 779 1 782 1 783 2 805 1 814 2 815 1 818 1 838 1 839 1 909 1 917 2 945 1 520 1 533 1 535 1 561 1 569 1 576 1 625 1 689 1 728 1 775 1 776 1 777 1 800 1 804 1 822 1 854 1 860 1 870 1 898 1 901 1 935 1 938 1 940 1 963 1 968 1 989 1 999 1 1000 1 1001 1 1003 1 1005 1 1006 1 
1 207 25 1 53 1 55 1 93 1 117 1 127 1 135 1 136 1 156 1 164 1 168 2 171 1 187 1 189 1 202 1 209 1 258 1 285 1 291 1 327 1 339 1 341 1 361 1 381 1 431 1 437 1 444 1 447 1 460 1 490 1 2 1 7 1 36 1 57 1 65 1 83 1 111 1 114 1 118 1 126 1 146 1 176 1 182 1 204 1 210 1 226 1 255 1 266 1 328 1 366 1 404 1 418 1 463 1 503 1 534 1 538 2 548 1 558 1 595 1 619 1 633 1 640 1 688 1 706 1 708 1 744 1 748 1 749 1 750 1 764 1 765 1 781 1 802 1 816 1 849 1 865 2 870 1 898 1 915 1 918 1 936 1 945 1 969 1 502 1 526 1 546 1 569 1 589 1 590 1 638 1 672 1 682 1 686 1 692 1 736 1 739 1 751 1 752 1 772 1 773 1 778 1 803 1 827 1 877 1 881 1 885 1 904 1 905 1 911 1 912 1 949 1 952 1 964 1 993 1 
1 211 17 1 41 1 61 1 84 1 110 1 124 1 145 1 190 2 195 1 205 1 206 1 207 1 232 1 240 1 256 1 276 1 281 1 320 1 340 1 360 1 372 2 387 1 426 1 448 1 465 1 485 1 489 2 496 1 3 1 8 1 10 1 36 1 42 1 50 1 57 1 121 1 125 1 128 1 136 1 142 1 143 1 149 1 154 1 174 1 188 1 194 1 213 1 258 1 295 1 330 1 350 1 351 1 361 1 462 1 463 1 468 1 471 1 481 1 500 1 515 1 525 1 542 1 572 1 629 1 645 1 664 1 674 1 722 1 782 1 784 1 788 1 800 1 820 1 829 1 848 2 865 2 871 1 887 1 897 1 913 1 919 1 920 1 970 1 972 1 993 1 996 1 531 1 540 1 545 1 589 1 602 1 607 1 611 1 622 1 643 1 648 1 665 1 726 1 752 1 761 1 772 1 776 1 798 1 813 1 819 1 855 1 860 1 872 1 892 1 893 1 924 1 929 1 957 1 958 1 968 1 994 1 995 1 1004 1 1009 1 1013 1 
1 211 26 1 64 1 67 1 97 1 108 1 127 1 133 1 134 1 141 1 146 1 149 2 179 2 204 1 218 1 267 1 275 1 295 1 303 1 317 1 336 1 344 1 350 1 360 1 366 1 387 2 391 1 400 1 401 2 415 1 462 1 465 1 491 1 492 1 499 1 7 1 27 1 28 1 86 1 115 1 118 1 131 1 174 1 196 1 201 1 255 1 257 1 277 1 286 1 298 1 304 1 319 1 325 1 329 1 394 1 398 1 410 1 443 1 446 1 447 1 452 1 504 1 575 1 584 1 591 1 606 2 613 1 621 1 633 1 680 1 682 1 754 1 757 1 906 1 920 1 922 1 928 1 979 1 990 1 995 1 520 1 543 1 620 1 632 1 653 1 665 1 672 1 678 1 679 1 689 1 696 1 698 1 719 1 762 1 775 1 776 1 808 1 848 1 850 1 855 1 887 1 905 1 911 1 912 1 958 1 964 1 968 1 974 1 977 1 997 1 1000 1 1003 1 1012 1 
1 211 12 1 43 1 75 1 89 1 98 1 107 1 108 1 112 2 114 1 120 1 127 1 146 1 148 1 150 1 212 1 219 1 257 1 259 1 276 1 289 2 301 1 370 1 377 1 391 1 396 1 419 1 434 1 20 1 30 1 55 1 142 1 208 1 228 1 262 1 284 1 292 1 299 1 315 1 319 1 322 1 329 1 341 1 342 1 372 1 385 1 386 1 394 1 407 1 409 1 431 1 469 1 488 1 494 1 543 1 564 1 565 1 568 1 574 1 581 2 589 1 615 1 635 1 647 1 697 1 701 1 724 1 727 1 747 1 776 1 787 1 790 1 797 1 819 1 828 1 833 2 854 1 860 1 880 1 899 1 906 1 938 1 944 1 954 1 966 1 982 2 532 1 537 1 538 1 583 1 585 1 596 1 602 1 610 1 658 1 694 1 702 1 718 1 838 1 844 1 866 1 867 1 872 1 881 1 886 1 925 1 941 1 979 1 987 1 1013 1 1018 1 
1 205 18 1 25 1 36 1 76 1 82 1 85 1 92 1 101 1 153 2 232 1 237 1 252 1 283 1 290 1 302 1 353 1 383 1 386 1 401 1 425 1 434 1 437 1 447 1 22 1 27 1 119 1 149 1 157 1 164 1 185 1 188 1 193 1 195 1 216 1 233 1 270 1 287 1 301 1 336 1 360 1 387 1 402 1 413 1 469 1 498 1 513 1 526 1 538 1 542 1 550 1 552 1 572 1 623 1 650 1 664 1 689 1 708 1 711 1 715 1 723 1 755 1 771 1 822 1 837 1 864 1 882 1 892 1 905 1 940 1 955 1 962 1 984 1 989 1 993 1 518 1 543 1 545 1 549 1 556 1 576 1 583 1 596 1 631 1 633 1 642 1 661 1 674 1 722 1 724 1 726 1 764 1 787 1 788 1 791 1 796 1 825 1 849 1 872 1 909 1 917 1 923 1 947 1 975 1 981 1 
1 215 8 1 16 1 63 1 72 1 73 1 77 1 78 1 90 1 115 1 126 1 200 1 213 1 218 1 223 1 225 1 234 1 300 2 343 1 349 1 353 1 359 1 392 1 393 1 409 1 412 1 419 1 437 1 452 1 472 1 476 1 478 1 481 1 496 1 498 1 39 1 74 1 103 1 125 1 140 1 146 1 159 1 163 1 164 1 190 1 205 1 207 1 209 1 240 1 253 1 259 1 288 1 297 1 309 1 344 1 346 1 368 1 386 1 420 1 425 1 429 1 431 1 441 1 453 1 490 1 512 2 513 1 540 1 557 1 560 1 610 1 619 1 634 2 635 1 648 1 683 1 690 1 710 1 724 1 737 1 748 1 777 1 779 1 789 1 796 1 809 1 812 1 838 1 847 1 849 1 866 1 905 1 909 1 927 1 942 1 943 1 952 1 992 1 523 1 548 1 552 1 573 1 587 1 663 1 674 1 675 1 696 1 701 1 717 1 739 1 742 1 746 1 772 1 785 1 806 1 845 1 857 1 863 1 873 1 874 1 887 1 895 1 897 1 900 1 916 1 928 1 930 1 936 1 971 1 1004 1 1005 1 1011 1 1012 1 1014 1 
1 212 2 1 12 1 17 1 26 1 36 1 44 2 61 1 62 1 96 1 104 1 105 1 106 1 109 1 117 1 154 1 161 1 166 1 167 1 230 1 235 1 241 1 243 1 263 1 306 1 324 1 370 1 398 1 402 1 410 1 412 1 461 1 463 1 470 1 478 1 481 1 500 1 5 1 29 1 57 1 69 1 170 1 172 1 175 1 225 1 242 1 251 1 256 1 260 1 297 1 313 1 340 1 378 1 391 1 403 1 416 1 427 1 479 1 513 1 519 1 527 1 535 1 541 1 563 1 571 1 592 1 595 1 612 1 625 1 645 1 646 1 648 1 659 1 663 1 665 1 668 1 689 1 729 1 731 1 733 1 746 1 764 1 780 1 792 1 794 1 823 1 829 1 859 1 872 1 910 2 966 1 976 1 980 2 990 1 992 1 508 1 540 1 547 1 596 1 601 1 619 1 628 1 656 1 682 1 692 1 708 1 737 1 740 1 769 1 777 1 797 1 799 1 803 1 808 1 843 1 847 1 850 1 867 1 883 1 951 1 955 1 963 1 964 1 999 1 1002 1 1004 1 1009 1 1010 1 
1 212 10 1 27 1 46 1 67 1 80 1 125 1 135 1 145 2 148 1 151 1 165 1 166 1 169 1 171 1 176 1 190 1 200 1 236 2 271 1 297 1 344 2 388 1 398 1 405 1 406 1 437 1 475 1 476 1 484 1 494 1 5 1 8 1 9 1 39 1 43 1 73 1 90 1 98 1 154 1 158 1 188 1 226 1 253 1 307 1 341 1 345 1 368 1 383 1 386 1 391 1 393 1 407 1 421 1 431 1 434 1 486 1 507 1 509 1 512 2 532 1 548 1 559 1 572 1 580 1 589 1 620 1 630 1 633 1 640 1 650 1 660 1 665 1 697 1 711 1 718 1 733 1 739 1 753 1 793 1 808 1 824 1 837 1 856 1 906 1 925 1 929 1 933 1 963 1 974 1 533 1 562 1 569 1 618 1 627 1 637 1 642 1 699 1 717 1 757 1 790 1 791 1 794 1 811 1 812 1 826 1 830 1 866 1 874 1 892 1 905 1 913 1 914 1 932 1 1007 1 1017 1 
1 212 12 2 32 1 41 1 90 1 99 1 101 1 108 1 134 1 135 1 136 1 154 1 156 1 219 1 225 1 252 1 256 1 265 1 271 1 298 1 315 1 330 1 345 1 374 1 381 1 398 1 406 1 462 1 477 1 484 1 485 1 14 1 28 1 38 1 68 1 77 1 80 1 123 1 126 1 128 1 151 1 202 1 215 1 217 1 220 1 233 1 248 1 255 1 260 1 313 1 325 1 339 1 363 1 369 1 385 1 392 1 409 1 414 1 427 1 428 1 441 1 468 1 478 1 515 1 534 1 563 1 568 1 572 2 591 1 597 1 626 1 627 1 638 1 667 1 668 1 683 1 707 1 722 1 725 1 731 1 741 1 811 1 826 1 828 1 847 1 865 1 866 2 882 1 912 1 920 1 921 1 922 1 938 2 946 1 960 1 970 1 978 1 983 1 989 1 995 1 517 1 531 1 548 1 575 1 686 1 698 1 716 1 745 1 762 1 776 1 781 1 815 1 849 1 857 1 858 1 861 1 886 1 899 1 923 1 924 1 951 1 968 1 969 1 972 1 981 1 987 1 994 1 1000 1 1016 1 1018 1 
1 216 14 1 22 1 27 1 50 1 99 1 102 1 110 1 123 1 125 2 135 1 146 1 167 1 182 1 199 1 222 1 235 1 252 1 260 1 262 1 271 1 281 1 353 1 361 1 434 1 467 1 491 1 505 1 1 1 35 1 36 1 44 1 47 1 57 1 71 1 92 1 106 1 109 1 114 1 173 1 184 1 209 1 218 1 221 1 232 1 309 1 321 1 324 1 331 1 334 1 360 1 383 1 385 1 425 1 454 1 480 1 523 1 545 1 587 1 601 1 623 1 627 1 634 1 678 1 719 1 721 2 754 1 762 1 767 2 771 1 786 1 810 1 812 1 814 2 822 1 847 1 854 1 877 1 888 1 950 1 969 1 974 1 979 1 525 1 532 1 536 1 548 1 553 1 560 1 630 1 659 1 667 1 682 1 699 1 745 1 749 1 750 1 758 1 764 1 824 1 834 1 843 1 848 1 852 1 861 1 867 1 879 1 890 1 899 1 908 1 912 1 922 1 998 1 999 1 1005 1 1007 1 1016 1 1017 1 1019 1 
1 206 10 1 24 1 33 1 39 1 41 2 48 1 53 1 54 1 71 1 75 1 92 1 159 1 177 1 208 1 219 1 237 1 306 1 314 1 320 1 334 1 361 1 390 1 394 1 407 1 413 1 416 1 418 1 427 1 433 1 436 1 446 1 465 1 477 1 18 1 25 1 34 1 45 1 125 1 144 1 151 1 161 1 163 1 164 1 168 1 212 1 213 1 257 1 272 1 307 1 310 1 373 1 393 1 409 1 410 1 430 1 455 1 488 1 494 1 504 1 509 1 511 1 517 1 549 1 581 1 607 1 625 1 630 1 635 1 641 1 689 1 691 2 695 1 727 1 729 1 730 1 755 1 778 1 843 1 845 2 863 1 875 1 927 1 936 1 947 1 956 1 542 1 556 1 570 1 572 1 576 1 591 1 603 1 624 1 642 1 662 1 712 1 742 1 763 1 786 1 790 1 794 1 807 1 809 1 850 1 861 1 933 1 983 1 1009 1 1014 1 
1 213 7 1 14 1 26 1 37 1 50 1 53 1 70 1 79 1 120 1 139 1 159 1 167 1 216 1 255 1 281 2 315 1 319 1 372 1 398 1 403 1 414 1 419 1 424 1 442 1 475 1 479 1 482 1 497 1 505 1 508 1 3 1 8 1 11 1 17 1 27 1 48 1 51 1 69 1 73 1 133 1 147 1 158 1 161 1 186 1 204 1 240 1 246 1 276 1 285 1 295 1 328 1 362 1 363 1 393 1 406 1 407 1 434 1 438 1 526 1 531 1 571 1 576 1 595 1 617 1 680 1 683 1 701 1 726 1 727 1 729 1 793 1 814 1 816 1 817 1 821 1 824 1 825 1 883 1 886 2 890 1 934 1 953 1 994 1 997 1 512 1 528 1 535 1 536 1 568 1 581 1 582 1 584 1 599 1 607 1 632 1 633 1 634 1 642 1 671 1 708 1 709 1 745 1 802 1 808 1 828 1 863 1 868 1 869 1 888 1 893 1 902 1 922 1 940 1 950 1 990 1 996 1 1003 1 1006 1 1019 1 
1 206 15 1 36 1 59 1 60 1 61 1 65 1 80 1 95 1 151 1 154 1 162 1 243 1 247 1 274 1 282 1 302 1 312 1 349 2 360 1 361 1 363 1 399 1 410 1 411 1 434 2 465 1 483 1 4 1 12 1 20 1 32 1 70 1 73 1 83 1 100 1 131 1 152 1 158 1 197 1 242 1 254 1 316 1 382 1 401 1 408 1 409 1 419 1 423 1 430 1 436 1 470 1 474 1 484 1 493 1 514 1 521 1 534 1 585 1 637 2 645 1 649 1 680 1 688 1 698 1 722 1 743 1 745 1 781 1 784 1 794 1 817 2 820 1 821 1 850 1 853 1 864 1 871 1 875 1 881 1 924 1 934 1 937 1 941 1 962 1 517 1 583 1 584 1 614 1 626 1 633 1 651 1 654 1 672 1 721 1 792 1 801 1 851 1 857 1 859 1 891 1 898 1 915 1 919 1 957 1 983 1 
1 209 6 2 23 1 34 1 37 1 46 2 51 1 58 1 61 1 116 1 129 1 143 1 146 1 165 1 169 1 177 1 210 1 212 1 230 1 231 1 237 1 245 1 263 2 265 1 278 1 311 1 330 1 336 1 337 1 378 1 381 1 418 1 426 1 453 1 458 1 485 1 508 1 13 1 39 1 45 1 53 1 55 1 100 1 105 1 113 1 128 1 130 1 133 1 137 1 185 1 188 1 199 1 217 1 248 1 262 1 272 1 288 1 318 1 325 1 365 1 371 1 377 1 379 1 387 1 431 1 491 1 513 1 535 1 575 1 602 1 623 1 629 1 646 1 665 1 671 1 688 1 711 1 715 1 719 1 734 1 780 1 782 1 803 1 804 1 820 1 821 1 840 1 872 1 884 1 975 1 983 1 544 1 551 1 557 1 561 1 563 1 588 1 591 1 608 1 613 1 643 1 657 1 710 1 724 1 762 1 777 1 786 1 797 1 801 1 813 1 826 1 829 1 869 1 885 1 888 1 892 1 898 1 935 1 941 1 968 1 1007 1 
1 205 7 1 13 1 15 1 18 1 21 1 29 1 30 1 41 1 42 1 62 1 73 1 74 1 95 1 105 1 118 1 124 1 161 1 238 1 255 1 266 1 278 1 290 2 298 1 300 1 304 1 308 1 323 1 333 1 348 1 363 1 366 1 375 1 386 1 412 1 415 1 418 1 425 1 428 1 429 1 493 1 503 2 505 2 16 1 31 1 49 1 53 1 64 1 107 1 115 1 133 1 138 1 160 1 174 1 214 1 260 1 306 1 316 1 342 1 346 1 350 1 356 1 372 1 377 1 392 1 444 1 466 1 478 1 489 1 490 1 509 1 523 1 576 1 590 1 593 1 642 1 648 1 655 2 656 1 666 1 675 1 689 1 693 1 700 1 701 1 725 1 741 1 755 1 775 1 781 1 788 1 804 2 839 1 853 1 901 2 935 1 940 1 958 1 969 1 989 1 533 1 610 1 613 1 633 1 654 1 711 1 714 1 746 1 748 1 797 1 806 1 812 1 820 1 837 1 867 1 884 1 912 1 937 1 946 1 974 1 990 1 1019 1 
1 205 7 1 12 1 17 1 22 2 30 1 32 1 35 1 46 1 177 1 191 1 193 1 194 1 196 1 214 1 217 2 226 1 228 1 229 1 244 1 278 1 304 1 345 1 354 1 382 1 410 1 434 1 502 1 503 1 504 1 511 1 2 1 13 1 15 1 63 1 66 1 76 1 77 1 80 1 82 1 89 1 91 1 147 1 162 1 163 1 180 1 248 1 259 1 263 1 272 1 275 1 296 1 308 1 324 1 392 1 406 1 424 1 451 1 461 1 464 1 472 1 578 1 600 1 630 1 639 1 643 1 655 1 666 1 675 1 678 2 680 1 704 1 713 1 721 1 738 1 762 1 771 1 804 1 830 1 839 1 847 1 852 1 867 1 873 1 923 1 929 1 933 1 986 1 527 1 558 1 568 1 583 1 586 1 588 1 665 1 709 1 715 1 730 1 732 1 775 1 838 1 859 1 879 1 904 1 906 1 922 1 942 1 946 1 948 1 949 1 979 1 983 1 1014 1 1017 1 
1 208 90 1 95 1 117 1 119 1 120 1 122 1 136 1 174 1 192 1 220 1 235 1 276 1 289 1 299 1 359 1 363 1 372 1 373 1 386 1 406 1 418 1 420 1 423 1 429 1 436 1 450 1 473 1 476 1 497 1 510 1 5 1 55 1 83 1 94 1 101 1 103 1 153 1 167 1 168 1 172 1 221 1 231 1 252 1 255 1 272 1 286 1 291 1 296 1 354 1 357 1 358 1 364 1 375 1 413 1 479 1 495 1 516 1 558 1 561 1 574 1 584 1 595 1 599 1 671 1 675 1 693 1 697 1 705 1 738 1 797 1 809 1 816 1 840 1 843 1 845 1 883 1 912 1 916 2 972 1 979 1 548 1 554 1 600 1 659 1 664 1 676 1 690 1 706 1 732 1 736 1 750 1 754 1 768 1 781 1 791 1 795 1 851 1 862 1 919 1 920 1 922 1 931 1 963 1 996 1 1011 1 1014 1 1015 1 
1 207 4 1 21 1 22 1 36 1 56 1 59 1 97 1 100 2 106 1 107 1 115 1 124 1 151 1 162 1 169 1 176 1 189 1 196 1 201 2 204 1 215 1 229 1 244 1 291 1 304 1 342 1 358 1 393 1 411 1 436 1 451 1 466 1 488 1 499 1 506 1 47 1 61 1 91 1 154 1 157 1 160 1 170 1 207 1 219 1 241 1 252 1 268 1 281 1 319 1 325 1 334 1 337 1 340 1 378 1 382 1 390 1 394 1 396 1 419 1 423 1 428 1 454 1 464 1 471 1 477 1 521 1 527 1 585 1 610 1 624 1 627 1 640 2 648 1 653 1 665 1 671 1 701 1 707 1 735 1 748 1 760 1 782 1 792 1 808 1 830 1 833 1 851 1 888 2 899 1 900 1 939 1 947 1 953 1 954 1 956 1 970 1 975 1 983 1 990 1 537 1 558 1 603 1 625 1 633 1 647 1 691 1 720 1 751 1 805 1 837 1 842 1 917 1 931 1 943 1 998 1 1009 1 1013 1 
1 210 1 1 8 1 11 1 22 1 31 1 46 1 58 1 91 1 118 1 142 1 151 1 159 1 163 1 166 1 167 1 169 1 248 1 299 1 310 1 375 1 410 1 420 1 428 1 440 1 445 1 451 1 488 1 514 1 35 1 73 1 110 1 123 1 126 1 128 1 162 1 172 1 176 1 237 1 250 1 302 1 304 1 321 1 326 1 328 1 330 1 331 1 335 1 344 1 356 1 401 1 422 1 456 1 463 1 480 1 484 1 545 1 550 1 551 1 562 1 566 1 587 1 590 1 625 1 638 1 645 1 650 1 663 1 684 1 694 1 695 1 708 1 740 1 746 1 749 1 782 2 788 1 806 1 863 1 872 1 875 1 898 2 939 1 956 1 973 1 993 1 561 1 563 1 573 1 586 1 597 1 616 1 617 1 630 1 653 1 727 1 785 1 816 1 843 1 849 1 878 1 880 1 888 1 892 1 895 1 937 1 954 1 984 1 994 1 995 1 999 1 1009 1 1017 1 1018 1 
1 212 16 1 20 1 25 1 58 1 74 1 83 1 141 1 147 1 148 1 172 1 184 1 189 1 190 1 199 1 229 1 241 1 274 1 306 1 373 1 386 1 388 1 410 1 413 1 433 2 436 1 458 1 459 1 482 2 489 2 493 1 495 1 508 1 6 1 30 1 39 1 49 1 81 1 92 1 111 1 115 1 134 1 135 1 173 1 178 1 180 1 201 1 226 1 237 1 256 1 289 1 293 1 301 1 304 1 318 1 337 1 344 1 361 1 366 1 375 1 378 1 385 1 398 1 416 1 430 1 437 1 443 1 451 1 463 1 496 1 506 1 510 1 595 1 606 2 608 1 627 1 644 1 654 1 718 1 726 1 738 1 750 1 760 1 764 1 766 1 796 1 832 1 843 1 851 1 868 1 870 1 891 1 905 1 918 1 926 1 930 1 932 1 980 1 983 1 993 1 997 1 550 1 553 1 556 1 564 1 571 1 612 1 634 1 702 1 731 1 769 1 781 1 782 1 789 1 809 1 822 1 823 1 854 1 879 1 920 1 922 1 940 1 945 1 958 1 979 1 998 1 1002 1 1009 1 1011 1 
1 207 4 1 32 1 40 1 51 1 53 2 68 1 88 1 106 1 192 1 233 1 240 1 267 1 274 1 279 2 288 1 293 1 297 1 302 1 353 1 417 1 428 1 455 1 469 1 489 1 1 1 25 1 66 1 97 1 111 1 113 1 127 1 136 1 145 1 172 1 180 1 203 1 205 1 221 1 286 1 309 1 331 1 342 1 343 1 344 1 363 1 405 1 441 1 463 1 502 1 551 1 552 1 594 2 600 2 603 1 631 1 642 1 676 1 685 1 701 1 734 1 738 1 745 1 789 1 805 1 842 1 866 1 903 1 916 1 924 1 967 1 983 1 985 1 520 1 540 1 567 1 577 1 596 1 601 1 618 1 627 1 647 1 658 1 688 1 713 1 722 1 741 1 752 1 759 1 798 1 802 1 858 1 880 1 901 1 914 1 922 1 934 1 946 1 949 1 1007 1 1008 1 
1 218 9 1 27 1 29 1 50 1 84 1 97 1 129 1 133 1 156 2 157 1 167 1 169 1 174 1 196 1 204 1 208 1 226 1 240 1 284 1 291 1 292 2 295 1 302 1 322 1 328 2 329 1 346 1 353 1 354 1 416 1 431 1 447 1 457 1 460 1 477 1 486 1 504 1 7 1 10 1 11 1 26 1 42 1 57 1 108 1 165 1 173 1 189 1 207 1 215 1 225 1 237 1 245 1 261 1 265 1 267 1 310 1 312 1 324 1 360 1 444 1 553 1 586 2 605 2 608 1 619 1 645 1 654 1 659 1 660 1 670 1 683 1 684 2 688 1 703 1 714 2 748 1 772 1 804 1 811 1 832 1 840 1 857 1 864 1 867 1 884 1 925 1 936 1 946 2 959 1 536 1 544 1 546 1 571 1 579 1 612 1 626 1 648 1 667 1 755 1 767 1 773 1 777 1 789 1 791 1 793 1 808 1 813 1 815 1 820 1 897 1 901 1 905 1 1004 1 1007 1 1008 1 1013 1 
1 214 23 1 27 1 28 1 66 1 83 1 96 1 140 1 152 1 163 1 176 1 184 1 210 1 241 1 275 1 290 1 294 1 336 1 339 1 367 1 375 1 390 1 413 1 431 1 442 2 448 1 451 1 453 1 455 1 477 1 29 1 36 1 47 1 50 1 51 1 62 1 64 1 70 1 75 1 87 1 97 1 100 1 102 1 103 1 135 1 151 1 189 1 206 1 216 1 220 1 244 1 248 1 287 1 291 1 311 1 317 1 355 1 356 1 369 1 396 1 411 1 426 1 450 1 485 1 495 1 497 1 500 1 518 1 555 1 566 1 599 1 602 1 650 1 655 1 679 1 706 1 713 1 759 1 811 1 813 1 835 1 837 2 845 1 858 1 958 1 981 1 982 1 987 1 992 1 537 1 539 1 540 1 568 1 575 1 590 1 638 1 653 1 665 1 672 1 691 1 699 1 702 1 709 1 722 1 739 1 743 1 753 1 778 1 794 1 802 1 807 1 838 1 839 1 875 1 961 1 965 1 979 1 999 1 1011 1 
1 208 17 1 43 1 44 1 53 1 126 1 153 1 161 1 162 1 213 1 226 1 246 1 249 1 257 1 262 1 317 2 323 1 341 1 346 1 347 1 360 1 387 1 391 1 408 1 421 1 430 1 455 1 457 1 462 1 510 1 515 1 4 1 21 1 48 1 54 1 60 1 85 1 99 1 100 1 117 1 138 1 155 1 157 1 167 1 169 1 180 1 223 1 230 1 244 1 256 1 258 1 274 1 285 1 289 1 313 1 315 1 376 1 380 1 403 1 423 1 444 1 446 1 482 1 491 1 524 1 548 1 558 1 562 1 580 1 584 1 596 2 614 1 623 1 665 1 674 1 688 1 699 1 721 1 726 1 741 1 772 1 791 1 816 1 819 2 910 1 918 2 924 1 933 1 936 1 977 1 980 1 996 1 540 1 559 1 566 1 601 1 618 1 633 1 642 1 655 1 659 1 666 1 693 1 718 1 724 1 736 1 744 1 752 1 771 1 776 1 782 1 811 1 833 1 845 1 872 1 876 1 882 1 902 1 905 1 906 1 939 1 952 1 983 1 988 1 
1 211 7 1 34 1 52 1 61 1 101 1 103 1 114 1 128 1 167 1 170 1 179 1 183 1 205 1 219 1 231 1 257 1 325 1 376 1 392 1 414 1 417 1 461 1 465 1 474 1 481 1 490 1 494 1 26 1 32 1 35 1 41 1 49 1 67 1 74 1 91 1 112 1 120 1 184 1 210 1 215 1 230 1 268 1 303 1 312 1 330 1 343 1 384 1 405 1 426 1 441 1 527 1 549 1 553 1 561 1 566 1 578 1 582 1 589 1 612 1 614 1 640 1 641 1 643 1 681 1 704 1 734 1 735 1 760 1 767 1 771 1 812 1 819 1 855 1 874 1 897 1 921 1 922 1 939 1 951 1 967 1 981 1 994 1 546 1 560 1 581 1 606 1 609 1 628 1 653 1 669 1 701 1 739 1 744 1 746 1 751 1 785 1 802 1 806 1 807 1 815 1 822 1 845 1 854 1 873 1 938 1 946 1 1000 1 1011 1 1018 1 
1 210 5 1 31 1 41 1 59 1 63 1 72 1 73 1 81 1 97 1 115 1 118 1 140 1 177 1 181 1 189 1 216 1 256 1 262 1 291 1 316 1 339 1 391 1 409 1 419 1 448 1 458 1 485 1 507 1 512 1 19 1 62 1 65 1 68 1 75 1 86 1 90 1 111 1 129 1 136 1 148 1 157 1 201 1 218 1 236 1 259 1 268 1 270 1 277 1 299 1 303 1 305 1 330 1 336 1 347 1 355 1 369 1 379 1 416 1 426 1 466 1 487 1 496 1 503 1 547 1 568 1 578 1 607 2 637 1 676 1 710 1 745 1 772 1 778 1 784 1 787 1 796 1 812 1 818 1 847 1 850 1 858 1 860 1 878 1 880 1 941 1 943 1 947 1 950 1 957 1 962 1 556 1 571 1 580 1 616 1 664 1 671 1 674 1 712 1 716 1 744 1 748 1 864 1 875 1 888 1 915 1 935 1 965 1 982 1 984 1 
1 217 12 1 29 1 43 1 44 1 51 1 91 1 106 1 123 1 125 1 142 1 143 1 145 1 158 1 159 1 164 1 219 1 229 1 230 2 252 1 264 1 265 1 267 1 269 1 278 1 299 1 301 1 302 1 306 1 313 1 336 1 350 1 367 1 384 1 387 1 389 1 392 1 424 1 433 1 437 1 440 1 451 1 453 1 454 1 457 1 463 1 470 1 494 1 521 1 4 1 47 1 50 1 66 1 84 1 87 1 113 1 130 1 149 1 151 1 180 1 231 1 245 1 250 1 303 1 308 1 312 1 330 1 379 1 412 1 417 1 420 1 430 1 447 1 455 1 458 1 473 1 475 1 570 1 617 1 635 1 657 1 659 1 665 1 689 1 731 1 732 1 769 1 778 1 810 1 812 1 848 1 855 1 888 1 928 1 983 1 997 1 537 1 544 1 546 1 583 1 687 1 723 1 838 1 840 1 850 1 878 1 913 1 914 1 945 1 949 1 955 1 968 1 1011 1 1013 1 1017 1 1018 1 
1 211 29 1 78 1 84 1 109 1 112 1 116 2 140 1 147 1 150 1 155 1 170 1 193 1 205 1 206 2 210 1 212 1 229 1 233 1 259 1 265 1 292 1 305 1 346 1 357 1 358 1 383 1 388 1 425 1 477 1 482 1 495 1 499 1 24 1 32 1 66 1 104 1 121 1 137 1 144 1 180 1 201 1 239 1 249 1 253 1 269 1 288 1 289 1 308 1 335 1 340 1 368 1 369 1 373 1 394 1 415 1 417 1 421 1 428 1 453 1 456 1 507 1 536 1 548 1 568 1 619 1 656 1 677 1 678 1 687 1 697 1 705 1 737 1 750 1 770 1 771 1 787 1 788 1 812 1 818 2 822 1 825 1 841 1 863 1 881 1 889 1 902 1 912 1 938 1 992 1 998 1 547 1 550 1 563 1 605 1 610 1 647 1 657 1 659 1 683 1 732 1 779 1 793 1 794 1 813 1 826 1 836 1 852 1 859 1 868 1 890 1 911 1 931 1 948 1 956 1 959 1 1015 1 1017 1 
1 207 31 1 48 1 63 1 168 1 266 1 319 1 324 1 329 1 367 1 369 1 387 1 405 1 408 1 415 1 428 1 433 1 459 1 467 1 483 1 502 1 509 1 40 1 41 1 42 1 53 1 56 1 59 1 148 1 167 1 172 1 183 1 231 1 237 1 241 1 251 1 273 1 307 1 310 1 318 1 338 1 345 1 383 1 385 1 392 1 409 1 418 1 466 1 498 1 534 1 543 1 575 1 596 1 627 1 654 1 656 1 683 1 686 1 693 1 715 1 719 1 762 1 772 1 787 1 794 1 802 1 823 1 826 1 827 1 833 1 860 1 864 1 883 1 884 2 901 1 907 1 922 1 937 1 528 1 547 1 556 1 559 1 580 1 590 1 603 1 616 1 620 1 630 1 641 1 652 1 669 1 674 1 684 1 696 1 730 1 746 1 747 1 771 1 775 1 793 1 801 1 842 1 858 1 885 1 887 1 925 1 929 1 946 1 949 1 955 1 974 1 1002 1 
1 206 8 1 19 1 24 1 30 1 84 1 95 2 115 1 125 1 134 1 154 1 174 1 192 1 218 1 255 1 272 1 295 1 296 1 300 1 305 1 314 1 356 1 368 1 379 1 407 1 410 1 447 1 458 1 471 1 476 1 504 1 515 1 522 1 16 1 65 1 83 1 91 1 94 1 98 1 100 1 140 1 162 1 183 1 205 1 212 1 219 1 237 1 248 1 256 1 267 1 283 1 309 1 324 1 364 1 436 1 488 1 513 1 542 1 619 2 635 1 642 1 645 1 646 1 675 1 682 1 705 1 709 1 716 1 763 1 772 1 780 1 781 1 782 1 797 1 808 1 814 1 834 1 869 1 901 1 903 2 918 1 924 1 929 1 940 1 946 1 960 1 971 1 973 1 975 1 979 1 982 1 983 1 539 1 581 1 628 1 648 1 652 1 668 1 677 1 691 1 696 1 722 1 725 1 745 1 759 1 761 1 771 1 811 1 845 1 865 1 941 1 961 1 966 1 968 1 986 1 1012 1 
1 209 34 1 45 1 57 1 72 1 122 1 125 1 128 1 154 1 158 1 191 1 207 1 215 1 231 1 242 1 251 1 292 1 322 1 337 1 356 1 384 1 428 1 440 1 442 1 476 1 480 2 487 1 492 1 26 1 28 1 40 1 47 1 58 1 92 1 107 1 129 1 141 1 155 1 161 1 177 1 184 1 194 1 257 1 261 1 274 1 276 1 295 1 304 1 305 1 311 1 314 1 317 1 333 1 344 1 353 1 359 1 381 1 395 1 399 1 413 1 415 1 434 1 459 1 465 1 483 1 509 1 526 1 554 1 562 1 598 1 599 1 606 1 626 1 671 2 727 2 735 1 746 2 778 1 803 1 818 1 820 1 866 1 872 1 911 1 913 1 959 1 975 1 529 1 534 1 546 1 575 1 608 1 616 1 623 1 628 1 643 1 647 1 651 1 668 1 687 1 691 1 693 1 719 1 728 1 769 1 776 1 779 1 780 1 782 1 783 1 802 1 810 1 840 1 857 1 873 1 880 1 894 1 905 1 929 1 934 1 946 1 954 1 955 1 1006 1 1007 1 1010 1 1016 1 
1 221 2 1 10 1 19 1 50 1 81 1 94 1 95 1 109 1 111 1 122 1 148 1 170 1 223 1 238 1 262 1 263 1 293 2 315 1 378 1 387 1 397 1 398 2 402 1 403 1 418 1 424 1 460 1 463 1 472 1 476 1 488 1 23 1 96 1 153 1 166 1 178 1 185 1 186 1 199 1 209 1 231 1 233 1 246 1 280 1 286 1 301 1 303 1 314 1 349 1 354 1 355 1 373 1 416 1 435 1 480 1 528 1 530 1 546 1 599 1 605 1 614 1 631 1 648 1 649 1 651 1 667 1 678 1 685 1 705 1 729 1 731 1 740 1 762 1 763 1 786 1 829 1 840 1 847 1 854 2 856 1 858 1 903 2 915 1 921 2 932 1 947 1 950 1 964 1 991 1 532 1 533 1 542 1 560 1 583 1 621 1 638 1 646 1 658 1 664 1 666 1 694 1 695 1 717 1 777 1 790 1 810 1 811 1 815 1 835 1 857 1 874 1 879 1 946 1 986 1 1003 1 1006 1 1008 1 1011 1 1013 1 1017 1 1019 1 
1 213 3 1 31 1 40 1 112 1 144 1 160 1 176 1 185 1 210 1 228 1 230 2 232 1 237 1 238 1 259 1 271 1 274 2 286 1 287 1 292 1 329 1 340 2 373 2 374 1 378 1 380 1 383 1 384 1 385 1 388 1 399 1 420 1 446 1 449 1 455 1 464 1 481 1 529 1 15 1 85 1 95 1 102 1 126 1 142 1 149 1 156 1 158 1 225 1 251 1 252 1 260 1 263 1 309 1 344 1 353 1 408 1 439 1 444 1 459 1 480 1 545 1 551 1 559 1 562 1 598 1 600 1 615 1 619 1 628 1 631 1 663 1 666 1 675 1 688 1 721 1 743 1 751 1 752 1 754 1 787 1 793 1 814 1 829 1 843 1 861 1 864 1 869 1 880 1 932 1 983 1 988 1 995 1 535 1 537 1 563 1 589 1 611 1 618 1 627 1 651 1 672 1 726 1 742 1 775 1 783 1 786 1 826 1 830 1 852 1 876 1 896 1 935 1 953 1 966 1 976 1 992 1 1000 1 1005 1 1012 1 1013 1 
1 208 1 2 11 1 14 1 20 1 21 1 38 1 59 1 64 1 68 1 83 1 88 1 105 1 117 1 120 1 123 1 130 1 133 1 182 1 196 1 240 1 273 1 300 1 309 1 320 1 326 1 363 1 378 1 416 1 426 1 431 1 434 1 447 2 454 1 480 1 487 1 509 1 19 1 63 1 81 1 89 1 104 1 114 1 132 1 161 1 186 1 234 1 251 1 255 1 256 1 296 1 297 1 306 1 321 1 333 1 350 1 366 1 367 1 373 1 386 1 400 1 439 1 453 1 482 1 485 1 499 1 506 1 602 1 627 1 629 1 658 1 668 1 677 1 734 1 744 1 754 1 760 1 771 1 774 1 785 1 813 1 819 1 836 1 847 1 880 1 888 1 889 1 890 1 892 1 893 1 912 1 940 1 946 1 953 1 957 1 976 1 984 2 554 1 561 1 573 1 601 1 609 1 613 1 625 1 640 1 646 1 661 1 663 1 666 1 708 1 722 1 747 1 751 1 752 1 767 1 769 1 795 1 809 1 871 1 921 1 938 1 948 1 963 1 972 1 977 1 983 1 1002 1 1009 1 
1 210 9 1 23 1 43 1 60 1 98 1 109 1 115 1 131 1 150 1 156 1 160 1 165 1 176 1 186 1 194 1 197 1 233 1 239 1 240 1 243 1 306 1 336 1 345 1 352 1 354 1 367 1 408 1 422 1 430 1 435 1 443 1 451 1 460 1 479 1 487 1 505 1 2 1 5 1 10 1 28 1 40 1 61 1 70 1 75 1 88 1 122 1 126 1 142 1 173 1 185 1 205 1 211 1 217 1 223 1 244 1 284 1 308 1 319 1 348 1 371 1 374 1 411 1 420 1 434 1 455 1 501 1 507 1 529 1 547 1 551 1 563 1 597 1 601 1 604 1 639 1 641 1 653 1 679 1 692 1 707 1 726 1 766 1 776 1 778 1 801 1 809 1 856 1 867 1 872 1 879 1 928 1 945 1 965 1 575 1 646 1 656 1 668 1 672 1 677 1 681 1 687 1 709 1 748 1 759 1 764 1 824 1 845 1 909 1 936 1 955 1 963 1 970 1 998 1 1007 1 1010 1 
1 211 54 1 65 1 96 1 109 1 125 1 140 1 184 1 193 1 197 1 202 1 211 1 213 1 234 1 251 1 273 1 296 1 301 1 312 1 335 1 337 1 380 1 388 1 391 2 421 1 438 1 455 1 474 1 491 1 4 1 110 1 135 1 156 1 161 1 178 1 196 1 222 1 239 1 243 1 261 1 303 1 305 1 310 1 332 1 334 1 338 1 357 1 361 1 385 1 403 1 411 1 413 1 418 1 433 1 440 1 481 1 497 1 505 1 512 1 529 1 552 1 582 1 596 1 612 1 622 1 627 1 629 1 633 1 688 1 704 1 715 1 731 1 783 1 789 1 790 1 810 1 817 1 846 1 883 1 894 1 901 2 913 1 941 1 958 1 968 1 972 1 544 1 551 1 594 1 610 1 631 1 654 1 663 1 665 1 679 1 680 1 725 1 736 1 756 1 779 1 785 1 818 1 819 1 835 1 842 1 917 1 934 1 940 1 950 1 952 1 976 1 979 1 1005 1 1009 1 1014 1 1017 1 
1 208 24 1 29 2 36 1 46 1 54 1 59 1 63 1 66 1 82 1 113 1 132 1 210 1 261 1 262 1 273 1 285 2 316 2 330 1 340 1 361 1 376 1 377 1 454 1 475 1 485 2 493 1 498 1 506 1 510 1 526 1 1 1 6 1 61 1 62 1 97 1 103 1 174 1 242 1 245 1 281 1 370 1 372 1 387 1 402 1 403 1 428 1 446 1 451 1 465 1 528 1 535 1 572 1 575 1 590 1 598 1 602 1 605 1 646 1 660 1 686 1 692 1 732 1 754 1 765 1 769 1 771 1 801 2 803 1 815 1 822 1 823 1 855 1 863 1 904 1 915 1 916 2 917 1 923 2 974 1 982 1 555 1 558 1 580 1 596 1 607 1 619 1 637 1 674 1 699 1 706 1 713 1 725 1 742 1 745 1 752 1 774 1 779 1 782 1 785 1 787 1 798 1 809 1 835 1 841 1 878 1 890 1 918 1 925 1 932 1 955 1 980 1 988 1 993 1 1008 1 
1 210 13 1 46 1 59 1 64 1 92 1 177 1 195 1 238 1 253 1 273 1 333 1 342 1 343 1 355 1 399 1 431 2 433 1 473 2 477 1 480 1 490 1 504 1 511 1 534 1 7 1 12 1 24 1 37 1 47 1 82 1 127 1 143 1 154 1 157 1 167 1 172 1 186 1 191 1 201 1 204 1 208 1 213 1 242 1 262 1 270 1 271 1 286 1 300 1 306 1 316 1 318 1 347 1 360 1 372 1 374 1 411 1 460 1 462 1 497 1 509 1 530 1 546 1 556 2 597 1 634 1 636 1 639 1 652 1 679 1 694 1 695 1 711 1 724 1 743 1 753 1 755 1 775 1 789 2 790 1 797 1 803 1 835 1 840 1 849 1 876 1 879 2 916 1 929 1 975 1 976 1 981 1 996 1 575 1 585 1 592 1 629 1 631 1 637 1 663 1 677 1 681 1 706 1 712 1 729 1 734 1 773 1 779 1 805 1 846 1 873 1 892 1 902 1 939 1 972 1 974 1 997 1 1018 1 
1 215 29 1 44 1 70 1 84 1 94 1 131 1 192 1 197 1 209 1 220 1 245 1 250 1 286 1 296 1 308 1 356 1 367 1 389 2 422 1 450 1 451 1 454 1 488 1 525 1 22 1 111 1 180 1 191 1 227 1 255 1 257 1 267 1 273 1 290 1 305 1 307 1 329 1 361 1 388 1 428 1 439 1 440 1 445 1 452 1 468 1 478 1 482 1 496 1 507 1 509 1 519 1 553 1 557 1 566 2 571 1 577 1 581 1 590 1 601 1 645 1 664 1 684 1 697 1 700 2 709 1 723 1 787 1 788 1 799 1 861 1 880 1 885 1 933 1 936 1 937 1 980 1 985 1 628 1 634 1 638 1 647 1 649 1 670 1 706 1 712 1 716 1 734 1 744 1 760 1 766 1 800 1 809 1 810 1 812 1 826 1 835 1 838 1 887 1 924 1 927 1 932 1 1003 1 1009 1 1011 1 1015 1 
1 209 58 1 103 1 154 1 155 1 157 1 164 1 177 1 214 1 223 2 239 1 246 1 252 1 256 1 269 2 285 1 294 1 296 1 318 1 324 1 326 1 329 1 336 1 371 2 377 1 422 1 443 1 444 2 452 1 496 1 12 1 49 1 57 1 82 1 106 1 176 1 196 1 207 1 243 1 288 1 290 1 331 1 343 1 347 1 383 1 413 1 417 1 418 1 475 1 489 1 501 1 515 1 520 1 524 1 530 1 540 1 545 1 563 1 581 1 590 1 591 1 596 1 630 1 638 1 645 1 669 1 678 1 685 1 746 1 793 1 811 1 836 1 837 1 839 1 853 2 856 1 861 1 881 1 883 1 899 1 900 1 916 1 974 2 983 1 557 1 558 1 571 1 578 1 608 1 627 1 633 1 650 1 690 1 713 1 714 1 720 1 727 1 744 1 754 1 778 1 788 1 799 1 825 1 844 1 896 1 905 1 907 1 923 1 949 1 954 1 958 1 972 1 973 1 1000 1 1017 1 
1 209 10 1 65 1 66 2 140 1 159 2 179 1 219 1 223 1 225 1 257 1 260 1 262 1 279 1 284 1 334 1 338 1 358 1 362 1 368 1 369 1 401 1 438 1 439 1 473 1 481 1 498 2 502 1 39 1 49 1 71 1 90 1 95 1 100 1 109 1 129 1 152 1 171 1 174 1 185 1 212 1 221 1 274 1 278 1 289 1 307 1 328 1 337 1 343 1 351 1 374 1 389 1 442 1 467 1 486 1 501 1 546 1 548 1 560 1 566 1 579 1 585 1 588 1 597 1 618 1 622 1 623 1 630 1 638 1 651 1 686 1 695 1 702 1 707 1 715 1 716 1 721 1 736 1 747 1 755 1 774 1 780 1 785 1 802 1 810 1 865 1 867 1 877 1 889 1 925 1 926 2 929 1 940 1 955 1 966 1 980 1 990 1 543 1 551 1 581 1 592 1 635 1 640 1 641 1 670 1 673 1 677 1 681 1 753 1 764 1 773 1 777 1 823 1 842 1 876 1 893 1 921 1 932 1 936 1 938 1 939 1 950 1 954 1 979 1 997 1 1001 1 1013 1 1015 1 
1 213 4 1 11 2 19 1 28 1 32 1 33 1 37 1 47 2 52 1 66 2 72 1 105 1 109 1 118 1 131 1 164 1 176 1 216 1 222 1 231 1 255 1 266 1 290 1 361 1 436 1 439 1 440 1 456 1 480 1 54 1 84 1 152 1 169 1 185 1 204 1 214 1 215 1 218 1 227 1 232 1 233 1 270 1 276 1 289 1 298 1 310 1 336 1 344 1 365 1 441 1 448 1 449 1 478 1 494 1 520 1 527 1 545 1 563 1 594 1 600 1 638 1 663 1 697 1 709 1 714 1 740 1 750 1 769 1 776 1 780 1 785 1 798 1 803 1 805 1 850 1 851 1 866 1 867 1 879 1 902 1 948 1 949 1 978 1 989 1 571 1 582 1 595 1 605 1 645 1 688 1 691 1 724 1 743 1 751 1 796 1 809 1 838 1 870 1 883 1 885 1 890 1 900 1 941 1 945 1 946 1 957 1 973 1 974 1 999 1 1004 1 1007 1 
1 211 53 1 106 1 135 1 169 1 223 1 263 1 313 1 314 1 318 1 323 1 330 1 338 1 350 1 360 1 384 1 393 1 434 1 439 1 469 1 475 1 481 1 493 1 503 1 537 1 10 1 42 1 100 1 105 1 110 1 124 1 125 1 150 1 152 1 157 1 197 1 232 1 249 1 269 1 291 1 304 1 312 1 332 1 343 1 348 1 353 1 382 1 422 1 424 1 427 1 438 1 440 1 446 1 451 1 457 1 476 1 483 1 499 1 504 1 518 1 520 1 521 1 553 2 557 1 580 1 628 1 660 1 681 1 694 1 714 1 755 2 758 1 768 1 780 1 823 1 835 1 845 1 847 1 850 1 866 1 883 1 897 1 912 1 951 1 959 1 560 1 561 1 574 1 583 1 593 1 606 1 613 1 623 1 650 1 675 1 690 1 697 1 713 1 739 1 740 1 746 1 759 1 760 1 797 1 859 1 877 1 901 1 909 1 976 1 993 1 1006 1 1008 1 1011 1 1015 1 1019 1 
1 206 93 1 95 1 102 1 107 1 108 1 117 1 185 1 221 1 245 1 262 1 299 1 310 1 313 1 338 2 341 1 363 1 398 1 422 1 442 1 449 1 472 1 504 1 3 1 10 1 14 1 26 1 52 1 79 1 88 1 127 1 142 1 151 1 157 1 177 1 189 1 219 1 252 1 272 1 290 1 294 1 301 1 316 1 334 1 349 1 362 1 365 1 376 1 405 1 412 1 561 1 579 1 592 1 595 1 600 1 603 1 623 1 632 1 658 1 672 1 699 1 701 1 705 1 735 1 744 1 787 1 789 1 807 1 808 1 825 1 833 1 857 1 861 2 863 1 885 1 898 1 928 1 944 1 995 1 542 1 547 1 553 1 568 1 582 1 594 1 620 1 622 1 655 1 660 1 670 1 681 1 685 1 687 1 706 1 717 1 719 1 737 1 755 1 772 1 773 1 790 1 804 1 816 1 822 1 909 1 915 1 934 1 955 1 1015 1 
1 212 9 1 21 1 31 2 88 1 105 1 131 1 136 1 161 1 201 1 209 1 257 1 260 2 263 1 268 1 286 1 287 1 335 2 339 1 349 1 354 2 374 1 402 1 416 1 429 1 474 1 499 1 502 1 527 1 18 1 66 1 69 1 74 1 79 1 94 1 104 1 140 1 164 1 165 1 170 1 176 1 193 1 195 1 218 1 221 1 245 1 327 1 337 1 377 1 379 1 392 1 436 1 438 1 449 1 508 1 529 1 541 1 550 1 570 1 579 2 593 1 600 1 602 1 621 1 629 1 635 1 639 1 642 1 647 1 648 2 659 1 685 2 715 1 725 1 733 1 803 1 814 1 832 1 839 1 841 1 886 2 888 1 889 1 902 1 923 1 934 1 943 1 958 1 986 1 996 1 577 1 612 1 649 1 675 1 707 1 710 1 731 1 761 1 815 1 836 1 840 1 852 1 855 1 883 1 907 1 948 1 965 1 969 1 972 1 1002 1 1003 1 1010 1 
1 210 4 1 5 1 34 1 42 1 52 1 56 1 95 1 100 1 110 1 132 1 139 1 157 1 178 1 183 1 243 1 254 1 276 2 280 1 315 1 322 1 325 1 343 1 364 1 368 1 375 2 390 1 419 1 426 1 455 1 461 1 465 1 501 1 526 1 6 1 21 1 46 1 54 1 65 1 74 1 117 1 150 1 197 1 253 1 293 1 296 1 332 1 354 1 369 1 377 1 412 1 429 1 432 1 439 1 488 1 500 1 502 1 538 1 613 1 614 1 620 1 669 1 697 1 699 2 728 1 734 1 746 1 747 1 754 1 773 1 793 1 796 1 800 1 808 1 814 1 816 2 840 1 852 1 863 1 876 1 880 1 887 1 890 2 906 1 914 1 918 1 928 1 947 1 966 1 968 1 970 1 974 1 564 1 571 1 576 1 628 1 629 1 646 1 657 1 693 1 702 1 732 1 740 1 765 1 782 1 868 1 929 1 972 1 984 1 985 1 1008 1 1009 1 1011 1 1013 1 1017 1 
1 212 38 1 78 1 89 1 112 1 122 1 138 1 160 1 177 2 178 1 187 1 222 1 237 1 253 1 254 1 305 1 359 1 371 1 381 1 392 1 410 1 445 1 455 1 469 1 481 1 35 1 41 1 44 1 77 1 81 1 83 1 99 1 101 1 108 1 166 1 175 1 225 1 246 1 256 1 259 1 282 1 294 1 326 1 345 1 347 1 355 1 365 1 414 1 452 1 511 1 519 1 524 1 533 1 550 1 556 1 584 1 594 1 616 1 620 1 627 1 642 1 647 1 669 1 671 1 691 2 700 1 740 1 745 1 752 1 823 1 865 1 906 1 923 1 934 1 938 1 942 1 944 1 969 1 563 1 606 1 644 1 654 1 667 1 670 1 678 1 681 1 685 1 696 1 701 1 726 1 732 1 738 1 742 1 744 1 756 1 785 1 788 1 800 1 833 1 847 1 854 1 890 1 894 1 901 1 902 1 929 1 963 1 1002 1 1009 1 1015 1 1017 1 1018 1 
1 214 6 1 34 1 68 1 88 1 106 1 167 1 168 1 192 1 197 1 212 1 254 1 257 1 266 1 277 1 300 1 314 1 318 1 328 1 338 2 350 1 368 1 371 1 377 1 388 1 416 1 438 1 450 1 476 1 482 1 483 1 507 1 516 1 530 1 537 1 539 1 53 1 58 1 82 1 91 1 95 1 103 1 135 1 150 1 161 1 185 1 199 1 216 1 284 1 319 1 356 1 382 1 404 1 406 1 422 1 431 1 447 1 465 1 468 1 472 1 477 1 488 1 499 1 502 1 562 1 571 1 589 1 639 1 672 1 686 1 703 1 704 1 717 1 742 2 746 1 750 1 757 1 767 1 787 1 788 1 816 1 822 1 823 2 824 1 834 1 845 2 849 1 877 1 888 1 916 1 934 1 953 1 967 1 984 1 558 1 630 1 637 1 668 1 670 1 676 1 712 1 733 1 748 1 765 1 770 1 776 1 805 1 829 1 859 1 861 1 867 1 898 1 899 1 904 1 908 1 918 1 941 1 942 1 945 1 995 1 1004 1 1007 1 1015 1 
1 207 14 1 27 1 62 1 82 1 95 1 112 1 169 1 174 1 198 1 212 1 213 1 225 1 248 1 249 1 255 1 269 1 293 1 295 1 310 1 322 1 370 1 374 1 411 1 433 1 529 1 535 1 538 1 3 1 19 1 37 1 56 1 60 1 88 1 115 1 144 1 147 1 154 1 207 1 218 1 247 1 277 1 278 1 284 1 307 1 309 1 321 1 335 1 379 1 404 1 425 1 426 1 427 1 438 1 498 1 519 1 522 1 524 1 528 1 567 1 601 1 611 1 647 1 656 1 661 1 676 1 698 1 706 1 722 2 724 2 725 1 734 1 761 1 805 1 807 2 827 1 840 1 845 1 847 1 859 1 862 1 868 1 893 1 894 1 924 1 970 1 973 1 549 1 621 1 631 1 642 1 649 1 680 1 746 1 755 1 779 1 788 1 820 1 821 1 851 1 858 1 867 1 883 1 886 1 887 1 889 1 915 1 931 1 933 1 983 1 984 1 1004 1 1016 1 
1 213 28 1 44 1 50 1 84 1 86 1 88 2 115 1 123 1 125 1 151 1 179 1 193 1 203 1 214 1 260 1 262 1 281 1 306 1 311 1 339 1 368 1 370 1 374 1 388 1 390 1 472 1 474 1 497 1 523 1 532 1 21 1 26 1 40 1 59 1 70 1 77 1 78 1 95 1 103 1 107 1 117 1 132 1 137 1 142 1 187 1 211 1 213 1 243 1 251 1 268 1 272 1 280 1 289 1 292 1 335 1 385 1 473 1 479 1 481 1 486 1 504 1 525 1 526 1 541 1 557 1 589 1 592 1 606 1 623 2 633 1 644 1 721 1 735 1 792 1 798 1 802 1 828 1 861 1 872 1 884 1 903 1 907 1 920 1 943 1 950 1 970 1 976 1 549 1 551 1 579 1 609 1 611 1 616 1 626 1 643 1 652 1 678 1 727 1 730 1 741 1 758 1 773 1 805 1 854 1 862 1 882 1 898 1 922 1 941 1 947 1 967 1 985 1 996 1 999 1 1000 1 1001 1 
1 215 14 1 59 1 63 1 84 1 85 1 112 1 138 1 165 1 171 1 188 1 199 1 200 2 207 2 254 1 270 1 292 1 316 1 341 1 352 1 364 1 417 1 439 1 447 1 463 1 476 2 478 1 486 1 498 1 505 1 521 1 525 1 538 1 3 1 5 1 9 1 23 1 30 1 37 1 73 1 74 1 89 1 96 1 107 1 108 1 134 1 206 1 228 1 246 1 273 1 288 1 299 1 315 1 322 1 382 1 389 1 393 1 444 1 457 1 469 1 503 1 506 1 507 1 514 1 563 1 569 1 583 1 584 1 610 1 615 1 627 1 650 1 673 1 675 1 693 1 694 1 710 1 735 1 745 1 800 1 809 1 810 1 847 1 859 1 899 1 903 1 905 1 917 1 936 1 938 1 940 1 946 1 965 1 979 1 585 1 590 1 663 1 674 1 713 1 721 1 723 1 725 1 740 1 774 1 818 1 823 1 841 1 843 1 862 1 864 1 924 1 954 1 973 1 981 1 984 1 985 1 992 1 999 1 1008 1 1011 1 
1 209 14 1 52 1 55 1 70 1 74 1 77 1 141 1 144 1 160 1 192 1 215 1 223 1 227 1 233 1 254 1 274 1 275 1 288 1 307 1 318 1 319 1 333 1 336 1 346 2 398 1 421 1 437 1 455 1 458 1 468 1 479 2 508 1 522 1 5 1 13 1 42 1 45 1 46 1 127 1 134 1 157 1 184 1 187 1 218 1 220 1 237 1 238 1 256 1 262 1 265 1 271 1 279 1 289 1 291 1 293 1 312 1 349 1 353 1 355 1 379 1 389 1 412 1 419 1 441 1 459 1 462 1 464 1 488 1 502 1 546 1 547 1 581 1 596 1 636 1 641 1 650 1 715 1 733 1 734 1 738 2 743 1 774 1 811 1 814 1 819 1 824 1 833 1 845 1 848 1 878 1 908 1 911 1 935 1 942 1 949 1 952 1 955 1 956 1 985 1 562 1 580 1 599 1 613 1 615 1 617 1 645 1 646 1 687 1 704 1 707 1 729 1 752 1 761 1 767 1 768 1 776 1 794 1 868 1 875 1 882 1 885 1 891 1 940 1 946 1 953 1 959 1 987 1 1002 1 1005 1 
1 208 13 1 23 1 48 1 84 1 108 1 131 1 135 1 151 1 157 1 160 1 173 1 199 1 222 1 233 1 268 1 271 1 279 1 323 1 335 1 346 1 387 1 388 1 399 1 409 1 427 1 478 1 483 1 490 1 493 1 496 1 502 1 516 1 542 1 544 1 52 1 53 1 62 1 98 1 114 1 147 1 153 1 164 1 209 1 211 1 234 1 246 1 264 1 269 1 292 1 300 1 310 1 332 1 334 1 345 1 348 1 349 1 365 1 392 1 431 1 442 1 443 1 453 1 475 1 517 1 525 1 550 1 550 1 575 1 592 1 596 1 600 1 617 1 623 1 624 1 636 1 640 1 667 1 739 1 746 1 758 1 759 2 766 1 783 1 785 1 823 1 824 1 843 1 849 1 876 1 883 1 891 1 906 1 912 1 918 1 920 1 951 1 983 1 552 1 558 1 559 1 571 1 598 1 609 1 613 1 633 1 654 1 661 1 673 1 690 1 694 1 703 1 737 1 762 1 786 1 832 1 842 1 858 1 863 1 865 1 869 1 899 1 925 1 927 1 957 1 962 1 988 1 990 1 1002 1 1009 1 
1 208 4 1 20 1 28 1 38 1 52 1 53 1 55 1 89 1 103 1 110 1 130 1 134 1 138 1 159 1 165 1 172 1 173 1 231 1 248 1 260 1 265 1 340 1 354 1 386 1 390 1 407 1 412 1 416 1 467 1 516 1 518 1 530 1 532 1 7 1 11 1 24 1 33 1 42 1 46 1 47 1 51 1 57 1 62 1 66 1 78 1 84 1 96 1 126 1 127 1 143 1 147 1 164 1 186 1 233 1 247 1 252 1 253 1 262 1 269 1 293 1 299 1 334 1 359 1 379 1 398 1 400 1 442 1 461 1 511 1 533 1 538 1 547 1 553 2 578 1 599 1 617 1 618 1 619 1 646 1 661 1 670 1 683 1 697 1 708 1 738 1 749 1 750 1 762 1 766 1 788 1 806 1 873 1 914 1 917 1 932 1 933 1 946 1 969 1 558 1 561 1 562 1 573 1 577 1 582 1 588 1 591 1 615 1 629 1 648 1 664 1 671 1 693 1 732 1 740 1 783 1 799 1 800 1 816 1 824 1 840 1 849 1 854 1 859 1 864 1 871 1 916 1 928 1 974 1 1003 1 1018 1 
1 206 5 1 12 1 29 1 33 1 43 1 45 1 47 1 55 1 60 1 66 1 85 1 87 2 94 1 111 1 118 1 126 1 146 1 167 1 208 2 215 1 234 1 269 1 270 1 283 1 290 1 309 1 334 1 342 1 369 1 374 1 429 1 467 1 468 2 502 1 518 1 533 1 1 1 9 1 21 1 61 1 83 1 105 1 108 1 153 1 155 1 158 1 207 1 273 1 278 1 300 1 301 1 320 1 321 1 340 1 350 1 358 1 359 1 368 1 375 1 387 1 390 1 391 1 392 1 407 1 436 1 457 1 461 1 479 1 503 1 550 1 558 1 564 1 575 1 577 1 581 1 582 1 583 1 616 1 697 1 705 1 755 1 764 1 776 1 800 1 803 2 819 1 834 1 855 1 881 1 901 2 977 1 979 1 981 1 989 1 570 1 610 1 614 1 623 1 633 1 644 1 655 1 721 1 724 1 726 1 738 1 743 1 774 1 799 1 840 1 872 1 924 1 958 1 963 1 987 1 999 1 1012 1 
1 209 5 1 14 1 21 1 27 1 34 1 48 1 83 1 111 1 126 1 138 1 153 1 169 1 172 1 186 1 192 1 201 1 226 1 235 1 247 2 268 1 354 1 369 1 390 1 417 1 425 1 439 1 450 1 458 1 478 1 519 1 522 1 536 1 540 2 551 2 28 1 46 1 60 1 71 1 81 1 95 1 103 1 152 1 168 1 174 1 205 1 217 1 279 1 282 1 293 1 305 1 310 1 311 1 364 1 384 1 388 1 395 1 431 1 447 1 460 1 507 1 517 1 541 1 564 1 575 1 579 1 585 2 599 1 609 1 623 1 626 1 654 1 655 1 697 1 727 2 738 1 759 1 767 1 781 2 793 1 855 1 879 1 889 2 916 1 917 1 947 1 952 1 957 1 979 1 568 1 588 1 617 1 618 1 638 1 657 1 670 1 711 1 746 1 774 1 814 1 836 1 844 1 845 1 847 1 858 1 864 1 882 1 907 1 919 1 931 1 946 1 982 1 996 1 1004 1 1012 1 1016 1 1018 1 
1 208 19 1 33 1 44 1 108 2 139 1 170 1 194 1 213 1 228 1 248 1 259 1 265 1 275 1 306 1 315 1 319 1 322 1 336 1 393 1 426 1 441 1 444 1 528 1 5 1 6 1 48 1 128 1 129 1 142 1 146 1 154 1 230 1 244 1 252 1 286 1 292 1 308 1 335 1 352 1 399 1 418 1 419 1 430 1 433 1 447 1 489 1 514 1 531 1 558 1 564 1 565 2 582 1 598 1 603 1 641 1 644 2 645 1 653 1 660 1 676 1 682 1 690 1 698 1 705 1 722 1 732 1 735 1 750 1 779 1 788 1 836 1 863 1 880 1 918 1 960 1 991 1 993 1 560 1 570 1 572 1 577 1 600 1 606 1 629 1 638 1 639 1 649 1 651 1 661 1 675 1 680 1 697 1 730 1 734 1 812 1 842 1 877 1 881 1 906 1 911 1 923 1 932 1 935 1 943 1 969 1 1001 1 1018 1 
1 209 63 1 67 1 68 1 72 1 76 1 87 1 88 1 102 1 115 1 142 1 191 1 204 1 212 1 246 1 257 1 273 1 278 1 318 1 340 1 373 1 389 1 404 1 406 1 416 2 437 1 438 1 439 1 442 1 478 1 479 1 480 1 483 1 520 1 29 1 46 1 83 1 97 1 108 1 170 1 180 1 186 1 196 1 264 1 271 1 317 1 327 1 352 1 359 1 361 1 365 1 385 1 411 1 467 1 534 1 570 1 578 2 597 1 611 1 615 1 620 2 707 1 739 1 752 1 861 1 865 1 878 1 906 1 908 1 913 1 917 1 925 1 932 1 934 1 940 1 953 1 972 1 974 1 981 1 987 2 989 1 990 1 572 1 587 1 588 1 603 1 638 1 674 1 677 1 680 1 682 1 685 1 701 1 710 1 734 1 767 1 784 1 793 1 804 1 809 1 821 1 867 1 895 1 898 1 901 1 902 1 957 1 997 1 1009 1 1017 1 
1 210 8 1 18 1 37 1 49 1 68 1 75 1 92 1 120 1 133 1 160 1 198 1 274 1 291 1 297 1 307 1 334 1 367 1 397 1 404 1 455 1 473 1 474 1 535 2 544 1 17 1 42 1 77 1 78 1 90 1 109 1 110 1 164 1 170 1 214 1 228 1 235 1 247 1 255 1 258 1 263 1 281 1 284 1 301 1 332 1 342 1 363 1 453 1 463 1 476 1 486 1 502 1 508 1 517 1 523 1 526 1 561 1 579 1 584 1 588 1 620 1 631 1 634 1 650 1 657 1 661 2 664 1 708 1 717 1 731 1 740 1 741 1 761 1 764 1 774 1 794 1 797 1 803 1 831 1 843 1 847 1 866 1 894 1 919 1 920 1 921 1 934 1 947 1 984 1 615 1 622 1 638 1 640 1 643 1 645 1 656 1 676 1 683 1 725 1 726 1 732 1 762 1 765 1 766 1 791 1 798 1 822 1 834 1 881 1 911 1 918 1 956 1 995 1 1002 1 1011 1 
1 210 13 1 50 1 68 2 173 1 214 1 222 1 258 1 268 1 286 1 304 1 348 1 377 1 381 1 415 1 437 1 480 1 503 1 536 1 540 1 547 1 3 1 16 1 27 1 46 1 103 1 134 1 156 1 163 1 169 1 186 1 195 1 225 1 229 1 247 1 253 1 270 1 312 1 326 1 346 1 353 1 361 1 372 1 425 1 479 1 511 1 537 1 579 1 586 1 609 1 639 1 650 1 659 1 660 1 662 1 669 1 674 1 678 1 693 1 696 1 744 1 772 1 784 1 791 1 827 1 838 1 844 1 855 1 864 1 867 1 870 1 877 1 881 1 893 1 905 1 921 1 952 1 968 1 970 1 996 1 563 1 566 1 568 1 574 1 615 1 633 1 635 1 642 1 663 1 664 1 714 1 741 1 743 1 773 1 794 1 801 1 823 1 840 1 856 1 876 1 891 1 902 1 928 1 936 1 949 1 987 1 1014 1 1018 1 
1 207 9 1 44 1 66 1 80 2 166 1 190 1 213 1 240 1 269 1 283 1 293 1 302 1 354 1 373 1 380 1 389 1 421 2 425 1 472 1 479 1 483 1 495 1 498 1 514 1 521 1 552 1 554 1 3 1 10 1 14 1 43 1 46 1 49 1 58 1 77 1 91 1 98 1 112 1 126 1 159 1 182 1 208 1 219 1 233 1 234 1 243 1 277 1 282 1 346 1 364 1 368 1 372 1 384 1 409 1 418 1 426 1 464 1 466 1 478 1 489 1 513 1 515 1 534 1 537 1 545 1 550 1 551 1 559 1 565 1 576 1 597 1 602 1 618 1 628 1 729 1 753 1 757 1 790 1 820 1 836 1 862 1 871 2 876 1 898 2 901 1 916 2 920 1 937 1 942 1 953 1 973 1 562 1 566 1 579 1 593 1 595 1 610 1 630 1 648 1 655 1 680 1 686 1 707 1 715 1 726 1 731 1 748 1 783 1 797 1 832 1 835 1 852 1 879 1 921 1 924 1 943 1 968 1 970 1 987 1 988 1 995 1 1019 1 
1 212 18 1 41 1 42 1 44 1 59 1 61 1 63 1 64 1 71 1 77 1 106 2 125 1 141 1 164 1 186 1 197 1 200 2 203 1 262 1 298 1 310 1 327 1 335 1 339 1 343 1 360 1 361 1 369 1 376 2 378 1 398 1 417 1 429 1 445 1 449 1 453 1 456 1 465 1 468 1 505 1 530 1 558 1 1 1 5 1 25 1 43 1 62 1 85 1 88 1 89 1 99 1 120 1 209 1 228 1 231 1 243 1 255 1 267 1 311 1 317 1 365 1 368 1 416 1 424 1 444 1 458 1 472 1 474 1 480 1 521 1 526 1 550 1 576 2 607 1 608 1 694 1 720 2 755 1 764 1 768 1 788 1 799 1 814 1 847 1 890 1 913 1 933 2 935 1 950 1 963 1 591 1 621 1 633 1 638 1 661 1 663 1 666 1 693 1 746 1 758 1 783 1 800 1 845 1 866 1 896 1 909 1 924 1 954 1 962 1 966 1 986 1 
1 209 1 1 12 1 34 1 81 1 103 1 106 1 129 1 140 1 141 1 155 1 167 1 195 1 196 1 265 1 332 1 351 1 362 1 380 1 411 1 415 1 454 1 489 1 491 1 503 1 538 1 19 1 26 1 33 1 52 1 70 1 150 1 151 1 169 1 221 1 248 1 274 1 296 1 297 1 304 1 321 1 326 1 338 1 354 1 384 1 390 1 408 1 446 1 485 1 507 1 522 1 529 1 540 1 554 1 584 2 592 1 628 1 629 1 642 2 646 1 662 1 666 1 691 1 696 1 728 1 730 1 748 1 790 1 791 1 801 2 813 1 845 1 855 1 857 1 858 1 863 1 881 1 907 1 914 1 920 1 925 1 957 1 958 1 965 1 580 1 605 1 607 1 611 1 617 1 623 1 640 1 643 1 657 1 658 1 659 1 665 1 669 1 675 1 708 1 739 1 745 1 775 1 792 1 816 1 837 1 888 1 893 1 905 1 911 1 919 1 933 1 962 1 968 1 992 1 1007 1 1013 1 1018 1 
1 208 6 1 52 1 80 1 121 1 147 1 166 1 188 1 205 1 226 2 229 1 232 1 248 1 254 1 257 1 270 1 279 1 292 1 340 1 352 1 369 2 376 2 380 1 394 1 400 1 417 1 421 1 448 1 453 1 496 1 514 1 522 1 541 1 556 1 13 1 38 1 76 1 82 1 85 1 107 1 109 1 113 1 191 1 217 1 219 1 221 1 243 1 256 1 264 1 293 1 319 1 324 1 326 1 337 1 350 1 363 1 364 1 368 1 379 1 382 1 396 1 412 1 414 1 447 1 461 1 468 1 479 1 497 1 511 1 516 1 531 1 540 1 551 1 570 1 579 1 582 1 601 1 625 1 645 1 662 1 663 1 664 1 677 1 689 1 693 1 736 1 753 1 754 1 761 1 798 1 837 1 841 1 846 1 884 1 898 2 904 1 937 1 939 1 947 2 967 1 990 1 583 1 646 1 688 1 711 1 720 1 744 1 765 1 771 1 780 1 790 1 801 1 814 1 815 1 826 1 870 1 883 1 913 1 930 1 951 1 959 1 961 1 971 1 972 1 1001 1 1011 1 
1 217 5 1 12 1 15 1 66 1 83 1 87 1 102 1 104 1 153 1 170 1 188 1 189 1 207 1 243 1 264 1 282 1 289 1 300 2 329 1 349 1 354 1 355 1 394 1 397 1 410 1 412 1 437 1 456 1 470 1 492 1 516 1 521 1 528 1 530 1 545 1 55 1 74 1 85 1 88 1 137 1 146 1 156 1 195 1 255 1 257 1 262 1 293 1 307 1 378 1 389 1 441 1 471 1 505 1 549 1 551 1 558 1 566 1 572 1 603 1 608 1 622 1 626 1 635 1 639 1 677 1 680 1 687 1 691 1 728 1 751 1 781 1 783 2 789 1 799 1 800 1 810 1 816 1 824 1 842 1 874 2 883 1 887 1 888 1 900 1 909 1 920 1 955 1 960 1 983 1 997 1 614 1 647 1 648 1 663 1 664 1 675 1 703 1 711 1 733 1 734 1 753 1 814 1 838 1 866 1 867 1 884 1 891 1 941 1 946 1 976 1 982 1 991 1 998 1 999 1 1010 1 
1 212 5 1 29 1 66 1 78 1 130 1 132 1 149 1 150 1 156 1 158 1 159 1 160 1 182 1 190 1 201 1 203 2 204 1 210 1 213 1 235 1 242 1 254 1 259 1 286 1 317 1 322 1 326 1 339 1 354 1 356 1 461 1 466 1 487 1 494 1 504 1 506 1 532 1 537 1 539 1 548 1 48 1 79 1 88 1 90 1 105 1 169 1 176 1 191 1 218 1 229 1 264 1 292 1 293 1 327 1 369 1 379 1 410 1 411 1 425 1 434 1 443 1 479 1 511 1 516 1 525 1 530 1 544 1 557 1 569 1 591 1 609 1 618 1 628 1 639 1 644 1 698 1 726 1 734 1 741 1 760 1 767 1 792 1 828 1 856 1 859 1 893 1 904 1 912 1 921 1 952 1 985 1 571 1 581 1 598 1 602 1 631 1 642 1 646 1 647 1 658 1 661 1 745 1 759 1 772 1 776 1 788 1 798 1 812 1 864 1 882 1 890 1 892 1 896 1 926 1 936 1 986 1 999 1 1003 1 1004 1 1019 1 
1 208 4 1 24 1 35 1 40 1 52 1 71 1 95 1 100 1 204 1 248 1 259 1 271 1 273 1 282 1 314 1 321 1 335 1 370 1 374 1 414 1 423 1 429 1 447 1 469 1 478 1 490 2 493 2 501 1 552 1 553 1 554 1 20 1 22 1 53 1 70 1 73 1 97 1 116 1 127 1 177 1 189 1 228 1 241 1 261 1 298 1 301 1 311 1 319 1 342 1 347 1 348 1 350 1 421 1 432 1 475 1 486 1 492 1 517 1 543 1 602 1 625 1 649 1 681 1 737 1 762 1 772 1 776 1 839 1 847 1 848 1 872 1 876 1 883 1 889 1 901 2 906 1 921 1 947 1 964 1 986 1 580 1 583 1 606 1 666 1 692 1 695 1 699 1 713 1 722 1 730 1 735 1 744 1 745 1 747 1 795 1 830 1 834 1 838 1 864 1 873 1 874 1 880 1 882 1 885 1 890 1 892 1 931 1 936 1 980 1 983 1 1002 1 1019 1 
1 209 15 1 26 1 35 1 79 1 83 1 89 1 96 1 109 1 141 1 142 1 153 1 161 1 171 1 194 1 199 1 200 1 216 1 243 1 254 1 263 1 309 1 314 1 328 1 432 1 475 1 485 1 501 1 554 2 558 1 39 1 53 1 84 1 116 1 120 1 130 1 137 1 143 1 149 1 206 1 209 1 250 1 264 1 306 1 325 1 332 1 348 1 350 1 371 1 377 1 383 1 410 1 425 1 463 1 479 1 600 1 616 1 618 1 657 1 664 1 678 1 680 1 731 1 766 1 787 1 796 1 804 1 817 1 841 1 845 1 848 1 880 1 881 1 898 1 975 1 978 1 979 1 568 1 573 1 581 1 607 1 609 1 614 1 620 1 628 1 649 1 660 1 662 1 663 1 689 1 696 1 701 1 712 1 717 1 718 1 730 1 746 1 771 1 776 1 780 1 783 1 795 1 811 1 837 1 864 1 938 1 940 1 954 1 964 1 984 1 998 1 1018 1 1019 1 
1 213 6 1 29 1 40 1 69 1 89 1 106 1 138 1 144 1 150 1 193 1 229 1 239 1 241 1 261 1 269 1 304 1 334 2 362 1 365 1 384 1 434 1 441 1 446 1 467 1 479 1 485 1 487 1 516 1 520 1 522 1 536 2 538 1 562 1 3 1 9 1 32 1 58 1 66 1 105 1 149 1 172 1 178 1 184 1 220 1 246 1 289 1 299 1 306 1 323 1 325 1 392 1 403 1 407 1 458 1 471 1 521 1 557 1 558 1 567 1 569 1 573 1 576 1 581 1 604 1 618 1 620 1 635 2 643 1 653 1 655 1 668 1 674 1 759 1 765 1 767 1 785 1 788 1 797 1 833 1 868 1 869 1 911 1 930 1 938 1 939 1 943 1 954 1 978 1 568 1 601 1 605 1 619 1 629 1 651 1 654 1 681 1 702 1 736 1 792 1 802 1 817 1 839 1 858 1 861 1 881 1 916 1 922 1 941 1 972 1 996 1 1006 1 1016 1 1018 1 
1 207 5 1 51 1 99 1 100 1 108 1 112 1 128 1 129 1 143 1 170 2 173 1 178 1 202 1 207 1 217 1 236 1 252 1 254 1 267 1 271 1 272 1 305 1 306 1 308 1 311 1 317 1 325 1 339 1 348 1 381 1 410 1 446 1 470 1 546 1 566 1 13 1 39 1 82 1 102 1 122 1 136 1 144 1 150 1 166 1 186 1 194 1 195 1 235 1 241 1 242 1 262 1 289 1 322 1 347 1 352 1 353 1 396 1 405 1 422 1 459 1 469 1 488 1 518 1 602 1 623 1 634 1 643 1 666 1 687 2 691 2 721 1 722 1 733 1 741 1 748 1 751 1 752 1 775 1 835 1 842 1 854 1 868 1 876 1 877 2 889 1 938 1 943 1 972 1 985 1 998 1 576 1 577 1 584 1 603 1 636 1 672 1 680 1 746 1 755 1 783 1 786 1 813 1 825 1 833 1 880 1 927 1 952 1 964 1 971 1 975 1 982 1 991 1 
1 212 2 1 13 1 14 1 68 1 78 1 107 1 112 1 124 1 196 1 236 1 252 1 259 1 362 1 364 1 366 1 387 1 403 1 414 1 438 1 449 1 464 1 482 2 489 1 495 1 501 1 506 1 523 1 525 1 32 1 47 1 84 1 85 1 103 1 126 1 135 1 151 1 157 1 165 1 177 1 182 1 204 1 221 1 234 1 246 1 248 1 266 1 305 1 311 1 328 1 348 1 365 1 375 1 380 1 394 1 397 1 409 1 418 1 422 1 428 1 441 1 467 1 509 1 513 1 520 1 541 1 553 1 557 1 565 1 566 1 568 1 568 1 609 1 611 1 632 1 646 2 656 2 717 1 798 1 804 1 806 2 809 1 859 1 863 1 868 1 913 1 932 1 934 1 944 1 948 1 960 2 966 1 990 1 998 2 570 1 583 1 585 1 616 1 623 1 697 1 725 1 733 1 746 1 766 1 773 1 781 1 795 1 800 1 845 1 849 1 911 1 933 1 952 1 999 1 1017 1 
1 212 80 1 120 1 132 1 138 1 152 1 155 1 184 1 188 1 193 1 203 1 211 1 219 1 222 1 229 2 231 1 253 1 268 1 276 1 330 1 356 1 358 1 366 1 382 1 468 1 470 1 472 1 548 1 563 1 566 1 13 1 23 1 26 1 40 1 42 1 46 1 76 1 78 1 95 1 102 1 116 1 121 1 134 1 185 1 208 1 218 1 224 1 254 1 318 1 332 1 338 1 362 1 369 1 388 1 399 1 400 1 425 1 448 1 490 1 493 1 497 1 498 1 505 1 569 1 569 1 609 1 622 1 656 1 679 1 720 1 732 1 735 1 755 1 778 1 798 1 819 1 842 1 868 1 874 1 882 1 885 1 923 1 954 1 986 2 992 1 993 1 615 1 626 1 639 1 642 1 644 1 683 1 685 1 688 1 714 1 750 1 757 1 773 1 817 1 829 1 878 1 879 1 886 1 899 1 919 1 948 1 951 1 996 1 1001 1 1010 1 1011 1 
1 209 13 1 22 1 42 1 53 1 64 1 78 1 144 1 162 1 176 1 187 1 197 1 200 1 203 1 210 1 219 1 227 1 287 1 321 1 337 1 370 1 386 1 389 1 467 1 474 1 480 1 482 1 524 1 542 1 555 1 561 1 10 1 24 1 27 1 34 1 44 1 65 1 76 1 103 1 133 1 184 1 198 1 245 1 249 1 275 1 277 1 299 1 301 1 305 1 316 1 325 1 327 1 328 1 332 1 373 1 374 1 381 1 388 1 391 1 396 1 407 1 409 1 420 1 434 1 471 1 508 1 552 1 554 1 568 1 619 1 638 1 639 1 643 1 651 1 653 1 659 1 677 1 711 1 713 1 730 1 750 1 752 1 762 1 809 1 854 2 856 1 861 1 875 1 882 1 904 1 912 1 916 1 942 1 954 1 971 1 594 1 635 1 670 1 778 1 779 1 780 1 792 1 814 1 838 1 849 1 864 1 907 1 944 1 975 1 1006 1 
1 213 2 1 3 1 79 1 83 1 111 1 112 1 126 1 133 1 167 1 183 1 185 1 198 1 210 1 227 1 234 1 235 1 258 1 267 1 278 1 367 1 373 1 376 1 422 2 438 1 444 1 484 1 504 1 509 1 536 1 545 1 10 1 14 1 27 1 46 1 51 1 93 1 96 1 107 1 117 1 138 1 178 1 180 1 285 1 306 1 310 1 362 1 364 1 431 1 474 1 517 1 519 1 523 1 537 1 539 1 543 1 550 1 563 1 578 1 599 1 601 1 606 1 644 1 668 1 673 1 690 1 696 1 706 1 718 1 735 2 767 1 785 1 811 1 816 1 821 1 823 2 829 1 845 1 847 1 894 1 907 1 934 1 938 1 949 1 951 1 954 1 962 1 967 1 986 1 990 1 992 1 580 1 612 1 624 1 641 1 656 1 666 1 697 1 699 1 711 1 715 1 719 1 724 1 752 1 760 1 813 1 825 1 859 1 868 1 869 1 896 1 910 1 919 1 945 1 953 1 955 1 980 1 1011 1 1012 1 
1 211 9 1 49 2 109 1 128 1 136 1 147 1 167 1 175 1 199 1 213 1 223 1 233 1 241 1 253 1 256 1 272 1 283 1 296 1 303 1 341 1 396 1 403 1 409 1 440 1 441 1 455 1 463 1 472 2 474 1 486 1 499 1 502 1 505 1 506 2 534 1 562 1 10 1 14 1 22 1 34 1 38 1 61 1 98 1 114 1 115 1 130 1 137 1 158 1 161 1 162 1 188 1 217 1 226 1 242 1 276 1 310 1 317 1 318 1 326 1 327 1 328 1 347 1 360 1 369 1 374 1 380 1 406 1 419 1 432 1 439 1 442 1 460 1 483 1 508 1 554 1 555 1 582 1 590 1 593 1 599 1 606 1 611 1 618 1 645 1 648 1 653 1 661 1 738 1 745 1 747 1 766 1 770 1 782 1 791 1 795 1 801 1 872 1 913 1 925 1 950 1 958 1 977 1 987 1 600 1 613 1 647 1 680 1 690 1 693 1 734 1 786 1 789 1 835 1 852 1 864 1 891 1 915 1 937 1 940 1 963 1 990 1 1000 1 1012 1 
1 210 3 1 19 1 22 1 30 1 45 2 53 1 63 1 65 1 76 1 82 1 136 1 177 1 181 1 186 1 225 1 230 1 238 1 283 1 298 1 312 1 320 1 333 1 337 1 340 1 342 1 349 1 379 1 400 1 473 1 566 1 16 1 20 1 25 1 42 1 48 1 71 1 77 1 87 1 112 1 132 1 151 1 172 1 180 1 220 1 245 1 250 1 259 1 280 1 291 1 323 1 327 1 330 1 353 1 368 1 381 1 406 1 410 1 413 1 417 1 436 1 441 1 444 1 487 1 495 1 503 1 516 1 531 1 551 1 565 1 576 1 658 1 707 1 716 1 721 1 739 1 740 1 746 1 748 1 787 1 800 1 801 1 833 1 838 1 856 1 890 1 906 1 942 1 944 1 995 1 583 1 589 1 598 1 612 1 679 1 696 1 705 1 712 1 762 1 769 1 842 1 852 1 870 1 873 1 885 1 912 1 922 1 936 1 948 1 955 1 963 1 964 1 980 1 984 1 1000 1 1005 1 1014 1 1015 1 
1 206 22 1 36 1 61 1 72 1 113 1 133 1 141 1 147 1 151 1 154 1 174 1 196 1 208 1 215 1 234 1 252 2 255 1 303 1 304 1 319 1 344 1 408 2 425 1 449 1 465 1 501 1 514 1 7 1 30 1 37 1 38 1 50 1 80 1 81 1 83 1 84 1 88 1 92 1 122 1 132 1 146 1 162 1 179 1 180 1 191 1 222 1 270 1 272 1 277 1 337 1 341 1 371 1 383 1 403 1 422 1 436 1 445 1 447 1 475 1 481 1 540 1 557 1 603 1 617 2 625 1 630 1 636 1 647 1 668 1 672 1 673 2 736 1 759 1 760 1 810 1 821 1 839 1 855 1 861 1 875 1 877 1 901 1 913 1 926 1 940 1 971 1 978 1 994 1 678 1 702 1 709 1 726 1 730 1 742 1 766 1 793 1 799 1 804 1 841 1 851 1 854 1 949 1 963 1 973 1 997 1 1005 1 1008 1 1014 1 
1 210 15 1 18 1 42 1 84 1 111 2 112 1 120 1 124 1 136 1 147 1 197 1 214 1 220 1 229 1 241 1 292 1 298 1 301 1 314 1 330 1 340 1 376 1 379 1 415 1 422 1 430 1 436 2 450 2 468 1 478 1 486 1 500 1 511 1 526 1 534 1 550 1 552 1 553 1 28 1 51 1 56 1 57 1 67 1 98 1 118 1 153 1 160 1 200 1 218 1 246 1 258 1 266 1 286 1 318 1 320 1 324 1 343 1 360 1 375 1 398 1 408 1 417 1 438 1 444 1 473 1 506 1 520 1 528 1 532 1 535 1 582 1 584 1 585 1 587 1 597 1 608 1 645 1 648 1 661 1 664 1 687 1 695 1 702 1 714 1 749 1 761 1 787 1 808 1 824 1 850 1 854 1 868 1 883 1 914 2 921 1 928 1 957 1 965 1 968 1 970 1 580 1 622 1 649 1 663 1 692 1 699 1 730 1 747 1 760 1 798 1 852 1 878 1 880 1 891 1 893 1 917 1 931 1 942 1 1001 1 1002 1 1007 1 
1 210 7 1 16 1 26 1 29 1 30 1 45 1 47 1 48 1 132 1 149 1 154 1 156 1 164 1 205 1 226 1 231 1 233 1 234 1 276 2 296 1 299 1 304 1 344 1 364 1 448 1 463 1 509 1 512 1 558 1 559 2 566 1 573 1 40 1 66 1 72 1 75 1 111 1 120 1 134 1 138 1 186 1 219 1 232 1 240 1 250 1 263 1 285 1 294 1 317 1 320 1 322 1 323 1 348 1 383 1 407 1 429 1 447 1 451 1 452 1 464 1 497 1 502 1 508 1 543 1 567 1 585 1 590 1 618 1 654 1 658 1 660 1 661 1 668 1 670 1 674 1 678 1 683 1 698 1 706 1 720 1 734 1 748 1 776 1 794 1 821 1 857 1 888 1 904 1 941 1 956 1 977 1 989 1 584 1 596 1 627 1 640 1 669 1 679 1 700 1 708 1 722 1 742 1 814 1 816 1 817 1 843 1 848 1 855 1 864 1 890 1 912 1 939 1 945 1 1001 1 1014 1 1016 1 
1 208 6 1 13 1 18 1 37 1 42 1 48 1 65 1 87 1 90 1 93 1 98 1 109 1 138 1 147 1 153 1 165 1 192 1 198 1 236 1 255 1 262 1 277 1 279 1 316 1 323 1 351 1 354 1 399 1 400 2 414 1 424 1 434 1 439 1 456 1 458 1 536 1 552 1 2 1 44 1 101 1 105 1 108 1 117 1 135 1 148 1 150 1 186 1 214 1 253 1 275 1 301 1 305 1 306 1 322 1 325 1 356 1 427 1 435 1 454 1 460 1 464 1 492 1 494 1 518 1 542 1 551 1 554 1 567 1 597 1 636 1 638 1 655 1 685 1 737 1 750 1 762 1 763 1 799 1 838 1 870 1 879 1 896 1 912 1 921 1 922 1 946 1 949 1 957 1 996 1 603 1 635 1 653 1 657 1 676 1 692 1 696 1 724 1 740 1 754 1 759 1 779 1 857 1 863 1 880 1 887 1 918 1 931 1 934 1 936 1 950 1 959 1 981 1 
1 208 8 1 11 1 13 1 17 1 25 1 31 1 83 1 84 1 94 1 100 1 119 1 154 1 171 1 216 1 240 1 250 1 275 1 329 1 348 1 351 1 355 1 363 1 370 1 385 1 402 1 417 1 471 1 513 1 522 1 523 1 551 1 555 2 571 1 5 1 18 1 23 1 46 1 62 1 66 1 74 1 82 1 97 1 109 1 114 1 116 1 128 1 140 1 160 1 197 1 206 1 208 1 211 1 220 1 225 1 257 1 274 1 301 1 397 1 398 1 405 1 426 1 432 1 433 1 446 1 453 1 454 1 460 1 483 1 490 1 492 1 537 1 583 1 601 1 625 1 666 1 670 1 675 1 686 1 689 1 722 1 764 1 821 1 846 1 847 1 857 1 883 1 887 1 941 1 960 1 599 1 605 1 613 1 620 1 627 1 630 1 668 1 672 1 726 1 785 1 823 1 833 1 863 1 866 1 891 1 897 1 908 1 944 1 949 1 1007 1 1008 1 1011 1 1014 1 
1 208 8 1 43 1 44 1 86 1 106 1 123 1 151 1 164 1 186 1 214 1 218 1 222 1 227 1 231 2 234 1 244 1 260 1 263 1 285 2 305 1 339 2 408 1 477 1 538 1 541 1 542 2 553 1 556 1 557 1 561 1 36 1 55 1 58 1 67 1 90 1 92 1 99 1 114 1 139 1 148 1 153 1 168 1 229 1 235 1 290 1 291 1 304 1 309 1 335 1 349 1 350 1 364 1 371 1 372 1 375 1 378 1 384 1 423 1 426 1 433 1 444 1 449 1 465 1 475 1 519 1 547 1 558 1 581 1 632 1 653 1 665 2 679 1 680 1 682 1 685 1 695 1 704 1 709 1 719 1 762 1 766 1 768 1 769 1 780 2 816 1 889 1 932 1 580 1 634 1 638 1 642 1 652 1 681 1 726 1 728 1 731 1 775 1 789 1 791 1 795 1 805 1 810 1 872 1 880 1 917 1 941 1 950 1 959 1 972 1 997 1 1004 1 1008 1 1013 1 1014 1 
1 210 3 1 41 1 59 1 70 1 75 1 109 1 153 2 160 1 186 1 212 1 230 1 255 1 264 1 288 1 330 1 352 1 355 1 365 1 370 1 374 1 443 1 486 1 505 1 521 1 540 1 14 1 29 1 35 1 36 1 54 1 57 1 58 1 61 1 68 1 121 1 123 1 129 1 137 1 194 1 233 1 272 1 291 1 304 1 311 1 316 1 320 1 344 1 357 1 362 1 363 1 383 1 397 1 435 1 436 1 441 1 450 1 491 1 523 1 526 1 534 1 549 1 560 1 564 1 571 1 575 1 579 1 589 1 604 1 626 1 630 1 637 1 646 1 683 1 709 1 730 1 758 2 777 1 804 1 805 1 828 1 855 1 862 1 886 1 901 1 920 1 956 1 961 1 977 1 593 1 633 1 636 1 645 1 664 1 701 1 705 1 717 1 734 1 806 1 808 1 818 1 841 1 866 1 872 1 898 1 915 1 928 1 969 1 971 1 972 1 988 1 994 1 1001 1 1014 1 
1 207 11 1 13 1 29 1 45 1 49 1 58 1 76 1 81 1 107 1 109 1 123 1 172 1 175 1 182 1 198 1 235 1 256 1 261 1 265 1 323 1 344 1 354 1 362 1 377 1 401 1 406 1 408 1 431 1 497 1 501 2 508 1 536 1 537 1 549 1 552 1 566 1 579 1 30 1 74 1 78 1 99 1 118 1 145 1 149 1 181 1 208 1 220 1 224 1 230 1 232 1 252 1 257 1 292 1 294 1 314 1 315 1 317 1 336 1 345 1 360 1 367 1 391 1 447 1 451 1 458 1 462 1 474 1 509 1 522 1 527 1 538 1 563 1 565 1 586 1 587 1 595 1 626 1 664 1 673 1 693 1 715 1 718 2 746 1 770 1 794 1 795 1 812 1 863 1 875 1 880 1 933 1 950 1 981 1 993 1 585 1 592 1 684 1 703 1 726 1 733 1 742 1 752 1 809 1 816 1 823 1 851 1 861 1 898 1 905 1 916 1 930 1 937 1 952 1 1003 1 
1 212 2 1 26 1 29 1 34 1 71 1 85 1 111 1 136 1 142 1 189 1 193 1 224 1 226 1 248 1 281 1 312 1 323 1 349 1 351 1 354 1 360 1 409 1 455 1 476 1 483 1 487 1 490 1 522 1 533 1 552 1 554 1 561 1 572 1 575 1 54 1 84 1 127 1 148 1 149 1 172 1 188 1 194 1 197 1 220 1 249 1 271 1 302 1 327 1 338 1 373 1 384 1 387 1 392 1 407 1 419 1 428 1 433 1 471 1 472 1 480 1 509 1 539 1 541 1 551 1 587 1 601 1 609 1 628 1 639 1 645 1 646 1 647 1 663 1 714 1 717 1 740 1 747 1 776 2 802 1 842 1 849 1 877 1 892 1 906 1 916 1 946 1 955 1 959 1 971 1 975 1 976 1 589 1 607 1 608 1 616 1 640 1 665 1 712 1 713 1 728 1 770 1 797 1 838 1 859 1 875 1 881 1 927 1 945 1 982 1 1013 1 
1 218 33 1 56 1 64 1 128 1 133 1 142 1 154 1 173 1 213 2 234 1 243 2 247 1 275 1 303 1 306 1 321 1 349 1 354 1 378 1 425 1 442 1 472 1 480 1 495 1 548 1 552 1 578 1 14 1 18 1 19 1 31 1 52 1 58 1 83 1 87 1 97 1 99 1 104 1 131 1 148 1 153 1 161 1 163 1 165 1 184 1 186 1 188 1 193 1 211 1 226 1 250 1 255 1 257 1 278 1 281 1 285 1 295 1 296 1 335 1 361 1 380 1 394 1 396 1 454 1 462 1 470 1 476 1 501 1 502 1 510 1 513 1 524 1 529 1 540 1 561 1 564 1 568 1 573 1 583 1 583 1 590 1 610 1 620 1 635 1 665 1 677 1 689 1 707 1 724 1 747 1 749 1 810 1 821 1 830 1 832 1 855 1 916 1 931 1 991 1 588 1 632 1 682 1 691 1 699 1 762 1 781 1 784 1 787 1 788 1 820 1 828 1 841 1 849 1 850 1 883 1 902 1 906 1 909 1 913 1 914 1 933 1 939 1 953 1 964 1 979 1 981 1 988 1 1003 1 1006 1 1010 1 1016 1 
1 215 11 1 37 1 41 1 66 1 71 1 75 1 78 1 81 1 82 1 86 1 98 1 146 1 170 1 202 1 221 1 235 1 250 1 271 1 305 1 311 1 361 1 376 1 395 1 455 1 493 1 500 1 514 1 521 1 544 1 548 1 556 1 560 2 575 1 29 1 39 1 51 1 55 1 61 1 69 1 120 1 123 1 144 1 187 1 188 1 214 1 216 1 231 1 288 1 321 1 326 1 335 1 350 1 371 1 400 1 405 1 414 1 448 1 449 1 451 1 460 1 475 1 509 1 510 1 567 1 576 1 618 1 641 2 647 1 698 1 713 1 721 1 722 1 723 1 726 1 756 1 764 1 774 1 778 1 785 1 811 2 837 1 926 1 934 1 947 1 949 1 959 1 963 2 975 1 979 1 982 1 591 1 620 1 632 1 636 1 659 1 691 1 732 1 737 1 738 1 750 1 753 1 754 1 755 1 771 1 782 1 788 1 790 1 833 1 846 1 848 1 853 1 860 1 870 1 876 1 885 1 909 1 928 1 935 1 958 1 968 1 988 1 1005 1 1016 1 1018 1 
1 211 14 1 58 1 69 2 72 2 78 1 136 1 137 2 146 1 170 2 182 1 192 1 247 1 253 1 254 1 266 1 287 1 308 1 313 1 326 1 328 1 330 1 344 1 383 1 387 2 397 1 427 1 432 1 433 1 510 1 515 1 538 1 553 2 575 1 576 1 20 1 34 1 70 1 95 1 108 1 129 1 139 1 203 1 208 1 213 1 220 1 229 1 236 1 246 1 249 1 262 1 267 1 278 1 286 1 353 1 356 1 386 1 389 1 390 1 425 1 426 1 501 1 535 1 548 1 568 1 581 1 598 1 601 1 607 1 610 1 619 1 652 1 701 1 708 1 726 1 729 1 753 1 754 1 768 1 843 1 849 1 859 1 864 1 865 1 874 1 878 1 891 1 931 1 937 1 964 1 995 1 998 1 596 1 648 1 696 1 723 1 736 1 739 1 745 1 746 1 762 1 766 1 800 1 868 1 890 1 938 1 951 1 1003 1 1013 1 1016 1 
1 206 5 1 17 1 19 1 25 1 27 1 39 1 45 2 111 1 116 1 117 1 183 1 186 1 214 1 216 1 217 1 224 1 258 1 305 1 318 1 331 1 332 1 339 1 369 1 384 1 396 1 405 1 464 1 519 2 557 1 581 1 48 1 89 1 115 1 154 1 168 1 212 1 234 1 273 1 307 1 329 1 340 1 357 1 371 1 373 1 387 1 395 1 424 1 427 1 428 1 458 1 463 1 485 1 513 1 516 1 608 1 613 1 634 1 679 1 750 1 770 1 790 1 797 1 812 1 818 1 825 1 852 1 853 1 871 1 874 1 884 1 898 1 907 1 914 1 922 1 966 2 981 1 994 1 603 1 607 1 622 1 657 1 664 1 667 1 670 1 684 1 727 1 744 1 748 1 844 1 856 1 926 1 961 1 972 1 985 1 987 1 1000 1 1010 1 1013 1 
1 208 3 1 38 1 79 1 101 1 126 1 179 1 197 1 206 2 217 1 226 1 227 1 306 1 331 1 346 1 358 1 362 1 471 1 497 1 507 1 516 1 575 1 581 1 582 1 24 1 30 1 42 1 45 1 104 1 125 1 127 1 145 1 164 1 184 1 190 1 208 1 219 1 272 1 273 1 304 1 305 1 311 1 327 1 329 1 341 1 359 1 363 1 385 1 386 1 412 1 424 1 425 1 468 1 503 1 555 1 590 1 591 1 599 1 600 1 633 1 636 1 654 1 667 2 671 1 710 1 716 1 723 1 769 1 810 1 840 1 846 2 869 1 879 2 886 1 895 1 900 1 910 1 913 1 916 1 931 1 932 1 597 1 604 1 623 1 639 1 640 1 645 1 655 1 682 1 715 1 742 1 803 1 804 1 819 1 829 1 887 1 891 1 892 1 943 1 957 1 959 1 964 1 973 1 987 1 1015 1 
1 211 23 1 27 1 51 1 78 1 98 1 99 1 123 1 129 1 130 1 166 1 181 1 206 1 213 1 260 1 314 1 316 1 317 1 336 1 391 1 404 1 416 1 419 1 433 1 461 1 490 1 496 1 538 1 556 1 18 1 28 1 35 1 48 1 67 1 69 1 73 1 127 1 171 1 228 1 231 1 240 1 244 1 266 1 286 1 302 1 374 1 407 1 463 1 467 1 477 1 484 1 491 1 511 1 513 1 551 1 553 1 555 1 583 1 599 1 600 1 637 1 652 1 704 1 706 1 717 2 730 1 779 1 780 1 783 1 802 1 808 1 842 1 872 2 885 1 898 1 949 1 956 1 589 1 598 1 633 1 639 1 654 1 674 1 679 1 687 1 709 1 719 1 729 1 738 1 744 1 770 1 788 1 790 1 838 1 846 1 858 1 886 1 901 1 923 1 930 1 943 1 953 1 965 1 967 1 973 1 992 1 997 1 1000 1 1005 1 1010 1 
1 210 23 1 26 1 29 1 30 1 37 1 56 1 69 1 94 1 130 1 137 1 143 1 156 1 162 1 170 1 181 1 192 1 195 1 207 1 224 1 230 1 234 1 259 1 273 1 302 1 365 1 375 1 387 1 394 1 406 1 437 1 441 2 467 1 471 1 501 1 505 1 522 1 545 1 547 1 580 1 22 1 25 1 87 1 100 1 102 1 110 1 112 1 119 1 123 1 136 1 159 1 218 1 233 1 258 1 261 1 281 1 320 1 342 1 347 1 390 1 415 1 498 1 499 1 530 1 573 1 582 1 588 1 589 1 589 1 633 1 635 1 636 2 668 1 740 1 758 1 820 1 836 1 839 1 857 1 877 1 884 1 890 1 891 1 904 1 909 1 947 1 956 1 603 1 623 1 625 1 628 1 629 1 643 1 645 1 658 1 704 1 709 1 757 1 787 1 832 1 834 1 845 1 847 1 865 1 928 1 932 1 1006 1 1012 1 1015 1 
1 215 46 1 61 1 63 1 71 1 80 1 121 1 128 1 130 1 153 1 155 1 158 1 164 2 169 1 206 1 212 1 223 1 233 1 242 1 272 1 278 1 287 1 332 1 363 1 376 1 404 1 455 2 458 1 471 1 480 1 494 1 512 1 516 1 534 1 536 1 537 1 572 1 576 1 583 1 587 1 14 1 16 1 33 1 37 1 54 1 66 1 99 1 129 1 147 1 150 1 187 1 194 1 291 1 304 1 305 1 356 1 358 1 370 1 421 1 439 1 464 1 495 1 498 1 520 1 526 1 548 1 592 1 612 1 621 1 636 1 660 1 670 1 674 1 679 1 683 1 707 1 718 1 725 1 749 1 793 1 804 1 851 1 864 2 896 1 928 1 931 2 952 1 605 1 617 1 623 1 658 1 671 1 695 1 702 1 705 1 713 1 717 1 768 1 798 1 806 1 822 1 917 1 965 1 977 1 987 1 1006 1 1010 1 1011 1 1019 1 
1 206 20 1 41 1 77 1 78 1 92 1 123 1 137 1 150 1 171 1 189 1 192 1 225 1 238 1 266 1 268 1 269 1 279 1 322 1 333 1 342 1 359 1 378 1 383 1 394 1 407 1 412 1 428 1 460 1 496 1 497 1 500 1 506 1 537 1 563 1 587 1 25 1 71 1 81 1 111 1 131 1 132 1 149 1 161 1 190 1 244 1 312 1 314 1 315 1 332 1 335 1 341 1 343 1 389 1 405 1 469 1 482 1 484 1 508 1 511 1 551 1 559 1 584 1 625 2 663 1 665 1 700 1 716 1 728 1 739 1 748 1 811 1 838 1 861 1 869 1 876 1 902 1 936 1 956 1 964 1 965 1 976 1 978 1 989 1 616 1 630 1 674 1 697 1 718 1 759 1 781 1 792 1 810 1 819 1 860 1 864 1 882 1 889 1 893 1 901 1 904 1 959 1 972 1 986 1 990 1 998 1 1010 1 1018 1 
1 208 15 1 31 1 52 1 53 1 103 1 117 1 130 1 148 1 166 1 177 1 234 1 253 1 264 1 270 1 273 1 282 1 295 1 304 1 311 1 327 1 351 1 352 1 370 2 396 1 401 1 429 1 459 1 479 1 492 1 504 1 541 1 547 1 550 1 560 1 590 1 32 1 97 1 108 1 156 1 173 1 178 1 193 1 211 1 221 1 232 1 255 1 267 1 286 1 296 1 320 1 324 1 340 1 361 1 364 1 391 1 410 1 426 1 491 1 535 1 538 1 581 1 608 1 621 1 635 1 657 1 671 1 675 1 721 1 723 1 770 1 781 1 783 1 784 1 786 1 832 1 839 1 850 2 873 1 908 1 922 1 925 1 947 1 955 1 983 1 624 1 632 1 664 1 672 1 715 1 734 1 757 1 765 1 802 1 809 1 816 1 822 1 829 1 833 1 841 1 846 1 848 1 856 1 906 1 916 1 917 1 935 1 941 1 974 1 
1 209 10 2 17 2 19 1 41 1 66 1 107 1 129 1 151 1 186 1 200 1 231 1 240 1 249 1 253 1 272 1 313 1 319 1 321 1 324 1 345 1 378 1 392 1 396 1 428 1 433 1 436 1 466 1 467 1 473 1 478 1 479 1 483 1 492 1 512 1 542 1 572 1 20 1 28 1 45 1 57 1 68 1 82 1 106 1 134 1 144 1 152 1 176 1 181 1 191 1 207 1 220 1 225 1 257 1 268 1 270 1 278 1 328 1 342 1 353 1 376 1 402 1 415 1 438 1 474 1 540 1 558 1 580 1 600 2 620 1 637 1 651 1 666 1 679 1 683 1 684 1 689 1 707 1 714 1 758 1 770 1 779 1 780 1 790 1 791 1 814 1 838 1 861 1 864 1 866 1 877 1 898 1 913 1 917 1 921 1 961 1 967 1 995 1 605 1 607 1 626 1 629 1 644 1 650 1 673 1 755 1 756 1 767 1 788 1 806 1 837 1 843 1 893 1 953 1 962 1 965 1 966 1 987 1 990 1 999 1 
1 205 3 1 8 1 9 1 21 1 29 1 32 1 38 1 45 2 81 2 103 1 108 1 111 1 126 1 143 1 168 1 214 1 215 1 222 1 245 1 260 2 265 1 320 1 343 1 352 1 408 1 416 1 452 1 469 1 471 1 488 1 518 2 539 1 544 1 33 1 67 1 80 1 93 1 104 1 154 1 159 1 160 1 171 1 182 1 204 1 234 1 242 1 263 1 292 1 298 1 310 1 316 1 533 1 541 1 570 1 600 1 611 1 617 1 622 1 643 1 694 1 731 1 767 1 786 1 803 1 823 1 845 1 885 1 891 2 893 2 928 1 936 1 947 1 951 1 984 2 660 1 700 1 724 1 734 1 747 1 753 1 756 1 781 1 811 1 814 1 824 1 829 1 844 1 846 1 848 1 873 1 883 1 909 1 931 1 938 1 968 1 969 1 999 1 1016 1 1019 1 
1 203 22 1 33 1 38 1 52 1 77 2 80 1 82 1 123 1 135 1 163 1 171 1 180 1 187 1 199 1 263 1 275 1 290 1 382 1 391 1 392 1 395 1 404 1 415 1 420 2 421 1 460 1 476 1 479 1 498 1 504 1 509 1 514 1 517 1 541 1 581 1 4 1 23 1 29 1 45 1 96 1 111 1 182 1 194 1 232 1 242 1 253 1 259 1 284 1 286 1 312 1 330 1 343 1 385 1 413 1 433 1 436 1 466 1 491 1 496 1 539 1 558 1 618 1 629 1 658 1 664 1 705 1 709 1 715 1 719 2 731 1 747 1 761 1 768 1 769 1 786 1 798 1 805 1 809 1 812 1 870 2 871 1 878 1 882 1 883 1 915 1 919 1 934 1 967 1 975 1 983 2 986 2 610 1 615 1 642 1 661 1 674 1 679 1 692 1 710 1 725 1 737 1 749 1 764 1 816 1 834 1 850 1 881 1 901 1 910 1 912 1 918 1 922 1 945 1 953 1 997 1 1000 1 
1 211 59 2 69 1 74 1 105 1 109 1 117 1 119 1 122 1 142 1 150 1 154 1 162 1 183 1 218 1 224 1 248 1 250 1 278 1 287 1 289 1 312 1 317 1 342 1 371 1 373 1 392 1 453 1 454 1 477 1 481 1 489 1 490 1 521 2 526 1 533 1 537 1 549 1 550 1 8 1 21 1 26 1 39 1 58 1 66 1 67 1 70 1 91 1 106 1 111 1 134 1 149 1 156 1 185 1 190 1 222 1 265 1 286 1 300 1 307 1 309 1 315 1 396 1 430 1 443 1 449 1 460 1 461 1 463 1 471 1 484 1 495 1 501 1 502 1 504 1 518 1 534 1 576 1 585 1 603 1 607 1 608 1 632 2 646 1 671 1 696 1 712 1 734 1 738 1 749 1 793 1 823 1 835 1 840 1 853 1 900 1 905 1 912 1 913 1 936 1 953 1 966 1 968 1 971 1 972 1 974 1 975 1 976 1 994 1 627 1 628 1 645 1 650 1 667 1 674 1 682 1 708 1 723 1 746 1 789 1 790 1 798 1 812 1 836 1 888 1 909 1 918 1 921 1 933 1 1001 1 1008 1 1017 1 1018 1 
1 209 20 1 32 1 34 1 56 1 79 1 91 1 92 1 97 1 107 1 122 1 176 1 223 1 226 1 279 1 295 1 308 1 375 1 392 1 397 1 408 1 412 1 414 1 415 1 421 1 429 1 434 1 441 1 452 1 457 1 485 1 506 1 532 1 535 1 538 1 555 1 558 1 575 1 577 1 16 1 18 1 63 1 70 1 93 1 116 1 144 1 152 1 154 1 156 1 165 1 169 1 171 1 187 1 190 1 213 1 243 1 246 1 247 1 255 1 265 1 275 1 280 1 285 1 309 1 310 1 312 1 323 1 330 1 355 1 376 1 381 1 402 1 405 1 410 1 459 1 460 1 466 1 468 1 482 1 495 1 516 1 587 1 606 1 614 1 628 1 653 1 655 1 658 1 661 1 680 1 698 1 765 1 772 1 779 1 792 1 817 1 832 1 835 1 839 1 871 1 896 1 912 1 916 1 925 1 929 2 954 2 983 1 605 1 617 1 674 1 687 1 688 1 692 1 775 1 802 1 807 1 886 1 893 1 919 1 947 1 955 1 962 1 981 1 986 1 1003 1 1006 1 1009 1 1016 1 
1 212 11 1 38 1 39 1 78 1 196 1 202 1 209 1 212 1 228 1 236 1 258 1 286 1 294 1 297 1 298 1 323 1 329 1 340 1 346 1 350 1 372 1 379 2 385 1 386 1 387 1 422 1 431 1 432 1 435 1 474 1 485 1 497 1 528 1 530 1 534 1 554 1 585 1 22 1 29 1 32 1 36 1 40 1 66 1 76 1 104 1 126 1 131 1 141 1 147 1 152 1 155 1 166 1 170 1 171 1 178 1 199 1 208 1 222 1 241 1 252 1 263 1 303 1 331 1 363 1 365 1 382 1 388 1 401 1 402 1 409 1 444 1 489 1 550 1 563 1 573 1 588 1 600 1 617 1 618 1 620 1 625 1 633 1 634 1 645 1 650 1 656 1 661 1 688 1 719 1 723 1 729 2 733 1 740 1 745 1 773 1 791 1 801 1 806 1 815 1 828 1 840 1 843 1 850 1 870 1 884 1 887 1 891 1 897 1 916 1 924 1 942 1 955 1 974 2 979 1 983 1 992 1 997 1 615 1 624 1 682 1 698 1 786 1 796 1 803 1 830 1 861 1 872 1 892 1 905 1 917 1 931 1 934 1 1000 1 1009 1 1019 1 
1 208 15 1 44 1 46 1 50 1 58 1 62 1 69 1 126 1 140 1 149 1 156 1 169 1 201 1 228 2 255 1 267 1 271 1 277 1 329 1 339 2 342 1 351 1 373 1 377 1 409 1 421 2 444 1 461 1 462 1 497 1 514 1 520 1 528 1 529 1 551 1 553 1 571 1 572 1 587 1 588 1 28 1 29 1 32 1 37 1 67 1 94 1 101 1 124 1 144 1 198 1 207 1 208 1 210 1 223 1 227 1 233 1 241 1 242 1 305 1 312 1 320 1 332 1 341 1 368 1 418 1 423 1 464 1 478 1 509 1 549 1 578 1 604 1 636 1 652 1 657 1 680 1 688 1 727 1 739 1 752 1 754 1 756 1 762 1 858 1 871 1 880 1 922 1 948 1 966 1 972 1 992 1 600 1 614 1 644 1 654 1 697 1 716 1 746 1 758 1 781 1 791 1 828 1 839 1 847 1 855 1 864 1 908 1 935 1 936 1 956 1 962 1 965 1 1002 1 1019 1 
1 210 5 1 19 1 27 1 78 1 88 1 96 1 101 1 123 1 128 1 221 1 257 1 258 1 286 1 310 1 316 2 332 2 342 1 351 1 357 1 378 2 402 1 432 1 445 1 449 1 497 1 513 1 518 2 530 1 539 1 541 1 542 1 550 1 565 1 587 1 588 1 593 2 594 1 598 1 17 1 37 1 41 1 58 1 59 1 61 1 83 1 108 1 110 1 113 1 160 1 167 1 204 1 234 1 270 1 292 1 303 1 352 1 366 1 407 1 414 1 452 1 492 1 514 1 554 1 572 1 599 1 624 1 631 1 635 1 677 1 688 1 694 2 706 1 716 1 717 1 760 1 765 1 778 1 799 1 800 1 801 1 824 1 832 1 836 1 841 1 845 1 852 1 907 1 955 1 961 1 966 1 649 1 651 1 674 1 693 1 761 1 779 1 825 1 851 1 864 1 867 1 889 1 986 1 990 1 995 1 1003 1 1012 1 1017 1 
1 203 4 1 28 1 29 1 30 1 80 1 84 1 93 1 97 1 98 1 102 1 110 1 182 1 187 1 203 1 230 1 273 1 299 1 302 2 327 1 364 1 389 1 419 1 435 1 450 1 457 1 465 1 481 1 507 1 532 1 536 1 546 1 561 1 571 1 578 1 582 1 585 1 22 1 45 1 116 1 157 1 159 1 160 1 198 1 204 1 233 1 249 1 252 1 254 1 256 1 266 1 301 1 332 1 354 1 375 1 383 1 398 1 421 1 428 1 451 1 462 1 486 1 504 1 518 1 521 1 531 1 566 1 603 1 633 1 640 1 644 1 647 1 663 1 678 2 712 1 715 1 721 1 742 1 759 1 778 1 813 1 824 1 834 1 835 1 838 1 860 1 928 1 951 1 954 1 958 1 983 1 612 1 637 1 651 1 664 1 718 1 730 1 739 1 765 1 795 1 826 1 830 1 863 1 867 1 886 1 937 1 940 1 952 1 974 1 1001 1 1014 1 
1 207 14 1 25 1 40 1 57 1 61 1 79 1 85 1 86 1 110 1 114 1 117 1 129 1 184 2 224 1 238 1 282 1 300 1 317 1 322 1 337 1 346 1 353 1 356 1 419 1 456 1 468 1 474 1 479 1 491 1 511 1 520 1 531 1 534 1 542 1 558 1 564 1 567 1 56 1 72 1 91 1 104 1 109 1 113 1 140 1 181 1 186 1 227 1 277 1 283 1 284 1 328 1 351 1 373 1 404 1 408 1 427 1 437 1 438 1 454 1 458 1 472 1 477 1 499 1 501 1 563 1 608 1 681 1 692 2 738 1 761 1 767 1 769 1 774 1 776 1 828 1 840 1 842 1 844 1 850 1 852 1 899 1 934 1 971 1 995 1 632 1 676 1 728 1 729 1 730 1 762 1 763 1 764 1 793 1 856 1 884 1 898 1 916 1 930 1 961 1 976 1 
1 206 13 1 69 1 73 1 81 1 96 1 101 1 102 1 128 1 191 1 208 1 239 2 241 1 251 1 265 1 286 1 316 2 319 1 406 1 409 1 422 1 446 1 454 1 464 1 495 1 518 1 541 1 554 1 562 1 574 1 596 1 601 1 8 1 25 1 31 1 75 1 98 1 104 1 107 1 137 1 152 1 156 1 161 1 170 1 173 1 204 1 289 1 306 1 317 1 334 1 337 1 374 1 420 1 427 1 430 1 432 1 482 1 508 1 515 1 526 1 555 1 567 1 577 1 586 1 589 1 607 1 628 1 682 2 684 1 712 1 714 2 752 1 769 1 774 1 783 1 784 1 816 1 832 1 834 1 844 1 857 1 860 1 873 1 884 1 885 1 911 1 942 1 946 1 977 1 608 1 653 1 671 1 673 1 677 1 698 1 700 1 739 1 741 1 753 1 775 1 776 1 806 1 817 1 836 1 850 1 880 1 892 1 966 1 967 1 973 1 991 1 1010 1 1013 1 
1 212 6 1 18 1 55 1 83 2 86 1 106 1 126 1 127 1 136 1 159 1 162 2 201 1 229 1 233 1 249 1 283 1 290 1 295 1 299 1 300 1 311 1 320 2 380 1 440 1 442 1 448 1 468 2 470 2 482 1 532 1 566 1 580 1 599 1 4 1 13 1 27 1 31 1 44 1 60 1 68 1 81 1 91 1 93 1 107 1 147 1 172 1 182 1 210 1 215 1 216 1 220 1 221 1 240 1 289 1 335 1 356 1 399 1 424 1 461 1 494 1 587 1 682 1 693 1 701 1 706 1 725 1 732 1 772 1 781 2 786 1 813 1 818 1 833 1 871 1 873 1 878 1 881 1 903 1 916 1 950 1 968 1 980 1 616 1 634 1 637 1 662 1 672 1 699 1 724 1 737 1 743 1 757 1 763 1 774 1 776 1 810 1 820 1 850 1 860 1 864 1 872 1 918 1 983 1 997 1 1001 1 1018 1 
1 210 17 1 38 1 60 1 79 1 81 1 92 1 99 1 102 1 105 1 119 1 126 1 171 1 175 1 187 1 190 1 238 1 267 1 271 1 289 1 319 1 338 1 366 1 376 1 384 1 399 2 408 2 412 1 477 1 484 1 519 2 529 1 534 1 1 1 24 1 30 1 45 1 61 1 84 1 85 1 103 1 118 1 121 1 133 1 139 1 140 1 193 1 211 1 218 1 263 1 270 1 278 1 291 1 305 1 307 1 322 1 323 1 328 1 329 1 354 1 370 1 382 1 397 1 403 1 433 1 456 1 464 1 495 1 525 1 539 1 560 1 566 1 578 1 590 1 593 1 597 1 620 1 648 1 665 1 700 1 706 1 711 1 712 1 720 1 724 1 745 1 747 1 748 1 763 1 780 1 816 1 841 1 845 1 854 1 874 1 876 1 902 1 915 1 929 1 936 1 962 1 624 1 628 1 630 1 638 1 667 1 668 1 671 1 721 1 777 1 837 1 887 1 890 1 917 1 926 1 941 1 946 1 967 1 988 1 989 1 992 1 1007 1 1008 1 1017 1 1019 1 
1 215 14 1 39 1 78 1 107 2 108 1 132 1 136 1 138 1 160 1 169 1 176 1 204 1 227 1 233 1 250 1 258 1 260 1 263 1 310 1 369 1 375 1 442 1 465 1 500 2 517 2 528 1 547 1 571 1 572 1 597 1 19 1 27 1 30 1 54 1 66 1 94 1 109 1 122 1 124 1 127 1 179 1 189 1 196 1 253 1 259 1 264 1 276 1 280 1 292 1 295 1 299 1 307 1 321 1 339 1 366 1 383 1 394 1 398 1 403 1 408 1 475 1 483 1 484 1 522 1 540 1 544 1 554 1 564 1 612 1 619 1 642 1 665 2 681 1 691 1 734 1 764 1 771 1 795 1 826 1 830 2 834 1 869 1 894 1 941 1 955 1 958 1 987 1 618 1 626 1 680 1 682 1 705 1 710 1 767 1 783 1 784 1 794 1 803 1 812 1 818 1 821 1 835 1 880 1 902 1 908 1 919 1 928 1 1000 1 1005 1 1007 1 1008 1 1009 1 1015 1 
1 208 10 1 14 1 49 1 50 1 68 1 69 1 116 2 117 1 167 1 174 1 176 1 181 1 202 1 252 1 259 1 266 1 295 1 304 1 331 1 340 1 357 1 362 1 403 1 407 1 410 1 423 1 425 1 458 1 460 1 463 1 467 1 494 2 508 1 523 2 559 1 585 1 596 1 603 1 40 1 48 1 98 1 131 1 149 1 180 1 201 1 206 1 213 1 237 1 247 1 248 1 316 1 334 1 351 1 394 1 411 1 417 1 444 1 451 1 499 1 509 1 534 1 560 1 565 1 582 1 586 1 593 1 621 1 625 1 631 1 643 1 652 1 657 1 665 1 669 1 676 1 694 1 709 1 717 1 759 2 774 1 833 1 847 1 854 1 861 1 887 1 909 1 917 2 953 1 963 1 964 1 969 1 998 1 611 1 615 1 698 1 753 1 780 1 803 1 814 1 832 1 843 1 855 1 880 1 907 1 923 1 928 1 932 1 966 1 978 1 993 1 1006 1 1015 1 1016 1 
1 210 5 1 74 1 79 1 92 1 93 1 103 1 116 1 123 1 132 1 156 1 168 1 178 1 190 1 194 1 231 1 259 1 262 1 270 1 276 1 297 1 300 1 343 1 385 1 409 1 420 1 432 1 460 1 470 1 484 1 517 1 519 1 559 1 562 1 575 1 586 1 592 1 596 1 602 1 4 1 8 1 10 1 18 1 50 1 114 1 128 1 135 1 143 1 144 1 185 1 196 1 221 1 280 1 295 1 328 1 336 1 359 1 378 1 401 1 404 1 443 1 458 1 511 1 528 1 537 1 582 1 603 1 618 1 647 1 673 1 674 1 681 1 699 1 729 1 733 1 741 1 743 1 748 2 766 1 806 1 812 1 815 1 816 1 861 1 868 1 873 1 903 1 911 1 912 1 939 1 956 1 957 1 976 1 987 1 613 1 652 1 667 1 677 1 708 1 744 1 757 1 776 1 783 1 786 1 789 1 793 1 798 1 813 1 863 1 877 1 891 1 926 1 942 1 980 1 982 1 1005 1 1015 1 
1 210 50 1 51 1 101 1 110 1 134 1 148 1 165 1 168 2 177 1 181 1 223 1 241 1 242 2 304 1 314 1 361 2 393 1 402 1 414 2 420 1 425 1 428 1 451 1 453 1 470 1 495 1 553 1 557 1 563 1 568 1 569 1 582 1 37 1 42 1 66 1 69 1 92 1 100 1 106 1 121 1 137 1 153 1 160 1 179 1 215 1 218 1 249 1 272 1 277 1 315 1 317 1 319 1 333 1 359 1 371 1 372 1 384 1 396 1 401 1 419 1 441 1 446 1 490 1 493 1 522 1 531 1 547 1 550 1 565 1 628 1 707 1 732 1 764 1 766 1 776 1 781 1 797 1 801 2 815 1 820 1 825 1 848 1 849 1 869 1 889 1 890 1 898 1 904 1 905 1 930 1 932 1 934 1 975 1 611 1 638 1 704 1 710 1 772 1 787 1 795 1 804 1 807 1 835 1 968 1 983 1 987 1 992 1 993 1 1005 1 1017 1 
1 212 29 1 35 1 68 2 93 1 111 1 137 1 138 1 155 1 163 1 167 1 168 1 169 1 185 1 192 1 219 1 225 1 264 1 290 1 298 1 306 1 330 1 341 2 348 1 356 1 388 1 416 1 434 1 453 1 455 1 491 1 503 1 515 1 548 1 583 1 585 1 1 1 46 1 101 1 117 1 118 1 121 1 173 1 220 1 247 1 299 1 303 1 335 1 338 1 353 1 363 1 395 1 449 1 456 1 477 1 479 1 501 1 512 1 525 1 533 1 552 1 558 1 595 1 622 1 624 2 625 1 628 1 655 1 663 1 670 2 696 1 699 1 715 1 717 1 731 1 797 1 809 1 847 1 890 1 892 1 893 1 903 1 915 1 936 1 938 1 946 1 964 1 970 1 617 1 657 1 721 1 738 1 742 1 762 1 806 1 811 1 821 1 829 1 850 1 858 1 884 1 896 1 905 1 909 1 917 1 932 1 944 1 984 1 
1 207 5 1 8 1 13 2 84 2 94 1 106 1 107 1 144 1 158 2 159 1 192 1 194 1 206 1 231 1 252 1 289 1 296 1 301 1 306 1 352 1 359 1 365 1 384 1 407 1 417 1 419 1 440 1 443 1 450 1 482 1 546 1 555 1 568 1 572 1 594 1 19 1 28 1 75 1 102 1 108 1 129 1 132 1 182 1 185 1 200 1 207 1 235 1 238 1 243 1 253 1 275 1 337 1 345 1 362 1 389 1 390 1 411 1 459 1 461 1 465 1 499 1 530 1 547 1 560 1 607 1 609 1 618 1 656 1 686 1 695 1 714 1 726 1 768 1 824 1 856 1 931 2 941 1 963 1 970 1 976 1 984 1 615 1 639 1 644 1 650 1 660 1 661 1 673 1 676 1 678 1 690 1 721 1 733 1 748 1 750 1 764 1 775 1 812 1 819 1 845 1 878 1 900 1 904 1 921 1 937 1 981 1 986 1 1015 1 1018 1 
1 216 34 1 45 1 63 1 69 1 79 1 81 1 82 1 107 1 135 1 182 1 190 1 205 1 213 1 258 1 297 1 301 1 304 1 320 1 331 1 390 1 397 1 401 1 410 1 411 1 456 1 473 2 483 1 504 1 522 1 533 1 590 1 606 1 7 1 85 1 94 1 115 1 127 1 136 1 139 1 152 1 173 1 185 1 214 1 229 1 249 1 256 1 282 1 291 1 302 1 308 1 311 1 314 1 339 1 347 1 368 1 398 1 412 1 423 1 443 1 457 1 472 1 495 1 517 1 519 1 542 1 571 1 573 1 601 1 612 1 612 1 641 1 664 1 672 1 686 1 693 1 702 1 705 1 708 1 710 1 718 1 747 1 765 1 770 1 790 2 809 1 817 1 823 1 850 1 853 1 902 1 932 1 954 1 963 1 971 1 627 1 638 1 653 1 667 1 682 1 707 1 763 1 791 1 793 1 798 1 803 1 831 1 847 1 883 1 884 1 898 1 923 1 958 1 972 1 986 1 991 1 993 1 1003 1 1005 1 1008 1 1013 1 1016 1 
1 208 2 1 12 1 17 1 19 1 99 1 100 1 139 1 154 1 156 1 180 1 213 1 248 2 258 1 290 1 299 1 307 1 321 1 355 1 394 1 404 1 429 1 435 1 441 1 442 1 474 1 500 1 543 1 586 1 14 1 20 1 21 1 80 1 102 1 117 1 127 1 131 1 153 1 234 1 241 1 247 1 257 1 259 1 287 1 308 1 325 1 354 1 365 1 379 1 388 1 389 1 467 1 472 1 511 1 512 1 531 1 540 1 549 1 550 1 572 1 578 1 608 1 643 1 646 1 694 1 696 1 698 1 719 1 720 1 731 1 739 2 768 1 797 1 806 1 812 1 813 1 815 1 833 2 886 1 902 1 910 1 930 1 945 1 954 1 979 1 634 1 675 1 683 1 687 1 703 1 749 1 790 1 792 1 802 1 824 1 828 1 857 1 873 1 909 1 920 1 941 1 967 1 968 1 983 1 994 1 1000 1 1012 1 1015 1 
1 208 20 1 29 1 40 1 86 1 106 1 110 1 117 1 124 1 149 2 151 1 171 1 205 1 220 1 235 1 247 1 254 1 282 1 335 1 366 1 411 1 432 1 442 1 444 1 445 1 467 2 469 1 495 1 521 1 522 1 529 1 543 1 597 1 11 1 14 1 36 1 109 1 130 1 169 1 213 1 215 1 228 1 231 1 244 1 250 1 261 1 262 1 271 1 310 1 332 1 354 1 359 1 374 1 382 1 394 1 396 1 414 1 415 1 426 1 453 1 473 1 475 1 479 1 510 1 552 1 562 1 565 1 599 1 618 1 635 1 664 1 684 1 730 1 738 1 753 1 776 1 780 1 853 1 858 1 861 1 868 1 869 1 912 1 913 2 918 1 948 1 964 1 988 1 993 1 682 1 710 1 715 1 726 1 732 1 774 1 781 1 810 1 812 1 823 1 844 1 845 1 846 1 848 1 939 1 969 1 995 1 1007 1 1011 1 1016 1 
1 209 2 1 12 1 19 1 48 1 59 1 65 1 73 1 77 1 82 1 83 1 120 1 127 1 133 1 141 1 150 1 206 1 240 1 246 1 255 1 267 1 278 1 282 1 294 1 317 1 331 1 347 1 386 1 432 1 471 1 501 1 530 1 548 1 555 1 1 1 3 1 17 1 56 1 70 1 89 1 91 1 135 1 146 1 181 1 198 1 215 1 216 1 263 1 279 1 292 1 300 1 312 1 343 1 354 1 369 1 370 1 415 1 416 1 427 1 428 1 459 1 478 1 549 1 551 1 556 1 557 1 569 1 595 1 598 1 607 1 611 1 639 1 691 1 729 2 741 1 754 1 812 1 875 1 878 1 879 2 905 1 920 1 936 1 945 1 960 1 672 1 674 1 681 1 683 1 737 1 756 1 771 1 780 1 789 1 798 1 801 1 814 1 842 1 843 1 860 1 863 1 886 1 909 1 922 1 929 1 954 1 955 1 985 1 996 1 1001 1 
1 209 21 2 44 1 52 1 75 1 112 1 124 1 141 1 160 1 176 1 189 1 240 1 250 1 252 1 266 1 267 1 284 1 292 1 308 2 319 1 327 1 333 1 409 1 421 1 422 1 423 1 429 1 442 1 455 1 456 1 464 1 491 2 544 1 552 1 565 1 15 1 31 1 43 1 88 1 115 1 127 1 128 1 138 1 232 1 235 1 241 1 249 1 274 1 305 1 311 1 328 1 343 1 351 1 355 1 369 1 387 1 393 1 394 1 459 1 470 1 489 1 516 1 523 1 526 1 528 1 547 1 568 1 582 1 591 1 604 1 624 1 629 1 652 1 662 1 665 1 684 1 699 1 737 1 804 2 816 1 826 1 832 1 835 1 865 1 898 1 900 1 912 1 938 1 954 2 973 1 986 1 992 1 993 1 642 1 653 1 712 1 715 1 718 1 719 1 741 1 748 1 750 1 776 1 789 1 791 1 796 1 848 1 856 1 864 1 866 1 889 1 895 1 915 1 927 1 965 1 995 1 1015 1 1017 1 
1 206 14 1 45 1 50 1 70 1 114 1 117 1 132 1 136 1 137 1 161 1 168 2 180 1 192 1 206 1 264 1 282 1 295 1 296 1 300 2 303 1 318 1 320 1 322 1 326 1 330 1 356 1 374 1 417 1 509 1 524 1 550 1 551 1 574 2 594 1 598 1 27 1 59 1 73 1 96 1 105 1 118 1 131 1 144 1 158 1 164 1 187 1 195 1 261 1 267 1 280 1 309 1 323 1 328 1 329 1 349 1 351 1 359 1 362 1 378 1 381 1 461 1 482 1 490 1 492 1 516 1 549 1 553 1 560 1 590 1 597 1 610 1 621 1 638 1 658 1 681 1 692 2 703 1 707 1 731 1 740 1 763 1 769 1 772 1 788 1 790 1 796 1 850 1 861 1 870 1 877 1 920 1 928 1 932 1 950 1 955 1 970 1 975 1 981 1 668 1 679 1 733 1 760 1 806 1 821 1 838 1 849 1 851 1 862 1 863 1 866 1 871 1 888 1 944 1 953 1 961 1 990 1 1000 1 1006 1 1008 1 
1 205 7 1 8 1 18 1 20 1 82 1 103 1 109 1 132 1 161 1 177 1 187 1 196 1 212 1 227 1 235 1 243 1 254 2 255 1 258 1 269 1 279 1 312 1 321 1 326 1 328 1 329 1 331 1 378 1 390 1 391 1 399 1 408 1 454 1 477 1 538 1 551 1 558 1 563 1 565 1 566 1 572 1 576 1 584 1 595 1 598 1 608 1 611 1 614 1 13 1 76 1 93 1 96 1 100 1 110 1 141 1 150 1 199 1 236 1 250 1 253 1 276 1 280 1 281 1 290 1 292 1 298 1 367 1 397 1 461 1 505 1 518 1 521 1 530 1 553 1 606 1 636 1 639 1 687 1 723 1 734 1 744 1 757 1 774 1 858 2 863 2 904 1 906 1 932 1 936 1 937 2 968 1 976 1 986 1 628 1 642 1 647 1 661 1 673 1 698 1 715 1 718 1 746 1 759 1 793 1 798 1 821 1 865 1 869 1 888 1 898 1 969 1 979 1 993 1 
1 209 6 1 11 1 22 1 26 1 29 1 36 1 39 1 79 1 84 1 96 1 100 1 134 1 150 1 168 1 175 1 183 1 184 1 199 1 207 2 215 1 251 1 254 1 268 2 287 1 317 1 337 1 357 1 370 2 428 1 433 1 449 1 479 1 480 1 487 1 488 1 498 1 503 1 519 1 525 1 527 2 530 1 551 1 570 1 585 1 606 1 44 1 82 1 127 1 132 1 138 1 141 1 167 1 181 1 187 1 203 1 204 1 228 1 245 1 257 1 279 1 283 1 322 1 343 1 375 1 381 1 441 1 478 1 481 1 486 1 504 1 534 1 566 1 653 1 654 1 665 2 670 1 698 1 703 2 711 1 740 1 743 1 751 1 756 1 768 1 782 1 802 1 808 1 810 1 831 1 840 1 858 2 903 1 912 1 925 2 929 2 957 1 983 1 997 1 624 1 626 1 642 1 660 1 726 1 748 1 774 1 796 1 813 1 825 1 834 1 869 1 875 1 882 1 898 1 904 1 932 1 934 1 944 1 956 1 1000 1 1001 1 1010 1 1012 1 1014 1 
1 215 25 1 51 1 57 1 65 1 79 1 90 1 150 1 167 2 170 1 178 1 206 1 225 1 243 1 251 1 252 1 291 1 293 1 308 2 357 1 371 1 380 1 384 1 389 2 415 1 505 1 543 1 544 1 555 2 556 1 566 1 583 1 593 1 598 1 605 1 8 1 72 1 109 1 125 1 131 1 175 1 179 1 199 1 203 1 218 1 221 1 266 1 310 1 322 1 343 1 348 1 374 1 377 1 401 1 407 1 420 1 440 1 461 1 477 1 478 1 481 1 482 1 500 1 526 1 541 1 565 1 578 1 584 1 620 1 620 1 626 1 649 1 657 1 690 1 700 1 712 1 743 1 756 1 769 1 778 1 811 1 840 1 841 1 872 1 909 1 920 1 942 1 963 1 996 1 622 1 627 1 643 1 652 1 694 1 714 1 736 1 745 1 759 1 771 1 786 1 878 1 894 1 897 1 902 1 906 1 965 1 1007 1 1008 1 1017 1 1019 1 
1 210 7 1 56 1 63 1 64 1 68 1 119 1 120 1 139 1 142 1 143 1 144 1 167 1 169 1 184 1 186 1 202 1 265 1 279 1 281 1 300 1 332 1 351 1 369 1 376 1 395 1 407 1 424 1 445 1 448 1 464 1 491 1 500 1 542 1 590 1 592 1 607 1 617 1 47 1 54 1 87 1 90 1 103 1 165 1 203 1 278 1 294 1 307 1 317 1 319 1 329 1 434 1 435 1 457 1 488 1 529 1 546 1 559 1 624 1 632 1 681 1 768 1 770 1 772 1 800 1 806 1 811 1 813 1 816 2 845 1 919 1 972 1 984 1 628 1 639 1 641 1 649 1 658 1 666 1 677 1 680 1 696 1 706 1 724 1 761 1 785 1 794 1 808 1 812 1 820 1 836 1 854 1 892 1 894 1 906 1 941 1 980 1 1006 1 1014 1 1017 1 
1 209 7 2 48 2 54 1 64 1 76 1 77 2 78 1 91 1 97 1 111 1 121 1 122 1 137 1 176 1 180 1 193 1 277 1 286 1 309 1 345 1 367 1 372 1 382 1 386 1 413 1 426 1 429 1 481 1 491 1 533 1 538 1 562 1 569 1 594 1 610 1 5 1 28 1 39 1 107 1 134 1 141 1 143 1 159 1 179 1 184 1 219 1 241 1 254 1 308 1 316 1 330 1 355 1 362 1 387 1 397 1 400 1 420 1 436 1 473 1 475 1 476 1 482 1 499 1 541 1 556 1 575 1 586 1 620 1 632 2 637 1 676 1 677 1 692 1 701 1 716 1 743 1 766 1 798 1 823 1 842 1 854 1 935 1 946 1 975 1 979 1 990 1 630 1 641 1 646 1 651 1 665 1 721 1 723 1 756 1 808 1 809 1 811 1 827 1 830 1 838 1 873 1 931 1 934 1 942 1 954 1 973 1 1007 1 1019 1 
1 208 4 1 7 1 38 1 58 1 83 1 99 1 101 1 118 1 133 1 178 1 215 1 219 1 306 1 334 1 362 1 365 1 382 1 388 1 427 1 431 1 432 1 453 1 464 1 467 1 479 1 490 1 502 1 507 1 511 1 521 1 538 1 541 1 547 2 550 1 553 1 567 1 14 1 15 1 24 1 37 1 46 1 53 1 70 1 109 1 122 1 124 1 131 1 168 1 194 1 228 1 257 1 266 1 267 1 288 1 289 1 294 1 327 1 395 1 405 1 406 1 412 1 424 1 445 1 447 1 487 1 528 1 540 1 552 1 560 1 568 1 587 1 589 1 590 1 623 1 623 1 672 1 685 1 708 1 709 1 711 1 717 1 747 1 813 1 826 1 852 1 878 1 896 1 911 1 967 1 973 1 975 2 979 1 655 1 659 1 682 1 729 1 744 1 764 1 767 1 800 1 819 1 838 1 839 1 864 1 871 1 877 1 894 1 947 1 951 1 964 1 978 1 987 1 989 1 995 1 1014 1 
1 208 38 1 47 1 51 1 54 1 77 1 100 1 115 1 134 1 169 1 181 1 187 1 210 1 211 1 220 1 237 1 261 1 263 1 307 1 331 1 333 1 335 2 345 1 347 1 348 1 378 1 385 1 399 1 411 1 421 1 425 1 435 1 465 1 515 1 550 1 600 1 610 2 616 1 621 1 2 1 20 1 43 1 61 1 65 1 78 1 93 1 129 1 132 1 170 1 203 1 208 1 328 1 370 1 405 1 447 1 508 1 571 1 592 1 598 1 605 1 619 1 642 1 650 1 697 1 720 1 724 1 756 1 764 1 802 1 808 1 812 1 821 1 827 1 832 1 863 1 868 2 869 1 873 1 885 1 893 1 900 2 902 1 922 1 947 1 960 1 968 1 982 1 994 1 645 1 657 1 685 1 690 1 766 1 778 1 783 1 791 1 804 1 806 1 831 1 846 1 874 1 894 1 897 1 951 1 977 1 985 1 1009 1 1011 1 
1 210 98 1 106 1 112 1 131 1 148 1 166 1 170 1 188 1 220 1 240 1 270 1 313 1 332 1 357 1 371 1 376 1 378 1 385 1 447 1 456 2 477 1 478 2 488 1 490 1 504 1 508 1 516 1 561 1 564 1 574 1 578 1 591 2 598 1 607 1 610 1 3 1 5 1 12 1 18 1 19 1 28 1 34 1 53 1 61 1 71 1 72 1 75 1 79 1 94 1 114 1 135 1 174 1 177 1 225 1 231 1 314 1 316 1 333 1 345 1 352 1 360 1 373 1 389 1 391 1 401 1 402 1 430 1 445 1 446 1 458 1 462 1 484 1 497 1 515 1 531 1 589 1 627 2 645 2 652 1 654 1 660 1 670 1 673 1 700 1 711 1 739 1 741 2 768 1 780 1 788 1 793 1 795 1 812 1 829 1 832 1 836 1 847 1 885 1 935 1 960 1 976 1 985 1 651 1 653 1 691 1 719 1 814 1 816 1 846 1 864 1 868 1 893 1 906 1 951 1 955 1 975 1 982 1 989 1 1005 1 1010 1 
1 208 10 1 16 1 32 1 34 1 35 1 47 1 103 1 122 1 167 1 172 1 204 1 239 1 251 1 257 1 269 1 274 1 283 1 287 1 297 1 305 2 314 1 326 1 346 1 387 1 476 1 506 1 528 1 553 1 562 1 580 1 581 1 620 1 59 1 79 1 87 1 104 1 113 1 155 1 180 1 189 1 209 1 237 1 241 1 256 1 270 1 286 1 299 1 302 1 304 1 317 1 345 1 365 1 366 1 369 1 376 1 389 1 421 1 429 1 510 1 519 1 547 1 569 1 593 1 606 1 619 1 627 1 638 1 717 1 737 1 751 1 756 1 761 1 775 1 778 1 796 1 801 1 808 1 811 1 825 1 845 1 854 1 933 1 937 1 939 1 954 1 970 1 630 1 655 1 660 1 730 1 745 1 747 1 750 1 800 1 815 1 826 1 846 1 848 1 883 1 889 1 918 1 961 1 962 1 975 1 992 1 1004 1 1013 1 
1 208 9 1 51 1 63 1 74 1 123 2 148 1 161 1 164 1 179 1 220 1 258 1 265 1 282 1 291 1 306 1 316 1 336 1 357 1 370 1 394 1 397 1 406 1 420 1 428 1 454 1 493 1 506 1 507 1 515 1 517 1 526 1 531 1 533 1 544 1 548 1 625 2 626 1 10 1 24 1 29 1 35 1 166 1 176 1 181 1 188 1 201 1 203 1 235 1 236 1 254 1 342 1 367 1 374 1 392 1 401 1 409 1 412 1 444 1 452 1 489 1 505 1 518 1 530 1 537 1 576 1 578 1 596 1 612 1 620 1 646 1 650 1 659 1 693 1 705 1 710 1 714 1 757 1 767 1 778 1 801 1 810 1 811 1 817 1 828 1 833 1 834 1 853 1 858 2 865 1 878 1 983 1 989 1 638 1 651 1 657 1 671 1 672 1 679 1 685 1 701 1 786 1 807 1 814 1 819 1 866 1 870 1 879 1 885 1 916 1 938 1 954 1 963 1 1009 1 1011 1 
1 209 5 1 9 1 32 1 43 1 52 1 75 1 80 1 106 1 112 1 127 1 159 1 184 1 190 1 198 1 201 1 219 1 222 1 231 1 236 2 238 1 274 2 322 1 328 1 383 1 402 2 409 1 431 1 435 1 436 1 451 1 461 1 463 1 495 1 530 1 540 1 558 1 560 1 563 1 582 1 597 1 603 1 609 1 610 1 13 1 14 1 25 1 54 1 57 1 58 1 68 1 114 1 125 1 141 1 143 1 153 1 196 1 244 1 257 1 319 1 334 1 345 1 358 1 385 1 395 1 470 1 475 1 504 1 522 1 527 1 528 1 536 1 543 1 565 1 589 1 596 1 605 1 618 1 621 1 634 1 670 1 741 1 767 1 782 1 784 1 799 1 816 1 823 1 825 1 862 2 871 1 886 1 910 1 937 1 968 1 984 1 996 1 643 1 644 1 661 1 697 1 698 1 704 1 728 1 791 1 793 1 830 1 834 1 844 1 850 1 876 1 882 1 901 1 927 1 934 1 939 1 942 1 1002 1 1005 1 
1 210 18 1 24 1 25 1 67 1 76 1 81 1 93 1 151 1 152 1 169 1 180 1 189 1 216 1 238 1 290 1 298 1 303 1 317 1 318 1 322 1 323 1 341 1 350 1 376 1 386 1 396 1 406 1 407 1 408 1 409 1 415 1 450 1 453 1 454 2 458 1 472 1 499 1 511 1 531 1 533 1 542 1 560 1 595 1 616 1 15 1 28 1 64 1 73 1 77 1 95 1 144 1 147 1 155 1 215 1 229 1 267 1 279 1 305 1 330 1 339 1 355 1 361 1 366 1 375 1 382 1 403 1 414 1 416 1 427 1 440 1 445 1 463 1 464 1 469 1 535 1 543 1 551 1 554 1 566 1 589 1 593 1 668 1 670 1 676 1 683 1 691 1 698 2 717 1 743 1 766 1 800 1 853 1 854 1 869 1 882 1 890 1 891 1 893 1 899 1 902 1 907 1 967 1 974 1 976 1 654 1 667 1 718 1 734 1 816 1 835 1 923 1 924 1 960 1 971 1 979 1 981 1 988 1 992 1 1006 1 1008 1 
1 212 28 1 46 1 80 1 120 1 126 1 148 1 150 1 171 1 177 1 252 1 264 1 272 1 287 1 293 1 305 2 314 2 351 1 398 1 404 1 414 1 416 1 427 1 437 1 477 1 485 1 487 1 495 1 505 1 508 1 513 1 537 1 538 1 574 1 580 1 18 1 22 1 38 1 40 1 78 1 86 1 92 1 94 1 100 1 144 1 147 1 176 1 230 1 231 1 249 1 250 1 255 1 290 1 313 1 342 1 440 1 450 1 456 1 471 1 475 1 482 1 507 1 516 1 526 1 545 1 558 1 578 1 591 1 605 1 622 1 626 1 658 1 673 1 699 1 721 1 725 2 726 1 762 1 765 1 774 2 808 1 828 2 831 1 852 1 898 1 934 1 937 1 955 1 962 1 964 1 974 1 643 1 655 1 669 1 703 1 723 1 757 1 777 1 787 1 814 1 820 1 840 1 851 1 863 1 881 1 939 1 976 1 986 1 1001 1 1012 1 1016 1 
1 207 1 1 3 1 13 1 31 1 38 1 49 1 102 1 108 1 129 1 171 1 178 1 213 1 231 1 246 1 252 1 256 1 291 1 301 1 326 1 336 1 342 1 369 1 412 1 441 1 444 1 452 1 453 1 477 2 518 1 529 1 530 1 556 1 600 1 607 1 18 1 25 1 39 1 44 1 78 1 86 1 127 1 140 1 175 1 183 1 187 1 208 1 243 1 314 1 320 1 334 1 337 1 364 1 366 1 381 1 382 1 385 1 389 1 413 1 422 1 425 1 468 1 470 1 502 1 533 1 535 1 546 1 563 1 649 1 669 1 695 1 699 1 703 1 722 1 738 1 755 1 768 1 776 1 788 1 806 1 816 1 818 1 820 2 825 1 846 1 876 2 879 1 967 1 975 2 977 1 982 1 993 1 654 1 655 1 661 1 670 1 693 1 700 1 711 1 717 1 733 1 774 1 787 1 799 1 802 1 850 1 882 1 907 1 911 1 955 1 962 1 1007 1 
1 208 23 1 28 1 38 1 58 1 72 1 78 1 106 1 110 1 123 1 126 1 177 1 180 2 190 1 194 1 224 1 235 1 283 1 286 1 293 1 323 1 349 1 367 1 413 1 460 1 541 1 568 1 579 1 596 2 621 1 622 2 6 1 13 1 46 1 59 1 65 1 105 1 113 1 151 1 152 1 220 1 223 1 248 1 259 1 388 1 398 1 414 1 419 1 424 1 428 1 437 1 455 1 461 1 467 1 479 1 480 1 500 1 509 1 583 1 584 1 592 1 602 1 659 1 693 1 750 1 753 1 754 1 769 1 770 1 780 1 819 1 821 1 823 1 835 1 836 1 837 1 840 1 846 1 851 1 876 1 880 1 894 1 908 1 913 1 957 1 992 1 998 1 642 1 663 1 669 1 707 1 743 1 763 1 782 1 783 1 790 1 830 1 857 1 869 1 906 1 921 1 928 1 967 1 969 1 978 1 991 1 993 1 1009 1 1010 1 
1 211 56 1 72 2 74 1 76 1 97 1 106 1 113 1 121 1 136 1 235 1 256 1 258 1 287 1 295 1 299 1 306 1 307 1 314 1 317 1 324 1 326 1 332 1 347 1 363 1 420 1 424 1 425 1 498 1 500 1 505 1 533 1 547 1 587 1 589 1 598 1 601 1 13 1 36 1 52 1 54 1 79 1 96 1 109 1 118 1 125 1 159 1 166 1 171 1 178 1 193 1 194 1 293 1 300 1 323 1 353 1 368 1 371 1 375 1 388 1 401 1 404 1 436 1 448 1 472 1 476 1 477 1 479 1 489 1 502 1 509 1 510 1 512 1 515 1 521 1 537 1 550 1 552 1 557 1 559 1 580 1 588 1 663 1 669 1 673 1 677 1 709 1 758 1 759 1 765 1 790 1 802 1 815 1 838 1 839 1 844 1 855 2 868 1 886 1 887 1 893 1 912 1 917 1 930 1 935 1 937 1 945 1 963 1 975 1 980 1 662 1 665 1 676 1 700 1 713 1 725 1 727 1 729 1 731 1 745 1 757 1 785 1 786 1 821 1 847 1 861 1 864 1 932 1 938 1 993 1 1010 1 1019 1 
1 210 49 1 50 1 62 2 71 1 76 1 92 1 113 1 120 1 140 1 141 1 146 1 204 1 209 1 246 1 289 1 299 1 313 1 336 1 343 1 345 1 351 1 362 1 392 1 401 1 410 1 432 1 457 1 485 1 503 2 507 1 535 1 556 1 567 1 586 1 598 1 628 1 3 1 7 1 21 1 42 1 107 1 131 1 135 1 163 1 178 1 200 1 227 1 242 1 248 1 255 1 260 1 271 1 276 1 281 1 291 1 294 1 305 1 311 1 315 1 342 1 374 1 391 1 408 1 424 1 427 1 433 1 461 1 472 1 509 1 517 1 536 1 579 1 604 1 613 1 642 1 648 1 691 1 773 1 782 1 801 1 802 1 803 1 806 1 807 1 809 1 823 1 842 1 865 1 885 1 903 1 949 1 951 1 961 1 988 1 991 1 652 1 687 1 699 1 761 1 767 1 821 1 824 1 891 1 893 1 931 1 942 1 952 1 953 1 954 1 964 1 977 1 990 1 994 1 1011 1 1017 1 1019 1 
1 211 18 1 95 1 96 1 118 1 121 1 127 1 133 1 144 1 161 1 192 1 198 1 213 1 221 1 244 1 270 1 295 1 297 1 337 1 339 1 340 1 350 1 354 1 371 1 386 1 393 1 399 1 403 1 410 1 433 1 440 1 447 1 458 1 474 1 488 1 494 1 501 1 503 1 508 1 524 1 527 1 542 1 562 1 566 2 583 1 589 1 592 1 600 1 614 1 16 1 20 1 36 1 50 1 56 1 72 1 75 1 122 1 138 1 167 1 171 1 176 1 185 1 225 1 237 1 240 1 252 1 260 1 290 1 378 1 390 1 396 1 424 1 427 1 449 1 450 1 452 1 467 1 470 1 478 1 538 1 557 1 570 1 577 1 637 1 649 1 670 2 682 1 692 1 733 2 760 1 769 2 819 1 832 1 875 1 913 1 933 1 941 1 955 1 967 1 979 1 985 1 998 1 721 1 742 1 798 1 799 1 800 1 825 1 857 1 892 1 896 1 914 1 923 1 972 1 991 1 1005 1 1009 1 1012 1 
1 207 1 2 12 1 20 1 45 1 60 1 65 1 119 1 121 1 129 1 142 1 147 2 190 1 254 1 258 1 284 2 310 1 336 1 361 1 374 2 388 1 422 1 460 1 535 1 549 1 550 1 574 1 577 1 587 1 589 2 590 1 599 1 618 1 3 1 9 1 16 1 17 1 27 1 40 1 74 1 77 1 88 1 97 1 102 1 115 1 131 1 137 1 138 1 169 1 186 1 197 1 200 1 201 1 263 1 293 1 305 1 308 1 330 1 442 1 443 1 454 1 465 1 470 1 477 1 567 1 580 1 584 1 637 1 639 1 647 1 655 1 669 1 672 1 695 1 700 1 713 1 807 1 826 1 895 1 905 1 916 1 917 1 929 1 956 1 978 1 984 1 640 1 649 1 651 1 657 1 665 1 677 1 733 1 770 1 771 1 774 1 778 1 816 1 855 1 870 1 887 1 910 1 911 1 922 1 927 1 932 1 1004 1 1007 1 
1 211 2 1 6 1 42 1 44 1 60 1 68 1 110 1 182 1 184 1 212 1 213 2 217 1 236 1 237 1 248 1 260 1 263 1 266 1 267 1 288 1 304 1 348 1 355 1 381 1 383 1 385 1 413 1 416 1 429 1 452 1 456 1 510 2 523 1 580 1 588 1 593 1 622 1 635 1 636 1 3 1 46 1 54 1 98 1 103 1 109 1 142 1 155 1 174 1 175 1 192 1 211 1 250 1 253 1 313 1 332 1 339 1 384 1 417 1 432 1 444 1 470 1 505 1 534 1 535 1 545 1 601 1 604 1 652 1 664 1 748 1 760 1 781 1 785 1 810 1 811 1 812 1 828 1 843 1 873 1 874 1 887 1 894 1 928 1 971 1 638 1 641 1 660 1 665 1 691 1 778 1 792 1 804 1 854 1 876 1 879 1 881 1 882 1 1000 1 1001 1 1005 1 
1 209 11 2 18 1 19 1 21 1 75 1 112 1 117 1 120 1 155 1 206 1 209 1 227 1 230 1 253 1 254 1 256 1 264 1 294 1 304 1 312 1 319 1 336 1 347 1 399 1 437 1 443 1 448 2 506 1 516 1 537 1 538 1 539 1 570 1 577 1 617 1 626 1 24 1 31 1 32 1 36 1 61 1 92 1 110 1 121 1 125 1 133 1 135 1 156 1 169 1 180 1 218 1 231 1 235 1 249 1 251 1 255 1 259 1 267 1 279 1 291 1 299 1 350 1 375 1 379 1 405 1 408 1 419 1 438 1 446 1 472 1 475 1 476 1 478 1 490 1 498 1 520 1 529 1 536 1 553 1 554 1 555 1 556 1 559 1 579 1 605 1 609 1 612 1 627 1 637 1 645 1 661 2 696 1 702 1 744 1 770 1 771 1 791 1 802 1 805 1 833 1 836 1 839 1 843 1 863 2 887 1 900 1 928 1 964 1 982 1 986 1 646 1 698 1 701 1 703 1 715 1 725 1 727 1 739 1 745 1 769 1 804 1 820 1 857 1 867 1 874 1 882 1 902 1 911 1 960 1 978 1 987 1 1014 1 1018 1 
1 208 24 1 25 1 29 1 39 1 74 1 96 1 101 1 216 1 259 1 262 1 266 1 279 1 280 1 323 1 349 1 373 1 376 1 402 1 404 1 416 1 428 1 438 1 442 2 481 1 485 1 495 1 513 1 532 1 535 1 542 1 545 1 557 1 562 1 563 1 570 1 582 1 615 1 618 1 636 1 8 1 16 1 50 1 52 1 76 1 95 1 127 1 159 1 166 1 178 1 188 1 208 1 232 1 278 1 304 1 305 1 329 1 345 1 368 1 377 1 384 1 407 1 431 1 474 1 554 1 569 1 587 1 588 1 611 1 621 1 679 1 685 1 690 1 692 1 718 1 727 1 744 1 750 1 767 1 768 1 771 1 789 1 792 1 831 1 842 1 865 1 873 1 896 1 916 1 950 1 702 1 711 1 719 1 746 1 778 1 818 1 825 1 826 1 837 1 877 1 881 1 887 1 889 1 892 1 923 1 935 1 944 1 979 1 986 1 996 1 1001 1 
1 209 2 1 30 1 42 1 70 1 80 1 88 1 93 1 101 1 102 1 129 1 141 1 185 1 191 1 196 1 205 1 210 1 216 2 218 1 221 1 246 1 262 1 271 1 302 1 335 2 379 1 414 1 462 1 470 1 476 1 490 2 498 1 505 1 515 2 522 1 550 1 601 1 16 1 89 1 98 1 155 1 174 1 200 1 204 1 214 1 215 1 279 1 289 1 310 1 317 1 326 1 341 1 357 1 359 1 398 1 400 1 406 1 434 1 475 1 480 1 485 1 493 1 531 1 538 1 556 1 560 1 576 1 582 1 587 1 636 1 664 1 668 1 679 1 684 1 696 1 700 1 741 1 785 1 805 1 850 1 853 2 859 1 872 1 895 1 940 1 956 2 992 1 659 1 661 1 681 1 708 1 729 1 743 1 756 1 769 1 788 1 800 1 883 1 889 1 907 1 926 1 939 1 943 1 967 1 988 1 1003 1 1014 1 1016 1 1017 1 1018 1 
1 207 1 1 25 1 61 1 79 1 80 1 91 1 96 1 119 1 124 1 127 2 146 1 157 1 168 1 193 1 221 1 253 1 259 1 304 1 323 1 328 1 332 1 340 1 357 1 365 1 373 1 376 1 384 1 409 1 455 1 461 1 478 1 493 1 508 1 522 1 532 1 549 1 554 1 584 2 612 1 13 1 15 1 36 1 43 1 49 1 53 1 114 1 120 1 144 1 184 1 225 1 258 1 375 1 387 1 394 1 410 1 413 1 416 1 431 1 433 1 439 1 447 1 485 1 526 1 538 1 571 1 621 1 622 1 637 1 669 1 702 1 709 1 714 1 721 1 724 1 735 1 762 1 783 1 804 1 818 1 825 1 831 1 871 1 874 1 883 1 927 1 932 1 953 2 958 1 968 1 978 2 991 1 996 2 649 1 659 1 695 1 706 1 720 1 728 1 746 1 763 1 769 1 772 1 778 1 801 1 821 1 836 1 907 1 919 1 929 1 935 1 949 1 987 1 1010 1 
1 215 2 1 3 1 11 1 16 2 26 1 29 1 31 2 33 1 38 1 41 2 109 1 159 1 171 1 222 1 262 1 277 1 281 1 290 1 302 1 308 1 331 1 336 1 343 2 359 1 363 1 369 1 375 1 392 1 403 1 442 1 467 1 471 1 476 1 512 1 518 1 527 1 542 1 544 1 560 2 606 1 624 1 634 1 1 1 18 1 55 1 70 1 81 1 84 1 86 1 101 1 110 1 143 1 151 1 177 1 185 1 226 1 227 1 272 1 297 1 346 1 356 1 362 1 384 1 393 1 408 1 429 1 444 1 459 1 502 1 505 1 508 1 509 1 521 1 546 1 557 1 563 1 569 1 579 1 595 1 616 1 618 1 619 1 632 1 688 1 710 1 756 1 759 1 772 1 786 1 795 1 797 1 804 1 839 1 858 1 865 1 888 1 910 1 917 1 945 1 956 1 967 1 996 1 676 1 678 1 718 1 724 1 732 1 751 1 757 1 777 1 785 1 860 1 868 1 878 1 887 1 896 1 911 1 912 1 952 1 962 1 993 1 999 1 1013 1 1014 1 
1 208 1 1 6 1 13 1 33 1 85 1 94 1 102 1 105 1 111 1 121 1 129 1 134 1 145 1 165 1 182 1 217 1 220 1 229 1 282 1 302 1 324 1 330 1 360 1 399 1 405 1 419 2 438 1 441 1 459 1 468 1 481 1 513 1 522 1 566 1 567 1 570 1 594 1 607 1 613 1 18 1 22 1 34 1 41 1 55 1 92 1 93 1 95 1 127 1 185 1 193 1 233 1 260 1 271 1 277 1 283 1 303 1 319 1 371 1 381 1 400 1 406 1 425 1 434 1 446 1 451 1 454 1 492 1 499 1 511 1 528 1 547 1 556 1 560 1 589 1 620 1 628 1 630 1 645 1 687 1 710 1 735 1 771 1 799 1 820 1 836 1 846 1 857 1 866 1 900 1 914 1 928 1 942 1 976 1 986 1 678 1 709 1 756 1 763 1 775 1 780 1 828 1 835 1 841 1 848 1 881 1 898 1 910 1 926 1 945 1 964 1 968 1 979 1 981 1 995 1 1008 1 
1 211 17 1 37 1 43 1 50 1 61 1 113 1 114 1 124 1 132 1 188 1 197 1 199 1 206 1 211 1 224 1 233 1 241 2 257 1 264 2 269 1 284 1 295 1 365 1 373 1 396 1 410 1 413 1 425 1 426 1 443 1 445 1 456 1 517 1 547 1 554 2 563 1 571 1 601 1 64 1 69 1 73 1 93 1 95 1 100 1 121 1 127 1 144 1 164 1 173 1 181 1 198 1 209 1 217 1 230 1 242 1 309 1 358 1 363 1 366 1 383 1 478 1 480 1 544 1 552 1 569 1 593 1 599 1 611 1 628 1 663 1 671 1 690 1 717 1 760 1 767 1 778 1 783 1 818 1 823 1 837 1 853 1 863 2 876 1 888 1 904 1 940 1 959 1 966 1 991 1 677 1 696 1 700 1 708 1 724 1 730 1 752 1 790 1 796 1 803 1 829 1 851 1 872 1 902 1 907 1 914 1 915 1 930 1 943 1 976 1 987 1 
1 214 25 1 26 1 31 1 35 1 70 1 84 1 115 1 117 1 124 1 125 1 148 1 155 1 159 1 188 1 196 1 202 1 205 1 221 1 306 1 332 1 357 1 390 1 420 1 442 1 443 1 462 1 465 1 482 1 499 1 504 1 510 1 516 1 519 1 527 1 536 1 537 1 554 1 561 1 572 1 575 1 582 1 598 1 625 2 638 1 643 1 42 1 76 1 88 1 91 1 186 1 191 1 247 1 252 1 263 1 334 1 335 1 352 1 360 1 393 1 401 1 411 1 412 1 447 1 453 1 466 1 539 1 549 1 556 1 580 1 587 1 589 1 596 1 624 1 651 1 672 1 679 1 685 1 694 1 700 1 704 2 718 1 722 1 768 1 775 1 809 1 821 1 858 1 901 2 903 1 907 1 923 1 927 2 947 1 951 1 956 1 970 1 979 1 991 1 735 1 759 1 767 1 833 1 860 1 881 1 911 1 926 1 934 1 938 1 976 1 978 1 981 1 1009 1 1013 1 1015 1 
1 203 22 1 30 1 47 1 59 1 77 1 100 1 130 1 156 1 178 1 194 1 196 1 199 1 225 1 271 1 287 1 290 1 304 1 306 2 314 1 355 1 363 1 364 1 409 1 423 1 432 1 459 1 462 1 487 1 504 1 511 1 527 1 534 1 551 1 560 1 568 2 580 1 582 1 596 1 613 1 627 1 2 1 73 1 78 1 94 1 146 1 150 1 161 1 186 1 235 1 278 1 281 1 293 1 310 1 311 1 346 1 361 1 373 1 389 1 416 1 433 1 438 1 478 1 481 1 486 1 529 1 531 1 532 1 543 1 549 1 561 1 563 1 622 1 638 1 662 1 677 2 709 1 734 1 738 1 740 1 746 1 765 2 772 1 795 1 796 1 840 1 849 1 857 1 867 1 882 1 893 1 897 1 928 1 930 1 961 1 972 1 981 1 998 1 653 1 708 1 720 1 739 1 743 1 745 1 751 1 760 1 785 1 844 1 851 1 879 1 895 1 934 1 992 1 1000 1 
1 208 17 1 19 2 23 1 41 1 49 1 116 1 120 1 136 1 149 1 153 1 169 1 191 1 230 2 248 1 273 1 276 1 324 2 348 1 378 1 472 1 490 1 501 1 542 1 544 1 546 1 574 1 582 1 584 1 601 1 608 1 636 1 36 1 52 1 91 1 95 1 96 1 114 1 123 1 174 1 195 1 197 1 203 1 226 1 246 1 255 1 256 1 269 1 298 1 299 1 322 1 331 1 343 1 363 1 368 1 389 1 395 1 450 1 476 1 515 1 518 1 525 1 528 1 536 1 562 1 563 1 572 1 618 1 647 1 647 1 657 1 685 1 693 1 704 1 734 1 742 1 749 1 751 1 778 1 783 1 815 1 820 1 827 2 847 1 860 1 865 2 872 1 903 1 907 1 927 1 939 1 955 1 989 1 718 1 757 1 762 1 787 1 790 1 801 1 813 1 825 1 828 1 853 1 858 1 874 1 881 1 911 1 950 1 953 1 958 1 988 1 998 1 
1 210 17 1 58 1 63 1 65 1 75 1 81 1 88 1 92 1 126 1 171 1 185 1 215 2 225 1 242 1 280 1 300 1 301 1 306 1 366 1 410 1 417 2 436 1 441 1 447 1 475 1 487 1 503 1 504 1 512 1 515 1 529 1 542 2 572 1 575 1 605 1 634 1 9 1 20 1 25 1 26 1 50 1 53 1 56 1 59 1 67 1 73 1 78 1 84 1 93 1 96 1 101 1 103 1 109 1 144 1 181 1 189 1 195 1 197 1 212 1 233 1 259 1 287 1 293 1 310 1 317 1 320 1 339 1 361 1 387 1 424 1 451 1 496 1 499 1 519 1 527 1 551 1 558 1 562 1 585 1 659 1 689 1 697 1 757 1 771 1 773 1 820 1 886 1 891 1 898 1 913 1 940 1 945 1 961 2 992 1 658 1 690 1 693 1 696 1 706 1 763 1 764 1 798 1 821 1 890 1 926 1 932 1 960 1 963 1 966 1 991 1 1018 1 
1 211 127 1 141 1 162 1 185 2 208 1 209 1 213 1 302 1 306 1 356 1 369 1 382 1 402 1 427 1 468 1 496 1 510 1 529 1 564 1 620 1 631 1 635 1 5 1 39 1 43 1 48 1 53 1 80 1 107 1 111 1 117 1 135 1 140 1 144 1 175 1 187 1 191 1 202 1 207 1 211 1 214 1 216 1 228 1 243 1 280 1 311 1 324 1 327 1 328 1 360 1 386 1 410 1 417 1 420 1 442 1 458 1 473 1 536 1 542 1 546 1 554 1 565 1 575 1 600 1 621 1 636 1 641 1 652 1 667 1 706 1 725 1 727 1 728 1 733 1 741 1 773 1 782 1 785 1 798 1 832 1 834 1 845 1 864 2 869 1 871 1 875 2 891 1 894 1 897 1 901 1 908 1 915 2 917 1 941 1 944 1 963 1 966 1 666 1 692 1 693 1 698 1 699 1 704 1 736 1 743 1 754 1 757 1 769 1 775 1 777 1 808 1 812 1 824 1 855 1 868 1 879 1 893 1 904 1 910 1 925 1 975 1 987 1 996 1 1003 1 1007 1 1009 1 1014 1 
1 210 20 1 44 1 49 1 99 1 132 1 145 1 166 1 196 1 213 1 218 1 279 1 285 1 288 1 293 1 310 1 344 1 361 1 373 1 389 1 400 1 410 1 415 2 416 1 419 1 421 1 425 1 426 1 476 1 502 1 505 1 516 1 520 1 548 1 549 1 556 1 557 1 598 1 624 1 627 1 3 1 59 1 78 1 81 1 91 1 100 1 111 1 146 1 162 1 165 1 171 1 179 1 185 1 216 1 236 1 244 1 276 1 290 1 318 1 339 1 347 1 352 1 380 1 384 1 395 1 414 1 417 1 427 1 465 1 478 1 484 1 537 1 540 1 593 1 596 1 611 1 673 1 687 1 740 1 742 1 754 1 771 1 780 1 802 1 840 1 852 2 857 1 858 1 863 1 884 1 913 1 936 1 946 1 952 1 955 1 963 1 970 2 660 1 686 1 688 1 689 1 713 1 715 1 725 1 753 1 775 1 787 1 792 1 794 1 854 1 887 1 906 1 922 1 956 1 983 1 1004 1 1014 1 
1 208 6 1 19 1 24 1 28 1 30 1 37 1 57 1 71 1 100 1 106 1 166 1 187 1 191 1 205 1 217 1 268 1 271 1 294 1 318 1 319 1 352 1 380 2 410 1 419 1 429 1 482 1 529 1 538 1 570 1 593 1 645 1 2 1 3 1 11 1 16 1 38 1 40 1 43 1 62 1 79 1 99 1 115 1 127 1 128 1 147 1 153 1 181 1 185 1 202 1 208 1 226 1 242 1 245 1 343 1 356 1 367 1 437 1 446 1 451 1 455 1 463 1 489 1 510 1 528 1 530 1 554 1 566 1 600 1 601 1 622 1 625 1 627 1 636 1 665 1 666 1 697 1 698 1 711 2 721 1 741 1 755 1 789 1 795 1 840 1 853 1 859 1 867 1 868 1 889 1 903 1 908 1 911 1 939 1 943 1 964 1 967 1 979 2 991 1 996 1 997 1 653 1 657 1 672 1 686 1 691 1 693 1 725 1 739 1 802 1 827 1 844 1 854 1 923 1 944 1 958 1 972 1 980 1 986 1 994 1 1002 1 
1 212 8 1 9 1 61 1 66 1 80 1 104 1 150 2 156 1 163 1 179 1 197 1 214 1 221 1 229 1 235 1 269 1 285 1 289 1 317 1 357 1 393 1 408 1 426 1 427 1 442 1 452 1 458 1 464 1 480 1 535 1 585 1 588 1 599 1 607 1 616 1 625 1 637 1 649 1 12 1 21 1 41 1 53 1 99 1 108 1 127 1 132 1 141 1 181 1 188 1 206 1 210 1 212 1 241 1 242 1 251 1 311 1 322 1 340 1 345 1 346 1 366 1 390 1 402 1 416 1 437 1 460 1 492 1 526 1 527 1 547 1 579 1 608 1 620 1 634 1 658 1 673 1 674 2 690 1 691 1 707 1 709 1 731 1 741 1 756 1 773 2 826 1 856 1 858 1 862 1 864 1 868 1 891 1 901 1 933 1 935 2 948 1 974 1 995 1 655 1 701 1 736 1 754 1 767 1 820 1 847 1 850 1 866 1 870 1 888 1 889 1 910 1 923 1 927 1 928 1 938 1 942 1 971 1 981 1 1005 1 1007 1 1008 1 
1 215 3 1 36 1 117 1 125 1 127 1 134 1 139 1 148 1 149 1 158 1 180 1 198 1 219 1 220 1 221 1 229 1 262 1 274 1 304 1 328 1 344 1 403 1 407 1 419 1 442 1 472 1 484 1 496 1 515 1 532 1 554 1 566 1 570 1 572 1 579 1 597 1 619 1 17 1 39 1 119 1 172 1 174 1 218 1 244 1 278 1 293 1 295 1 302 1 307 1 313 1 326 1 346 1 359 1 364 1 368 1 370 1 386 1 390 1 396 1 431 1 448 1 453 1 458 1 500 1 516 1 520 1 522 1 577 1 603 1 612 1 616 1 625 1 646 1 651 1 654 1 666 1 669 1 672 1 677 1 687 1 710 2 725 1 764 1 832 2 940 1 961 1 965 1 969 1 986 1 994 1 655 1 694 1 695 1 712 1 728 1 738 1 773 1 781 1 807 1 816 1 831 1 842 1 846 1 858 1 876 1 900 1 909 1 911 1 917 1 932 1 984 1 1005 1 1014 1 1017 1 1019 1 
1 211 5 1 11 1 18 1 24 1 28 1 39 1 58 1 63 1 68 1 85 1 116 1 129 1 133 1 180 1 208 1 278 1 311 2 325 1 338 1 354 1 365 1 384 1 408 1 423 1 469 1 474 1 517 1 519 1 526 1 553 1 576 1 587 1 619 1 625 1 653 1 17 1 34 1 43 1 46 1 52 1 74 1 125 1 127 1 131 1 149 1 158 1 165 1 173 1 187 1 233 1 235 1 236 1 245 1 258 1 281 1 292 1 321 1 322 1 329 1 362 1 363 1 383 1 404 1 422 1 427 1 448 1 468 1 473 1 484 1 494 1 510 1 512 1 533 1 544 1 550 1 566 1 588 1 599 1 629 1 631 1 658 1 674 1 705 1 720 1 721 1 727 1 732 1 772 1 776 1 784 2 803 1 805 1 817 1 836 1 851 1 859 1 860 1 865 1 886 1 919 1 925 1 930 1 954 1 960 1 672 1 702 1 722 1 728 1 768 1 781 1 814 1 822 1 861 1 868 1 874 1 877 1 907 1 911 1 912 1 941 1 956 1 970 1 
1 213 63 1 65 1 87 1 105 1 166 1 189 1 191 1 228 1 235 1 245 1 272 1 276 1 306 1 307 2 312 1 334 1 341 1 375 1 383 1 394 1 399 1 411 2 479 1 512 2 513 1 520 1 553 1 566 1 577 1 597 1 610 1 636 1 5 1 10 1 34 1 62 1 68 1 81 1 85 1 109 1 111 1 118 1 162 1 171 1 181 1 190 1 221 1 239 1 257 1 270 1 292 1 297 1 329 1 349 1 356 1 358 1 381 1 404 1 435 1 449 1 454 1 457 1 467 1 477 1 485 1 490 1 521 1 541 1 552 1 558 1 587 1 623 1 626 1 630 1 631 1 652 1 653 1 657 1 662 1 670 1 672 1 698 1 747 1 753 1 760 1 780 1 793 1 824 1 828 1 831 1 847 1 865 1 912 1 941 1 969 1 997 1 665 1 678 1 701 1 711 1 735 1 740 1 782 1 789 1 818 1 838 1 848 1 849 1 851 1 861 1 870 1 877 1 898 1 903 1 918 1 919 1 934 1 957 1 960 1 975 1 984 1 999 1 1005 1 1008 1 1016 1 
1 211 16 1 27 1 48 1 62 1 63 1 80 1 95 1 101 1 117 1 126 1 151 1 182 1 192 1 196 1 209 1 256 1 273 1 274 1 287 1 296 1 316 1 322 1 333 2 341 1 355 1 360 1 370 1 425 1 438 1 449 2 456 1 463 1 492 1 512 1 525 1 526 1 546 1 568 2 569 1 598 1 611 1 18 1 19 1 35 1 47 1 56 1 59 1 76 1 82 1 110 1 140 1 152 1 153 1 155 1 164 1 174 1 179 1 232 1 240 1 277 1 292 1 305 1 327 1 365 1 378 1 400 1 402 1 417 1 420 1 423 1 444 1 453 1 485 1 486 1 504 1 532 1 556 1 571 1 681 1 703 1 714 2 719 1 749 1 755 1 762 1 799 1 801 1 813 1 845 1 846 1 882 1 911 1 944 1 950 1 954 1 981 1 710 1 742 1 744 1 763 1 777 1 803 1 851 1 865 1 868 1 884 1 895 1 912 1 948 1 952 1 967 1 970 1 984 1 999 1 1006 1 1013 1 1018 1 
1 213 13 1 18 1 62 1 105 1 116 1 117 1 123 1 137 1 152 1 163 1 168 1 182 1 186 1 189 1 194 1 198 1 294 1 310 1 327 1 337 1 347 1 366 2 383 1 406 1 452 1 466 1 469 1 489 1 490 1 524 1 556 1 565 1 592 1 599 1 607 1 620 1 647 1 655 1 8 1 29 1 34 1 72 1 75 1 84 1 97 1 113 1 121 1 122 1 147 1 154 1 165 1 206 1 220 1 224 1 245 1 256 1 265 1 282 1 286 1 290 1 293 1 319 1 321 1 355 1 371 1 390 1 398 1 421 1 429 1 432 1 445 1 451 1 453 1 473 1 511 1 525 1 543 1 553 1 560 1 577 1 586 1 610 1 624 1 627 1 636 1 651 1 705 1 720 1 727 1 750 1 785 2 798 1 822 2 844 1 862 1 875 1 901 1 913 1 923 1 930 1 939 1 941 2 958 1 961 1 981 1 997 1 679 1 704 1 734 1 744 1 748 1 763 1 777 1 780 1 783 1 802 1 809 1 815 1 838 1 889 1 900 1 906 1 908 1 922 1 929 1 931 1 934 1 956 1 962 1 991 1 999 1 1011 1 
1 210 3 1 4 1 6 1 25 1 30 2 32 1 36 1 50 2 64 1 85 1 90 2 92 1 93 2 105 1 127 1 183 1 185 1 205 1 238 1 260 1 263 1 298 1 301 1 302 1 356 1 368 1 386 1 387 1 410 1 412 1 443 1 457 1 468 1 488 1 531 1 541 1 573 1 576 1 595 1 597 1 617 1 630 1 652 1 654 1 1 1 21 1 40 1 49 1 63 1 65 1 102 1 121 1 122 1 131 1 165 1 216 1 221 1 234 1 240 1 254 1 264 1 268 1 291 1 294 1 295 1 348 1 369 1 372 1 378 1 407 1 435 1 501 1 518 1 529 1 560 1 563 1 589 1 590 1 621 1 648 1 668 1 687 1 690 1 705 1 714 1 719 1 830 1 845 1 855 1 887 1 924 1 953 1 962 1 708 1 765 1 776 1 793 1 816 1 820 1 828 1 875 1 879 1 881 1 882 1 915 1 980 1 1002 1 1009 1 1014 1 1018 1 
1 210 2 1 12 1 32 1 48 1 56 1 84 1 85 1 109 1 143 1 166 1 210 1 213 1 228 1 257 1 296 2 313 1 326 1 362 1 379 1 380 1 403 1 445 1 452 1 464 1 479 1 485 1 489 1 494 1 504 1 519 1 524 1 542 1 557 1 570 1 627 1 632 1 648 1 10 1 11 1 16 1 41 1 54 1 58 1 61 1 66 1 73 1 104 1 121 1 198 1 237 1 306 1 323 1 324 1 333 1 341 1 346 1 351 1 355 1 365 1 406 1 434 1 438 1 448 1 461 1 463 1 507 1 514 1 521 1 525 1 560 1 584 1 623 1 640 1 641 1 662 1 671 1 681 1 701 1 721 1 722 1 723 1 764 1 768 2 789 1 867 1 873 1 874 1 896 1 689 1 691 1 693 1 695 1 698 1 705 1 757 1 773 1 795 1 798 1 809 1 828 1 836 1 840 1 849 1 851 1 863 1 890 1 893 1 924 1 974 1 984 1 1006 1 1008 1 1012 1 
1 210 42 1 74 1 93 1 105 1 120 1 145 1 196 1 201 1 221 1 237 1 238 1 258 1 259 1 281 1 292 1 294 1 310 1 312 1 332 1 347 1 369 1 370 1 373 1 386 2 414 1 437 1 465 1 476 1 477 1 505 1 519 1 534 1 540 1 554 1 557 1 576 1 590 1 625 1 25 1 64 1 71 1 106 1 118 1 127 1 137 1 140 1 156 1 160 1 182 1 198 1 211 1 212 1 214 1 240 1 253 1 256 1 296 1 316 1 374 1 376 1 378 1 409 1 431 1 541 1 565 1 594 1 611 1 619 1 626 1 637 1 650 1 669 1 697 1 792 1 821 1 832 1 842 1 843 1 880 1 885 1 887 1 899 1 922 1 934 1 947 1 985 1 994 2 700 1 715 1 749 1 763 1 795 1 824 1 826 1 837 1 863 1 896 1 931 1 935 1 940 1 951 1 965 1 967 1 979 1 986 1 988 1 1004 1 1006 1 1019 1 
1 214 18 1 19 1 68 1 90 1 91 1 115 1 132 1 139 1 143 1 170 2 183 1 190 1 212 1 218 1 221 1 244 1 249 1 255 1 309 1 349 1 381 1 385 1 397 1 398 1 404 1 425 1 430 1 436 1 438 1 455 1 468 1 472 1 497 1 546 1 551 1 556 2 572 1 575 1 576 1 597 1 598 1 638 2 32 1 42 1 56 1 58 1 60 1 70 1 101 1 129 1 169 1 188 1 213 1 223 1 247 1 268 1 288 1 301 1 319 1 324 1 338 1 361 1 395 1 399 1 405 1 420 1 424 1 450 1 495 1 502 1 531 1 550 1 554 1 559 1 563 1 595 1 611 1 618 1 628 1 631 1 640 1 677 1 699 1 702 1 717 1 738 1 761 1 862 2 863 1 875 1 888 1 931 2 965 1 979 1 981 1 669 1 688 1 727 1 785 1 793 1 821 1 841 1 842 1 868 1 885 1 890 1 901 1 905 1 907 1 936 1 968 1 973 1 983 1 984 1 993 1 1014 1 1017 1 
1 209 2 1 13 1 20 1 37 1 39 1 70 1 81 1 97 1 120 1 122 2 131 1 134 1 150 1 181 1 182 1 196 1 213 1 243 1 248 1 262 1 279 1 294 2 299 1 325 2 359 2 368 1 395 1 449 1 457 1 461 1 462 1 479 1 557 1 560 1 561 1 616 1 646 1 655 1 659 1 1 1 25 1 43 1 50 1 61 1 63 1 87 1 111 1 127 1 143 1 167 1 177 1 228 1 231 1 234 1 267 1 273 1 290 1 297 1 303 1 308 1 323 1 373 1 409 1 431 1 443 1 445 1 446 1 451 1 478 1 508 1 565 1 604 1 633 1 668 2 685 1 693 1 707 1 728 1 750 2 755 1 786 1 797 1 824 1 854 1 855 1 868 2 869 1 876 1 878 1 886 1 887 2 893 1 924 1 985 1 673 1 689 1 735 1 739 1 753 1 821 1 823 1 826 1 828 1 856 1 867 1 874 1 879 1 926 1 948 1 953 1 956 1 982 1 1006 1 1011 1 1014 1 
1 204 12 1 15 1 18 1 22 1 37 1 38 1 68 1 101 1 121 1 188 1 193 1 206 1 218 1 289 1 317 1 338 1 349 1 362 1 367 1 371 1 394 1 399 1 414 1 425 1 450 1 471 2 482 1 494 1 504 1 516 1 530 1 539 1 561 1 582 1 591 1 601 1 610 1 633 1 644 1 85 1 91 1 94 1 95 1 128 1 160 1 171 1 176 1 200 1 220 1 259 1 272 1 286 1 396 1 435 1 437 1 460 1 486 1 503 1 531 1 533 1 535 1 548 1 557 1 559 1 562 1 565 1 575 1 632 1 668 1 675 2 693 1 713 1 716 1 717 1 728 1 755 1 761 1 762 1 786 1 813 1 827 1 833 1 837 1 840 2 846 1 848 1 871 1 873 1 875 1 880 1 892 1 908 1 910 1 911 1 947 1 961 1 966 2 977 1 670 1 673 1 698 1 699 1 712 1 724 1 748 1 751 1 760 1 793 1 799 1 803 1 821 1 845 1 861 1 889 1 890 1 891 1 915 1 929 1 941 1 964 1 
1 208 6 1 28 1 44 1 75 1 83 1 92 2 99 1 101 1 147 1 163 1 219 1 228 1 264 1 278 1 279 1 312 1 315 1 327 1 329 1 332 1 338 1 350 1 404 1 405 1 440 1 446 1 454 1 456 1 458 1 466 1 499 1 502 1 536 1 556 1 561 1 565 1 575 1 581 1 595 1 612 1 614 1 637 1 640 1 15 1 26 1 64 1 73 1 78 1 80 1 111 1 112 1 131 1 162 1 202 1 243 1 247 1 266 1 317 1 355 1 386 1 409 1 426 1 441 1 459 1 463 1 471 1 514 1 523 1 529 1 551 1 557 1 562 1 580 1 586 1 592 1 601 1 667 1 685 1 708 1 721 1 734 1 773 1 788 1 803 1 805 1 831 2 852 1 862 1 868 1 872 2 874 1 927 1 955 1 973 1 976 1 992 2 995 1 666 1 670 1 671 1 673 1 728 1 753 1 768 1 794 1 814 1 881 1 882 1 883 1 909 1 918 1 930 1 956 1 
1 206 23 1 27 1 29 1 58 1 68 1 71 1 84 1 110 1 124 1 126 1 152 1 171 1 198 1 204 1 269 1 270 1 294 1 310 1 315 1 318 1 328 1 330 1 334 1 359 1 370 1 382 1 399 1 429 1 432 1 435 1 470 1 504 1 505 1 511 1 515 1 521 1 524 1 579 2 583 1 591 1 605 1 606 2 607 1 616 1 619 2 651 1 45 1 54 1 80 1 92 1 147 1 158 1 167 1 199 1 223 1 225 1 233 1 244 1 265 1 297 1 326 1 331 1 367 1 375 1 381 1 418 1 428 1 441 1 450 1 483 1 486 1 489 1 499 1 500 1 513 1 520 1 533 1 560 1 582 1 622 1 633 1 636 1 637 1 655 1 670 1 690 1 699 1 761 1 794 1 830 1 848 1 852 1 854 1 882 1 895 1 913 1 919 1 926 1 931 1 936 1 938 1 941 1 959 1 987 1 998 1 674 1 681 1 708 1 741 1 750 1 755 1 780 1 783 1 793 1 800 1 817 1 826 1 827 1 855 1 888 1 909 1 968 1 
1 208 8 1 34 1 45 1 49 1 54 1 79 1 81 1 82 1 105 1 107 1 119 1 154 1 171 1 212 2 241 1 268 1 287 1 302 1 305 2 317 1 332 1 333 1 347 1 371 1 376 1 399 1 405 1 412 1 436 1 446 1 450 1 455 1 482 1 512 1 513 1 530 1 560 1 567 1 578 1 593 1 651 1 653 1 20 1 23 1 26 1 30 1 56 1 59 1 68 1 112 1 117 1 201 1 206 1 223 1 224 1 227 1 276 1 277 1 285 1 315 1 377 1 441 1 445 1 449 1 521 1 529 1 531 1 559 1 564 1 571 1 621 1 649 1 664 1 687 2 702 1 745 1 759 1 802 1 839 1 865 1 890 1 896 1 906 1 932 1 961 1 998 1 712 1 716 1 722 1 727 1 731 1 732 1 741 1 772 1 796 1 817 1 845 1 876 1 881 1 891 1 912 1 914 1 937 1 949 1 986 1 991 1 997 1 1000 1 1017 1 
1 206 33 1 64 1 85 1 92 1 96 1 130 1 140 1 160 1 170 1 181 1 185 1 209 2 218 1 222 1 224 1 246 1 256 1 273 1 289 1 305 2 338 1 341 1 345 1 382 1 386 1 388 1 413 1 420 2 434 1 441 1 447 1 454 1 473 1 487 1 491 1 506 1 529 1 550 1 587 2 649 1 664 1 11 1 46 1 81 1 91 1 102 1 103 1 120 1 127 1 131 1 146 1 150 1 158 1 187 1 212 1 214 1 227 1 234 1 268 1 292 1 298 1 310 1 314 1 340 1 362 1 375 1 376 1 378 1 389 1 404 1 429 1 444 1 507 1 519 1 544 1 586 1 596 1 605 1 608 1 612 1 629 1 719 1 737 1 751 1 757 1 770 1 794 1 811 1 814 1 819 1 824 1 828 1 838 1 844 1 872 1 886 2 910 1 924 1 964 1 669 1 708 1 727 1 730 1 772 1 774 1 867 1 893 1 898 1 912 1 929 1 944 1 968 1 988 1 1003 1 1007 1 
1 212 1 1 30 1 56 1 59 1 61 1 67 1 108 1 134 1 152 1 233 1 243 1 251 1 269 1 294 1 307 1 314 1 340 2 350 2 358 1 367 1 385 1 421 1 430 1 433 1 436 1 442 1 451 1 454 1 486 1 496 1 504 1 506 1 531 1 566 1 571 1 574 1 576 1 589 1 629 1 640 1 658 1 662 2 663 1 13 1 27 1 42 1 76 1 89 1 94 1 96 1 102 1 103 1 110 1 112 1 117 1 133 1 189 1 194 1 249 1 325 1 332 1 335 1 356 1 402 1 415 1 467 1 484 1 491 1 527 1 528 1 532 1 545 1 578 1 605 1 617 1 676 2 702 1 741 1 761 1 781 1 787 1 812 1 813 1 866 1 883 1 884 1 897 1 904 1 918 1 925 1 931 1 979 1 988 1 994 1 674 1 686 1 698 1 714 1 722 1 729 1 769 1 782 1 829 1 841 1 861 1 890 1 944 1 978 1 989 1 1010 1 1012 1 
1 206 4 1 18 1 85 1 120 1 153 2 166 1 184 1 220 1 245 1 249 1 252 1 280 1 294 1 308 1 324 1 331 1 338 1 360 1 371 1 374 1 386 1 400 1 410 1 422 1 423 1 439 1 461 1 467 1 476 1 537 1 543 1 544 1 557 1 607 1 631 1 633 1 636 1 641 1 653 1 660 1 23 1 57 1 59 1 65 1 68 1 96 1 107 1 125 1 129 1 149 1 151 1 155 1 177 1 191 1 194 1 197 1 206 1 230 1 275 1 304 1 342 1 401 1 407 1 425 1 437 1 488 1 522 1 526 1 560 1 576 1 630 1 632 1 661 1 667 1 676 1 684 1 710 1 714 1 718 2 768 1 783 1 844 1 861 1 864 1 869 1 881 1 884 1 931 1 936 1 974 1 998 1 685 1 690 1 696 1 704 1 724 1 731 1 740 1 769 1 785 1 787 1 807 1 810 1 816 1 849 1 859 1 894 1 899 1 930 1 941 1 957 1 958 1 973 1 983 1 987 1 1002 1 
1 215 3 1 27 1 43 1 45 1 87 1 105 2 150 1 222 1 224 1 248 1 261 1 270 1 277 1 287 1 302 1 311 1 320 1 357 1 362 1 388 1 389 1 411 1 424 1 427 1 433 1 445 1 454 1 475 1 519 1 551 1 576 1 578 1 590 1 610 2 619 1 625 1 628 1 629 1 635 2 655 1 665 1 4 1 24 1 32 1 34 1 76 1 82 1 96 1 116 1 121 1 139 1 177 1 263 1 274 1 299 1 313 1 332 1 338 1 343 1 364 1 369 1 375 1 400 1 415 1 423 1 438 1 439 1 455 1 485 1 536 1 538 1 541 1 544 1 545 1 553 1 570 1 586 1 631 1 663 1 664 1 674 1 705 1 706 1 792 1 802 1 811 1 821 1 823 1 870 1 880 1 888 1 915 1 935 1 945 1 950 1 955 1 966 1 969 1 971 1 993 1 686 1 695 1 722 1 752 1 759 1 776 1 853 1 855 1 856 1 866 1 875 1 882 1 885 1 920 1 965 1 967 1 1006 1 1012 1 
1 209 17 1 32 1 44 1 69 1 104 1 112 1 125 2 127 1 147 2 150 1 162 1 167 1 183 1 187 1 263 1 299 1 313 1 324 1 341 1 342 1 356 2 377 1 394 1 398 1 409 1 415 1 416 1 465 1 511 1 514 1 515 1 528 2 544 1 587 1 592 1 596 1 644 1 659 1 11 1 16 1 27 1 31 1 47 1 51 1 85 1 94 1 123 1 174 1 179 1 188 1 192 1 194 1 205 1 206 1 219 1 278 1 285 1 292 1 296 1 325 1 343 1 387 1 401 1 412 1 439 1 448 1 459 1 483 1 509 1 523 1 551 1 590 1 603 1 605 1 627 1 664 1 672 1 678 1 685 1 692 1 712 2 728 2 759 2 783 1 784 1 789 1 798 1 799 1 824 1 836 1 848 1 855 1 908 1 925 1 966 1 675 1 680 1 704 1 730 1 737 1 745 1 753 1 788 1 797 1 805 1 822 1 835 1 845 1 850 1 878 1 888 1 893 1 924 1 931 1 960 1 965 1 978 1 1007 1 1012 1 1016 1 
1 209 13 1 19 1 32 1 47 2 64 1 73 1 96 1 99 1 107 1 176 1 193 1 214 1 218 2 255 1 262 1 271 1 293 1 295 1 315 1 320 2 344 2 350 1 352 1 388 1 389 1 394 1 407 1 449 1 453 1 470 1 486 1 488 1 490 1 492 1 541 1 545 1 574 1 612 1 623 1 636 1 645 1 653 1 655 1 671 1 10 1 28 1 46 1 103 1 133 1 149 1 161 1 184 1 233 1 243 1 253 1 254 1 257 1 259 1 265 1 276 1 289 1 290 1 300 1 305 1 318 1 328 1 369 1 374 1 384 1 393 1 415 1 419 1 436 1 437 1 468 1 478 1 498 1 500 1 510 1 520 1 530 1 532 1 567 1 578 1 592 1 604 1 615 1 627 1 651 1 654 1 689 1 709 1 717 1 811 1 815 1 820 1 824 1 831 1 865 2 871 1 888 1 900 2 913 1 929 1 950 1 963 1 694 1 696 1 716 1 738 1 755 1 759 1 760 1 791 1 813 1 819 1 837 1 873 1 898 1 899 1 923 1 945 1 997 1 1006 1 1010 1 
1 210 43 2 61 1 69 1 75 1 90 1 91 1 109 1 126 1 143 1 172 1 184 1 211 1 218 1 275 1 291 1 307 1 332 1 342 1 378 1 385 1 398 1 460 1 463 1 476 1 548 1 571 1 574 2 581 1 608 1 625 1 630 1 633 1 650 1 652 1 8 1 20 1 35 1 74 1 93 1 101 1 124 1 138 1 151 1 163 1 167 1 190 1 215 1 231 1 235 1 239 1 244 1 253 1 256 1 280 1 286 1 310 1 324 1 343 1 351 1 366 1 386 1 394 1 412 1 426 1 454 1 458 1 487 1 538 1 550 1 593 1 603 1 611 1 618 1 662 1 663 1 664 1 683 1 749 1 767 1 772 1 781 1 806 1 836 1 888 1 901 1 903 1 956 1 990 1 991 1 674 1 687 1 697 1 702 1 707 1 734 1 742 1 746 1 755 1 760 1 812 1 845 1 846 1 916 1 922 1 925 1 926 1 932 1 942 1 949 1 997 1 
1 210 67 1 90 1 117 1 129 1 136 1 142 1 152 1 184 1 206 1 220 1 238 1 247 1 251 1 257 1 267 1 269 1 281 2 298 1 344 1 371 1 390 1 403 1 456 1 458 2 473 1 499 1 521 1 557 1 566 1 576 1 590 1 608 1 652 2 654 1 670 1 28 1 33 1 57 1 89 1 134 1 205 1 241 1 250 1 259 1 307 1 310 1 314 1 317 1 379 1 382 1 425 1 466 1 492 1 502 1 503 1 523 1 526 1 534 1 548 1 555 1 588 1 591 1 595 1 596 1 597 1 600 1 615 1 665 1 668 1 673 1 676 1 725 1 730 1 735 1 742 1 751 1 757 1 865 1 895 1 901 1 947 1 952 2 979 1 688 1 690 1 700 1 706 1 728 1 729 1 733 1 749 1 771 1 837 1 847 1 852 1 857 1 873 1 910 1 932 1 939 1 978 1 985 1 999 1 1019 1 
1 207 1 1 10 1 11 1 50 1 58 1 69 1 110 1 111 1 123 1 129 1 147 1 197 2 201 1 203 1 237 1 243 1 250 1 275 1 299 1 311 1 342 1 344 1 345 2 346 1 364 1 365 1 393 1 398 1 409 1 416 1 417 1 428 1 447 1 451 1 481 1 484 1 512 1 513 1 514 1 527 1 530 1 548 1 578 1 592 1 663 2 38 1 51 1 113 1 119 1 152 1 187 1 191 1 210 1 215 1 225 1 230 1 248 1 261 1 272 1 319 1 333 1 354 1 375 1 419 1 435 1 440 1 469 1 479 1 503 1 540 1 542 1 554 1 560 1 562 1 613 1 671 1 676 1 703 1 707 1 727 1 728 1 729 1 739 2 763 1 773 1 777 1 782 1 786 1 801 1 813 1 838 1 863 1 927 1 930 1 952 1 958 1 979 1 982 1 990 1 679 1 686 1 694 1 697 1 754 1 762 1 764 1 769 1 794 1 809 1 842 1 853 1 889 1 899 1 910 1 918 1 943 1 951 1 966 1 985 1 1012 1 1017 1 1019 1 
1 210 23 1 38 1 67 1 94 1 120 1 129 1 147 2 183 1 211 1 216 1 221 1 227 1 238 1 243 1 244 1 250 1 266 1 283 1 298 1 343 1 357 1 362 1 370 1 373 1 493 1 518 1 523 1 546 1 554 1 607 1 622 1 629 1 668 2 669 1 674 1 675 1 20 1 31 1 35 1 45 1 108 1 110 1 138 1 139 1 151 1 158 1 159 1 178 1 202 1 257 1 290 1 320 1 322 1 331 1 339 1 350 1 380 1 385 1 392 1 395 1 402 1 424 1 481 1 485 1 514 1 545 1 556 1 577 1 602 1 611 1 633 1 642 1 677 1 687 1 698 1 723 1 735 1 754 1 760 1 763 2 775 2 778 1 783 1 800 1 802 1 815 2 847 1 855 1 860 1 867 1 880 1 895 1 899 1 909 1 914 1 924 1 998 1 679 1 718 1 770 1 776 1 808 1 812 1 872 1 873 1 879 1 896 1 902 1 941 1 942 1 968 1 978 1 990 1 993 1 997 1 1001 1 1007 1 1011 1 
1 212 3 1 12 1 64 1 71 1 78 1 81 1 85 1 104 1 123 1 140 1 149 1 152 1 155 1 157 1 173 1 192 1 209 1 222 1 227 1 252 1 286 1 303 1 307 1 313 1 323 1 331 1 341 2 345 1 364 1 409 1 420 1 434 1 485 1 525 1 531 1 561 1 562 1 570 1 583 1 600 1 622 1 633 1 646 2 653 1 661 1 676 1 4 1 13 1 37 1 41 1 48 1 50 1 72 1 96 1 112 1 141 1 177 1 178 1 186 1 234 1 261 1 283 1 299 1 300 1 319 1 328 1 337 1 346 1 349 1 360 1 371 1 375 1 445 1 447 1 451 1 457 1 527 1 532 1 535 1 538 1 555 1 603 1 608 1 621 1 636 1 644 1 678 2 685 1 730 1 734 1 753 2 758 1 791 1 794 1 798 1 799 1 811 1 827 1 832 1 834 1 837 1 880 1 888 1 889 2 896 1 898 1 900 1 915 1 954 1 746 1 749 1 763 1 773 1 779 1 782 1 800 1 808 1 814 1 824 1 835 1 861 1 863 1 882 1 892 1 929 1 972 1 985 1 1004 1 1005 1 1008 1 1014 1 1018 1 
1 211 35 1 44 1 96 1 112 1 148 1 177 1 193 1 209 1 292 1 309 1 310 1 323 1 342 1 350 1 364 1 367 1 373 2 385 1 423 2 435 1 437 1 472 1 507 1 513 2 525 1 529 1 537 1 557 1 565 1 576 1 601 2 671 1 677 2 8 1 14 1 42 1 47 1 56 1 63 1 81 1 87 1 90 1 92 1 105 1 122 1 138 1 142 1 181 1 185 1 190 1 205 1 214 1 219 1 265 1 266 1 270 1 271 1 277 1 284 1 290 1 300 1 312 1 322 1 343 1 347 1 351 1 354 1 377 1 381 1 452 1 470 1 500 1 544 1 547 1 574 1 611 1 642 1 643 1 655 1 705 1 728 1 785 1 821 1 841 1 849 1 858 1 894 1 901 1 902 1 911 1 925 1 944 1 688 1 695 1 700 1 704 1 712 1 739 1 771 1 781 1 805 1 810 1 835 1 837 1 838 1 854 1 875 1 918 1 929 1 961 1 964 1 990 1 996 1 997 1 1003 1 1006 1 1007 1 1016 1 
1 209 64 1 65 1 82 1 156 1 168 1 169 1 188 1 204 1 208 1 231 1 238 1 249 1 304 1 313 1 314 1 385 1 410 1 434 1 436 1 445 1 449 2 469 1 479 1 483 1 520 1 532 1 535 1 569 1 579 1 586 1 590 1 593 1 639 1 640 1 645 1 5 1 33 1 38 1 55 1 66 1 76 1 87 1 100 1 122 1 157 1 177 1 185 1 197 1 223 1 246 1 251 1 262 1 358 1 367 1 381 1 408 1 431 1 476 1 490 1 500 1 533 1 573 1 576 1 588 1 595 1 617 1 627 1 657 1 675 1 676 1 708 1 714 1 723 1 724 1 727 1 746 1 752 1 753 1 788 1 789 1 794 1 862 1 885 1 889 1 915 1 941 1 946 1 985 1 994 1 689 1 736 1 748 1 761 1 764 1 786 1 810 1 948 1 955 1 1004 1 1005 1 1010 1 1012 1 1014 1 1018 1 
1 211 1 2 5 1 9 1 12 1 26 1 44 1 73 1 85 1 88 1 94 1 114 1 126 1 139 1 168 2 182 1 267 1 272 1 273 1 297 1 306 1 331 1 395 1 414 1 420 1 426 1 435 1 442 1 454 1 456 1 465 1 500 1 509 1 510 1 513 1 562 1 565 1 579 1 597 1 599 1 2 1 7 1 36 1 41 1 53 1 63 1 83 1 135 1 142 1 148 1 176 1 177 1 183 1 192 1 203 1 212 1 223 1 247 1 249 1 274 1 312 1 322 1 330 1 336 1 375 1 405 1 408 1 480 1 488 1 493 1 533 1 546 1 554 1 555 1 558 1 567 1 572 1 606 1 621 1 671 1 699 1 726 1 740 1 765 1 809 1 831 2 835 2 850 1 856 1 865 1 869 2 886 1 890 2 895 1 903 1 909 1 917 1 919 1 934 1 682 1 798 1 815 1 824 1 828 1 852 1 857 1 873 1 900 1 935 1 936 1 956 1 972 1 980 1 1017 1 1019 1 
1 207 5 1 26 2 30 1 44 1 55 1 63 1 78 1 143 1 155 1 168 1 189 1 216 1 223 1 255 1 291 1 383 1 394 1 416 1 470 1 471 1 484 1 522 1 540 1 564 1 602 1 606 1 608 1 617 1 621 1 656 1 659 1 18 1 51 1 69 1 87 1 110 1 130 1 172 1 198 1 210 1 217 1 242 1 265 1 267 1 312 1 318 1 358 1 371 1 387 1 398 1 418 1 422 1 430 1 472 1 481 1 483 1 494 1 532 1 535 1 538 1 541 1 544 1 566 1 579 1 615 1 640 1 665 1 685 1 713 1 717 1 722 1 739 1 740 1 774 2 832 1 834 1 880 1 886 1 889 1 911 1 930 1 948 1 975 1 992 1 683 1 702 1 726 1 731 1 736 1 767 1 770 1 780 1 784 1 805 1 821 1 836 1 837 1 854 1 861 1 939 1 
1 207 15 1 40 1 125 1 145 1 153 1 165 1 169 1 200 1 231 1 247 1 256 1 276 1 288 1 297 1 338 1 340 1 353 1 356 1 359 1 370 1 439 1 463 1 468 1 485 1 500 1 527 1 554 1 579 1 603 2 604 1 635 1 12 1 46 1 49 1 63 1 87 1 92 1 94 1 104 1 109 1 124 1 131 1 170 1 208 1 218 1 220 1 240 1 244 1 253 1 254 1 293 1 306 1 320 1 350 1 368 1 382 1 385 1 400 1 419 1 444 1 498 1 504 1 507 1 555 1 583 1 587 1 596 1 598 1 606 1 612 1 614 1 623 1 680 1 696 1 725 1 737 1 744 1 757 1 780 1 796 1 856 1 876 1 894 1 907 1 910 1 914 2 928 1 938 1 964 1 968 1 973 1 977 1 997 1 697 1 703 1 709 1 731 1 742 1 758 1 763 1 775 1 779 1 815 1 816 1 820 1 825 1 844 1 847 1 849 1 857 1 863 1 870 1 874 1 904 1 927 1 946 1 970 1 1003 1 1007 1 
1 208 2 1 9 1 15 1 19 1 35 1 76 2 79 1 84 1 90 1 92 1 112 1 127 1 138 1 140 2 163 1 165 1 169 1 194 1 251 1 252 1 308 1 321 1 334 1 347 1 366 1 371 1 376 1 385 1 390 1 397 1 406 1 412 1 414 1 424 1 443 1 454 1 469 1 495 1 503 1 506 1 509 1 519 1 526 1 551 1 576 1 580 1 590 1 593 1 629 1 673 1 52 1 106 1 202 1 215 1 260 1 274 1 280 1 290 1 298 1 349 1 364 1 419 1 448 1 470 1 475 1 483 1 490 1 525 1 556 1 569 1 613 1 615 1 681 1 694 1 718 1 735 1 740 1 756 1 783 1 830 1 839 1 856 1 857 1 876 1 970 1 995 1 707 1 725 1 760 1 799 1 814 1 822 1 853 1 880 1 903 1 926 1 930 1 941 1 946 1 953 1 965 1 1009 1 1017 1 1018 1 
1 206 2 1 8 1 29 2 36 1 57 2 61 1 63 1 105 1 112 1 121 2 149 1 160 2 174 1 199 1 204 1 213 1 225 2 267 1 269 1 284 1 301 1 335 2 340 2 386 1 454 1 516 1 519 2 536 1 593 1 603 1 614 1 616 1 640 1 669 1 15 1 20 1 21 1 24 1 71 1 73 1 85 1 86 1 111 1 145 1 185 1 189 1 215 1 245 1 255 1 268 1 288 1 324 1 378 1 388 1 419 1 423 1 428 1 456 1 491 1 526 1 581 1 586 1 700 1 758 1 767 1 771 1 789 1 821 1 827 1 828 1 846 1 874 1 877 1 906 1 921 1 957 1 973 1 975 1 977 1 702 1 743 1 761 1 783 1 807 1 811 1 817 1 831 1 842 1 843 1 905 1 915 1 927 1 932 1 937 1 987 1 1000 1 1012 1 
1 214 26 1 49 1 119 1 137 1 146 1 159 1 161 1 175 1 193 1 214 1 251 1 266 1 302 1 329 1 342 1 366 1 373 1 374 1 380 1 415 1 435 1 441 1 449 1 468 1 471 1 490 1 518 1 529 1 537 1 542 2 577 1 579 1 623 1 639 1 645 1 647 1 662 1 664 1 671 1 677 1 681 1 12 1 43 1 63 1 77 1 80 1 83 1 121 1 134 1 160 1 177 1 181 1 192 1 195 1 207 1 244 1 311 1 381 1 431 1 459 1 466 1 541 1 544 1 555 1 569 1 624 1 627 1 669 1 690 2 718 1 738 1 755 1 756 1 764 1 790 1 793 1 797 1 868 1 882 2 911 1 925 1 994 1 687 1 691 1 704 1 716 1 730 1 732 1 744 1 763 1 765 1 777 1 782 1 795 1 822 1 837 1 863 1 891 1 900 1 956 1 958 1 961 1 993 1 998 1 1006 1 1011 1 1019 1 
1 210 2 1 43 1 45 2 53 1 59 1 111 1 128 1 132 1 133 1 140 1 141 1 176 1 197 1 203 1 210 1 223 1 236 1 238 1 250 1 253 1 271 1 283 1 300 1 306 1 335 1 341 2 343 1 368 1 385 1 388 1 407 1 412 1 427 1 441 1 471 1 526 1 534 1 538 1 545 1 578 1 611 1 612 1 19 1 22 1 36 1 49 1 62 1 69 1 73 1 77 1 79 1 99 1 110 1 137 1 167 1 175 1 189 1 194 1 201 1 207 1 233 1 239 1 263 1 278 1 282 1 289 1 324 1 354 1 364 1 393 1 424 1 425 1 437 1 443 1 481 1 493 1 498 1 506 1 558 1 650 1 651 1 668 1 670 1 675 1 695 1 707 1 726 1 748 1 755 1 762 1 765 1 769 1 808 1 815 1 863 1 873 1 887 1 894 1 895 1 968 1 969 1 991 1 741 1 799 1 806 1 834 1 878 1 886 1 904 1 919 1 946 1 948 1 954 1 967 1 971 1 1000 1 1006 1 
1 213 3 1 32 1 70 1 98 1 106 1 125 1 135 1 137 1 200 1 204 1 211 1 220 1 238 1 245 1 247 1 256 1 257 1 267 1 273 1 296 2 299 1 301 1 304 1 335 1 348 1 385 1 399 1 404 1 407 1 413 1 423 2 429 1 444 1 450 1 471 1 486 1 525 1 562 1 567 2 575 1 618 1 643 1 650 1 653 1 658 1 666 2 676 1 5 1 16 1 19 1 25 1 67 1 77 1 110 1 142 1 150 1 154 1 159 1 165 1 177 1 186 1 214 1 224 1 242 1 246 1 287 1 295 1 298 1 322 1 325 1 355 1 357 1 369 1 427 1 437 1 445 1 464 1 468 1 479 1 488 1 524 1 528 1 532 1 541 1 549 1 588 1 597 1 613 1 634 1 673 1 685 1 701 1 716 1 717 1 721 1 778 1 819 1 885 1 904 1 980 1 777 1 781 1 792 1 798 1 830 1 895 1 902 1 910 1 933 1 935 1 970 1 975 1 977 1 981 1 983 1 
1 214 5 1 22 1 44 1 47 1 71 2 80 1 111 1 118 1 155 1 216 1 222 1 231 1 242 1 246 1 287 1 346 1 347 1 364 1 371 1 374 1 377 1 413 2 420 1 442 1 445 1 448 1 458 1 498 1 510 1 511 1 519 1 521 1 530 1 533 1 598 1 599 1 600 1 642 1 15 1 18 1 24 1 50 1 53 1 64 1 66 1 94 1 128 1 139 1 142 1 178 1 192 1 218 1 257 1 290 1 314 1 379 1 380 1 398 1 400 1 407 1 416 1 426 1 440 1 468 1 477 1 487 1 494 1 518 1 539 1 561 1 569 1 597 1 650 1 661 1 674 1 678 1 695 1 706 1 717 1 718 1 720 1 760 1 781 1 804 1 815 1 837 1 842 1 859 1 864 1 898 1 944 1 950 1 978 2 990 1 991 1 694 1 697 1 785 1 787 1 829 1 845 1 862 1 880 1 911 1 919 1 992 1 1001 1 1019 1 
1 213 10 1 55 1 67 1 69 1 96 1 98 2 103 1 114 1 115 1 145 1 154 1 171 1 206 2 215 1 228 1 231 1 232 1 242 1 248 1 260 1 288 1 315 1 350 1 351 1 368 1 379 1 414 1 418 1 449 1 482 1 492 1 502 1 504 1 508 1 512 1 524 1 561 1 578 1 583 1 593 1 648 1 672 1 48 1 141 1 150 1 159 1 162 1 182 1 195 1 222 1 243 1 246 1 265 1 324 1 338 1 344 1 388 1 398 1 413 1 437 1 473 1 481 1 493 1 497 1 500 1 565 1 650 1 659 1 662 1 679 1 705 1 714 1 740 1 746 1 769 1 778 1 786 1 788 1 807 1 812 1 818 1 824 1 826 1 830 1 831 1 841 1 844 1 875 1 885 2 900 1 923 1 934 1 956 2 967 1 969 1 973 2 977 1 989 1 991 1 998 1 737 1 766 1 792 1 805 1 820 1 832 1 846 1 859 1 860 1 867 1 869 1 894 1 921 1 924 1 944 1 1008 1 1012 1 1014 1 
1 214 10 1 45 1 59 1 76 1 132 2 137 1 140 1 141 1 146 1 160 1 192 1 196 1 220 1 233 1 240 1 296 1 304 1 345 1 364 1 366 1 407 1 408 1 411 1 420 1 426 1 433 1 443 1 473 1 488 1 503 1 554 1 571 1 620 1 639 1 644 1 652 1 658 1 665 1 685 2 2 1 19 1 25 1 34 1 47 1 49 1 52 1 57 1 101 1 142 1 159 1 194 1 244 1 262 1 281 1 292 1 293 1 319 1 344 1 371 1 394 1 396 1 400 1 436 1 438 1 514 1 537 1 540 1 550 1 572 1 611 1 624 1 648 1 669 1 674 1 697 1 718 1 729 1 744 1 750 1 767 1 768 1 802 1 850 1 872 1 888 1 919 1 923 1 967 1 977 1 695 1 714 1 726 1 740 1 765 1 775 1 811 1 827 1 834 1 836 1 912 1 916 1 926 1 933 1 940 1 968 1 1001 1 1002 1 1004 1 1008 1 1014 1 
1 207 22 1 27 1 45 1 54 1 58 1 86 1 113 1 132 1 146 1 171 1 175 1 182 1 188 1 194 1 198 1 252 1 263 1 273 1 312 1 317 1 327 1 330 1 341 1 367 1 368 1 378 1 383 1 390 1 394 2 404 1 443 1 449 1 454 1 455 1 456 1 465 1 508 2 544 2 560 1 562 1 567 2 606 1 615 1 629 1 634 1 652 1 1 1 13 1 41 1 90 1 95 1 147 1 172 1 181 1 197 1 230 1 240 1 261 1 266 1 281 1 284 1 346 1 381 1 384 1 395 1 445 1 460 1 471 1 515 1 520 1 527 1 528 1 539 1 583 1 584 1 625 1 637 1 651 1 659 1 685 1 701 1 735 1 745 1 754 1 758 1 762 2 768 2 770 1 803 1 804 2 812 1 822 1 858 1 874 1 888 1 925 1 936 1 971 1 980 1 708 1 739 1 752 1 793 1 799 1 801 1 847 1 849 1 896 1 900 1 902 1 906 1 919 1 935 1 946 1 961 1 975 1 995 1 
1 209 2 1 11 1 18 1 32 1 33 1 48 1 51 1 57 1 59 1 65 1 96 1 101 1 106 1 112 1 135 2 139 1 231 1 242 1 245 1 252 1 264 1 301 1 312 1 320 2 353 1 419 2 434 1 454 1 477 1 488 1 491 1 493 1 532 1 534 1 602 2 617 2 622 1 635 1 639 1 671 1 28 1 30 1 35 1 36 1 60 1 87 1 154 1 173 1 192 1 278 1 282 1 284 1 288 1 319 1 321 1 326 1 359 1 363 1 370 1 373 1 441 1 446 1 447 1 455 1 481 1 498 1 504 1 564 1 575 1 577 1 595 1 597 1 649 1 704 1 716 1 752 1 769 2 812 1 817 1 833 1 837 1 847 1 875 1 903 1 923 1 937 1 939 1 942 1 950 1 959 1 961 1 965 1 979 1 996 1 699 1 702 1 711 1 733 1 741 1 749 1 751 1 761 1 784 1 793 1 821 1 858 1 867 1 880 1 916 1 931 1 946 1 947 1 984 1 1017 1 
1 209 17 1 40 1 89 1 154 1 180 1 191 2 220 1 276 1 307 1 323 1 365 1 370 1 379 1 431 1 479 1 512 1 514 1 526 1 548 1 557 1 561 1 581 1 604 1 612 1 627 1 632 1 647 1 662 1 663 1 3 1 50 1 59 1 74 1 82 1 86 1 91 1 92 1 99 1 100 1 131 1 179 1 189 1 201 1 221 1 317 1 319 1 348 1 372 1 388 1 390 1 397 1 416 1 441 1 457 1 473 1 475 1 482 1 521 1 528 1 543 1 551 1 559 1 572 1 600 1 631 1 648 1 649 1 651 1 659 1 713 1 714 1 730 1 752 1 765 1 770 1 786 1 794 1 795 1 808 1 825 1 841 1 851 1 900 1 925 1 937 1 938 1 943 1 944 2 953 1 967 1 979 1 996 1 702 1 703 1 707 1 718 1 761 1 800 1 806 1 823 1 892 1 902 1 910 1 958 1 1002 1 
1 214 2 1 12 1 14 1 15 1 18 1 25 1 70 1 85 1 114 1 128 1 212 1 215 1 253 1 261 1 289 1 296 1 334 1 350 1 351 1 387 1 392 1 436 1 485 1 516 1 535 1 540 1 548 1 559 1 594 1 600 2 607 1 613 1 645 1 683 1 28 1 75 1 97 1 108 1 115 1 132 1 135 1 139 1 158 1 173 1 199 1 201 1 213 1 231 1 235 1 236 1 239 1 251 1 268 1 294 1 304 1 315 1 331 1 360 1 371 1 426 1 428 1 432 1 487 1 501 1 529 1 550 1 620 1 653 1 672 1 675 1 688 1 703 1 724 1 725 1 742 1 745 1 761 2 792 1 799 1 845 1 880 1 937 1 944 1 979 1 987 1 998 1 710 1 711 1 728 1 747 1 750 1 825 1 839 1 841 1 843 1 844 1 876 1 884 1 892 1 943 1 946 1 956 1 962 1 974 1 978 1 1000 1 1008 1 1009 1 1013 1 1015 1 
1 210 27 1 40 1 51 1 52 1 59 2 85 1 97 1 102 1 159 1 164 1 190 1 200 1 211 1 228 1 240 1 289 1 299 1 317 1 322 1 345 1 367 1 370 1 386 1 400 1 405 1 415 1 470 1 483 1 491 1 497 1 508 1 516 1 535 1 538 1 575 1 579 1 611 1 631 1 636 1 686 1 688 1 1 1 20 1 42 1 96 1 120 1 130 1 143 1 148 1 153 1 193 1 275 1 284 1 298 1 321 1 343 1 365 1 372 1 410 1 414 1 420 1 432 1 440 1 452 1 457 1 482 1 495 1 529 1 564 1 590 1 641 1 653 1 659 1 670 1 678 1 690 1 702 1 725 1 763 1 764 1 784 1 812 1 819 1 830 1 839 1 850 1 854 1 871 1 885 1 891 2 908 1 948 2 700 1 703 1 730 1 733 1 738 1 796 1 801 1 810 1 835 1 843 1 849 1 863 1 881 1 900 1 906 1 935 1 950 1 1001 1 
1 209 34 1 59 2 73 1 99 1 105 1 155 1 165 1 167 1 169 1 228 1 282 1 353 1 395 1 398 1 428 1 429 1 435 1 466 1 467 1 468 1 482 1 484 2 489 1 491 1 557 1 560 1 571 1 596 1 610 1 613 1 638 1 640 1 682 1 12 1 45 1 63 1 66 1 70 1 75 1 89 1 93 1 119 1 122 1 137 1 173 1 175 1 215 1 225 1 250 1 254 1 261 1 269 1 292 1 334 1 368 1 389 1 399 1 402 1 408 1 444 1 462 1 478 1 500 1 503 1 526 1 527 1 544 1 565 1 573 1 577 1 585 1 621 1 644 1 648 1 669 1 672 1 706 1 732 1 747 1 757 1 794 1 799 1 805 1 807 1 819 1 826 1 832 1 834 1 837 1 851 1 856 1 862 1 867 1 900 1 966 1 976 1 740 1 766 1 784 1 825 1 879 1 881 1 885 1 886 1 896 1 923 1 937 1 947 1 959 1 972 1 987 1 999 1 1003 1 
1 216 1 2 4 1 38 1 92 1 121 2 125 1 133 1 134 1 162 1 170 1 204 1 210 1 232 1 246 1 258 1 266 1 277 1 315 1 318 1 327 1 348 1 356 1 365 1 370 1 414 1 427 1 428 1 449 1 477 1 501 1 505 1 514 1 525 1 536 1 539 1 543 1 551 1 552 1 553 1 624 1 648 1 651 1 660 1 690 1 23 1 78 1 96 1 122 1 141 1 155 1 158 1 174 1 193 1 214 1 215 1 241 1 249 1 267 1 282 1 330 1 353 1 355 1 361 1 362 1 381 1 385 1 422 1 431 1 472 1 480 1 493 1 540 1 554 1 568 1 571 1 591 1 599 1 628 1 673 1 675 1 682 1 688 1 721 1 723 1 724 1 727 1 730 1 734 1 737 1 738 1 745 1 747 1 768 1 770 1 775 2 776 1 777 1 788 1 811 2 814 1 817 1 830 1 847 1 851 1 859 1 860 1 869 1 873 2 879 1 941 1 981 1 998 1 717 1 751 1 829 1 831 1 842 1 858 1 895 1 917 1 919 1 968 1 1011 1 1017 1 1018 1 
1 208 40 2 43 1 45 1 52 1 98 1 145 1 148 2 167 1 190 1 221 1 223 1 232 1 234 1 237 1 243 1 260 1 270 1 280 1 283 1 343 1 344 1 414 1 425 1 430 1 441 1 448 1 458 1 476 1 510 1 546 1 554 1 563 1 576 1 584 1 597 1 613 1 619 1 629 2 651 1 655 1 676 1 12 1 23 1 46 1 53 1 56 1 60 1 87 1 116 1 136 1 137 1 139 1 149 1 155 1 159 1 208 1 241 1 282 1 304 1 312 1 326 1 334 1 337 1 342 1 358 1 381 1 395 1 422 1 427 1 493 1 496 1 500 1 506 1 598 1 603 1 607 1 618 1 628 1 638 1 649 1 659 1 663 1 668 1 700 1 710 1 714 1 736 1 754 1 756 1 771 1 774 1 779 1 783 1 787 1 803 1 805 1 849 2 852 1 859 1 861 1 878 1 934 1 967 1 978 1 993 1 709 1 715 1 725 1 729 1 755 1 773 1 782 1 818 1 819 1 854 1 865 1 867 1 879 1 918 1 968 1 984 1 994 1 1000 1 1004 1 1005 1 1013 1 1014 1 
1 218 24 1 36 1 40 1 50 1 59 2 67 2 96 1 99 1 133 1 194 1 196 1 199 1 213 1 218 1 253 1 269 1 270 1 283 1 291 1 296 1 303 1 307 1 310 1 355 1 362 1 369 1 401 1 408 1 412 1 425 1 435 1 443 1 452 1 466 1 521 1 541 1 543 2 608 1 610 1 616 1 630 1 631 1 661 1 665 1 680 1 35 1 45 1 72 1 82 1 136 1 141 1 167 1 205 1 233 1 247 1 267 1 271 1 298 1 308 1 327 1 352 1 366 1 383 1 393 1 407 1 456 1 461 1 479 1 488 1 505 1 507 1 520 1 534 1 564 1 571 1 575 1 583 1 604 1 634 1 649 1 663 1 692 1 700 1 701 1 713 1 759 1 762 1 777 1 798 1 818 1 843 1 855 1 866 1 882 1 883 1 951 1 961 1 964 2 979 1 988 1 715 1 745 1 767 1 806 1 810 1 811 1 815 1 824 1 856 1 878 1 890 1 933 1 950 1 953 1 956 1 972 1 990 1 995 1 1003 1 1004 1 1010 1 1011 1 
1 210 14 1 19 1 33 1 34 1 38 1 42 1 72 1 83 1 84 1 91 1 92 1 100 1 110 1 135 1 163 1 199 1 213 1 216 1 234 1 239 1 242 1 251 1 268 1 285 1 329 2 401 1 404 2 406 1 453 1 497 1 512 1 536 2 544 1 591 1 605 1 620 1 625 1 636 1 640 1 645 1 684 1 698 1 699 1 6 1 9 1 18 1 23 1 44 1 77 1 124 1 141 1 145 1 155 1 177 1 218 1 219 1 231 1 292 1 295 1 303 1 310 1 313 1 387 1 391 1 398 1 428 1 471 1 482 1 495 1 576 1 594 1 603 1 631 1 633 1 644 1 660 1 674 1 678 1 695 1 702 1 732 1 745 1 759 2 770 1 775 1 781 1 790 1 819 1 828 1 853 1 889 1 919 1 930 1 943 1 966 1 977 1 714 1 726 1 743 1 746 1 758 1 769 1 825 1 850 1 861 1 910 1 918 1 946 1 965 1 983 1 999 1 1007 1 1009 1 1018 1 
1 212 7 1 12 2 25 1 38 1 72 2 81 1 131 1 139 1 180 1 191 1 216 1 224 1 247 1 257 1 288 1 292 1 298 1 314 1 344 1 365 1 369 1 389 2 396 1 412 1 424 1 426 1 445 1 451 1 470 1 482 1 490 1 494 1 501 1 509 1 512 1 515 1 518 1 541 1 585 1 604 1 622 1 659 1 687 1 691 1 699 1 41 1 45 1 53 1 68 1 71 1 73 1 98 1 118 1 123 1 124 1 125 1 149 1 171 1 210 1 228 1 236 1 239 1 250 1 272 1 311 1 324 1 353 1 366 1 370 1 384 1 433 1 452 1 456 1 471 1 480 1 503 1 522 1 544 1 555 1 565 1 580 1 627 1 638 1 652 1 655 1 701 1 701 1 710 1 724 1 734 1 750 1 760 1 783 1 835 1 843 1 846 1 864 1 876 1 878 1 899 1 909 1 930 1 941 2 943 1 948 2 995 1 708 1 732 1 802 1 817 1 829 1 877 1 888 1 893 1 926 1 991 1 999 1 1001 1 1011 1 1017 1 
1 206 6 1 33 1 45 1 47 1 48 1 55 1 60 1 72 1 94 1 100 1 121 1 127 1 152 1 163 1 164 1 167 1 218 1 220 1 233 1 253 1 270 1 272 1 287 1 298 1 299 1 307 1 315 1 317 1 330 1 332 1 356 1 359 1 366 1 407 1 431 2 443 1 447 1 538 1 575 1 612 1 638 1 641 1 661 1 666 1 668 1 695 1 700 1 37 1 52 1 77 1 118 1 154 1 185 1 216 1 226 1 293 1 341 1 383 1 434 1 445 1 451 1 460 1 477 1 496 1 501 1 517 1 520 1 543 1 566 1 574 1 590 1 639 1 654 1 673 1 681 1 684 1 692 1 693 1 702 1 702 1 707 1 722 2 731 2 735 2 757 1 765 1 786 1 803 1 839 1 855 1 935 1 939 1 944 2 951 1 954 1 970 1 980 1 987 2 989 1 990 1 996 1 712 1 725 1 736 1 741 1 781 1 791 1 807 1 809 1 810 1 817 1 829 1 853 1 886 1 901 1 911 1 918 1 931 1 978 1 983 1 1006 1 1016 1 
1 211 13 1 29 1 40 1 54 2 58 1 72 1 107 1 144 1 149 1 163 1 200 1 203 2 227 1 234 1 272 1 301 1 325 1 327 1 348 1 357 1 377 1 399 1 456 1 467 1 469 1 476 1 484 1 485 1 519 1 545 1 617 1 619 2 631 1 656 1 675 1 694 1 4 1 7 1 10 1 17 1 30 1 45 1 83 1 85 1 98 1 110 1 124 1 127 1 135 1 151 1 183 1 185 1 197 1 235 1 240 1 241 1 245 1 261 1 293 1 316 1 320 1 324 1 369 1 383 1 387 1 419 1 429 1 434 1 435 1 455 1 464 1 550 1 562 1 581 1 613 1 630 1 638 1 682 1 693 1 695 1 743 1 754 1 758 1 825 1 827 1 831 1 854 1 872 1 878 1 882 1 891 1 893 1 914 1 926 1 940 1 949 1 955 1 979 2 704 1 712 1 721 1 735 1 736 1 757 1 766 1 798 1 811 1 829 1 843 1 862 1 877 1 910 1 920 1 932 1 945 1 959 1 975 1 986 1 1015 1 
1 209 6 1 24 1 30 1 57 1 75 1 83 1 98 1 108 1 122 1 150 1 165 1 190 1 196 2 220 1 227 1 229 1 242 1 252 2 261 1 267 1 272 1 324 1 328 1 351 1 368 1 380 1 383 1 397 1 468 1 477 1 480 1 513 1 522 1 533 1 545 1 579 1 588 1 645 2 647 1 692 1 41 1 71 1 72 1 76 1 79 1 202 1 209 1 238 1 302 1 325 1 333 1 339 1 340 1 343 1 354 1 374 1 436 1 438 1 483 1 549 1 589 1 609 1 628 1 649 1 657 1 669 1 671 1 678 1 685 1 703 1 724 1 729 1 740 2 758 1 764 1 793 1 809 1 848 1 873 1 901 1 932 1 933 1 972 1 975 2 980 1 982 1 997 1 732 1 748 1 762 1 768 1 788 1 801 1 831 1 840 1 843 1 864 1 876 1 897 1 948 1 951 1 970 1 979 1 986 1 998 1 1002 1 1003 1 
1 210 42 1 54 2 81 1 108 1 121 1 123 1 137 1 156 1 157 1 171 1 181 1 192 1 201 1 220 2 231 1 261 1 279 1 287 1 295 1 299 1 305 1 341 1 346 1 359 1 364 1 366 1 371 1 391 1 400 1 411 1 413 1 416 1 421 1 426 1 441 1 444 1 477 1 514 1 525 1 527 1 529 1 541 1 552 1 554 1 595 1 612 1 627 1 654 1 657 1 658 1 670 1 678 1 689 1 50 1 55 1 62 1 102 1 114 1 150 1 162 1 163 1 173 1 217 1 233 1 242 1 258 1 275 1 301 1 306 1 325 1 355 1 408 1 414 1 415 1 424 1 429 1 448 1 454 1 469 1 485 1 489 1 491 1 573 1 580 1 590 1 606 1 659 1 705 1 705 1 731 2 733 1 739 1 751 1 763 1 766 1 774 1 777 1 784 1 785 1 788 1 789 1 849 1 887 1 911 1 951 1 969 2 971 1 985 2 991 2 713 1 729 1 747 1 841 1 860 1 881 1 907 1 925 1 938 1 956 1 962 1 974 1 977 1 989 1 1001 1 1008 1 1019 1 
1 213 8 1 12 1 25 1 67 1 91 1 98 1 101 1 107 1 137 1 147 1 148 1 182 1 196 1 198 1 200 1 209 1 210 1 225 1 228 1 229 1 231 2 254 1 278 1 291 1 293 1 317 1 322 1 325 1 334 1 338 1 348 1 358 1 363 1 373 1 375 1 387 1 452 1 484 1 497 1 498 1 520 1 546 1 571 1 576 1 588 1 600 1 604 1 605 1 649 1 670 1 688 1 696 1 19 1 50 1 74 1 77 1 160 1 175 1 206 1 214 1 241 1 261 1 268 1 283 1 311 1 326 1 327 1 368 1 370 1 386 1 390 1 391 1 416 1 425 1 450 1 473 1 514 1 534 1 535 1 536 1 541 1 621 1 641 1 648 1 674 1 716 1 726 1 738 1 774 1 789 1 804 1 805 1 816 1 830 1 832 1 836 1 860 1 867 1 897 1 955 1 971 1 977 1 994 1 761 1 773 1 800 1 807 1 812 1 822 1 825 1 839 1 852 1 861 1 941 1 968 1 974 1 984 1 996 1 1007 1 1008 1 1010 1 1016 1 
1 216 36 1 51 1 56 1 57 1 67 1 80 2 86 1 133 1 155 1 192 1 231 1 250 1 280 1 306 1 317 2 340 1 345 1 354 1 360 1 363 1 364 1 371 1 400 1 410 1 417 1 425 1 438 1 445 1 497 1 506 1 515 1 532 1 538 1 555 1 573 1 583 1 590 1 593 1 609 1 617 1 652 1 662 1 675 1 686 1 702 1 18 1 43 1 45 1 118 1 127 1 168 1 173 1 228 1 230 1 304 1 309 1 312 1 318 1 342 1 349 1 355 1 404 1 407 1 421 1 422 1 432 1 440 1 447 1 462 1 542 1 549 1 558 1 612 1 632 1 673 1 683 1 693 1 753 1 778 1 779 1 784 1 785 1 786 1 800 1 802 1 812 1 813 1 855 1 858 1 866 1 867 1 878 2 884 1 886 1 917 1 926 1 935 1 941 1 959 1 966 1 721 1 730 1 739 1 743 1 759 1 764 1 773 1 776 1 810 1 875 1 892 1 893 1 909 1 910 1 916 1 967 1 1007 1 1011 1 1014 1 
1 209 23 1 43 1 59 1 62 1 139 2 217 1 226 1 243 1 245 1 252 1 303 1 322 1 392 1 393 1 394 1 413 2 440 1 448 1 472 1 496 1 498 1 502 1 516 1 551 1 556 1 585 1 612 1 623 1 664 1 679 1 29 1 74 1 88 1 97 1 99 1 137 1 151 1 160 1 161 1 180 1 188 1 189 1 202 1 223 1 270 1 271 1 289 1 290 1 330 1 335 1 344 1 363 1 368 1 379 1 419 1 427 1 442 1 458 1 467 1 470 1 478 1 479 1 486 1 488 1 504 1 509 1 531 1 560 1 576 1 596 1 608 1 640 1 644 1 646 1 658 1 665 1 667 1 691 1 701 1 714 1 741 1 742 2 749 1 752 1 791 1 800 1 804 1 806 1 827 1 830 1 841 1 875 1 884 1 890 1 920 1 938 2 971 1 976 1 992 1 996 1 711 1 750 1 781 1 837 1 897 1 904 1 929 1 944 1 966 1 985 1 998 1 1018 1 
1 206 4 1 34 1 47 1 48 1 59 1 64 1 100 1 104 1 112 1 139 1 146 1 161 1 171 1 178 1 190 1 216 1 221 1 242 1 273 1 275 1 297 1 311 1 325 1 352 1 356 1 373 1 388 1 397 1 453 1 459 1 465 1 472 1 527 1 536 1 539 1 579 1 580 1 595 1 607 1 623 1 633 1 641 1 646 1 652 1 672 1 6 1 9 1 14 1 21 1 25 1 75 1 119 1 127 1 140 1 155 1 177 1 214 1 228 1 249 1 267 1 281 1 292 1 316 1 322 1 335 1 376 1 382 1 405 1 409 1 452 1 467 1 476 1 493 1 509 1 513 1 520 1 532 1 574 1 588 1 589 1 643 1 682 1 698 1 723 1 724 1 752 1 756 1 807 1 812 1 823 1 844 1 852 1 895 1 909 1 911 2 925 1 935 1 950 1 990 1 730 1 736 1 743 1 745 1 758 1 771 1 803 1 809 1 815 1 818 1 841 1 854 1 872 1 878 1 884 1 923 1 973 1 987 1 994 1 1005 1 1012 1 
1 209 6 1 13 1 28 1 32 1 82 1 113 1 125 1 134 1 137 1 149 1 154 1 158 1 173 1 195 1 199 1 210 1 227 1 236 1 237 1 269 1 303 1 304 1 319 1 330 1 373 1 378 1 418 1 420 1 436 1 437 1 449 1 463 1 467 1 468 1 475 1 479 1 503 1 523 1 548 1 587 1 612 1 627 1 642 1 643 1 653 2 669 1 698 1 701 1 62 1 86 1 90 1 97 1 162 1 187 1 228 1 254 1 282 1 310 1 336 1 360 1 372 1 401 1 413 1 433 1 445 1 511 1 542 1 555 1 595 1 606 1 609 1 614 1 656 1 694 1 714 1 719 1 757 1 759 1 771 1 796 1 800 1 807 1 825 1 826 1 834 1 840 1 856 1 866 1 868 1 906 1 951 1 965 1 976 1 991 2 993 1 737 1 773 1 785 1 792 1 816 1 823 1 837 1 847 1 862 1 934 1 935 1 940 1 952 1 970 1 989 1 990 1 1000 1 1014 1 
1 214 45 2 59 2 112 1 114 1 143 1 152 1 153 1 165 1 166 1 168 1 214 1 223 1 252 1 268 1 280 1 293 1 297 1 300 1 320 1 321 1 381 1 382 1 400 2 404 2 406 1 415 1 433 1 445 1 464 1 477 1 491 1 497 1 502 1 505 1 511 1 535 1 570 1 605 1 619 1 623 1 625 1 651 2 24 1 25 1 54 1 99 1 103 1 160 1 194 1 201 1 210 1 222 1 259 1 336 1 343 1 397 1 398 1 402 1 420 1 431 1 432 1 459 1 488 1 494 1 512 1 553 1 561 1 562 1 571 1 631 1 639 1 655 1 692 1 694 1 708 1 715 1 718 1 729 1 743 1 816 1 819 1 835 1 862 1 865 1 882 1 910 1 913 1 924 1 960 1 969 1 973 1 740 1 762 1 780 1 782 1 790 1 861 1 937 1 938 1 940 1 981 1 999 1 1002 1 1013 1 
1 207 9 1 47 2 51 1 53 1 55 1 104 1 130 2 163 1 177 2 182 1 205 1 219 1 224 1 245 1 250 1 252 1 267 1 269 1 270 1 273 1 292 1 301 1 315 1 347 1 401 1 403 1 468 1 475 1 483 1 497 1 596 1 601 1 603 1 605 1 620 1 671 2 15 1 48 1 65 1 74 1 116 1 120 1 152 1 174 1 221 1 249 1 258 1 298 1 302 1 339 1 354 1 363 1 371 1 378 1 381 1 398 1 411 1 418 1 452 1 486 1 508 1 523 1 535 1 536 1 545 1 565 1 573 1 582 1 616 1 653 1 663 1 666 1 678 1 702 1 703 1 725 1 740 1 756 1 784 1 791 1 802 1 817 1 824 1 912 1 924 1 925 1 947 1 978 1 714 1 746 1 773 1 777 1 825 1 831 1 842 1 887 1 890 1 905 1 907 1 913 1 936 1 938 1 972 1 985 1 1002 1 1008 1 1015 1 1018 1 
1 211 8 1 18 1 22 1 39 1 45 1 49 1 57 1 68 1 85 1 102 1 106 1 145 1 146 1 150 1 156 1 170 1 182 1 239 1 254 1 289 1 301 1 329 1 331 1 342 1 348 1 394 1 405 2 419 1 428 1 432 1 440 1 442 1 446 1 452 1 458 1 496 1 513 1 520 1 570 1 584 1 636 1 663 1 681 1 693 1 699 1 6 1 12 1 13 1 64 1 87 1 96 1 101 1 133 1 141 1 213 1 238 1 247 1 266 1 320 1 325 1 336 1 338 1 345 1 371 1 373 1 380 1 390 1 392 1 398 1 406 1 435 1 447 1 456 1 463 1 491 1 518 1 534 1 537 1 540 1 548 1 564 1 582 1 590 1 633 1 650 1 705 1 738 2 785 1 787 1 841 1 843 1 847 1 874 1 884 1 933 1 935 1 961 2 978 1 998 2 725 1 783 1 793 1 819 1 826 1 829 1 853 1 906 1 921 1 951 1 962 1 964 1 969 1 974 1 997 1 
1 213 9 1 31 1 66 1 82 1 92 1 93 1 130 1 177 1 212 1 224 1 262 1 312 1 343 1 359 1 420 1 421 1 445 1 447 2 464 1 469 1 476 1 492 1 494 1 519 2 539 1 540 1 575 1 582 1 593 1 603 2 611 1 627 1 641 1 656 2 658 1 669 1 679 1 689 1 693 1 698 1 708 1 710 1 1 1 3 1 40 1 41 1 51 1 57 1 61 1 100 1 129 1 164 1 199 1 222 1 223 1 227 1 273 1 288 1 289 1 325 1 333 1 348 1 353 1 407 1 414 1 460 1 465 1 473 1 478 1 512 1 537 1 557 1 569 1 620 1 668 1 690 1 700 1 712 1 726 1 730 1 746 1 747 1 751 1 766 1 783 1 821 1 836 1 851 1 907 1 967 1 976 1 724 1 744 1 756 1 803 1 831 1 857 1 869 1 887 1 923 1 934 1 937 1 952 1 964 1 970 1 984 1 1010 1 1012 1 1013 1 
1 210 15 2 44 1 47 1 62 1 66 1 97 1 109 1 123 1 135 1 175 1 194 1 205 1 216 1 229 1 247 1 249 1 250 1 253 1 261 1 272 1 287 1 298 1 354 2 376 1 407 1 432 1 436 1 442 1 485 1 502 1 511 1 526 1 533 1 538 1 542 1 549 1 581 1 595 1 601 1 610 1 711 1 2 1 40 1 96 1 103 1 125 1 139 1 145 1 149 1 150 1 161 1 180 1 195 1 203 1 217 1 222 1 235 1 254 1 277 1 281 1 299 1 308 1 315 1 319 1 339 1 341 1 344 1 385 1 387 1 403 1 409 1 429 1 459 1 513 1 558 1 571 1 587 1 592 1 614 1 616 1 618 1 638 1 650 1 660 1 698 1 699 1 748 1 804 1 856 1 870 1 883 1 888 1 900 1 911 1 927 1 941 1 947 1 995 1 772 1 786 1 788 1 810 1 824 1 833 1 880 1 893 1 953 1 956 1 980 1 986 1 999 1 1001 1 1004 1 1012 1 1017 1 1018 1 
1 207 14 1 23 1 58 1 59 1 60 1 66 1 81 1 126 1 152 1 177 1 190 1 199 1 210 2 214 1 224 2 226 1 233 2 248 1 269 1 275 1 276 1 312 1 344 1 352 2 359 1 387 1 391 1 409 1 420 1 429 1 434 1 436 1 455 1 464 1 487 1 527 1 538 1 573 1 587 1 591 1 600 1 622 1 663 1 687 1 692 1 706 1 4 1 15 1 51 1 83 1 101 1 107 1 143 1 154 1 161 1 170 1 172 1 173 1 221 1 232 1 260 1 279 1 283 1 297 1 300 1 320 1 355 1 372 1 375 1 439 1 442 1 445 1 447 1 458 1 472 1 506 1 523 1 536 1 599 1 666 1 672 1 685 1 732 1 790 1 825 1 827 2 845 2 846 1 851 1 869 1 874 1 876 1 887 1 891 1 926 1 929 2 942 1 977 1 990 1 751 1 765 1 801 1 817 1 819 1 828 1 860 1 866 1 873 1 875 1 885 1 934 1 944 1 1015 1 
1 215 27 1 30 1 38 1 50 1 59 1 89 1 96 1 100 1 105 1 132 1 146 1 162 1 221 1 225 1 234 1 285 1 308 1 321 1 337 1 356 1 372 1 390 1 401 1 417 2 436 1 469 1 474 1 545 1 556 1 568 1 582 1 588 2 600 1 607 1 610 1 623 1 626 1 629 1 644 1 661 1 663 1 672 1 681 1 687 1 688 1 1 1 19 1 28 1 35 1 43 1 51 1 117 1 149 1 191 1 199 1 211 1 239 1 240 1 242 1 255 1 258 1 270 1 272 1 277 1 295 1 301 1 351 1 363 1 370 1 405 1 456 1 468 1 473 1 477 1 503 1 505 1 529 1 541 1 565 1 580 1 590 1 631 1 697 1 736 1 757 1 766 1 775 1 778 1 797 1 833 1 841 1 887 1 899 1 900 1 914 1 916 1 933 1 948 2 951 1 978 1 983 1 985 1 997 1 734 1 737 1 743 1 745 1 751 1 782 1 796 1 838 1 858 1 864 1 886 1 971 1 996 1 998 1 999 1 1003 1 1004 1 1007 1 
1 208 6 1 14 1 15 1 17 1 40 1 47 1 89 1 100 1 116 1 131 1 160 1 183 1 192 1 194 1 208 1 247 1 279 1 286 2 298 1 317 1 325 1 382 1 387 1 443 1 449 1 466 1 478 1 484 1 488 1 505 1 517 1 571 1 581 2 590 1 612 1 639 1 645 1 669 2 683 1 685 1 688 1 690 1 711 1 13 1 18 1 35 1 103 1 104 1 148 1 150 1 168 1 176 1 179 1 189 1 206 1 209 1 213 1 241 1 255 1 260 1 350 1 394 1 429 1 439 1 457 1 460 1 462 1 486 1 501 1 521 1 565 1 591 1 601 1 616 1 618 1 629 1 642 1 647 1 676 1 693 1 733 1 737 1 751 1 763 1 770 1 815 1 831 1 841 1 849 1 863 1 878 1 924 1 933 2 940 1 977 1 986 1 989 1 990 1 741 1 743 1 816 1 864 1 866 1 872 1 887 1 903 1 911 1 938 1 957 1 963 1 972 1 995 1 1017 1 
1 217 9 1 27 1 42 1 48 1 52 1 53 1 55 1 88 1 126 1 154 1 159 1 165 1 168 1 179 1 188 1 206 1 214 1 227 1 238 1 249 1 250 1 270 1 274 1 335 1 343 1 349 1 356 1 363 1 371 1 375 1 386 2 394 1 419 1 435 1 442 1 496 1 507 1 511 1 526 1 579 1 595 2 598 1 613 1 656 1 658 1 667 1 710 1 5 1 32 1 41 1 47 1 50 1 58 1 91 1 125 1 163 1 164 1 204 1 211 1 232 1 244 1 247 1 248 1 263 1 265 1 269 1 297 1 308 1 330 1 337 1 338 1 365 1 424 1 438 1 444 1 460 1 492 1 500 1 528 1 541 1 571 1 588 1 616 1 625 1 639 1 726 2 731 1 737 1 797 1 801 2 822 1 851 1 853 1 889 1 903 1 914 1 921 1 928 1 935 1 974 1 728 1 777 1 796 1 809 1 814 1 818 1 824 1 848 1 863 1 866 1 885 1 929 1 931 1 934 1 938 1 978 1 988 1 992 1 1003 1 1006 1 1007 1 1009 1 1016 1 1018 1 
1 209 11 1 14 1 50 1 51 1 54 2 63 1 71 1 106 1 118 1 146 1 184 1 204 2 205 1 229 1 238 1 239 1 262 1 279 1 296 1 299 1 304 1 317 1 319 1 346 1 352 1 362 1 375 1 378 2 380 1 414 1 438 1 559 2 569 1 576 1 605 1 613 1 624 1 654 1 657 1 688 1 12 1 15 1 26 1 33 1 35 1 44 1 49 1 60 1 70 1 138 1 149 1 152 1 188 1 191 1 202 1 209 1 320 1 335 1 353 1 363 1 382 1 392 1 405 1 474 1 487 1 515 1 537 1 561 1 641 1 646 1 797 1 798 1 867 1 877 1 878 1 917 1 918 1 935 1 939 1 944 1 948 1 953 1 967 1 974 1 976 1 998 1 748 1 757 1 764 1 790 1 793 1 816 1 818 1 845 1 882 1 889 1 903 1 924 1 946 1 970 1 975 1 979 1 1000 1 1001 1 1005 1 1007 1 1013 1 
1 212 55 1 57 1 60 1 61 1 65 1 67 1 84 1 85 2 105 1 131 1 141 1 153 1 195 1 221 1 240 1 246 1 248 1 252 1 270 1 285 1 286 1 293 1 304 1 305 1 330 1 388 1 416 1 448 1 463 1 476 1 497 1 507 2 513 1 521 1 530 1 538 1 547 1 567 1 573 1 584 1 592 1 601 1 630 1 641 1 651 1 654 1 659 1 664 1 687 1 697 1 20 1 21 1 31 1 36 1 66 1 78 1 89 1 124 1 205 1 230 1 253 1 256 1 291 1 357 1 368 1 396 1 408 1 445 1 449 1 453 1 487 1 495 1 510 1 548 1 552 1 605 1 610 1 611 1 622 1 635 1 703 1 707 1 739 1 792 2 802 1 876 1 877 1 881 1 886 1 901 1 926 1 964 1 723 1 735 1 752 1 755 1 815 1 828 1 851 1 855 1 871 1 875 1 895 1 896 1 907 1 925 1 929 1 959 1 1012 1 
1 209 31 1 69 1 112 1 122 1 132 2 178 1 209 1 214 1 215 1 268 1 276 1 284 1 298 1 311 2 319 1 361 1 369 1 401 1 406 1 417 1 420 1 425 1 426 1 438 2 447 1 462 1 489 1 493 2 499 1 506 1 510 1 546 2 554 1 567 1 578 1 584 1 631 1 645 1 659 1 681 1 702 2 2 1 13 1 35 1 42 1 48 1 54 1 118 1 154 1 172 1 182 1 188 1 217 1 249 1 272 1 295 1 305 1 358 1 390 1 400 1 405 1 408 1 427 1 446 1 491 1 496 1 502 1 518 1 520 1 527 1 531 1 564 1 576 1 654 1 666 1 668 1 670 1 748 1 753 2 760 1 769 1 786 1 799 1 820 1 824 1 833 1 855 1 896 1 944 1 951 1 964 1 965 1 756 1 761 1 773 1 801 1 805 1 829 1 853 1 856 1 862 1 920 1 921 1 929 1 950 1 973 1 991 1 999 1 1008 1 1015 1 1016 1 
1 212 30 1 47 2 54 1 67 1 85 1 116 1 168 1 218 1 230 2 244 1 277 1 317 1 320 1 325 1 340 1 356 1 376 2 378 1 396 1 404 1 415 1 433 1 461 1 466 1 474 2 490 1 502 1 536 1 584 1 587 1 592 1 598 1 618 1 659 1 676 1 679 1 697 1 709 1 21 1 26 1 44 1 51 1 69 1 90 1 129 1 138 1 166 1 177 1 206 1 233 1 252 1 289 1 332 1 333 1 336 1 341 1 355 1 367 1 370 1 373 1 381 1 385 1 453 1 491 1 524 1 548 1 585 1 596 1 622 1 630 1 721 1 725 1 731 1 734 1 736 1 765 1 795 2 822 2 850 1 861 1 908 1 914 1 925 1 927 1 942 1 946 1 948 1 957 1 963 1 988 1 789 1 796 1 800 1 810 1 847 1 858 1 872 1 874 1 881 1 884 1 968 1 987 1 989 1 997 1 1008 1 
1 210 6 1 22 1 26 1 47 1 61 1 77 1 119 1 121 1 148 1 157 2 174 1 195 1 196 1 230 1 231 1 237 1 244 1 254 1 299 1 315 2 338 1 349 1 365 2 414 1 458 1 461 1 467 1 494 1 501 1 503 1 535 1 546 2 583 1 605 1 624 1 641 1 679 1 694 1 697 1 701 1 704 1 709 1 11 1 24 1 46 1 90 1 93 1 104 1 130 1 135 1 152 1 160 1 198 1 200 1 240 1 262 1 276 1 282 1 284 1 321 1 344 1 356 1 378 1 382 1 393 1 417 1 427 1 429 1 433 1 454 1 456 1 502 1 511 1 521 1 539 1 552 1 571 1 577 1 594 1 604 1 621 1 642 1 644 1 663 1 669 1 714 1 787 1 804 1 818 1 822 1 825 1 832 1 867 1 879 1 895 1 900 1 914 1 925 1 950 1 971 1 973 1 997 1 754 1 777 1 792 1 809 1 858 1 865 1 875 1 883 1 899 1 924 1 937 1 952 1 961 1 976 1 993 1 1001 1 1018 1 
1 208 14 1 61 1 76 1 122 2 146 1 156 1 157 1 171 1 226 1 254 1 278 1 284 1 286 1 300 1 325 1 346 1 392 1 396 1 416 1 432 1 435 1 448 1 471 1 478 1 506 1 512 1 542 1 546 1 590 1 604 1 630 2 649 1 653 1 674 1 682 1 694 1 695 1 712 1 723 1 4 1 39 1 50 1 60 1 69 1 86 1 87 1 89 1 99 1 104 1 107 1 116 1 129 1 200 1 223 1 229 1 258 1 266 1 271 1 292 1 304 1 308 1 389 1 399 1 407 1 452 1 454 1 458 1 473 1 476 1 480 1 527 1 533 1 534 1 548 1 556 1 568 1 595 1 633 1 638 1 650 1 651 1 683 1 698 1 702 1 713 1 744 1 753 1 778 1 786 1 790 1 794 1 856 1 866 1 877 1 908 1 913 1 935 1 973 1 990 1 732 1 741 1 749 1 795 1 810 1 823 1 853 1 891 1 903 1 910 1 919 1 951 1 963 1 970 1 977 1 980 1 1004 1 
1 208 8 1 39 1 60 1 85 1 91 2 95 1 96 1 97 1 105 1 115 1 173 1 184 1 185 1 211 1 229 1 239 1 241 1 268 1 295 1 296 1 305 1 308 1 313 1 319 1 355 1 408 1 411 1 418 1 429 1 473 1 491 1 509 1 517 1 521 1 532 1 563 1 584 1 585 1 611 1 630 1 680 1 686 1 706 1 714 1 719 2 45 1 51 1 73 1 107 1 113 1 125 1 127 1 155 1 168 1 197 1 226 1 248 1 282 1 299 1 314 1 317 1 324 1 339 1 350 1 356 1 372 1 375 1 423 1 438 1 448 1 476 1 499 1 502 1 530 1 544 1 552 1 556 1 558 1 574 1 578 1 579 1 581 1 614 1 619 1 681 1 690 1 700 1 750 1 757 1 766 1 810 1 872 1 929 1 942 1 947 1 751 1 756 1 791 1 853 1 861 1 865 1 875 1 882 1 884 1 891 1 912 1 931 1 941 1 945 1 961 1 1017 1 
1 208 2 1 23 2 36 1 98 1 140 1 159 1 189 1 212 1 251 1 276 1 279 1 293 1 310 1 311 1 316 1 339 1 382 1 390 1 396 1 397 1 420 1 475 1 490 1 501 1 508 1 509 1 528 2 553 2 599 1 639 1 649 1 654 1 657 1 675 1 679 1 697 1 10 1 21 1 35 1 53 1 64 1 81 1 102 1 103 1 133 1 148 1 151 1 196 1 265 1 285 1 290 1 309 1 320 1 322 1 378 1 386 1 413 1 419 1 462 1 483 1 516 1 537 1 547 1 586 1 633 1 638 1 661 1 666 1 667 1 746 1 758 1 793 1 796 1 814 1 820 1 830 2 849 1 851 1 865 1 885 1 919 1 925 1 930 1 949 1 966 1 732 1 745 1 825 1 879 1 900 1 902 1 923 1 940 1 944 1 957 1 960 1 970 1 983 1 988 1 992 1 1001 1 1008 1 
1 212 7 1 19 1 25 1 44 1 75 1 105 1 156 1 183 1 225 1 227 1 242 1 315 1 370 1 373 1 384 1 396 1 403 1 412 1 416 1 448 1 469 1 485 2 487 1 489 1 543 1 560 1 562 1 591 1 649 1 662 1 663 1 671 2 675 1 678 1 1 1 36 1 39 1 55 1 59 1 60 1 83 1 87 1 88 1 115 1 179 1 185 1 199 1 215 1 231 1 232 1 247 1 262 1 265 1 278 1 280 1 311 1 314 1 333 1 334 1 356 1 372 1 388 1 410 1 431 1 447 1 497 1 528 1 579 1 582 1 602 1 628 1 641 1 653 1 654 1 664 1 674 1 694 1 719 1 749 1 768 1 776 1 788 1 807 1 811 1 821 1 837 1 873 1 896 1 943 2 969 1 973 1 975 1 740 1 744 1 750 1 777 1 798 1 823 1 836 1 848 1 862 1 871 1 883 1 922 1 925 1 965 1 970 1 979 1 991 1 1001 1 1003 1 1007 1 1011 1 1014 1 
1 214 89 1 109 1 117 1 130 1 158 1 161 1 185 1 232 1 247 1 260 1 275 1 278 1 314 1 321 2 335 1 348 1 391 1 408 1 418 1 443 1 454 1 465 2 476 1 479 1 484 1 504 1 508 1 509 1 529 1 558 1 585 1 598 2 608 1 615 2 675 1 690 1 704 1 711 1 4 1 7 1 39 1 45 1 66 1 81 1 85 1 129 1 133 1 135 1 163 1 168 1 173 1 179 1 226 1 240 1 271 1 294 1 309 1 311 1 328 1 372 1 387 1 388 1 389 1 414 1 424 1 441 1 442 1 472 1 535 1 549 1 588 1 602 1 623 1 633 1 640 1 668 1 674 1 698 1 705 1 745 1 769 1 777 1 802 1 812 1 826 1 843 1 863 1 871 1 901 1 911 1 917 1 920 1 942 1 949 1 960 1 968 1 970 1 982 1 996 1 787 1 794 1 813 1 828 1 829 1 870 1 880 1 891 1 908 1 925 1 953 1 957 1 983 1 1001 1 1002 1 1017 1 
1 205 20 1 52 1 53 1 85 1 86 1 95 1 107 1 110 1 129 1 189 1 192 2 239 1 289 1 314 1 336 1 339 1 363 1 379 1 380 1 436 1 472 1 508 1 560 1 570 1 580 1 588 1 614 1 674 1 677 1 693 1 697 1 714 1 3 1 29 1 43 1 60 1 99 1 101 1 105 1 121 1 123 1 136 1 151 1 157 1 161 1 177 1 214 1 234 1 249 1 268 1 304 1 305 1 308 1 323 1 328 1 330 1 359 1 364 1 377 1 382 1 403 1 413 1 418 1 429 1 441 1 448 1 468 1 471 1 476 1 513 1 526 1 547 1 554 1 564 1 565 1 574 1 575 1 601 1 602 1 626 1 644 1 667 1 671 1 685 1 695 1 707 1 709 1 742 1 755 1 764 1 771 1 772 1 783 1 830 1 867 1 895 1 925 1 944 1 983 1 996 1 741 1 748 1 753 1 757 1 799 1 855 1 878 1 881 1 897 1 903 1 904 1 941 1 967 1 974 1 987 1 
1 208 4 1 35 1 84 1 96 1 116 1 141 2 149 1 155 1 181 1 190 1 237 1 245 1 261 1 278 1 324 1 338 1 385 2 439 1 442 1 504 1 506 1 524 1 529 1 533 1 556 1 565 1 594 1 595 1 610 1 613 1 617 1 652 1 702 2 705 2 719 1 723 1 18 1 21 1 33 1 38 1 39 1 42 1 43 1 54 1 83 1 90 1 103 1 144 1 166 1 184 1 192 1 209 1 231 1 257 1 283 1 285 1 292 1 309 1 329 1 331 1 359 1 373 1 375 1 380 1 393 1 453 1 471 1 484 1 517 1 542 1 558 1 579 1 633 1 666 1 669 1 681 1 682 1 740 1 802 1 803 1 856 1 874 1 906 1 908 1 929 1 933 1 946 1 997 1 734 1 742 1 766 1 778 1 800 1 838 1 860 1 870 1 899 1 910 1 932 1 943 1 944 1 979 1 994 1 1004 1 
1 210 24 2 25 1 44 1 62 1 75 1 88 1 128 1 143 1 157 1 179 1 227 1 235 2 260 1 267 1 272 1 279 1 280 1 306 1 315 1 351 1 359 1 371 1 373 1 388 1 416 1 452 1 477 1 524 1 534 1 554 1 569 1 604 1 609 1 654 1 696 1 700 1 716 1 17 1 30 1 50 1 52 1 61 1 64 1 69 1 70 1 85 1 87 1 97 1 107 1 119 1 156 1 158 1 166 1 172 1 173 1 174 1 193 1 205 1 208 1 209 1 217 1 246 1 257 1 273 1 281 1 310 1 311 1 317 1 331 1 350 1 364 1 399 1 404 1 431 1 432 1 438 1 449 1 453 1 484 1 513 1 514 1 525 1 543 1 544 1 551 1 556 1 584 1 614 1 642 1 666 1 685 1 701 1 704 1 725 1 727 1 749 1 757 1 772 1 783 1 786 1 808 1 839 2 841 1 842 1 843 1 852 2 916 1 923 1 969 1 745 1 759 1 763 1 773 1 821 1 822 1 848 1 849 1 871 1 891 1 899 1 931 1 942 1 947 1 994 1 999 1 1001 1 1007 1 
1 214 26 1 50 1 130 1 145 1 151 1 180 1 196 1 225 2 235 1 237 2 259 1 263 1 277 1 279 1 286 1 291 1 297 1 349 1 352 1 422 1 434 2 435 1 467 1 479 1 481 1 483 1 485 1 489 1 490 2 493 1 504 1 505 1 542 1 549 1 567 1 598 1 608 1 635 2 649 1 705 1 718 1 2 1 34 1 36 1 38 1 46 1 54 1 104 1 135 1 140 1 142 1 171 1 176 1 187 1 223 1 230 1 232 1 240 1 257 1 261 1 272 1 295 1 337 1 368 1 411 1 417 1 423 1 486 1 545 1 562 1 568 1 581 1 611 1 617 1 631 1 636 1 674 1 692 1 695 1 761 1 780 1 782 1 793 1 811 1 814 1 858 1 901 1 903 1 915 1 938 1 941 1 947 1 997 2 753 1 756 1 769 1 776 1 778 1 803 1 806 1 822 1 823 1 830 1 832 1 852 1 882 1 920 1 930 1 945 1 982 1 1000 1 1012 1 1018 1 1019 1 
1 212 16 1 31 1 47 1 58 1 72 1 87 1 88 1 103 1 129 1 132 1 190 1 208 1 211 1 214 1 228 1 267 1 286 1 294 1 315 1 319 1 368 1 432 1 436 1 438 1 463 1 464 1 481 1 511 1 518 1 522 1 531 1 543 1 546 1 549 1 563 1 576 1 596 1 606 1 618 1 646 1 647 1 664 1 677 1 697 1 701 1 723 1 13 1 23 1 42 1 85 1 92 1 94 1 101 1 102 1 144 1 160 1 193 1 224 1 229 1 255 1 256 1 266 1 272 1 302 1 320 1 325 1 326 1 332 1 345 1 353 1 377 1 380 1 435 1 453 1 460 1 462 1 465 1 489 1 492 1 535 1 536 1 554 1 555 1 562 1 572 1 580 1 592 1 594 1 629 1 657 1 673 1 717 1 731 1 736 1 742 1 768 1 784 1 797 1 814 1 833 1 839 1 840 1 850 1 851 1 853 1 859 1 866 1 888 1 928 1 929 1 934 1 942 1 950 1 967 1 991 1 762 1 781 1 836 1 879 1 892 1 895 1 912 1 980 1 
1 209 29 1 37 1 48 2 66 1 67 1 75 1 77 1 83 1 99 1 101 2 156 1 172 1 177 1 224 1 227 1 236 1 251 1 252 1 267 1 283 1 332 1 344 1 385 1 389 1 420 1 427 1 431 1 457 1 493 1 515 1 522 1 528 1 541 1 547 1 548 1 554 1 569 1 571 2 641 1 643 1 674 1 676 1 683 1 691 1 702 2 8 1 72 1 107 1 116 1 160 1 161 1 195 1 212 1 230 1 244 1 259 1 264 1 290 1 301 1 314 1 350 1 362 1 381 1 399 1 413 1 415 1 416 1 444 1 494 1 564 1 645 1 655 1 662 1 703 1 721 1 736 2 776 1 783 1 841 1 848 1 876 1 900 1 902 2 903 1 904 1 942 1 950 1 963 1 968 1 979 1 995 1 808 1 810 1 823 1 835 1 839 1 852 1 880 1 885 1 917 1 921 1 958 1 961 1 978 1 984 1 991 1 1000 1 1009 1 1011 1 1013 1 
1 208 23 1 80 1 83 1 93 2 99 1 113 1 121 1 126 1 130 1 136 1 165 1 178 1 180 1 186 1 212 1 217 1 235 1 237 1 241 1 243 1 255 1 283 1 289 1 293 1 315 1 321 1 337 1 367 1 412 2 423 1 465 1 491 1 538 1 561 1 574 1 698 1 717 1 723 1 734 1 735 2 26 1 72 1 78 1 104 1 208 1 211 1 218 1 228 1 231 1 257 1 258 1 265 1 294 1 342 1 356 1 357 1 383 1 396 1 436 1 454 1 460 1 468 1 487 1 498 1 514 1 521 1 533 1 566 1 585 1 620 1 649 1 652 1 679 1 681 1 702 1 703 1 709 1 752 1 772 1 778 1 808 1 819 1 827 1 849 1 878 2 891 1 915 1 916 1 963 1 980 1 988 1 991 1 737 1 743 1 745 1 751 1 776 1 792 1 806 1 818 1 828 1 862 1 909 1 932 1 959 1 962 1 970 1 994 1 1000 1 1011 1 1012 1 1013 1 1016 1 
1 211 5 1 69 1 86 1 133 1 140 1 155 1 158 1 163 1 178 1 192 1 203 1 209 1 242 1 243 2 246 1 279 1 287 1 332 2 356 1 370 1 395 1 414 1 437 1 449 1 503 1 525 1 564 1 577 1 616 1 626 1 667 1 682 1 697 1 718 1 719 1 14 1 16 1 27 1 46 1 61 1 123 1 131 1 132 1 137 1 143 1 145 1 146 1 174 1 179 1 195 1 256 1 280 1 295 1 317 1 338 1 357 1 361 1 367 1 368 1 369 1 382 1 394 1 403 1 410 1 422 1 435 1 452 1 458 1 504 1 541 1 550 1 584 1 595 1 604 1 615 1 671 1 689 1 710 1 717 1 736 1 740 1 747 1 793 1 796 1 841 1 842 1 868 1 871 1 883 1 960 1 964 1 970 1 971 1 755 1 773 1 821 1 839 1 850 1 857 1 860 1 874 1 905 1 912 1 922 1 975 1 984 1 1004 1 1012 1 
1 212 53 1 57 1 60 1 62 1 75 1 117 1 126 1 144 1 167 2 175 1 194 1 229 1 238 2 270 1 287 1 299 1 318 1 348 1 353 1 380 1 393 1 403 1 418 1 434 1 451 1 472 1 475 1 513 1 514 1 517 1 518 1 549 2 551 1 553 1 572 1 596 1 602 1 614 1 631 1 646 1 661 1 685 1 697 1 706 1 713 2 15 1 64 1 65 1 83 1 85 1 86 1 89 1 112 1 134 1 139 1 153 1 161 1 164 1 168 1 169 1 204 1 213 1 220 1 254 1 284 1 285 1 296 1 319 1 329 1 347 1 402 1 408 1 446 1 449 1 485 1 489 1 544 1 552 1 584 1 588 1 610 1 653 1 672 1 695 1 756 1 762 1 764 2 773 1 779 1 791 1 792 1 794 1 809 1 821 1 831 1 837 2 855 1 874 1 885 1 901 1 930 1 961 1 963 1 967 1 977 1 978 1 987 1 991 1 776 1 799 1 818 1 845 1 859 1 881 1 910 1 912 1 915 1 921 1 942 1 943 1 953 1 976 1 990 1 994 1 1014 1 1018 1 
1 205 39 1 51 1 73 1 87 1 102 1 105 1 121 1 147 1 153 1 186 1 192 1 202 1 204 1 226 1 231 1 269 1 299 1 303 1 346 1 357 2 387 1 399 1 405 1 414 1 415 1 423 1 430 1 488 1 505 1 550 1 555 1 573 1 591 1 599 1 613 2 625 1 675 2 681 1 705 1 721 1 59 1 81 1 82 1 119 1 151 1 221 1 227 1 229 1 256 1 257 1 267 1 282 1 283 1 284 1 344 1 351 1 355 1 434 1 459 1 468 1 473 1 481 1 496 1 498 1 503 1 520 1 522 1 540 1 560 1 585 1 601 1 603 1 638 1 646 1 651 1 662 1 678 1 691 1 707 1 747 1 755 1 756 1 767 1 768 1 783 1 819 1 853 2 869 1 880 1 898 1 913 1 914 1 915 1 941 1 995 1 740 1 743 1 750 1 757 1 759 1 777 1 778 1 788 1 801 1 808 1 809 1 817 1 891 1 893 1 895 1 899 1 902 1 952 1 985 1 991 1 998 1 1001 1 
1 212 7 2 14 1 31 2 65 1 76 1 108 1 116 1 137 1 145 1 152 1 159 1 186 1 204 1 213 1 214 1 225 1 238 1 239 1 249 1 256 1 284 2 286 1 352 1 366 1 384 1 394 1 408 1 412 1 475 2 516 1 529 1 539 1 544 1 556 1 573 1 582 1 589 1 598 1 617 1 619 1 646 1 650 1 680 1 681 1 683 1 689 1 704 2 712 1 731 1 737 1 13 1 80 1 89 1 91 1 95 1 120 1 123 1 124 1 149 1 166 1 180 1 218 1 226 1 250 1 253 1 304 1 314 1 316 1 348 1 358 1 383 1 422 1 445 1 448 1 504 1 540 1 543 1 548 1 551 1 577 1 655 1 669 1 690 1 696 1 711 1 728 1 739 1 745 1 749 1 753 1 779 1 785 1 797 1 815 1 816 1 823 1 840 1 867 1 896 1 898 1 944 1 946 1 970 1 983 2 990 1 771 1 792 1 798 1 818 1 822 1 836 1 870 1 893 1 894 1 895 1 904 1 917 1 919 1 963 1 984 1 1005 1 1009 1 1014 1 1019 1 
1 213 10 1 39 1 56 1 108 1 117 1 129 1 189 1 209 1 217 1 223 1 227 1 233 1 246 1 270 1 323 1 335 1 337 1 394 2 400 1 403 1 440 1 441 1 448 1 457 1 467 1 494 1 506 1 512 1 521 1 556 1 563 1 567 1 608 1 615 1 625 2 628 1 640 1 649 1 651 1 652 1 668 1 708 1 18 1 38 1 41 1 58 1 61 1 77 1 90 1 118 1 213 1 225 1 229 1 240 1 249 1 266 1 284 1 294 1 305 1 318 1 339 1 342 1 417 1 420 1 439 1 451 1 458 1 518 1 547 1 557 1 603 1 616 1 665 1 666 1 686 1 692 1 702 1 718 1 725 1 730 1 744 1 794 1 805 1 817 1 833 1 834 1 848 1 856 1 917 1 928 1 932 1 943 1 962 1 963 1 973 1 784 1 798 1 809 1 822 1 836 1 838 1 857 1 888 1 903 1 915 1 931 1 946 1 948 1 993 1 996 1 1009 1 1012 1 
1 213 23 1 34 2 45 1 90 1 91 1 92 1 95 1 97 1 110 1 128 1 155 1 197 1 210 1 213 1 264 2 296 1 301 1 305 1 307 1 312 1 382 1 391 1 412 1 427 1 463 2 469 1 470 1 545 2 601 1 647 1 650 1 674 1 694 1 708 2 730 1 734 1 47 1 84 1 138 1 160 1 186 1 202 1 232 1 274 1 299 1 304 1 347 1 362 1 425 1 428 1 440 1 466 1 503 1 508 1 530 1 534 1 544 1 574 1 576 1 581 1 587 1 610 1 635 1 656 1 673 1 682 1 731 1 830 1 848 1 864 1 882 1 902 1 903 1 973 1 990 1 745 1 765 1 768 1 789 1 794 1 810 1 832 1 833 1 863 1 917 1 921 1 938 1 962 1 971 1 976 1 979 1 981 1 983 1 992 1 1003 1 1004 1 1012 1 1015 1 
1 209 54 1 69 1 73 1 81 1 99 1 101 1 125 1 128 1 131 2 158 1 184 1 195 1 246 1 247 1 291 1 313 1 331 1 343 1 369 1 390 1 396 2 403 1 405 1 411 1 433 1 454 1 510 1 530 1 535 1 549 1 608 1 619 1 620 1 622 1 629 1 703 1 711 1 6 1 8 1 20 1 45 1 67 1 76 1 83 1 117 1 143 1 147 1 213 1 240 1 252 1 277 1 279 1 300 1 307 1 309 1 359 1 361 1 398 1 415 1 419 1 422 1 449 1 453 1 469 1 474 1 482 1 520 1 539 1 552 1 557 1 604 1 632 1 640 1 646 1 649 1 684 1 700 1 707 1 709 1 717 1 718 1 736 1 739 1 756 1 760 1 851 1 880 2 899 1 901 1 916 2 940 1 975 1 981 2 834 1 845 1 858 1 862 1 909 1 923 1 935 1 955 1 990 1 1002 1 1007 1 1016 1 1017 1 1019 1 
1 216 44 1 62 1 77 1 92 1 120 1 128 2 148 1 158 1 161 1 171 2 202 1 207 1 217 1 272 1 280 1 286 1 296 1 305 1 329 1 334 1 350 1 358 1 395 1 414 1 426 1 434 1 462 1 474 1 476 1 487 1 497 2 498 1 531 1 541 1 557 1 618 1 638 1 639 1 682 1 690 1 725 1 741 1 15 1 24 1 51 1 53 1 64 1 69 1 70 1 85 1 110 1 116 1 138 1 146 1 187 1 193 1 195 1 221 1 235 1 261 1 263 1 343 1 354 1 370 1 399 1 403 1 424 1 521 1 522 1 523 1 536 1 537 1 544 1 561 1 564 1 586 1 588 1 608 1 623 1 656 1 657 1 685 1 714 1 728 1 765 1 777 1 783 1 784 1 785 1 872 1 876 1 880 1 896 1 902 1 962 1 762 1 786 1 789 1 795 1 820 1 823 1 824 1 856 1 869 1 870 1 871 1 874 1 907 1 908 1 911 1 935 1 955 1 958 1 969 1 1001 1 1016 1 
1 213 1 1 8 1 15 1 52 1 98 1 103 1 108 1 117 1 145 1 154 1 191 1 198 1 255 1 269 1 279 1 292 2 294 1 297 1 304 1 319 1 376 1 433 1 439 1 457 1 471 1 489 1 510 1 518 1 523 1 544 1 548 1 572 1 598 1 605 1 666 1 691 1 694 1 697 1 700 1 729 1 740 1 2 1 18 1 27 1 87 1 142 1 168 1 174 1 197 1 215 1 252 1 260 1 268 1 295 1 302 1 310 1 323 1 337 1 343 1 377 1 391 1 402 1 421 1 430 1 444 1 451 1 474 1 482 1 496 1 506 1 507 1 509 1 527 1 534 1 560 1 563 1 564 1 585 1 620 1 626 1 633 1 638 1 646 1 671 1 699 1 709 1 717 1 727 1 732 1 736 1 742 1 753 1 787 1 812 1 818 1 822 1 839 1 884 1 898 1 934 1 942 1 746 1 771 1 789 1 800 1 802 1 825 1 832 1 835 1 863 1 876 1 887 1 888 1 896 1 941 1 948 1 954 1 1001 1 1007 1 1015 1 
1 211 35 1 55 1 56 1 69 1 120 1 161 1 184 1 216 1 261 1 272 1 278 1 296 1 326 1 348 1 363 1 371 1 374 1 379 1 392 2 410 1 471 1 475 1 504 1 516 1 528 2 537 1 543 1 545 1 550 1 573 1 581 1 646 1 679 1 689 1 714 1 727 1 26 1 43 1 70 1 80 1 91 1 104 1 105 1 109 1 118 1 129 1 149 1 156 1 185 1 194 1 231 1 241 1 242 1 245 1 255 1 289 1 308 1 342 1 347 1 356 1 366 1 368 1 372 1 393 1 401 1 477 1 482 1 503 1 512 1 522 1 526 1 540 1 546 1 553 1 559 1 565 1 567 1 568 1 585 1 596 1 599 1 618 1 639 1 641 1 673 1 677 1 700 1 712 1 745 1 760 1 764 1 768 1 771 1 783 1 786 1 793 1 802 1 809 1 851 1 894 1 904 1 926 2 928 1 945 1 953 2 978 1 979 1 749 1 755 1 812 1 814 1 843 1 849 1 858 1 872 1 877 1 942 1 951 1 954 1 986 1 1011 1 
1 211 8 1 36 1 56 1 59 1 96 1 126 1 141 1 147 2 148 1 154 2 195 1 197 1 225 1 231 1 233 1 253 1 275 1 277 1 279 1 303 1 306 1 340 1 342 1 361 1 391 1 407 1 439 1 442 1 451 1 476 1 497 2 501 1 538 1 543 1 572 1 582 1 583 1 595 1 605 1 612 1 623 1 655 1 696 1 697 1 714 1 737 1 739 1 9 1 27 1 74 1 86 1 122 1 150 1 152 1 169 1 173 1 186 1 198 1 211 1 239 1 248 1 266 1 273 1 289 1 308 1 313 1 381 1 392 1 408 1 411 1 425 1 433 1 434 1 447 1 454 1 461 1 485 1 526 1 531 1 564 1 575 1 594 1 626 1 694 1 705 1 755 1 756 1 760 1 764 1 765 1 768 1 776 1 818 1 838 1 846 1 885 1 905 1 910 1 914 1 944 1 966 1 792 1 796 1 805 1 829 1 845 1 867 1 873 1 897 1 916 1 924 1 960 1 1003 1 1004 1 1008 1 1011 1 1019 1 
1 207 36 1 49 1 56 1 152 1 165 1 176 1 186 1 196 1 222 1 231 1 239 2 284 1 313 1 314 1 327 1 336 1 372 1 397 1 412 1 432 1 459 1 466 1 476 2 490 1 494 1 498 1 503 1 515 1 519 1 560 1 567 1 573 1 576 1 591 1 605 1 608 2 637 1 686 1 715 1 722 1 9 1 38 1 41 1 53 1 79 1 113 1 148 1 214 1 235 1 270 1 276 1 282 1 287 1 315 1 319 1 329 1 339 1 351 1 360 1 381 1 401 1 422 1 444 1 449 1 453 1 464 1 477 1 478 1 512 1 523 1 532 1 545 1 558 1 586 1 611 1 616 1 619 1 657 1 663 1 679 1 704 1 720 1 730 1 752 1 845 1 850 1 854 1 882 1 894 1 915 1 936 1 953 1 959 1 960 1 992 1 997 1 783 1 792 1 795 1 804 1 851 1 866 1 901 1 908 1 923 1 926 1 957 1 965 1 988 1 1005 1 
1 209 28 1 48 1 52 1 79 1 80 1 92 1 95 1 101 1 160 1 171 1 177 1 203 1 208 1 273 1 292 1 300 1 304 1 327 1 348 1 366 1 397 1 430 1 440 1 461 1 470 1 477 1 498 1 516 1 551 1 575 1 583 1 590 1 596 1 647 1 656 1 673 1 708 1 728 1 732 1 740 1 10 1 51 1 58 1 70 1 102 1 133 1 148 1 217 1 250 1 253 1 305 1 330 1 350 1 351 1 358 1 360 1 376 1 392 1 412 1 439 1 445 1 460 1 465 1 507 1 595 1 613 1 660 1 674 1 677 1 692 1 725 1 746 1 757 1 766 1 787 1 791 1 792 1 795 2 805 1 823 1 848 1 856 1 864 1 869 2 875 2 878 1 895 1 901 2 905 1 906 1 918 1 940 1 942 1 943 1 954 1 958 1 961 1 973 1 771 1 776 1 803 1 831 1 910 1 939 1 965 1 992 1 1013 1 1019 1 
1 210 23 1 39 1 46 1 50 1 53 1 76 1 104 1 137 1 138 1 143 2 189 1 191 1 230 1 306 1 307 1 308 1 324 1 334 1 348 1 356 1 362 1 370 1 395 1 426 1 439 1 448 1 449 2 450 1 486 1 498 1 517 1 525 1 539 1 545 1 551 1 554 1 570 1 577 1 586 1 632 1 639 1 657 1 662 2 690 1 701 1 726 1 44 1 74 1 99 1 117 1 150 1 162 1 179 1 205 1 224 1 236 1 255 1 263 1 271 1 309 1 332 1 336 1 418 1 437 1 464 1 469 1 472 1 507 1 514 1 569 1 584 1 611 1 616 1 626 1 665 1 694 1 708 1 728 1 739 1 753 1 766 1 791 1 813 1 822 1 837 1 841 1 848 1 887 1 902 1 938 1 946 1 947 1 754 1 762 1 779 1 781 1 815 1 833 1 835 1 844 1 878 1 883 1 901 1 914 1 917 1 922 1 948 1 951 1 953 1 957 1 974 1 984 1 989 1 999 1 1003 1 1005 1 1009 1 1012 1 
1 214 42 1 46 1 50 2 52 1 74 1 75 1 79 1 83 1 92 1 100 1 114 1 222 1 237 1 272 1 275 1 282 1 303 1 332 1 340 1 375 1 380 1 391 1 405 1 414 1 417 1 424 1 442 1 447 1 463 1 486 1 488 1 530 1 562 1 567 1 619 1 626 1 647 1 667 1 674 1 705 1 714 1 718 1 6 1 13 1 15 1 81 1 105 1 127 1 191 1 229 1 236 1 253 1 274 1 287 1 296 1 317 1 328 1 343 1 356 1 363 1 377 1 435 1 436 1 444 1 449 1 456 1 498 1 515 1 522 1 531 1 539 1 642 1 646 1 663 1 692 1 697 1 716 1 717 1 726 1 736 1 813 1 837 1 849 2 866 1 876 1 888 1 932 1 937 1 943 1 972 1 977 1 994 2 766 1 782 1 809 1 812 1 851 1 881 1 885 1 905 1 909 1 962 1 967 1 978 1 979 1 999 1 1010 1 1012 1 1018 1 
1 206 20 1 29 1 30 1 34 2 116 1 124 1 163 2 168 1 170 1 186 1 193 1 214 1 239 1 261 1 264 1 265 1 271 1 297 1 302 1 318 1 376 1 382 1 428 1 433 1 434 1 450 1 455 1 478 2 486 1 530 1 544 1 555 1 567 1 570 1 599 1 603 1 679 1 692 1 693 1 708 1 709 1 736 1 748 1 3 1 18 1 24 1 60 1 65 1 94 1 117 1 134 1 138 1 157 1 191 1 196 1 219 1 225 1 238 1 282 1 306 1 319 1 332 1 362 1 380 1 384 1 420 1 431 1 440 1 452 1 483 1 498 1 499 1 518 1 521 1 531 1 534 1 549 1 571 1 581 1 644 1 670 1 691 1 721 1 753 1 769 1 772 1 780 1 823 1 828 1 834 2 843 1 844 1 847 1 905 1 906 1 933 2 945 1 950 1 954 1 968 1 974 1 775 1 809 1 815 1 838 1 858 1 878 1 903 1 919 1 932 1 939 1 973 1 983 1 
1 209 6 1 58 1 64 1 98 1 177 1 192 1 193 1 205 1 243 2 255 1 259 1 286 1 303 1 307 1 312 1 320 1 327 1 334 1 367 1 380 1 402 1 450 1 457 1 458 1 463 1 493 1 505 1 535 1 558 1 561 1 585 1 614 1 632 1 655 1 677 2 679 1 707 1 722 2 725 1 740 1 745 1 750 1 752 1 1 1 8 1 10 1 13 1 25 1 47 1 50 1 60 1 61 1 76 1 83 1 84 1 126 1 127 1 135 1 136 1 167 1 203 1 208 1 265 1 272 1 274 1 276 1 343 1 351 1 389 1 415 1 437 1 483 1 487 1 520 1 538 1 562 1 584 1 594 1 603 1 607 1 650 1 662 1 664 1 671 1 730 1 733 1 756 1 761 1 767 1 769 1 776 1 793 1 801 2 819 1 836 2 839 1 853 1 891 1 902 1 907 1 946 1 949 2 953 1 990 1 995 1 996 2 788 1 805 1 872 1 882 1 890 1 896 1 900 1 957 1 977 1 1004 1 1005 1 
1 209 46 1 52 1 56 1 83 2 92 1 98 1 118 1 172 1 175 1 195 1 204 1 213 2 245 1 253 1 261 1 265 2 278 1 299 1 305 1 306 1 315 1 353 1 363 1 373 1 377 1 389 1 434 1 436 1 454 1 466 1 500 1 507 1 530 1 531 1 534 1 543 1 561 1 585 1 599 1 615 1 632 1 650 1 676 1 691 1 698 1 703 1 7 1 45 1 48 1 105 1 157 1 205 1 241 1 247 1 252 1 266 1 273 1 281 1 284 1 314 1 319 1 321 1 335 1 345 1 382 1 390 1 432 1 435 1 445 1 448 1 453 1 465 1 481 1 514 1 537 1 577 1 584 1 649 1 652 1 675 1 724 1 750 1 766 1 781 1 782 1 786 1 824 1 834 1 858 1 862 1 884 1 912 1 921 1 940 1 978 1 980 2 994 1 771 1 815 1 823 1 850 1 865 1 888 1 915 1 928 1 947 1 959 1 964 1 982 1 999 1 1005 1 1010 1 1012 1 
1 212 19 1 22 1 33 1 83 1 105 1 140 1 157 1 164 1 170 1 208 1 228 1 245 1 282 1 314 2 315 1 328 2 347 1 380 1 409 1 410 1 441 1 456 1 476 1 478 2 502 1 508 1 512 1 535 1 538 1 540 2 552 1 559 1 569 1 631 1 651 1 656 1 662 1 663 1 685 1 686 1 730 1 739 1 747 1 9 1 27 1 41 1 43 1 54 1 80 1 106 1 107 1 122 1 149 1 159 1 163 1 165 1 184 1 195 1 226 1 243 1 261 1 273 1 293 1 297 1 304 1 308 1 322 1 323 1 326 1 343 1 351 1 358 1 366 1 383 1 391 1 398 1 399 1 412 1 434 1 437 1 462 1 486 1 519 1 541 1 546 1 567 1 584 1 593 1 665 1 672 1 673 1 698 1 721 1 737 1 746 1 756 1 784 1 791 1 797 1 810 1 819 1 820 1 845 1 861 1 867 1 927 2 929 1 941 1 997 1 760 1 781 1 793 1 798 1 817 1 818 1 822 1 835 1 894 1 895 1 949 1 968 1 974 1 1009 1 1012 1 1014 1 
1 212 1 1 11 1 21 1 84 1 100 1 110 1 125 1 127 1 138 1 141 1 177 2 195 1 219 1 258 1 270 1 277 1 321 1 331 1 368 1 370 1 373 1 412 1 414 1 436 1 445 1 455 1 459 1 470 1 484 1 584 1 599 1 619 1 620 1 624 1 626 1 642 1 652 1 683 1 685 1 698 1 709 1 712 1 738 1 739 1 743 1 747 1 753 1 755 1 14 1 15 1 23 1 52 1 60 1 61 1 77 1 96 1 117 1 129 1 166 1 212 1 224 1 228 1 236 1 282 1 317 1 333 1 360 1 448 1 465 1 477 1 487 1 494 1 533 1 544 1 593 1 594 1 615 1 622 1 640 1 643 1 714 1 722 1 726 1 733 1 785 1 836 1 856 1 867 2 900 1 926 1 946 1 947 1 949 1 950 1 806 1 818 1 850 1 861 1 872 1 887 1 904 1 917 1 985 1 1005 1 
1 207 7 1 13 1 22 1 28 1 59 1 71 1 72 1 88 2 96 1 107 1 116 1 129 1 134 1 148 1 151 1 170 1 190 1 197 1 238 1 239 1 248 1 267 1 270 2 294 1 306 1 336 1 338 2 347 1 356 1 357 2 360 1 376 1 381 1 386 1 389 1 400 1 410 1 417 1 437 1 500 1 545 1 558 1 618 1 627 1 648 1 667 1 674 1 682 1 696 1 702 1 710 1 717 1 726 1 732 1 749 1 58 1 108 1 126 1 150 1 178 1 216 1 222 1 228 1 241 1 280 1 314 1 327 1 388 1 392 1 422 1 463 1 470 1 477 1 490 1 505 1 569 1 589 1 592 1 604 1 608 1 630 1 633 1 642 1 647 1 649 1 659 1 703 1 720 1 730 1 739 1 762 1 763 1 766 1 773 1 782 1 811 1 837 1 853 1 895 1 897 1 904 1 933 1 940 1 970 1 990 1 993 1 776 1 788 1 789 1 809 1 815 1 820 1 821 1 846 1 860 1 877 1 932 1 936 1 943 1 947 1 948 1 962 1 989 1 1013 1 1015 1 
1 209 22 1 38 1 43 1 50 1 61 1 76 1 81 1 93 1 152 1 166 1 172 1 174 1 186 1 190 1 200 1 220 1 224 1 231 1 246 1 274 1 281 1 282 1 287 1 295 1 332 1 344 1 381 1 395 1 407 1 446 1 448 1 455 1 458 1 469 1 540 1 550 1 580 2 589 1 593 1 633 1 677 1 684 1 691 1 703 1 704 1 727 1 10 1 11 1 56 1 60 1 74 1 124 1 125 1 157 1 175 1 207 1 221 1 228 1 232 1 233 1 237 1 249 1 285 1 298 1 342 1 343 1 354 1 461 1 468 1 484 1 493 1 507 1 547 1 559 1 599 1 682 1 700 1 709 1 779 1 789 1 800 1 811 1 821 1 822 1 823 1 838 1 852 1 864 1 886 1 936 1 938 1 944 1 950 1 959 1 971 1 972 1 975 1 764 1 810 1 812 1 813 1 842 1 878 1 885 1 891 1 895 1 901 1 909 1 931 1 939 1 940 1 980 1 989 1 1014 1 1016 1 
1 210 2 1 8 1 14 1 18 1 45 1 64 1 71 1 98 1 111 1 124 1 133 1 135 1 144 1 162 1 186 1 187 2 188 1 200 1 217 1 229 1 262 1 271 1 278 1 288 1 316 1 352 1 363 1 371 2 393 2 476 1 478 1 482 1 491 1 520 1 550 2 553 1 566 1 574 1 601 1 607 2 633 1 642 1 666 1 671 2 699 1 700 2 710 1 25 1 44 1 46 1 49 1 82 1 96 1 109 1 154 1 165 1 171 1 205 1 245 1 246 1 264 1 277 1 319 1 324 1 326 1 337 1 345 1 389 1 414 1 423 1 436 1 451 1 460 1 463 1 465 1 469 1 489 1 518 1 527 1 532 1 540 1 563 1 577 1 591 1 618 1 620 1 645 1 670 1 672 1 707 1 732 1 739 1 775 1 808 1 843 2 851 1 865 1 905 1 906 1 927 1 938 1 991 2 783 1 790 1 829 1 831 1 895 1 901 1 914 1 929 1 944 1 948 1 949 1 953 1 959 1 984 1 1004 1 1019 1 
1 207 5 1 39 1 49 1 50 1 57 1 123 1 135 1 149 1 161 1 172 1 191 1 232 1 243 1 252 1 294 1 312 1 365 1 388 1 402 1 421 1 448 1 456 1 457 1 481 1 482 1 483 1 515 1 517 1 522 1 531 1 563 1 574 1 600 1 635 1 637 1 644 1 655 1 676 1 688 1 701 1 722 1 743 1 746 1 747 1 25 1 37 1 48 1 84 1 102 1 128 1 130 1 145 1 146 1 203 1 224 1 236 1 244 1 248 1 258 1 260 1 275 1 305 1 310 1 322 1 329 1 347 1 371 1 381 1 384 1 428 1 454 1 461 1 462 1 536 1 540 1 571 1 575 1 617 1 646 1 663 1 672 1 673 1 683 1 755 1 793 1 803 1 804 2 808 1 811 1 847 1 870 1 890 2 903 1 914 1 939 1 972 1 983 1 987 1 824 1 856 1 901 1 902 1 904 1 906 1 929 1 945 1 965 1 970 1 1002 1 1004 1 1011 1 1016 1 1018 1 
1 208 3 2 7 1 17 1 28 1 29 1 49 1 55 2 61 1 66 1 74 1 103 1 125 1 157 1 158 1 185 1 245 1 278 1 306 1 314 1 317 1 326 1 343 1 368 1 372 1 381 1 394 1 400 1 430 1 451 1 465 1 468 1 475 1 546 1 556 1 561 1 575 1 595 1 602 1 626 1 661 1 663 1 665 1 668 1 694 2 733 1 753 1 2 1 53 1 56 1 62 1 82 1 100 1 123 1 164 1 170 1 182 1 197 1 212 1 219 1 237 1 261 1 269 1 291 1 295 1 339 1 365 1 391 1 418 1 448 1 452 1 470 1 499 1 527 1 542 1 549 1 600 1 621 1 634 1 679 1 684 1 692 1 693 1 706 1 722 1 778 1 786 1 820 2 850 1 854 1 912 1 936 1 952 1 974 1 809 1 823 1 827 1 837 1 896 1 905 1 929 1 932 1 953 1 959 1 1007 1 1018 1 
1 207 5 1 8 1 31 1 44 1 46 1 59 1 72 1 82 1 86 1 189 1 227 1 302 1 303 1 326 1 336 1 357 1 411 1 421 1 429 1 432 1 438 1 447 1 451 1 453 1 462 1 488 1 507 1 513 1 526 1 529 1 551 1 564 1 570 1 577 1 579 1 599 1 630 1 641 1 656 1 663 1 686 1 691 2 699 1 738 1 757 1 4 1 10 1 40 1 56 1 61 1 63 1 68 1 109 1 118 1 140 1 143 1 153 1 157 1 168 1 179 1 195 1 200 1 230 1 252 1 282 1 298 1 313 1 339 1 352 1 375 1 397 1 398 1 457 1 458 1 464 1 477 1 495 1 500 1 506 1 511 1 550 1 556 1 573 1 583 1 585 1 602 1 610 1 647 1 675 1 704 1 711 1 734 1 744 1 750 1 764 2 773 1 780 1 781 1 784 1 812 1 865 1 872 1 899 1 923 1 960 1 978 1 769 1 775 1 788 1 824 1 845 1 849 1 851 1 860 1 870 1 882 1 894 1 900 1 909 1 919 1 993 1 1004 1 1006 1 
1 212 1 1 4 1 21 2 33 1 73 1 98 1 154 1 165 1 166 1 182 1 186 2 203 1 204 1 212 1 219 1 248 1 251 1 253 1 296 1 312 1 346 2 353 1 381 1 384 1 402 1 416 1 480 1 482 1 527 1 529 1 577 1 605 1 617 1 675 1 676 2 695 1 705 1 718 1 757 1 14 1 19 1 48 1 51 1 63 1 99 1 110 1 115 1 133 1 135 1 137 1 181 1 226 1 245 1 271 1 274 1 275 1 282 1 316 1 323 1 328 1 329 1 391 1 394 1 399 1 440 1 445 1 449 1 451 1 470 1 508 1 602 1 604 1 612 1 632 1 641 1 643 1 648 1 656 1 657 1 660 1 677 1 682 1 685 1 732 1 775 1 782 1 791 1 817 1 823 2 840 1 844 1 846 1 857 1 877 1 878 1 888 1 910 1 942 1 960 1 766 1 768 1 773 1 779 1 813 1 829 1 850 1 867 1 882 1 894 1 899 1 940 1 951 1 954 1 999 1 1002 1 
1 210 15 1 59 1 90 1 99 1 119 1 122 1 123 1 126 1 158 1 160 1 190 1 191 1 194 1 201 1 223 1 228 1 245 1 289 1 296 1 351 1 381 1 390 1 399 2 479 1 493 1 498 1 504 1 517 1 552 1 556 1 559 1 578 1 584 1 606 1 609 1 624 1 653 1 659 1 685 1 695 1 704 1 730 1 738 2 746 1 747 1 762 2 16 1 68 1 100 1 101 1 121 1 166 1 202 1 212 1 214 1 230 1 237 1 249 1 277 1 287 1 310 1 316 1 317 1 326 1 361 1 363 1 364 1 384 1 435 1 440 1 502 1 507 1 532 1 538 1 595 1 602 1 611 1 623 1 648 1 675 1 679 1 707 1 720 1 758 1 771 1 796 1 798 1 801 1 834 1 842 1 847 1 871 1 893 1 897 1 908 1 923 1 968 1 981 1 765 1 772 1 776 1 830 1 855 1 863 1 892 1 894 1 965 1 970 1 1000 1 
1 209 6 1 11 1 36 1 86 1 102 1 116 1 134 1 139 1 178 1 185 1 214 1 230 1 259 1 270 1 292 1 302 1 344 1 357 1 446 1 452 1 463 1 479 1 497 1 498 1 534 1 566 1 597 1 600 1 612 1 630 1 633 1 646 2 680 1 686 1 693 1 702 1 723 1 744 1 747 1 39 1 40 1 62 1 64 1 66 1 83 1 97 1 106 1 129 1 143 1 154 1 180 1 199 1 244 1 254 1 262 1 273 1 279 1 281 1 290 1 310 1 345 1 352 1 371 1 378 1 380 1 386 1 407 1 444 1 451 1 458 1 492 1 543 1 545 1 556 1 561 1 592 1 601 1 658 1 685 1 690 1 716 1 742 1 764 1 769 1 774 1 787 1 792 1 823 1 827 1 896 1 903 1 904 1 905 1 916 1 951 1 977 1 768 1 800 1 801 1 838 1 844 1 869 1 880 1 893 1 902 1 910 1 927 1 939 1 949 1 950 1 962 1 987 1 999 1 1004 1 1016 1 1017 1 1018 1 
1 211 5 1 18 1 27 1 31 1 38 1 53 1 88 1 115 1 116 1 133 1 149 1 195 1 217 1 272 1 308 1 327 1 333 1 348 1 368 1 383 1 394 1 401 1 405 1 430 1 490 2 517 1 532 1 550 1 551 1 565 1 572 1 579 1 608 1 609 1 622 1 629 1 705 1 714 1 717 1 726 1 749 1 750 1 754 1 757 1 2 1 6 1 98 1 126 1 130 1 183 1 227 1 244 1 261 1 269 1 286 1 290 1 313 1 325 1 337 1 375 1 434 1 442 1 455 1 465 1 470 1 536 1 556 1 568 1 574 1 585 1 624 1 689 1 696 1 703 1 731 1 751 1 763 1 867 1 915 1 916 1 924 1 929 1 930 1 965 1 971 1 986 1 789 1 797 1 806 1 826 1 863 1 878 1 892 1 893 1 914 1 925 1 954 1 956 1 959 1 1004 1 1009 1 1010 1 1012 1 1018 1 
1 210 7 1 34 1 70 1 72 2 84 1 135 1 155 1 165 1 180 1 225 2 237 2 304 1 323 2 349 1 367 1 374 1 387 1 484 1 485 2 494 1 507 2 522 1 545 1 553 1 563 1 566 1 571 1 594 1 602 1 627 1 628 1 639 1 644 1 673 1 684 1 690 1 739 1 753 1 12 1 20 1 29 1 108 1 126 1 149 1 154 1 167 1 174 1 175 1 198 1 226 1 235 1 238 1 265 1 269 1 276 1 309 1 310 1 320 1 329 1 330 1 379 1 385 1 406 1 428 1 434 1 439 1 447 1 449 1 490 1 519 1 531 1 549 1 555 1 593 1 606 1 623 1 634 1 645 1 652 1 681 1 699 1 771 1 777 1 778 1 784 1 806 1 825 1 841 1 842 1 847 1 859 1 882 1 896 1 899 1 907 1 914 1 943 1 947 1 959 1 981 1 988 1 989 1 779 1 783 1 835 1 848 1 858 1 866 1 878 1 911 1 939 1 951 1 980 1 1006 1 
1 211 12 1 18 1 33 1 34 1 72 1 100 1 121 1 125 1 143 1 144 1 166 1 184 2 201 1 203 1 228 2 231 1 330 1 342 1 380 1 401 1 405 2 412 1 434 1 486 1 540 1 559 1 579 1 585 1 595 1 611 1 613 1 619 1 621 1 625 1 631 1 639 1 645 1 659 2 669 1 690 1 691 2 697 1 728 1 734 1 739 1 746 1 747 1 6 1 13 1 75 1 85 1 115 1 124 1 127 1 131 1 133 1 137 1 147 1 224 1 234 1 240 1 245 1 252 1 271 1 278 1 345 1 351 1 353 1 404 1 418 1 429 1 452 1 466 1 470 1 477 1 487 1 514 1 549 1 590 1 654 1 664 1 704 1 742 1 763 1 765 1 806 1 835 1 846 1 874 1 890 1 972 1 769 1 786 1 799 1 801 1 847 1 868 1 894 1 912 1 928 1 958 1 979 1 981 1 1010 1 1012 1 1017 1 
1 213 6 1 14 1 28 1 52 1 68 1 77 1 90 1 106 2 120 1 124 1 128 1 144 1 149 1 153 1 163 1 164 1 193 1 232 1 248 1 264 1 295 2 322 1 356 1 364 1 379 1 395 2 400 1 408 1 412 1 420 1 423 1 442 1 459 2 467 1 524 1 534 1 539 1 579 1 587 1 595 1 602 1 603 1 617 1 620 1 632 1 635 2 686 1 689 1 692 2 722 1 729 1 752 1 753 1 765 1 8 1 19 1 63 1 126 1 145 1 154 1 177 1 181 1 206 1 212 1 221 1 235 1 243 1 273 1 331 1 349 1 377 1 384 1 390 1 397 1 417 1 431 1 434 1 464 1 504 1 517 1 528 1 531 1 573 1 638 1 640 1 641 1 649 1 668 1 669 1 675 1 700 1 733 1 762 1 768 1 770 1 771 1 782 1 789 2 802 1 818 1 830 2 841 1 846 1 864 1 868 1 777 1 795 1 808 1 856 1 861 1 890 1 898 1 899 1 913 1 918 1 935 1 958 1 964 1 980 1 
1 211 86 1 88 1 111 1 168 1 182 2 198 1 200 1 221 1 282 1 309 1 311 1 336 1 348 1 353 1 355 1 365 1 379 1 380 1 381 1 387 1 398 1 399 1 417 1 418 1 433 1 446 1 476 1 493 1 525 1 572 1 581 1 586 1 592 1 593 1 612 1 621 1 632 1 638 1 667 1 691 1 693 1 697 1 700 1 718 1 769 1 32 1 46 1 58 1 90 1 151 1 154 1 181 1 210 1 227 1 238 1 289 1 306 1 323 1 327 1 346 1 371 1 424 1 425 1 471 1 481 1 545 1 582 1 588 1 636 1 676 1 681 1 774 1 778 1 802 1 810 1 822 1 832 1 855 1 857 1 883 1 886 1 904 1 916 1 940 1 948 1 953 1 979 1 996 1 797 1 801 1 805 1 842 1 853 1 871 1 872 1 876 1 882 1 884 1 888 1 906 1 1005 1 1010 1 1019 1 
1 212 6 1 20 1 35 1 47 1 57 1 58 1 80 2 109 1 160 1 181 1 197 1 211 1 222 1 226 1 239 1 244 1 316 1 318 1 355 1 364 1 378 1 394 1 397 1 415 2 422 1 434 1 452 1 459 1 460 1 486 1 491 2 502 1 507 1 513 1 522 1 525 1 531 1 534 1 606 1 638 1 639 1 643 1 648 1 650 1 684 1 698 1 710 1 730 1 746 1 764 1 767 1 769 1 3 1 21 1 42 1 100 1 130 1 148 1 155 1 260 1 283 1 333 1 361 1 407 1 408 1 409 1 475 1 490 1 521 1 526 1 527 1 561 1 565 1 584 1 615 1 620 1 636 1 674 1 678 1 709 1 740 1 745 1 749 1 754 1 789 1 799 1 800 1 802 1 813 1 818 1 846 1 852 1 861 1 887 1 910 1 939 1 958 1 995 1 780 1 787 1 790 1 834 1 847 1 864 1 900 1 931 1 948 1 969 1 970 1 1000 1 1003 1 1005 1 1013 1 1015 1 
1 221 3 1 13 1 29 1 35 1 44 1 60 2 78 1 85 1 86 1 114 1 115 1 118 1 122 1 123 1 172 1 179 1 206 1 212 1 213 1 217 1 238 1 245 1 263 1 271 1 291 1 292 1 339 1 388 1 393 1 396 1 446 1 496 1 519 1 521 1 523 1 526 1 527 1 557 1 564 1 597 1 604 1 617 1 621 1 642 1 646 1 654 1 673 1 730 1 732 1 736 1 752 1 5 1 49 1 57 1 70 1 90 1 95 1 104 1 155 1 157 1 164 1 173 1 186 1 226 1 243 1 267 1 307 1 330 1 346 1 350 1 359 1 376 1 380 1 400 1 406 1 417 1 472 1 490 1 498 1 499 1 503 1 541 1 563 1 609 1 641 1 666 1 667 1 715 1 764 1 783 1 789 1 807 1 854 1 901 1 911 1 946 1 971 1 977 1 981 1 794 1 799 1 804 1 813 1 820 1 828 1 869 1 874 1 879 1 904 1 913 1 929 1 978 1 1000 1 1002 1 1006 1 1010 1 1011 1 1014 1 
1 208 32 1 38 1 54 1 57 1 59 1 80 1 87 1 94 1 100 1 133 1 140 1 175 1 193 1 195 1 197 1 230 1 257 1 272 1 321 1 327 1 328 1 329 1 380 1 401 1 460 1 466 1 467 1 477 1 543 1 598 1 634 1 648 1 649 1 652 2 664 1 675 1 738 1 757 1 762 1 25 1 40 1 81 1 91 1 99 1 116 1 118 1 121 1 122 1 146 1 226 1 228 1 232 1 269 1 275 1 278 1 282 1 286 1 305 1 314 1 334 1 377 1 404 1 407 1 414 1 415 1 419 1 431 1 452 1 465 1 481 1 498 1 519 1 535 1 538 1 541 1 547 1 557 1 568 1 569 1 653 1 659 1 677 1 698 1 706 1 707 1 710 1 712 1 722 1 732 1 737 1 763 1 809 1 818 1 859 1 860 1 874 1 895 1 933 1 962 2 971 1 784 1 795 1 828 1 876 1 886 1 891 1 900 1 908 1 936 1 949 1 987 1 1005 1 1012 1 1015 1 
1 208 17 1 29 1 47 1 64 1 78 2 85 1 94 1 103 1 118 1 126 1 147 1 190 1 225 2 227 1 237 1 253 1 291 1 298 1 315 1 332 1 355 1 371 1 378 1 400 1 406 1 440 1 467 1 474 1 531 1 538 1 549 1 556 1 584 1 602 1 603 1 607 1 618 1 630 2 681 2 698 1 705 1 706 1 765 1 770 1 5 1 6 1 13 1 37 1 43 1 81 1 97 1 113 1 128 1 138 1 140 1 144 1 172 1 174 1 189 1 196 1 223 1 292 1 309 1 329 1 382 1 424 1 447 1 451 1 454 1 456 1 534 1 548 1 552 1 553 1 604 1 614 1 619 1 631 1 636 1 667 1 792 1 804 1 831 1 838 1 849 1 864 1 884 2 916 1 917 1 919 1 951 1 971 1 978 1 991 1 812 1 823 1 847 1 859 1 860 1 868 1 877 1 893 1 895 1 947 1 963 1 1005 1 1019 1 
1 214 1 1 54 1 62 1 64 1 87 1 121 1 127 1 158 1 179 1 189 1 194 1 213 1 241 1 247 1 277 1 281 1 291 1 296 1 345 1 353 1 377 1 379 1 410 1 451 1 459 1 486 1 512 1 535 1 567 1 626 1 645 1 676 2 697 2 700 1 717 1 759 1 763 1 7 1 8 1 19 1 31 1 58 1 84 1 92 1 117 1 131 1 187 1 197 1 199 1 201 1 210 1 301 1 313 1 371 1 387 1 397 1 422 1 434 1 497 1 500 1 513 1 526 1 530 1 560 1 579 1 597 1 603 1 611 1 643 1 649 1 650 1 682 1 690 1 752 1 762 1 804 1 849 1 901 1 930 1 937 1 954 1 961 1 965 1 966 1 968 1 970 1 977 1 979 1 985 1 986 1 992 1 780 1 788 1 810 1 814 1 818 1 860 1 861 1 880 1 896 1 925 1 949 1 963 1 988 1 1019 1 
1 205 3 1 5 1 19 1 20 1 69 2 77 1 81 1 85 1 86 1 110 1 123 1 172 1 173 1 198 1 204 1 209 1 211 1 213 1 246 1 255 1 277 1 281 1 302 1 323 1 324 1 363 1 372 1 377 1 379 2 392 1 404 1 429 1 435 1 454 1 480 1 488 1 501 1 532 1 539 1 552 1 564 1 576 1 582 2 602 1 609 1 614 1 631 1 654 1 697 1 728 1 735 1 747 1 753 1 4 1 12 1 14 1 78 1 79 1 87 1 88 1 93 1 106 1 117 1 127 1 130 1 133 1 135 1 162 1 171 1 187 1 192 1 217 1 231 1 287 1 298 1 301 1 332 1 338 1 401 1 426 1 428 1 437 1 451 1 467 1 497 1 499 1 500 1 506 1 521 1 528 1 545 1 549 1 563 1 565 1 603 1 604 1 608 1 616 1 658 1 670 1 676 1 707 1 733 1 736 1 738 1 749 1 757 1 764 1 780 1 804 1 849 1 850 1 855 1 857 1 874 1 910 1 934 1 948 1 963 2 968 1 985 1 784 1 800 1 809 1 831 1 832 1 842 1 846 1 915 1 918 1 926 1 929 1 977 1 980 1 1000 1 
1 208 15 1 18 1 19 1 39 2 43 1 48 1 50 1 69 1 76 2 89 1 99 1 109 1 113 2 132 1 172 1 188 1 210 1 213 1 225 2 236 1 240 1 274 1 278 1 311 1 320 1 371 1 389 1 423 1 425 1 480 1 486 1 494 1 495 1 503 1 580 1 675 1 697 1 699 1 705 1 729 1 744 1 767 1 1 1 34 1 96 1 128 1 160 1 181 1 226 1 229 1 253 1 263 1 270 1 276 1 286 1 338 1 354 1 356 1 370 1 378 1 431 1 446 1 488 1 497 1 504 1 511 1 519 1 529 1 538 1 605 1 630 1 642 1 649 1 656 1 657 1 685 1 687 1 712 1 719 1 724 1 728 1 739 1 769 1 800 1 805 1 825 1 882 1 896 2 903 1 925 1 938 1 959 1 978 1 781 1 795 1 818 1 835 1 841 1 851 1 858 1 883 1 884 1 906 1 940 1 955 1 968 1 1001 1 
1 217 3 1 8 1 17 1 24 1 38 1 47 1 53 1 62 1 98 1 103 1 117 1 177 1 181 1 237 1 240 1 248 1 260 1 293 1 330 1 341 1 366 1 374 1 383 1 390 1 412 1 477 1 508 1 523 1 524 1 528 1 532 1 569 1 584 1 600 1 601 1 620 1 626 1 627 1 644 1 647 1 676 1 687 1 689 1 707 1 717 1 725 1 736 1 761 1 767 1 770 1 21 1 28 1 145 1 151 1 155 1 165 1 175 1 179 1 200 1 205 1 217 1 249 1 254 1 257 1 272 1 288 1 303 1 353 1 375 1 397 1 407 1 427 1 435 1 465 1 472 1 473 1 479 1 493 1 498 1 520 1 537 1 570 1 624 1 636 1 637 1 639 1 641 1 731 1 733 1 739 1 784 1 793 1 807 1 816 1 823 1 851 1 908 1 923 1 935 1 954 1 961 1 972 1 789 1 850 1 880 1 896 1 921 1 939 1 948 1 963 1 966 1 981 1 987 1 1002 1 1010 1 1014 1 1017 1 1019 1 
1 209 3 1 6 1 7 1 8 2 9 2 13 1 15 1 100 1 112 1 131 1 133 1 135 1 139 1 158 1 169 1 206 1 209 1 236 1 250 2 252 1 281 1 297 1 301 1 320 1 332 1 358 1 363 1 384 1 388 1 402 1 445 1 446 1 453 1 473 2 475 2 497 1 503 1 554 1 588 1 593 1 597 1 698 1 707 1 738 1 740 1 758 1 51 1 74 1 101 1 111 1 120 1 161 1 165 1 168 1 174 1 192 1 226 1 237 1 300 1 303 1 314 1 364 1 404 1 432 1 458 1 477 1 479 1 482 1 525 1 528 1 533 1 534 1 535 1 546 1 570 1 577 1 600 1 677 1 682 1 750 1 763 1 767 1 779 1 779 1 782 1 805 2 847 1 858 1 872 1 874 1 875 1 880 1 942 1 946 1 959 1 965 1 973 1 998 1 792 1 796 1 849 1 860 1 861 1 870 1 905 1 915 1 924 1 933 1 941 1 949 1 991 1 1012 1 
1 212 7 2 69 1 78 1 94 1 112 1 120 1 136 1 143 1 144 1 154 1 199 1 205 1 208 1 222 1 270 1 296 1 299 2 353 1 359 1 380 1 404 1 453 1 458 1 478 1 484 1 492 1 504 1 511 1 527 1 538 1 539 1 540 1 579 2 588 1 593 1 605 1 614 1 625 1 632 1 650 1 655 1 682 1 733 1 752 1 762 1 776 1 45 1 68 1 95 1 99 1 122 1 123 1 124 1 164 1 186 1 192 1 195 1 231 1 239 1 255 1 288 1 293 1 303 1 337 1 341 1 378 1 451 1 459 1 488 1 528 1 561 1 565 1 570 1 607 1 615 1 643 1 657 1 665 1 681 1 711 1 771 1 775 1 787 1 800 1 818 1 819 1 822 2 827 1 829 1 833 1 837 1 850 1 853 1 854 1 866 1 892 1 905 1 930 1 942 1 951 1 962 1 971 1 975 1 813 1 841 1 857 1 906 1 916 1 960 1 969 1 970 1 1000 1 1006 1 1009 1 1016 1 1019 1 
1 214 8 1 23 1 29 1 49 1 50 1 51 1 121 1 134 1 178 1 266 2 298 1 387 2 388 1 414 1 426 1 430 1 436 1 494 1 498 1 510 1 512 1 527 1 553 2 562 1 592 1 604 2 609 1 637 1 668 1 673 1 688 1 700 1 754 1 762 1 4 1 31 1 35 1 66 1 71 1 110 1 112 1 142 1 149 1 164 1 199 1 206 1 220 1 233 1 255 1 267 1 286 1 287 1 295 1 314 1 346 1 358 1 374 1 375 1 402 1 415 1 427 1 457 1 473 1 474 1 506 1 514 1 517 1 568 1 583 1 591 1 594 1 599 1 614 1 653 1 654 1 678 1 687 1 702 1 708 1 734 1 750 1 755 1 777 1 845 1 908 1 921 1 926 1 959 1 977 1 984 1 991 1 786 1 795 1 802 1 810 1 818 1 838 1 842 1 865 1 875 1 922 1 944 1 952 1 962 1 965 1 969 1 973 1 990 1 1004 1 1008 1 1012 1 
1 206 24 1 80 1 89 1 161 1 172 1 188 1 208 1 228 1 271 1 281 1 300 1 301 1 318 1 328 1 331 1 354 1 356 1 369 1 402 1 413 1 418 1 438 1 445 1 457 1 478 1 486 1 497 1 499 1 511 1 515 1 516 2 527 1 572 1 619 1 628 1 634 1 649 1 675 1 733 1 754 1 757 1 763 1 769 1 779 1 2 1 6 1 36 1 46 1 60 1 97 1 116 1 143 1 184 1 211 1 236 1 237 1 241 1 255 1 269 1 284 1 286 1 307 1 322 1 347 1 349 1 375 1 383 1 390 1 422 1 466 1 477 1 517 1 521 1 528 1 534 1 543 1 584 1 632 1 655 1 668 1 677 1 685 1 698 1 711 1 717 1 751 1 782 1 782 1 821 1 837 1 861 1 873 1 875 1 896 1 902 1 968 2 977 1 982 1 994 1 996 1 801 1 815 1 819 1 824 1 838 1 839 1 841 1 849 1 850 1 888 1 940 1 952 1 1012 1 
1 206 20 1 28 1 46 1 58 1 74 1 136 1 160 1 204 1 213 1 236 1 272 2 275 1 307 1 310 1 311 1 319 2 326 1 354 1 371 1 387 1 409 1 437 1 444 1 452 1 485 1 495 1 497 2 533 1 550 1 562 2 588 1 592 1 603 1 641 1 644 1 647 1 669 1 671 1 676 1 683 1 698 1 701 1 714 1 730 1 732 1 735 1 739 1 744 1 746 1 772 1 49 1 53 1 81 1 91 1 121 1 124 1 127 1 148 1 169 1 187 1 206 1 221 1 233 1 270 1 282 1 337 1 345 1 365 1 367 1 376 1 407 1 411 1 419 1 436 1 528 1 530 1 551 1 558 1 559 1 565 1 567 1 606 1 608 1 624 1 632 1 657 1 665 1 684 1 713 1 748 1 759 1 767 1 805 1 820 1 828 1 833 1 838 1 859 1 861 1 907 2 942 2 974 1 995 1 834 1 915 1 932 1 940 1 941 1 943 1 967 1 1000 1 1002 1 1007 1 
1 210 16 1 22 1 45 1 46 1 71 1 77 1 84 1 141 1 143 1 158 1 187 1 206 1 252 1 278 1 346 1 349 1 369 1 372 1 400 1 454 1 455 1 456 1 468 1 480 2 499 1 510 1 523 1 557 1 592 1 603 1 628 1 654 2 671 1 695 1 705 1 707 1 712 1 734 1 744 1 755 1 762 1 767 1 778 1 8 1 28 1 32 1 50 1 53 1 106 1 113 1 130 1 135 1 142 1 152 1 194 1 235 1 247 1 263 1 272 1 290 1 324 1 451 1 459 1 477 1 484 1 489 1 494 1 555 1 583 1 606 1 681 1 692 1 696 1 741 1 773 1 776 1 796 1 822 1 836 1 839 2 850 1 915 1 918 2 943 1 987 1 997 1 791 1 797 1 823 1 842 1 844 1 865 1 875 1 879 1 882 1 901 1 909 1 919 1 931 1 974 1 999 1 1004 1 1007 1 1014 1 1015 1 
1 210 1 1 13 1 27 1 39 1 42 1 46 1 85 1 100 1 113 1 119 1 134 1 162 2 192 1 193 1 199 1 213 1 244 1 247 1 248 1 263 1 266 1 270 1 282 1 289 1 329 1 409 1 421 1 434 1 468 1 487 1 494 1 531 1 538 1 539 1 550 1 566 1 571 1 584 1 637 1 640 1 649 1 657 2 678 1 705 1 707 1 713 1 740 1 744 1 756 1 9 1 10 1 26 1 30 1 37 1 67 1 102 1 111 1 117 1 137 1 148 1 152 1 170 1 187 1 197 1 208 1 210 1 250 1 251 1 255 1 314 1 315 1 376 1 380 1 402 1 408 1 410 1 419 1 443 1 476 1 485 1 488 1 503 1 516 1 522 1 533 1 534 1 544 1 578 1 621 1 633 1 642 1 646 1 661 1 669 1 688 1 710 1 791 1 819 1 828 1 829 1 847 1 869 1 898 1 899 1 902 1 905 1 913 1 919 1 937 1 986 1 996 1 823 1 849 1 901 1 903 1 940 1 944 1 965 1 973 1 999 1 1006 1 1016 1 
1 213 9 1 26 1 69 1 74 1 107 1 120 1 149 1 183 1 208 1 214 1 217 1 221 1 229 1 230 1 257 1 264 1 271 1 307 1 313 1 314 1 318 1 352 1 353 1 355 1 384 1 406 1 421 1 455 1 482 1 483 1 491 1 507 1 529 1 592 1 594 1 595 1 604 1 642 1 662 1 663 1 675 1 689 1 693 1 702 1 707 1 722 1 725 1 732 1 746 1 754 1 761 1 2 1 5 1 24 1 27 1 28 1 35 1 62 1 75 1 83 1 95 1 168 1 179 1 195 1 256 1 297 1 323 1 351 1 387 1 410 1 412 1 423 1 430 1 458 1 463 1 489 1 508 1 511 1 530 1 550 1 567 1 572 1 598 1 608 1 620 1 627 1 633 1 679 1 715 1 744 1 768 1 781 1 824 1 830 1 839 1 858 1 889 1 911 1 924 1 948 1 960 1 995 1 998 1 791 1 803 1 813 1 832 1 850 1 910 1 933 1 935 1 938 1 944 1 978 1 980 1 1004 1 1009 1 
1 215 29 1 96 1 105 1 138 1 142 1 169 1 170 1 179 1 182 1 185 1 192 1 202 1 232 1 243 1 245 1 259 1 262 1 289 1 290 1 311 1 341 1 358 1 361 1 400 1 423 1 428 1 431 1 440 1 457 1 466 1 501 1 523 1 525 1 526 1 530 1 536 1 541 1 545 1 565 1 573 1 575 1 668 1 698 1 713 1 724 1 745 1 749 1 765 1 780 1 5 1 32 1 47 1 63 1 81 1 93 1 127 1 147 1 152 1 155 1 162 1 197 1 217 1 233 1 246 1 273 1 274 1 281 1 283 1 312 1 322 1 325 1 336 1 338 1 347 1 352 1 487 1 502 1 534 1 583 1 589 1 609 1 630 1 631 1 647 1 650 1 669 1 688 1 729 1 771 1 838 1 848 1 886 2 898 1 914 1 918 1 938 1 950 1 967 1 994 1 791 1 803 1 835 1 837 1 840 1 857 1 861 1 887 1 899 1 902 1 913 1 934 1 951 1 964 1 975 1 1000 1 1002 1 
1 208 13 1 35 1 41 1 44 1 47 1 49 1 118 1 138 1 146 2 147 2 175 1 219 1 226 1 290 1 321 1 334 2 337 1 347 1 369 1 398 1 426 1 457 1 485 1 495 1 499 1 512 1 516 1 525 1 536 1 545 1 551 1 554 1 559 1 566 1 617 1 625 1 631 1 664 1 679 1 689 1 697 1 705 1 728 1 11 1 22 1 23 1 83 1 110 1 119 1 122 1 126 1 128 1 160 1 185 1 207 1 209 1 233 1 272 1 274 1 309 1 344 1 348 1 357 1 452 1 463 1 477 1 486 1 493 1 502 1 537 1 544 1 546 1 563 1 583 1 584 1 588 1 593 1 640 1 671 1 704 1 715 1 739 1 753 1 757 1 762 1 775 1 789 1 830 1 883 1 891 1 892 1 901 1 921 1 945 1 952 1 804 1 813 1 828 1 841 1 844 1 850 1 854 1 882 1 897 1 967 1 991 1 1011 1 1016 1 
1 210 13 1 14 1 52 2 65 1 112 1 115 1 118 1 145 1 148 1 151 1 152 1 154 1 155 1 184 1 189 1 198 1 230 1 242 1 250 1 266 1 274 1 305 1 308 1 312 1 339 1 387 1 388 1 437 1 447 1 470 1 482 1 488 1 495 1 503 1 518 1 533 1 535 2 541 1 562 1 639 1 651 1 659 1 671 1 679 1 684 1 705 1 706 1 758 1 769 2 771 1 772 1 788 1 41 1 49 1 92 1 114 1 160 1 164 1 170 1 177 1 179 1 180 1 185 1 191 1 245 1 267 1 270 1 286 1 288 1 303 1 343 1 350 1 383 1 404 1 438 1 468 1 517 1 519 1 572 1 579 1 596 1 608 1 615 1 616 1 655 1 723 1 742 1 744 1 745 1 757 1 766 1 778 1 834 1 835 1 843 1 846 1 875 1 886 1 910 1 911 1 923 1 932 1 948 1 953 1 957 1 977 1 978 1 984 1 798 1 822 1 877 1 889 1 894 1 896 1 917 1 921 1 924 1 947 1 955 1 958 1 969 1 981 1 988 1 1001 1 1002 1 1016 1 1017 1 
1 209 5 1 17 1 29 1 99 1 140 1 153 1 169 1 172 1 181 1 218 1 244 1 247 1 250 1 261 1 318 1 338 1 348 1 355 1 372 2 406 1 407 1 432 1 457 1 458 1 495 1 501 1 533 1 535 1 558 1 560 1 586 1 593 1 612 2 617 1 633 1 685 1 700 1 716 1 725 1 1 1 13 1 34 1 65 1 85 1 100 1 141 1 152 1 156 1 175 1 187 1 225 1 242 1 258 1 285 1 289 1 325 1 328 1 343 1 387 1 391 1 403 1 421 1 437 1 482 1 505 1 508 1 529 1 541 1 561 1 584 1 588 1 596 1 613 1 632 1 644 1 647 1 711 1 720 1 759 1 771 1 792 1 812 1 831 1 841 1 845 1 847 1 870 1 898 1 907 1 915 1 923 2 929 1 957 1 961 1 994 1 995 1 844 1 854 1 861 1 884 1 886 1 899 1 908 1 919 1 940 1 955 1 959 1 964 1 976 1 989 1 1000 1 1002 1 1014 1 
1 206 11 1 31 1 57 1 73 1 85 1 89 1 128 1 134 1 137 1 145 1 146 1 225 1 251 1 253 1 264 1 273 1 312 1 324 1 334 1 424 1 438 1 462 1 464 1 482 1 488 1 521 1 557 1 560 1 572 1 593 1 598 1 638 1 677 1 708 1 712 1 738 1 749 1 750 1 755 1 763 1 785 1 6 1 18 1 28 1 40 1 43 1 46 1 61 1 69 1 108 1 164 1 170 1 192 1 233 1 238 1 250 1 266 1 271 1 278 1 318 1 322 1 346 1 355 1 356 1 459 1 479 1 489 1 490 1 502 1 505 1 514 1 519 1 556 1 579 1 599 1 612 1 616 1 624 1 628 1 672 1 702 1 726 1 784 1 786 1 787 1 821 1 825 1 836 1 851 1 894 1 915 1 919 1 959 1 966 1 993 1 795 1 797 1 801 1 805 1 815 1 832 1 837 1 879 1 898 1 926 1 951 1 955 1 963 1 979 1 1012 1 
1 212 24 2 29 1 35 1 57 1 106 1 110 1 149 1 152 1 166 1 174 1 205 1 229 1 238 2 257 1 259 1 265 1 280 1 303 1 308 1 362 1 393 1 396 1 402 1 408 1 459 1 479 1 481 2 504 1 515 1 547 1 563 1 597 1 639 1 660 1 670 1 694 1 721 2 738 1 749 1 765 1 774 1 790 1 56 1 111 1 125 1 127 1 140 1 151 1 161 1 231 1 270 1 329 1 335 1 352 1 427 1 465 1 478 1 491 1 510 1 560 1 566 1 570 1 591 1 613 1 637 1 650 1 687 1 689 1 710 1 724 1 736 1 740 1 747 1 748 1 779 1 794 1 805 1 806 1 807 1 837 2 868 1 872 1 878 1 922 2 943 1 793 1 813 1 828 1 841 1 846 1 860 1 871 1 880 1 896 1 899 1 916 1 942 1 951 1 968 1 990 1 1015 1 1016 1 1019 1 
1 215 50 1 57 1 97 1 103 1 125 1 174 1 179 1 198 1 208 1 224 1 225 1 230 1 235 1 246 1 307 1 314 1 315 1 319 1 331 2 340 1 372 1 390 1 401 1 403 1 432 1 438 1 440 1 450 1 461 1 469 1 505 1 509 1 530 1 537 1 543 1 553 1 590 1 596 1 625 1 655 1 685 1 704 1 727 1 733 1 737 1 746 1 753 1 760 1 778 1 7 1 16 1 33 1 34 1 51 1 74 1 116 1 135 1 144 1 155 1 158 1 173 1 185 1 189 1 213 1 241 1 242 1 266 1 275 1 281 1 336 1 413 1 434 1 436 1 473 1 474 1 519 1 525 1 526 1 555 1 574 1 602 1 608 1 612 1 618 1 628 1 658 1 661 1 663 1 665 1 691 1 692 1 713 1 720 1 755 1 792 1 831 1 862 1 907 1 916 2 930 1 950 1 987 2 989 1 796 1 813 1 839 1 848 1 855 1 866 1 871 1 894 1 901 1 913 1 925 1 929 1 936 1 946 1 967 1 983 1 1004 1 1006 1 1010 1 1013 1 1014 1 1016 1 
1 207 7 1 41 1 86 1 88 1 94 1 99 1 105 1 117 1 121 1 135 1 147 1 153 1 171 1 217 1 220 1 243 1 273 1 303 1 304 1 315 1 351 1 370 1 384 1 413 1 415 1 416 1 426 1 431 1 439 1 459 1 465 2 474 1 480 1 489 1 504 1 510 1 526 1 556 1 576 1 581 1 665 1 667 1 677 1 679 1 693 1 696 1 725 1 738 1 741 1 792 1 25 1 61 1 66 1 69 1 82 1 104 1 133 1 136 1 206 1 216 1 219 1 258 1 271 1 293 1 346 1 348 1 366 1 387 1 399 1 430 1 444 1 469 1 475 1 505 1 508 1 520 1 525 1 549 1 557 1 606 1 621 1 650 1 664 1 675 1 729 1 742 1 772 1 808 1 827 1 845 1 856 1 860 1 864 1 865 1 906 1 922 1 958 1 969 1 979 1 988 1 994 1 815 1 831 1 837 1 840 1 846 1 855 1 869 1 882 1 902 1 905 1 912 1 935 1 991 1 1006 1 1017 1 
1 208 10 1 25 1 36 1 59 1 66 1 90 1 94 1 95 1 140 1 172 1 175 1 182 1 185 1 229 1 231 2 247 1 258 1 275 1 289 1 291 1 299 1 311 1 319 1 334 1 360 1 366 1 368 1 412 1 434 1 457 1 480 1 572 1 581 1 606 1 625 1 642 1 646 1 651 1 693 1 723 2 749 2 180 1 202 1 206 1 214 1 225 1 266 1 282 1 307 1 308 1 309 1 347 1 353 1 397 1 405 1 413 1 415 1 437 1 440 1 442 1 461 1 463 1 476 1 496 1 514 1 531 1 564 1 565 1 568 1 579 1 601 1 609 1 659 1 660 1 685 1 725 1 744 1 748 1 769 1 773 1 777 1 781 1 791 1 809 1 812 1 892 1 894 1 925 1 952 1 955 1 979 1 800 1 802 1 826 1 834 1 873 1 921 1 922 1 941 1 942 1 947 1 963 1 970 1 1000 1 1009 1 1013 1 
1 208 70 1 80 1 81 1 127 1 162 1 165 1 201 1 222 1 238 1 262 1 280 1 283 1 292 1 309 1 311 1 322 1 323 1 325 1 398 1 406 1 408 1 410 1 411 1 412 1 413 1 418 1 427 1 437 1 447 1 460 2 487 1 503 1 517 1 523 1 543 1 565 1 617 1 626 1 646 1 682 1 710 1 727 1 737 1 764 1 784 1 2 1 9 1 19 1 43 1 51 1 76 1 85 1 93 1 153 1 169 1 177 1 213 1 216 1 219 1 226 1 256 1 294 1 334 1 347 1 351 1 383 1 385 1 388 1 420 1 469 1 502 1 539 1 598 1 616 1 619 1 644 1 666 1 695 1 717 1 719 1 723 1 747 1 779 1 793 1 797 1 810 1 813 1 824 1 836 1 857 1 862 1 873 1 887 1 923 1 933 1 937 1 943 1 944 1 948 1 949 1 951 1 957 1 984 1 985 1 860 1 883 1 888 1 901 1 904 1 987 1 991 1 1004 1 
1 206 2 1 13 1 55 1 91 1 109 1 112 1 142 1 148 1 154 1 190 1 191 2 198 1 199 1 230 1 260 1 286 1 289 1 292 1 302 1 321 1 329 1 351 1 352 1 362 1 381 1 382 1 383 1 391 1 402 1 410 1 424 1 426 1 501 1 514 1 527 1 535 1 556 1 566 1 586 1 609 1 610 1 613 1 642 1 662 1 685 1 717 1 719 1 720 1 734 1 740 1 755 1 796 1 4 1 29 1 36 1 101 1 104 1 123 1 136 1 170 1 173 1 193 1 207 1 220 1 221 1 244 1 255 1 288 1 361 1 376 1 384 1 385 1 386 1 392 1 434 1 444 1 504 1 511 1 512 1 540 1 558 1 582 1 671 1 766 1 770 1 784 1 791 1 868 1 872 1 879 2 893 1 907 2 909 1 932 1 950 1 961 1 976 1 798 1 836 1 853 1 865 1 870 1 876 1 883 1 890 1 902 1 915 1 925 1 945 1 953 1 982 1 992 1 1000 1 1019 1 
1 211 20 2 22 1 35 1 38 1 44 1 69 1 94 1 110 1 116 1 223 1 265 1 268 1 280 1 286 1 299 1 306 1 310 1 374 1 386 1 405 1 409 1 441 1 464 1 473 1 477 2 486 1 539 1 547 1 561 1 568 1 569 1 595 1 622 1 649 1 657 1 671 1 677 1 699 1 720 1 764 1 1 1 17 1 27 1 31 1 88 1 91 1 126 1 134 1 152 1 155 1 176 1 179 1 219 1 254 1 260 1 266 1 275 1 282 1 285 1 300 1 303 1 312 1 317 1 334 1 354 1 373 1 384 1 456 1 461 1 466 1 487 1 492 1 499 1 518 1 534 1 556 1 563 1 575 1 590 1 596 1 608 1 612 1 615 1 618 1 635 1 648 1 659 1 680 1 687 1 703 1 728 1 740 1 741 1 755 1 789 1 797 1 802 1 845 1 911 1 966 1 994 1 804 1 843 1 874 1 877 1 890 1 899 1 910 1 912 1 972 1 976 1 998 1 1003 1 1011 1 1016 1 
1 211 3 1 19 1 22 1 39 1 48 1 65 1 66 1 93 1 96 1 110 1 119 1 134 1 136 1 174 1 177 1 223 1 230 1 240 1 249 1 253 1 279 1 304 1 308 1 318 1 322 1 324 1 325 1 329 1 338 1 341 1 378 2 394 1 399 1 409 1 411 1 456 2 466 1 471 1 493 1 536 1 559 1 562 1 577 1 600 1 628 1 643 1 656 1 671 1 677 1 694 1 696 1 722 1 771 1 32 1 55 1 57 1 88 1 106 1 124 1 151 1 167 1 251 1 266 1 294 1 317 1 337 1 368 1 386 1 395 1 398 1 413 1 420 1 435 1 462 1 465 1 467 1 474 1 504 1 537 1 551 1 552 1 574 1 631 1 635 1 663 1 683 1 686 1 691 1 730 1 738 1 768 1 772 1 803 1 807 1 893 1 910 1 937 1 939 1 941 1 946 1 968 1 998 2 813 1 822 1 829 1 891 1 900 1 922 1 979 1 981 1 999 1 1001 1 
1 211 18 1 46 1 98 2 99 1 138 1 155 1 193 1 195 1 196 1 222 1 228 1 229 1 235 1 247 1 261 1 317 1 333 1 337 1 358 1 359 1 386 2 398 1 408 1 438 1 451 1 462 1 467 1 472 1 496 1 499 1 543 1 548 1 552 1 562 1 573 1 600 1 621 1 629 1 676 1 707 1 708 1 710 1 758 1 771 1 777 1 780 1 3 1 12 1 23 1 35 1 55 1 56 1 89 1 110 1 146 1 163 1 164 1 174 1 190 1 198 1 212 1 240 1 241 1 257 1 280 1 302 1 328 1 345 1 401 1 406 1 452 1 464 1 474 1 481 1 497 1 536 1 544 1 551 1 559 1 568 1 585 1 623 1 626 1 635 1 640 1 665 1 677 1 693 1 706 1 723 1 731 1 745 1 765 1 776 1 795 1 839 1 842 1 851 1 852 1 899 1 949 2 960 1 967 1 989 1 803 1 807 1 810 1 828 1 829 1 836 1 883 1 896 1 900 1 907 1 915 1 918 1 959 1 968 1 1005 1 1009 1 
1 207 12 1 14 1 29 1 46 1 47 1 67 1 73 1 82 1 88 1 96 1 104 1 127 1 174 1 188 1 198 1 216 1 275 1 287 1 326 1 340 1 370 2 372 1 387 2 406 1 410 1 422 1 423 1 469 1 476 2 532 1 534 2 560 2 572 1 573 1 598 1 600 1 609 2 626 1 627 1 634 1 656 1 675 1 719 2 753 2 764 1 4 1 55 1 61 1 70 1 113 1 141 1 143 1 150 1 152 1 159 1 168 1 175 1 201 1 211 1 221 1 307 1 354 1 359 1 369 1 409 1 413 1 428 1 432 1 460 1 478 1 510 1 511 1 526 1 557 1 561 1 615 1 641 1 647 1 691 1 695 1 704 1 716 1 722 1 739 1 765 1 768 1 770 1 782 1 791 1 825 1 827 1 870 1 881 1 920 1 931 1 933 1 952 1 969 1 977 1 988 1 813 1 826 1 837 1 887 1 894 1 901 1 916 1 922 1 1015 1 
1 214 21 1 41 1 46 1 73 1 79 1 116 1 192 1 217 1 278 1 295 1 299 1 329 1 347 2 380 1 394 1 406 1 416 1 427 1 463 1 468 1 469 1 498 1 526 1 538 1 547 1 582 1 588 1 619 1 624 1 633 1 634 1 638 1 650 1 666 1 670 1 676 1 690 1 707 1 712 1 721 1 729 1 731 1 746 1 769 1 770 1 771 1 798 1 47 1 51 1 56 1 102 1 118 1 130 1 132 1 144 1 164 1 189 1 190 1 205 1 210 1 212 1 222 1 240 1 242 1 244 1 246 1 258 1 271 1 302 1 310 1 314 1 320 1 336 1 343 1 348 1 360 1 390 1 391 1 417 1 424 1 450 1 509 1 518 1 520 1 522 1 528 1 566 1 592 1 597 1 613 1 631 1 651 1 657 1 701 1 745 1 781 1 795 1 817 1 839 1 849 1 881 1 922 2 926 1 938 1 947 1 948 1 962 1 978 1 985 1 997 1 809 1 820 1 859 1 861 1 876 1 899 1 920 1 937 1 1003 1 1005 1 1011 1 
1 211 5 1 37 1 74 1 85 1 106 1 110 1 113 1 123 1 131 1 139 1 145 1 168 1 171 1 180 1 203 1 228 2 242 1 248 1 251 2 255 1 281 1 293 1 330 2 342 1 383 2 392 1 403 1 406 1 407 1 415 1 444 1 481 1 483 1 484 1 511 1 528 1 534 1 535 1 539 1 542 1 552 2 556 1 594 1 634 1 654 1 664 1 691 1 698 1 702 1 731 1 760 1 799 1 30 1 53 1 84 1 158 1 173 1 266 1 270 1 296 1 317 1 326 1 332 1 355 1 366 1 371 1 387 1 409 1 423 1 433 1 450 1 477 1 498 1 504 1 587 1 598 1 606 1 607 1 612 1 644 1 656 1 663 1 709 1 714 1 733 1 749 1 786 1 787 1 800 1 816 1 822 1 832 1 858 1 862 1 872 2 890 1 944 1 960 1 962 2 974 1 804 1 815 1 827 1 836 1 897 1 904 1 916 1 955 1 989 1 994 1 1004 1 1008 1 1009 1 
1 208 4 1 57 2 88 1 93 1 95 1 98 2 157 1 190 1 192 1 201 1 203 1 210 1 237 1 272 1 273 1 291 1 328 1 374 1 419 1 431 1 441 1 444 1 485 1 511 1 512 2 513 1 519 1 565 1 568 1 580 1 590 1 616 2 641 1 642 1 688 1 691 2 706 1 708 1 715 1 724 1 760 2 774 1 775 1 776 1 2 1 30 1 41 1 46 1 71 1 122 1 129 1 154 1 156 1 194 1 199 1 209 1 225 1 250 1 263 1 279 1 284 1 293 1 313 1 332 1 337 1 353 1 367 1 397 1 401 1 414 1 428 1 440 1 451 1 477 1 497 1 541 1 555 1 574 1 587 1 609 1 624 1 637 1 638 1 748 1 772 1 788 1 798 1 803 1 809 1 839 2 864 1 873 1 923 1 939 1 942 1 958 1 961 1 814 1 845 1 850 1 886 1 889 1 897 1 907 1 914 1 963 1 976 1 981 1 
1 206 11 1 65 1 80 1 121 1 158 1 159 1 163 1 181 2 188 1 196 1 201 1 238 1 268 1 276 1 284 1 306 1 323 1 348 1 359 1 376 1 398 1 404 1 413 2 416 1 420 1 434 2 444 2 446 1 497 1 518 1 539 1 546 1 580 1 595 1 638 1 640 1 654 1 664 1 696 1 698 1 706 1 741 1 749 1 777 1 779 2 783 1 792 1 15 1 21 1 26 1 30 1 38 1 63 1 68 1 75 1 92 1 94 1 137 1 176 1 187 1 194 1 205 1 219 1 231 1 243 1 247 1 264 1 266 1 270 1 305 1 342 1 366 1 454 1 464 1 490 1 495 1 515 1 535 1 545 1 547 1 579 1 671 1 678 1 681 1 689 1 722 1 747 1 753 1 770 1 791 1 819 1 833 1 843 1 849 1 899 1 948 1 951 1 955 1 966 1 807 1 813 1 876 1 903 1 936 1 977 1 982 1 994 1 996 1 1015 1 
1 207 20 1 33 1 34 2 67 1 72 1 109 1 159 1 165 1 167 1 172 1 188 1 211 1 233 1 270 1 282 1 294 1 298 1 313 1 317 1 332 1 335 1 343 1 347 1 383 1 413 1 419 1 516 1 551 1 568 2 598 1 608 1 613 1 621 1 631 1 634 1 673 1 708 1 767 1 768 1 792 1 2 1 129 1 133 1 164 1 190 1 205 1 209 1 210 1 218 1 234 1 257 1 297 1 312 1 333 1 361 1 376 1 394 1 423 1 431 1 452 1 461 1 503 1 512 1 522 1 580 1 590 1 593 1 603 1 610 1 617 1 624 1 686 1 693 1 699 1 733 1 736 1 756 1 766 1 823 1 826 1 838 1 853 1 856 1 894 1 902 1 907 1 945 1 947 1 956 1 969 1 973 1 979 1 988 1 991 1 992 1 831 1 873 1 876 1 877 1 881 1 888 1 890 1 919 1 924 1 929 1 946 1 949 1 964 1 972 1 1002 1 1007 1 1017 1 
1 213 67 1 71 1 81 1 92 1 102 1 128 2 142 1 145 2 146 1 171 2 181 1 184 1 222 1 225 1 228 1 232 1 243 1 248 1 250 1 252 1 281 1 293 2 313 1 346 1 349 1 363 1 367 1 391 1 430 1 441 1 445 1 453 1 455 1 541 1 546 2 634 1 636 1 689 1 696 1 709 1 710 1 728 1 772 1 778 1 792 1 799 1 11 1 18 1 52 1 58 1 72 1 104 1 123 1 134 1 180 1 206 1 236 1 266 1 283 1 296 1 299 1 314 1 412 1 457 1 463 1 475 1 481 1 508 1 520 1 522 1 597 1 609 1 627 1 653 1 669 1 684 1 702 1 706 1 800 1 805 1 841 1 878 1 886 1 892 1 909 1 918 1 924 1 953 1 958 1 976 1 982 1 991 1 993 1 822 1 838 1 860 1 883 1 887 1 895 1 905 1 925 1 960 1 963 1 973 1 987 1 994 1 1000 1 1009 1 1011 1 1019 1 
1 212 1 1 8 1 30 1 48 1 109 1 126 1 181 1 182 1 219 1 235 1 243 1 254 1 279 2 284 1 286 1 288 1 331 1 334 1 350 1 395 1 443 1 470 1 483 1 505 1 515 1 527 1 541 1 543 1 575 1 588 1 619 1 624 1 626 1 630 1 686 1 693 1 732 1 736 1 759 1 760 1 794 1 23 1 36 1 37 1 82 1 90 1 112 1 148 1 153 1 167 1 208 1 213 1 214 1 216 1 239 1 272 1 310 1 359 1 368 1 373 1 399 1 426 1 430 1 432 1 434 1 464 1 487 1 500 1 504 1 509 1 519 1 580 1 621 1 622 1 649 1 676 1 677 1 735 1 739 1 769 1 812 1 820 1 836 1 837 1 866 1 875 1 898 1 899 1 905 1 916 1 931 1 938 1 977 1 985 1 811 1 825 1 848 1 878 1 901 1 907 1 921 1 928 1 949 1 963 1 1001 1 1004 1 1015 1 
1 207 20 1 30 1 53 1 66 1 81 2 114 1 119 1 127 1 128 1 140 1 143 2 166 1 185 1 200 1 210 1 211 1 221 1 237 2 265 1 329 1 345 1 361 1 373 1 382 1 391 2 404 2 421 1 422 1 459 1 491 1 493 1 503 1 514 1 532 1 548 1 568 1 570 1 595 1 610 1 612 1 634 1 645 1 680 1 704 1 738 1 746 1 773 1 795 1 804 1 6 1 10 1 17 1 33 1 41 1 70 1 91 1 92 1 94 1 136 1 148 1 156 1 169 1 175 1 184 1 187 1 223 1 235 1 277 1 305 1 311 1 344 1 362 1 402 1 429 1 443 1 452 1 461 1 508 1 517 1 531 1 534 1 536 1 539 1 555 1 581 1 592 1 622 1 657 1 659 1 675 1 702 1 709 1 719 1 724 1 739 1 741 1 751 1 752 1 757 1 761 1 776 1 802 1 824 1 837 1 864 1 909 2 914 1 971 1 980 1 990 1 857 1 867 1 875 1 932 1 942 1 950 1 978 1 987 1 1015 1 
1 207 10 1 18 1 27 1 65 1 75 1 89 1 99 1 139 1 163 1 177 1 181 1 239 1 256 2 272 1 282 1 285 1 292 1 327 1 329 1 335 1 349 1 363 1 371 1 386 1 411 1 457 2 507 1 524 1 533 1 538 1 548 1 562 1 574 1 583 1 587 1 619 1 627 1 637 1 726 1 755 1 770 1 796 1 19 1 33 1 41 1 58 1 80 1 85 1 96 1 104 1 113 1 116 1 117 1 128 1 147 1 172 1 211 1 225 1 247 1 253 1 260 1 284 1 294 1 295 1 344 1 382 1 407 1 440 1 442 1 460 1 486 1 528 1 529 1 536 1 579 1 591 1 604 1 614 1 669 1 678 1 679 1 695 1 699 1 702 1 707 1 715 1 723 1 725 1 735 1 742 1 758 1 775 1 781 1 800 1 822 1 865 1 901 1 903 1 929 2 933 1 964 1 993 1 995 1 814 1 838 1 885 1 928 1 938 1 972 1 989 1 1001 1 1009 1 
1 208 27 2 31 1 71 2 75 2 84 1 99 1 103 1 113 1 117 1 125 1 135 1 139 1 149 1 150 1 168 1 188 1 215 1 232 1 233 1 252 1 266 1 284 1 375 1 378 1 380 1 398 1 409 1 446 1 459 1 462 1 469 1 473 1 483 1 495 1 506 1 519 1 520 1 537 1 549 1 571 1 584 2 591 1 620 1 621 1 626 1 627 1 637 1 667 1 670 1 672 1 677 1 697 2 728 1 733 1 757 1 758 1 760 1 5 1 23 1 36 1 61 1 146 1 159 1 205 1 269 1 289 1 295 1 314 1 344 1 363 1 372 1 393 1 396 1 399 1 400 1 417 1 427 1 457 1 479 1 484 1 505 1 521 1 527 1 529 1 565 1 594 1 610 1 622 1 684 1 690 1 699 1 703 1 808 1 820 1 849 1 916 1 938 1 943 1 949 1 956 1 961 1 962 1 967 1 837 1 862 1 869 1 871 1 874 1 887 1 892 1 898 1 913 1 941 1 973 1 976 1 977 1 988 1 991 1 1008 1 
1 212 21 1 52 1 68 1 114 1 115 1 143 1 202 1 235 1 258 1 264 1 275 1 278 1 280 1 281 1 284 1 300 1 304 1 321 2 341 1 360 1 363 1 441 1 503 1 507 1 522 1 523 1 524 1 525 1 581 1 586 1 595 1 608 1 613 1 615 1 624 1 625 1 637 1 668 1 689 1 691 1 692 1 695 1 707 1 709 1 729 1 745 1 762 1 790 1 795 1 808 1 10 1 16 1 57 1 124 1 131 1 137 1 150 1 187 1 204 1 231 1 243 1 252 1 270 1 297 1 309 1 326 1 348 1 353 1 415 1 418 1 466 1 481 1 488 1 489 1 496 1 505 1 512 1 536 1 554 1 563 1 596 1 606 1 611 1 614 1 621 1 649 1 673 1 676 1 706 1 746 1 751 1 758 1 774 1 815 1 842 1 852 1 856 1 860 1 871 2 880 1 892 1 909 1 937 1 945 1 972 1 974 1 983 1 989 1 818 1 828 1 829 1 835 1 902 1 914 1 941 1 947 1 977 1 1001 1 1008 1 1017 1 1018 1 
1 209 3 1 9 2 24 1 44 1 96 1 99 1 149 1 155 1 160 1 168 2 190 1 193 1 204 1 265 1 282 1 291 1 293 1 296 1 299 1 321 1 332 1 341 1 360 1 378 1 379 2 382 1 395 1 445 1 458 1 478 1 496 1 520 1 531 1 560 1 601 1 604 1 613 1 621 1 623 1 656 1 663 1 668 1 675 1 707 1 750 1 751 1 771 1 796 1 7 1 35 1 51 1 84 1 107 1 112 1 146 1 172 1 174 1 179 1 187 1 214 1 254 1 259 1 312 1 380 1 391 1 405 1 435 1 476 1 492 1 499 1 511 1 519 1 525 1 567 1 571 1 608 1 619 1 647 1 672 1 729 1 758 1 763 1 772 1 780 1 786 1 788 1 792 1 793 1 799 1 801 1 805 1 821 1 855 1 857 1 919 1 979 1 984 1 814 1 833 1 835 1 836 1 842 1 890 1 899 1 908 1 922 1 931 1 944 1 954 1 960 1 961 1 965 1 
1 213 55 1 58 1 60 1 82 2 125 1 127 1 171 1 183 1 210 1 229 1 235 1 245 1 249 1 251 1 254 1 267 1 275 1 285 1 303 1 305 1 309 1 321 1 323 1 333 1 357 1 369 1 387 1 400 1 416 1 443 1 450 1 460 1 497 2 507 2 509 1 527 1 530 1 542 1 543 1 549 1 559 1 593 1 667 1 697 1 727 1 733 1 734 1 3 1 6 1 12 1 20 1 23 1 43 1 56 1 59 1 64 1 122 1 172 1 180 1 189 1 236 1 256 1 259 1 298 1 338 1 368 1 377 1 391 1 434 1 465 1 469 1 553 1 561 1 562 1 570 1 576 1 594 1 607 1 615 1 625 1 627 1 630 1 654 1 664 1 677 1 683 1 719 1 746 1 775 1 804 1 810 1 813 1 817 1 838 1 866 1 876 1 901 1 906 1 912 2 947 1 968 1 976 1 998 1 821 1 822 1 857 1 879 1 898 1 904 1 924 1 946 1 974 1 980 1 982 1 1007 1 1016 1 
1 209 27 1 37 1 45 1 46 1 65 1 69 1 72 1 87 1 123 1 140 1 145 1 168 1 179 1 186 1 188 1 207 1 236 1 238 1 259 2 266 1 317 2 320 1 331 1 348 1 349 1 367 1 371 1 375 1 390 1 399 1 401 1 407 1 421 1 490 1 497 1 534 1 598 1 608 1 609 1 613 1 633 1 647 1 672 1 676 2 686 1 688 1 718 1 740 1 812 1 38 1 49 1 55 1 57 1 99 1 111 1 153 1 220 1 223 1 246 1 265 1 269 1 274 1 279 1 342 1 394 1 404 1 414 1 416 1 418 1 436 1 446 1 452 1 481 1 487 1 492 1 506 1 519 1 522 1 529 1 542 1 561 1 626 1 657 1 680 1 682 1 699 1 709 1 721 1 750 1 752 1 754 1 757 1 782 1 791 1 794 1 803 1 828 1 873 1 874 1 907 1 912 2 925 1 932 1 936 1 959 1 829 1 845 1 849 1 861 1 888 1 913 1 919 1 946 1 949 1 951 1 952 1 967 1 975 1 977 1 999 1 1019 1 
1 206 23 1 27 1 36 1 38 1 67 1 124 1 162 1 230 1 233 1 237 1 249 1 251 2 262 1 267 1 304 1 344 1 358 1 361 1 369 1 391 1 397 1 405 1 410 1 421 1 435 1 462 1 481 1 498 1 509 1 514 1 521 1 543 2 545 1 562 1 571 1 579 1 603 1 605 1 608 1 616 1 621 2 628 1 631 1 706 1 711 1 740 1 778 1 803 1 17 1 26 1 40 1 83 1 96 1 110 1 156 1 171 1 191 1 206 1 246 1 254 1 260 1 299 1 379 1 384 1 392 1 403 1 494 1 516 1 541 1 551 1 560 1 576 1 581 1 592 1 595 1 625 1 629 1 636 1 653 1 658 1 669 1 682 1 710 1 718 1 720 1 816 1 816 1 838 1 861 1 878 1 882 1 890 1 903 1 908 1 909 1 937 1 942 2 841 1 851 1 879 1 889 1 907 1 916 1 918 1 934 1 974 1 997 1 
1 211 15 1 45 1 51 2 57 1 112 1 114 1 115 1 127 2 130 1 224 1 274 1 285 1 300 1 308 1 313 1 350 1 352 1 359 1 380 1 383 2 388 1 390 2 396 1 405 1 413 1 455 1 464 1 494 1 509 1 510 2 533 1 565 1 597 1 612 1 627 1 654 1 692 1 697 1 712 1 741 1 763 1 802 1 814 1 18 1 27 1 33 1 37 1 48 1 63 1 104 1 110 1 119 1 141 1 204 1 226 1 230 1 258 1 265 1 331 1 385 1 411 1 429 1 490 1 566 1 569 1 576 1 603 1 665 1 666 1 684 1 701 1 702 1 716 1 739 1 755 1 822 1 827 1 841 1 844 1 857 1 876 1 908 1 911 1 928 2 945 1 975 1 976 2 995 1 821 1 851 1 853 1 855 1 866 1 867 1 868 1 892 1 898 1 902 1 915 1 926 1 927 1 932 1 1003 1 1004 1 1011 1 
1 205 13 2 39 1 47 1 62 1 68 1 104 1 152 1 160 1 164 1 170 1 195 1 239 1 252 1 282 1 290 1 302 1 337 1 349 1 380 1 419 1 437 1 439 1 444 1 450 1 488 1 490 1 497 1 523 1 525 2 528 1 586 1 604 1 631 1 641 1 644 1 689 1 699 1 724 1 745 1 747 1 769 1 771 1 773 1 780 1 44 1 48 1 50 1 59 1 74 1 86 1 90 1 120 1 125 1 141 1 145 1 154 1 209 1 216 1 224 1 230 1 292 1 311 1 340 1 343 1 360 1 367 1 368 1 383 1 398 1 406 1 410 1 411 1 414 1 453 1 460 1 471 1 480 1 533 1 548 1 580 1 606 1 639 1 655 1 698 1 709 1 719 1 720 1 736 1 738 1 740 1 755 1 756 1 775 1 777 1 781 1 812 1 846 1 883 1 888 2 890 1 912 1 921 1 962 1 835 1 848 1 856 1 891 1 911 1 932 1 968 1 993 1 1004 1 1012 1 
1 211 15 1 27 1 97 1 131 1 167 1 196 1 216 1 249 1 273 1 312 2 315 1 337 1 341 1 349 1 366 1 404 1 413 1 428 1 475 1 480 1 482 1 489 1 492 1 493 1 501 1 521 2 522 1 531 1 549 1 552 1 569 1 632 1 635 1 667 1 687 1 695 1 696 1 700 1 711 1 736 1 739 1 753 1 755 1 780 1 785 1 805 1 9 1 44 1 118 1 166 1 182 1 227 1 245 1 279 1 283 1 286 1 289 1 295 1 351 1 357 1 369 1 378 1 392 1 393 1 417 1 418 1 421 1 443 1 455 1 458 1 499 1 533 1 587 1 591 1 611 1 623 1 627 1 672 1 698 1 713 1 716 1 782 1 831 2 835 2 845 1 859 1 862 1 881 1 906 2 944 1 957 1 968 1 995 1 838 1 849 1 874 1 886 1 896 1 948 1 964 1 993 1 1000 1 1006 1 1014 1 1016 1 1017 1 
1 208 11 1 40 1 44 1 48 1 64 1 102 1 112 1 120 1 131 1 160 1 174 1 187 1 191 1 213 1 219 1 239 1 257 1 262 1 292 1 299 1 309 1 321 1 323 1 324 1 351 1 365 1 382 1 402 1 426 1 461 1 499 1 510 1 511 1 528 1 558 1 589 1 609 1 631 2 643 1 647 1 648 1 672 1 722 1 727 1 755 1 761 2 783 1 808 1 811 1 9 1 29 1 45 1 55 1 86 1 87 1 127 1 144 1 157 1 162 1 194 1 247 1 269 1 317 1 328 1 329 1 333 1 370 1 371 1 389 1 398 1 406 1 432 1 445 1 459 1 470 1 472 1 480 1 512 1 519 1 546 1 583 1 604 1 621 1 630 1 638 1 652 1 658 1 682 1 689 1 744 1 757 1 772 1 802 1 833 1 864 1 879 2 903 1 914 1 927 1 970 1 981 1 990 1 996 1 845 1 859 1 872 1 875 1 883 1 897 1 921 1 924 1 953 1 
1 212 7 2 20 1 23 2 42 1 82 1 85 1 129 1 152 1 161 1 198 1 213 1 218 2 245 1 329 1 333 1 345 1 381 1 385 1 481 2 489 1 509 1 510 1 511 1 571 1 574 1 576 1 578 1 583 1 624 1 632 1 645 1 660 1 670 1 678 1 684 1 714 1 728 1 738 1 758 1 782 1 791 1 813 1 2 1 10 1 19 1 29 1 35 1 43 1 92 1 115 1 117 1 118 1 130 1 199 1 237 1 259 1 263 1 268 1 288 1 296 1 307 1 314 1 328 1 354 1 374 1 382 1 387 1 388 1 401 1 410 1 414 1 431 1 449 1 456 1 470 1 479 1 480 1 491 1 546 1 555 1 606 1 610 1 617 1 618 1 633 1 634 1 641 1 648 1 661 1 662 1 663 1 681 1 692 1 732 1 737 1 757 1 814 1 817 1 886 1 888 1 895 1 919 1 931 1 949 1 956 1 987 1 859 1 882 1 966 1 988 1 997 1 1000 1 
1 214 20 1 21 1 41 1 55 1 97 1 99 1 101 1 110 1 119 1 137 1 146 1 197 1 204 1 206 1 219 1 229 1 234 1 259 1 279 1 280 1 285 1 286 1 384 1 408 1 440 1 446 1 460 1 462 1 464 1 491 1 502 1 507 1 525 1 534 1 545 1 657 2 691 1 719 1 723 2 724 1 745 1 750 1 758 1 770 1 780 2 784 1 803 1 810 1 817 1 13 1 27 1 72 1 89 1 113 1 114 1 126 1 179 1 182 1 208 1 217 1 243 1 254 1 290 1 298 1 315 1 328 1 360 1 361 1 365 1 367 1 417 1 418 1 451 1 497 1 517 1 522 1 541 1 556 1 590 1 592 1 654 1 671 1 683 1 685 1 706 1 732 1 733 1 740 1 741 1 755 1 789 1 799 1 807 1 814 1 858 1 939 1 947 1 961 1 963 1 964 1 970 1 987 1 997 1 862 1 863 1 871 1 890 1 916 1 953 1 969 1 996 1 1015 1 1019 1 
1 213 25 1 38 1 45 1 89 1 90 1 111 1 152 1 172 1 173 1 211 1 220 1 232 1 235 1 254 1 268 1 280 1 305 1 357 1 401 2 429 1 440 1 460 1 504 1 526 1 534 1 540 1 544 1 545 2 550 1 571 2 594 1 596 1 612 1 622 1 628 1 632 1 634 1 644 1 670 1 709 1 740 1 749 1 752 1 758 1 763 2 765 1 778 1 806 1 52 1 53 1 56 1 79 1 84 1 91 1 101 1 132 1 145 1 153 1 167 1 174 1 183 1 188 1 197 1 209 1 256 1 258 1 303 1 309 1 316 1 317 1 340 1 345 1 395 1 397 1 425 1 431 1 438 1 444 1 466 1 480 1 517 1 538 1 548 1 557 1 578 1 581 1 614 1 662 1 693 1 710 1 725 1 728 1 733 1 735 1 744 1 754 1 761 1 774 1 784 1 785 1 860 1 883 1 895 1 908 2 917 1 926 1 927 1 949 1 968 1 831 1 871 1 886 1 929 1 979 1 1004 1 1015 1 
1 207 6 1 13 1 18 1 91 1 101 1 112 1 117 1 161 1 181 1 206 1 212 1 217 1 240 1 245 2 280 1 292 1 295 1 347 1 381 2 389 1 390 1 398 2 456 1 505 1 509 1 545 1 549 1 550 1 562 1 575 1 600 1 601 1 611 1 655 1 662 1 667 1 671 1 672 1 689 1 712 1 722 1 754 1 786 1 796 1 809 1 32 1 50 1 85 1 120 1 142 1 160 1 234 1 253 1 256 1 271 1 300 1 306 1 325 1 341 1 351 1 357 1 368 1 400 1 419 1 424 1 470 1 507 1 532 1 551 1 594 1 613 1 634 1 649 1 660 1 677 1 680 1 699 1 715 1 719 1 744 1 760 1 762 1 782 1 824 1 824 1 849 1 870 1 907 1 913 1 916 1 959 1 960 2 976 1 980 2 990 1 993 1 995 1 827 1 845 1 847 1 859 1 874 1 885 1 896 1 899 1 903 1 969 1 983 1 1004 1 1006 1 1016 1 
1 212 9 1 22 1 47 1 52 1 75 1 79 1 97 1 122 1 135 1 154 1 158 1 191 1 204 1 208 1 224 1 226 1 273 1 282 1 289 1 313 1 323 1 347 2 360 1 365 1 392 1 451 1 461 1 491 1 509 1 525 1 541 1 586 1 609 1 626 1 628 1 631 1 641 1 693 1 703 1 710 1 716 1 724 1 767 1 777 1 791 1 801 1 45 1 56 1 103 1 114 1 119 1 121 1 134 1 163 1 177 1 246 1 253 1 260 1 265 1 332 1 336 1 356 1 358 1 372 1 400 1 409 1 433 1 502 1 537 1 567 1 571 1 600 1 619 1 635 1 639 1 647 1 682 1 694 1 696 1 700 1 706 1 712 1 727 1 745 1 808 1 831 1 843 1 884 1 894 1 918 2 933 1 948 1 951 2 971 1 994 1 828 1 872 1 905 1 916 1 925 1 943 1 976 1 1002 1 1008 1 1010 1 
1 206 3 1 21 1 34 1 50 1 53 1 102 1 103 1 152 1 169 1 203 1 214 1 218 1 235 1 247 1 267 1 273 1 282 1 297 1 334 1 371 1 405 1 412 1 414 1 476 1 479 1 506 1 526 1 606 1 616 1 623 1 636 1 652 1 689 1 696 1 710 1 729 1 806 1 61 1 90 1 132 1 140 1 161 1 181 1 212 1 254 1 256 1 275 1 295 1 317 1 327 1 381 1 395 1 406 1 421 1 435 1 457 1 505 1 511 1 525 1 530 1 536 1 561 1 601 1 626 1 639 1 660 1 662 1 665 1 713 1 766 1 795 1 801 1 828 1 830 1 856 1 877 1 929 1 970 1 973 1 981 1 834 1 865 1 888 1 915 1 923 1 931 1 940 1 957 1 958 1 960 1 978 1 982 1 1002 1 1007 1 
1 209 7 1 11 1 27 1 45 1 47 1 70 1 78 1 79 1 88 1 92 1 96 1 99 2 106 1 131 1 160 1 161 1 174 1 179 1 197 1 208 1 233 1 235 1 238 1 269 1 279 1 284 1 334 1 337 1 340 1 352 1 398 1 415 1 417 1 442 1 444 1 480 1 526 1 546 1 557 1 624 1 647 2 663 1 677 1 684 1 703 1 708 1 716 2 736 1 765 1 780 1 794 1 801 1 817 1 4 1 21 1 71 1 97 1 101 1 103 1 108 1 122 1 155 1 187 1 207 1 213 1 248 1 286 1 348 1 353 1 365 1 377 1 397 1 424 1 446 1 449 1 475 1 498 1 622 1 651 1 665 1 690 1 761 1 803 1 824 1 828 1 851 1 858 2 875 1 878 1 906 1 916 1 921 1 923 1 962 1 847 1 888 1 933 1 942 1 999 1 1013 1 1014 1 
1 205 20 1 26 1 43 1 59 1 91 1 115 1 126 1 171 1 187 1 198 1 255 1 269 2 348 1 409 1 443 1 445 1 447 1 473 1 501 1 506 1 547 1 563 1 580 1 598 1 602 1 627 1 630 2 637 1 655 1 667 1 684 1 700 1 752 1 783 1 785 1 815 1 826 1 827 1 1 1 4 1 6 1 34 1 53 1 55 1 86 1 125 1 132 1 139 1 159 1 180 1 186 1 197 1 205 1 226 1 227 1 229 1 257 1 274 1 301 1 305 1 312 1 324 1 345 1 346 1 364 1 368 1 382 1 395 1 439 1 448 1 451 1 457 1 472 1 509 1 583 1 599 1 613 1 643 1 647 1 658 1 659 1 662 1 680 1 716 1 721 1 729 1 736 1 772 1 773 1 788 1 792 1 800 1 812 1 825 1 848 1 892 1 902 1 925 1 972 1 973 1 979 1 983 1 988 1 833 1 844 1 851 1 858 1 883 1 910 1 924 1 926 1 938 1 946 1 953 1 956 1 959 1 960 1 982 1 993 1 1008 1 
1 209 7 1 30 1 68 1 74 1 79 2 84 1 87 2 104 1 130 1 166 1 181 1 191 1 197 1 198 1 210 1 213 1 217 1 221 1 229 1 251 1 278 2 286 1 291 1 292 2 306 1 323 1 333 1 349 1 350 1 372 1 385 1 394 1 454 1 488 1 499 1 504 1 529 1 530 1 571 1 625 1 780 1 785 1 32 1 49 1 52 1 53 1 70 1 91 1 106 1 118 1 171 1 175 1 195 1 200 1 236 1 240 1 250 1 259 1 272 1 314 1 343 1 364 1 412 1 415 1 442 1 463 1 511 1 545 1 569 1 587 1 592 1 594 1 610 1 644 1 668 1 688 1 697 1 701 1 702 1 703 1 713 1 722 1 729 1 747 1 759 1 763 1 799 1 800 1 812 1 815 1 835 1 855 1 865 1 897 1 898 1 902 1 906 1 913 1 916 1 921 1 931 1 996 1 842 1 848 1 856 1 892 1 895 1 907 1 908 1 928 1 952 1 966 1 974 1 986 1 1001 1 
1 208 4 1 19 1 38 1 52 1 66 1 99 1 113 1 148 1 159 1 192 1 203 1 276 1 310 1 319 1 327 1 331 1 335 1 338 1 360 1 371 1 416 1 433 1 437 1 445 1 513 1 515 1 583 1 606 2 658 1 665 1 683 1 689 1 695 1 697 1 706 1 708 1 727 2 730 1 742 1 769 2 786 1 788 1 826 1 31 1 36 1 41 1 46 1 50 1 58 1 59 1 72 1 86 1 106 1 131 1 185 1 199 1 202 1 209 1 223 1 229 1 236 1 237 1 244 1 280 1 293 1 296 1 306 1 337 1 362 1 389 1 403 1 422 1 429 1 444 1 457 1 469 1 475 1 478 1 482 1 505 1 530 1 564 1 598 1 601 1 622 1 628 1 632 1 687 1 733 1 764 1 836 1 840 1 845 1 870 1 881 1 884 1 897 1 906 1 910 2 931 1 946 1 959 1 983 1 985 1 998 1 850 1 874 1 880 1 898 1 920 1 976 1 1009 1 
1 208 7 1 33 1 49 1 73 1 74 1 84 1 101 1 104 1 135 1 162 1 174 2 181 1 183 1 187 1 188 1 213 1 218 1 229 1 255 1 285 1 304 1 308 1 325 1 336 1 340 1 344 1 346 2 356 2 363 1 369 1 405 1 409 1 426 1 442 1 447 1 469 1 556 1 619 1 630 1 639 1 641 1 655 1 664 2 672 1 680 2 689 1 703 1 718 1 738 1 774 1 790 1 793 1 819 2 825 1 12 1 22 1 32 1 70 1 110 1 152 1 167 1 172 1 206 1 265 1 287 1 299 1 323 1 324 1 345 1 400 1 403 1 414 1 468 1 494 1 612 1 624 1 653 1 684 1 697 1 704 1 712 1 714 1 749 1 759 1 776 1 794 1 806 1 823 1 842 1 861 1 902 1 905 1 919 1 973 2 981 1 996 1 838 1 841 1 857 1 885 1 904 1 906 1 908 1 910 1 932 1 936 1 956 1 985 1 986 1 995 1 999 1 1007 1 1008 1 
1 209 8 1 29 1 34 1 58 1 69 1 87 1 94 1 105 1 107 1 110 1 137 1 175 1 220 2 227 1 230 1 237 1 244 1 278 1 290 1 294 1 355 1 379 1 400 1 443 1 472 1 476 2 482 1 491 1 517 1 519 1 542 1 583 1 592 1 597 1 600 1 603 1 616 1 624 1 625 1 635 1 649 1 653 2 660 1 677 1 681 1 696 1 706 1 724 1 770 1 803 1 5 1 15 1 31 1 116 1 128 1 164 1 182 1 185 1 203 1 251 1 296 1 299 1 309 1 319 1 325 1 331 1 353 1 357 1 380 1 405 1 428 1 469 1 494 1 496 1 550 1 558 1 589 1 607 1 689 1 733 1 742 1 745 1 776 1 786 1 791 1 837 1 951 1 967 1 971 2 975 1 840 1 859 1 871 1 887 1 917 1 930 1 962 1 966 1 990 1 1006 1 1008 1 1009 1 1019 1 
1 204 9 1 13 1 26 1 44 1 112 1 123 1 162 1 176 2 203 1 210 1 216 1 245 1 267 1 269 1 296 1 302 1 317 1 332 1 392 1 395 1 397 1 406 1 407 2 437 1 481 1 483 1 486 1 492 1 501 2 515 1 526 1 541 1 549 1 566 1 573 1 604 1 607 1 613 2 627 1 638 1 663 1 692 1 717 1 722 1 734 1 741 1 780 1 783 1 805 1 820 1 59 1 60 1 62 1 163 1 172 1 195 1 204 1 212 1 224 1 243 1 262 1 264 1 318 1 345 1 350 1 372 1 380 1 393 1 410 1 450 1 458 1 521 1 544 1 567 1 578 1 584 1 592 1 645 1 715 1 742 1 750 1 813 1 828 1 853 1 858 1 866 1 874 1 889 2 917 1 940 1 942 1 961 1 991 1 836 1 844 1 878 1 908 1 910 1 941 1 947 1 966 1 968 1 977 1 1001 1 1007 1 1008 1 1017 1 
1 211 14 1 15 1 23 1 51 1 61 1 75 1 113 1 118 1 144 1 156 1 171 1 175 1 176 1 203 1 204 1 218 1 266 1 289 2 306 1 332 1 339 1 351 1 366 1 369 2 377 1 385 2 399 1 404 1 418 1 423 1 443 1 527 1 545 1 552 1 601 1 603 1 606 1 627 1 649 1 677 1 681 1 696 1 710 1 741 1 752 2 754 1 764 1 789 1 1 1 2 1 10 1 18 1 24 1 29 1 49 1 50 1 101 1 151 1 163 1 178 1 194 1 241 1 243 1 249 1 286 1 326 1 392 1 396 1 402 1 417 1 421 1 422 1 426 1 430 1 456 1 483 1 492 1 495 1 507 1 556 1 564 1 589 1 595 1 619 1 628 1 686 1 690 1 743 1 771 1 783 1 795 1 826 1 849 1 883 1 885 1 905 1 930 1 933 1 950 1 954 1 957 1 959 1 851 1 856 1 893 1 904 1 915 1 962 1 977 1 1000 1 1002 1 1015 1 1018 1 1019 1 
1 206 6 1 16 1 20 1 23 1 66 1 97 1 116 1 120 1 146 1 147 1 150 1 161 1 175 1 221 1 239 1 253 1 259 1 261 1 274 1 306 1 313 1 318 1 321 1 328 1 349 1 353 1 364 1 376 1 387 1 395 1 399 2 413 2 422 1 449 1 457 1 480 1 492 1 520 1 535 1 540 1 567 1 596 1 597 1 601 1 616 1 632 1 680 2 701 1 711 1 768 1 789 1 819 2 829 1 4 1 5 1 29 1 63 1 73 1 79 1 165 1 184 1 193 1 202 1 226 1 229 1 279 1 324 1 359 1 361 1 378 1 379 1 385 1 401 1 426 1 436 1 443 1 459 1 529 1 533 1 534 1 536 1 558 1 572 1 606 1 609 1 629 1 643 1 671 1 677 1 678 1 695 1 735 1 745 1 750 1 755 1 767 1 777 1 787 1 812 1 813 1 818 1 867 1 901 1 911 1 925 1 928 1 942 1 965 1 975 1 988 1 994 2 878 1 904 1 908 1 953 1 978 1 
1 211 21 1 30 1 48 1 63 1 101 1 110 1 119 1 135 1 137 1 139 1 141 1 147 1 165 1 178 1 196 1 207 1 218 1 236 1 238 1 340 1 364 1 385 1 451 1 471 1 472 2 531 1 537 1 554 1 558 1 589 1 600 1 625 1 632 1 638 1 643 1 654 1 671 1 673 1 706 1 714 1 753 2 756 1 784 1 791 1 796 1 808 1 830 1 24 1 26 1 60 1 116 1 126 1 144 1 145 1 153 1 166 1 183 1 229 1 234 1 257 1 270 1 276 1 318 1 334 1 349 1 390 1 395 1 420 1 424 1 434 1 437 1 438 1 440 1 458 1 474 1 483 1 488 1 489 1 525 1 542 1 553 1 596 1 603 1 621 1 641 1 659 1 681 1 690 1 728 1 734 1 740 1 741 1 797 1 800 1 803 1 813 1 833 1 845 1 861 2 867 1 911 1 939 1 978 1 842 1 864 1 871 1 891 1 923 1 947 1 999 1 1001 1 1002 1 1019 1 
1 207 26 1 27 1 40 2 48 1 78 1 105 1 125 1 136 1 149 1 169 1 170 1 235 1 253 1 254 1 279 1 290 1 292 1 380 1 388 1 408 1 409 1 414 1 426 1 427 1 433 1 451 2 491 1 502 1 505 1 520 2 537 1 561 1 584 1 632 1 644 1 663 1 677 1 688 1 692 1 696 1 728 1 738 2 750 1 751 1 757 1 780 1 782 1 792 2 808 1 809 1 832 1 16 1 29 1 73 1 129 1 153 1 165 1 188 1 195 1 210 1 239 1 247 1 263 1 289 1 331 1 334 1 338 1 344 1 366 1 375 1 441 1 444 1 466 1 483 1 512 1 515 1 560 1 565 1 593 1 605 1 639 1 660 1 672 1 674 1 678 1 681 1 685 1 708 1 710 1 761 1 787 1 791 1 794 1 801 1 811 1 837 1 837 1 838 2 851 1 854 1 882 1 899 1 928 1 948 1 954 1 973 1 981 1 844 1 853 1 926 1 936 1 979 1 990 1 
1 208 1 1 2 1 12 1 13 1 31 1 33 1 38 1 55 1 70 1 92 1 135 1 165 1 187 1 189 1 190 1 220 1 233 1 251 1 261 1 291 2 303 1 305 1 332 1 339 1 341 1 355 2 375 1 381 1 411 1 415 1 431 1 475 2 476 1 488 1 497 1 503 1 557 1 573 1 577 1 591 1 593 1 601 1 633 1 667 1 675 1 747 1 758 1 774 1 783 1 787 1 806 1 814 1 816 1 837 2 11 1 24 1 42 1 43 1 72 1 84 1 105 1 115 1 140 1 163 1 166 1 202 1 231 1 239 1 264 1 272 1 285 1 296 1 311 1 327 1 342 1 357 1 388 1 391 1 427 1 434 1 444 1 453 1 472 1 501 1 513 1 520 1 524 1 536 1 539 1 562 1 564 1 570 1 582 1 588 1 617 1 622 1 623 1 655 1 657 1 678 1 717 1 731 1 741 1 752 1 765 1 781 1 782 1 807 1 810 1 819 1 831 1 845 1 848 1 850 1 889 1 907 1 916 1 918 1 966 1 982 1 989 1 839 1 890 1 892 1 922 1 926 1 972 1 976 1 986 1 988 1 994 1 999 1 1010 1 1013 1 
1 209 64 1 83 1 98 1 107 1 111 1 114 1 134 1 174 1 175 1 188 1 226 1 241 1 247 2 283 1 317 1 362 1 375 1 385 1 391 1 401 1 405 1 460 2 482 1 483 1 485 1 493 1 494 1 497 1 512 1 513 1 537 1 542 1 564 1 574 1 589 1 592 1 597 1 633 1 638 1 642 1 666 1 683 1 695 1 702 1 732 2 734 1 745 1 753 1 784 2 786 1 800 1 802 1 804 2 6 1 46 1 78 1 86 1 122 1 151 1 190 1 237 1 251 1 270 1 318 1 320 1 358 1 368 1 393 1 395 1 423 1 441 1 443 1 445 1 477 1 520 1 566 1 599 1 623 1 694 1 706 1 735 1 737 1 782 1 793 1 838 1 869 1 877 1 879 1 882 1 901 1 955 1 957 1 996 1 845 1 908 1 938 1 992 1 1000 1 1002 1 1005 1 1014 1 
1 210 39 1 51 1 57 1 76 2 88 1 108 1 124 1 127 1 141 1 149 1 188 1 191 1 212 1 246 1 249 1 251 1 268 1 269 1 271 1 281 1 324 1 350 1 352 1 358 1 427 1 428 1 432 2 439 1 445 1 472 1 483 1 511 1 514 1 519 1 529 1 535 1 543 1 546 1 587 1 596 1 598 1 602 1 619 1 620 1 632 1 646 1 650 1 651 1 663 2 710 1 734 1 740 1 763 1 830 1 4 1 31 1 35 1 44 1 60 1 64 1 114 1 126 1 138 1 142 1 150 1 166 1 168 1 203 1 207 1 221 1 222 1 225 1 230 1 237 1 261 1 310 1 315 1 333 1 334 1 336 1 349 1 355 1 367 1 374 1 391 1 422 1 423 1 437 1 443 1 459 1 467 1 469 1 524 1 528 1 542 1 551 1 552 1 557 1 630 1 659 1 704 1 787 1 794 1 832 1 841 1 853 1 859 1 860 1 861 1 865 1 867 1 869 1 891 2 909 1 920 1 951 1 952 1 956 1 962 1 970 1 981 1 995 1 998 1 849 1 851 1 855 1 889 1 921 1 946 1 955 1 984 1 1008 1 1011 1 
1 211 35 1 58 1 59 1 66 1 83 1 92 1 122 1 127 1 165 1 171 1 177 1 244 1 276 1 279 2 284 1 287 1 289 1 295 1 308 1 310 1 359 1 363 1 375 1 377 1 380 1 394 1 404 2 462 1 486 1 525 1 542 1 561 1 565 1 600 1 605 1 620 1 678 1 689 1 693 1 708 1 713 1 717 1 718 1 732 1 735 1 737 1 750 1 767 1 769 1 790 1 807 1 817 1 840 1 27 1 62 1 97 1 104 1 110 1 125 1 126 1 129 1 158 1 162 1 215 1 227 1 240 1 246 1 256 1 272 1 384 1 476 1 534 1 548 1 574 1 580 1 583 1 592 1 643 1 661 1 668 1 694 1 705 1 709 1 777 1 780 1 782 1 788 1 792 1 816 1 831 1 851 1 866 1 870 1 874 1 885 1 958 1 968 1 844 1 858 1 879 1 903 1 919 1 922 1 929 1 942 1 951 1 961 1 990 1 1002 1 1010 1 1017 1 
1 211 35 1 38 1 44 1 58 1 66 1 88 1 105 1 145 1 160 1 187 1 210 1 211 1 216 1 217 1 222 1 234 1 242 1 264 1 269 1 272 1 290 1 306 1 308 1 313 1 333 2 341 1 342 1 362 1 371 1 382 1 416 1 435 1 446 1 469 1 476 1 494 1 518 1 562 1 567 1 569 1 582 1 588 1 602 1 622 1 634 1 639 1 660 1 688 1 732 1 737 1 764 1 767 1 800 1 812 1 831 1 36 1 87 1 89 1 97 1 111 1 114 1 126 1 243 1 283 1 288 1 294 1 325 1 359 1 369 1 391 1 403 1 409 1 410 1 417 1 418 1 419 1 473 1 483 1 485 1 491 1 515 1 526 1 533 1 538 1 550 1 554 1 573 1 615 1 653 1 661 1 675 1 684 1 697 1 712 1 758 1 770 1 776 1 781 1 784 1 813 1 829 1 836 1 848 1 854 1 867 1 872 1 888 1 893 1 894 1 899 1 907 1 916 1 925 2 989 1 886 1 895 1 927 1 941 1 961 1 1003 1 1014 1 
1 209 12 1 15 1 20 1 32 1 40 1 47 1 65 1 76 1 135 1 139 1 186 1 202 2 231 1 239 1 272 1 345 1 357 1 375 1 377 1 380 1 393 1 492 1 508 1 514 1 517 1 530 1 550 1 556 1 585 1 598 1 637 1 638 1 660 1 699 1 701 1 713 1 729 1 732 1 752 1 759 2 789 1 805 1 825 1 7 1 60 1 68 1 82 1 100 1 103 1 113 1 181 1 190 1 221 1 225 1 249 1 295 1 341 1 367 1 370 1 378 1 416 1 428 1 429 1 431 1 442 1 454 1 462 1 504 1 507 1 516 1 548 1 576 1 593 1 607 1 615 1 684 1 694 1 695 1 703 1 704 1 746 1 798 1 846 1 875 1 883 1 897 1 899 1 900 1 921 1 942 1 943 1 955 1 983 1 997 1 862 1 902 1 915 1 940 1 964 1 973 1 982 1 993 1 999 1 1000 1 1003 1 1018 1 
1 206 24 1 34 1 40 1 41 1 45 1 71 1 80 1 88 1 124 1 131 1 133 1 146 1 159 1 160 1 175 1 184 1 195 1 207 1 226 1 227 1 243 1 260 1 264 1 277 1 290 1 302 1 313 1 321 1 324 1 340 1 351 1 362 2 394 1 397 1 439 1 443 1 446 1 475 1 489 1 557 1 602 1 603 1 633 1 657 1 667 1 669 1 689 1 709 1 752 1 763 1 817 1 23 1 28 1 33 1 37 1 74 1 77 1 86 1 106 1 158 1 163 1 173 1 192 1 205 1 220 1 221 1 238 1 252 1 267 1 283 1 288 1 336 1 337 1 361 1 367 1 375 1 404 1 406 1 416 1 429 1 430 1 468 1 473 1 496 1 501 1 537 1 553 1 586 1 594 1 614 1 628 1 646 1 651 1 682 1 694 1 750 1 765 1 784 1 788 1 790 1 828 1 833 1 837 1 841 1 866 2 959 1 849 1 854 1 858 1 881 1 894 1 947 1 966 1 999 1 
1 210 6 1 16 1 41 2 73 1 79 1 93 1 113 1 147 1 158 2 160 2 161 2 183 1 231 1 292 1 296 1 299 1 353 1 390 1 456 1 487 1 508 2 514 1 520 1 540 1 545 2 546 1 549 1 560 1 565 1 571 1 594 1 600 1 605 1 621 1 626 1 649 1 656 1 658 1 694 1 716 2 748 1 755 1 781 1 790 1 794 1 798 1 819 1 830 1 836 1 838 1 8 1 14 1 40 1 52 1 61 1 65 1 70 1 131 1 153 1 179 1 210 1 215 1 241 1 260 1 313 1 347 1 403 1 411 1 479 1 503 1 521 1 522 1 527 1 532 1 553 1 559 1 568 1 589 1 611 1 614 1 663 1 666 1 671 1 673 1 688 1 720 1 738 1 743 1 747 1 762 1 804 1 815 1 820 1 824 1 839 1 848 1 851 1 854 1 876 1 896 1 902 1 917 1 951 1 961 1 995 2 877 1 923 1 924 1 964 1 975 1 980 1 987 1 1007 1 1009 1 1019 1 
1 208 10 1 13 1 23 1 61 1 104 1 116 1 153 1 162 1 201 1 211 1 228 1 233 1 266 1 279 1 300 1 309 1 342 2 356 1 391 1 409 1 421 1 425 1 430 1 434 2 456 1 471 1 473 1 482 1 533 1 561 1 578 1 587 2 631 1 632 1 643 1 656 1 663 1 684 1 701 1 716 1 747 1 763 1 768 1 769 1 771 1 789 1 818 1 843 1 34 1 44 1 62 1 67 1 76 1 89 1 120 1 131 1 147 1 160 1 178 1 179 1 181 1 188 1 192 1 207 1 214 1 221 1 273 1 277 1 292 1 294 1 311 1 339 1 390 1 435 1 454 1 459 1 484 1 493 1 535 1 584 1 588 1 592 1 594 1 614 1 624 1 625 1 626 1 653 1 673 1 689 1 757 1 776 1 792 1 794 1 856 1 860 1 870 1 874 1 900 1 901 1 905 1 913 1 923 1 957 1 867 1 943 1 958 1 997 1 999 1 1010 1 
1 207 2 1 7 1 46 1 62 1 93 1 128 1 129 1 130 1 172 1 202 2 239 1 259 1 261 2 273 1 291 1 304 1 332 1 341 1 390 1 394 1 407 1 417 1 435 1 456 1 503 1 506 1 507 1 513 1 523 1 529 1 531 1 540 1 546 1 548 1 556 1 559 1 564 1 571 1 578 1 607 1 610 1 625 1 647 1 655 1 676 1 692 1 697 1 713 1 752 1 760 1 764 1 767 1 779 1 785 1 790 1 5 1 16 1 32 1 35 1 73 1 95 1 100 1 121 1 146 1 154 1 171 1 184 1 187 1 200 1 204 1 230 1 233 1 238 1 257 1 264 1 310 1 322 1 327 1 338 1 356 1 370 1 372 1 376 1 408 1 427 1 454 1 504 1 544 1 553 1 589 1 599 1 612 1 633 1 652 1 674 1 682 1 691 1 710 1 723 1 768 1 771 1 774 1 824 1 827 1 889 1 903 1 936 1 948 1 971 1 978 1 983 1 861 1 866 1 892 1 897 1 976 1 979 1 982 1 989 1 1010 1 1016 1 
1 214 30 1 53 1 99 1 105 1 107 1 117 1 129 1 144 1 167 1 196 1 201 1 206 1 213 1 228 1 229 1 237 1 247 1 252 1 253 1 285 1 297 1 299 1 344 1 349 1 378 1 389 1 414 1 424 1 436 1 449 1 455 1 461 1 475 1 489 1 499 2 524 1 549 1 564 1 565 1 609 1 663 1 665 1 671 1 704 1 735 1 741 1 742 1 749 1 750 1 787 1 828 1 838 1 842 1 845 1 17 1 24 1 38 1 89 1 93 1 100 1 110 1 119 1 164 1 180 1 181 1 210 1 235 1 239 1 260 1 288 1 298 1 316 1 325 1 363 1 377 1 386 1 395 1 399 1 430 1 442 1 443 1 493 1 495 1 500 1 507 1 576 1 584 1 592 1 594 1 614 1 616 1 626 1 643 1 655 1 719 1 728 1 732 1 767 1 793 1 808 1 818 1 829 1 861 2 879 1 891 1 906 1 908 1 919 1 920 1 925 1 966 2 884 1 914 1 941 1 969 1 1007 1 1008 1 1012 1 1013 1 
1 210 1 1 7 1 26 1 55 1 123 1 155 1 162 1 169 2 173 1 240 1 255 1 259 1 261 1 262 1 295 1 301 1 302 1 312 1 371 1 390 1 392 1 404 1 426 1 441 1 474 1 483 1 498 1 503 1 535 1 545 1 550 1 582 1 585 1 609 1 646 1 678 1 698 2 705 1 718 1 727 1 736 1 751 2 774 1 775 1 776 1 802 1 805 1 811 1 824 1 834 1 20 1 35 1 78 1 92 1 151 1 186 1 214 1 220 1 257 1 284 1 320 1 368 1 384 1 407 1 452 1 502 1 506 1 516 1 551 1 568 1 570 1 583 1 617 1 655 1 659 1 669 1 682 1 691 1 695 1 732 1 746 1 762 1 779 1 782 1 785 1 815 1 819 1 840 1 844 1 852 1 879 1 880 1 889 1 896 1 908 1 980 1 984 1 985 1 851 1 930 1 936 1 940 1 949 1 959 1 966 1 971 1 993 1 1008 1 1011 1 1017 1 
1 204 45 1 84 1 89 1 98 1 154 1 177 1 196 1 198 1 200 1 217 1 222 1 232 1 235 2 239 1 258 1 261 1 299 1 312 1 370 1 375 1 395 2 421 1 448 1 462 1 465 1 488 1 491 1 510 1 523 1 539 1 540 1 575 1 592 2 598 1 602 1 612 1 617 1 640 1 680 1 690 1 695 1 723 1 734 1 748 1 761 1 776 1 780 1 784 1 838 1 4 1 7 1 20 1 25 1 29 1 87 1 103 1 122 1 127 1 157 1 165 1 178 1 199 1 211 1 213 1 215 1 221 1 243 1 251 1 259 1 275 1 281 1 309 1 316 1 321 1 334 1 343 1 404 1 427 1 442 1 455 1 475 1 487 1 500 1 504 1 508 1 524 1 583 1 595 1 603 1 604 1 610 1 628 1 631 1 652 1 671 1 700 1 737 1 754 1 756 1 763 1 778 1 782 1 786 1 788 1 804 1 830 1 855 1 874 1 880 1 915 1 922 1 931 1 974 1 997 1 857 1 870 1 879 1 886 1 894 1 950 1 958 1 989 1 
1 207 1 1 21 1 23 1 31 1 52 1 59 1 62 1 99 1 110 1 119 1 138 1 139 1 158 1 177 1 211 1 224 1 233 1 234 1 264 1 307 1 320 1 325 1 333 1 336 1 340 1 358 1 372 1 378 1 393 1 410 1 421 1 440 1 471 1 475 1 515 1 517 1 539 1 590 1 632 1 654 1 693 1 696 1 697 1 714 1 716 1 719 1 727 1 734 1 743 1 746 1 759 1 778 1 791 1 800 1 827 1 837 1 841 1 845 1 5 1 9 1 11 1 37 1 49 1 50 1 68 1 75 1 81 1 95 1 133 1 135 1 159 1 173 1 212 1 239 1 242 1 292 1 299 1 315 1 344 1 353 1 356 1 357 1 375 1 383 1 385 1 389 1 398 1 415 1 416 1 446 1 455 1 463 1 481 1 510 1 514 1 546 1 574 1 581 1 600 1 617 1 630 1 644 1 646 1 655 1 656 1 659 1 721 1 748 1 751 1 762 1 777 1 816 1 817 1 828 1 834 1 840 1 849 1 857 1 860 1 907 1 930 1 986 1 991 1 855 1 864 1 884 1 892 1 913 1 926 1 927 1 928 1 929 1 963 1 1007 1 1008 1 1014 1 
1 209 33 1 41 1 118 1 129 1 137 1 154 2 164 1 183 1 184 1 216 1 220 1 272 1 276 1 279 1 305 1 326 1 345 1 392 1 414 1 438 1 455 2 464 1 474 1 513 1 543 1 586 1 600 1 602 1 623 1 630 1 650 2 664 1 665 1 698 1 709 1 732 2 758 1 771 1 800 1 812 1 849 1 4 1 29 1 66 1 75 1 103 1 110 1 139 1 159 1 186 1 199 1 201 1 213 1 222 1 231 1 234 1 251 1 252 1 254 1 275 1 282 1 283 1 290 1 319 1 350 1 361 1 410 1 416 1 445 1 453 1 507 1 525 1 530 1 542 1 558 1 572 1 573 1 575 1 674 1 680 1 706 1 733 1 735 1 857 1 869 1 872 2 876 1 890 1 899 1 915 1 928 1 957 1 965 1 973 1 984 2 879 1 925 1 944 1 951 1 976 1 991 1 995 1 999 1 1001 1 
1 212 3 1 44 2 49 1 50 1 76 1 98 1 110 1 137 1 140 1 143 2 170 1 187 1 210 1 226 1 227 1 250 1 273 1 274 1 284 1 328 1 329 1 348 1 378 1 385 1 390 1 391 1 405 1 435 1 447 1 451 1 464 1 487 1 510 1 512 1 537 2 586 1 596 1 612 1 614 1 627 1 629 1 640 2 644 1 651 1 700 1 719 1 734 1 739 2 753 1 757 1 780 1 806 1 833 1 840 1 16 1 19 1 27 1 40 1 47 1 57 1 64 1 74 1 88 1 129 1 181 1 215 1 287 1 293 1 324 1 339 1 359 1 364 1 387 1 389 1 397 1 412 1 438 1 465 1 489 1 584 1 647 1 670 1 675 1 683 1 702 1 713 1 722 1 725 1 726 1 770 1 797 1 817 1 837 1 866 1 876 1 883 1 907 1 910 1 928 1 966 2 973 1 998 2 864 1 875 1 900 1 911 1 931 1 938 1 940 1 986 1 999 1 
1 218 36 1 75 1 95 1 102 1 106 1 116 1 118 1 131 1 132 1 133 1 143 1 168 2 184 1 188 1 191 2 195 1 207 1 244 1 287 1 292 1 318 1 348 1 353 1 367 2 369 1 381 1 397 2 411 1 433 1 437 2 469 1 470 1 477 1 483 1 493 1 501 1 507 1 529 2 567 1 570 2 575 1 605 1 607 1 622 1 626 1 629 1 662 1 665 1 695 1 703 1 748 1 761 1 772 1 780 1 837 1 842 1 845 1 44 1 52 1 68 1 101 1 122 1 126 1 150 1 160 1 190 1 233 1 239 1 252 1 269 1 276 1 281 1 297 1 299 1 317 1 349 1 403 1 444 1 484 1 492 1 494 1 497 1 517 1 522 1 544 1 547 1 551 1 574 1 621 1 637 1 650 1 651 1 678 1 681 1 698 1 709 1 788 1 790 1 844 1 865 1 874 1 894 1 941 1 943 1 948 2 965 1 991 1 868 1 903 1 930 1 932 1 933 1 959 1 1003 1 1006 1 1017 1 1019 1 
1 217 19 1 41 1 46 1 99 1 117 1 156 1 157 1 179 1 185 1 191 1 204 1 211 1 252 1 268 1 332 1 364 1 379 1 387 1 418 1 431 1 434 1 458 1 481 1 522 1 524 1 534 1 552 1 553 1 557 1 560 1 574 1 580 1 583 1 633 2 658 1 662 1 671 1 676 1 699 1 702 1 707 1 722 1 738 1 770 1 776 1 813 1 829 1 850 1 5 1 45 1 63 1 79 1 125 1 161 1 189 1 199 1 275 1 292 1 330 1 384 1 392 1 426 1 445 1 459 1 478 1 499 1 500 1 542 1 576 1 599 1 607 1 636 1 649 1 665 1 670 1 721 1 730 1 764 1 793 1 794 1 817 1 840 1 851 1 864 1 867 1 884 1 891 1 930 1 955 1 967 1 859 1 868 1 901 1 932 1 949 1 978 1 994 1 1002 1 1005 1 1006 1 1007 1 1009 1 1018 1 
1 209 30 1 55 1 67 1 91 1 93 2 105 1 114 1 115 1 223 1 238 1 239 1 249 1 255 1 281 1 305 1 312 1 342 1 359 1 366 1 372 1 389 1 407 1 420 2 450 1 481 1 490 1 492 1 505 1 529 1 532 1 537 1 563 1 570 1 573 1 611 1 652 1 680 1 682 1 683 1 696 1 710 1 715 1 725 1 731 1 741 1 749 1 756 1 794 1 806 1 812 1 826 1 846 1 2 1 6 1 23 1 41 1 77 1 104 1 152 1 186 1 198 1 215 1 228 1 235 1 246 1 271 1 280 1 285 1 298 1 382 1 388 1 390 1 392 1 399 1 403 1 421 1 445 1 449 1 453 1 459 1 478 1 495 1 557 1 586 1 592 1 602 1 616 1 662 1 670 1 699 1 722 1 744 1 760 1 769 1 818 1 829 1 834 1 891 1 915 1 928 1 930 1 876 1 877 1 890 1 912 1 929 1 938 1 951 1 964 1 973 1 984 1 993 1 
1 208 12 1 20 1 36 1 64 1 75 1 77 1 78 1 121 1 169 1 173 1 207 1 228 2 237 1 274 1 301 1 321 1 341 1 342 1 364 1 408 1 423 1 458 1 459 1 472 1 484 1 496 1 519 1 541 1 560 1 576 1 578 1 589 1 603 1 643 1 646 1 650 1 683 1 763 1 770 1 776 1 796 1 813 1 817 1 851 1 852 1 11 1 30 1 41 1 67 1 70 1 72 1 99 1 110 1 118 1 123 1 132 1 146 1 189 1 202 1 242 1 254 1 270 1 273 1 278 1 294 1 303 1 320 1 328 1 336 1 377 1 399 1 426 1 467 1 492 1 503 1 506 1 510 1 528 1 529 1 577 1 613 1 632 1 635 1 638 1 674 1 680 1 682 1 714 1 737 1 741 1 780 1 787 1 809 1 814 1 831 1 850 1 911 1 913 1 919 1 922 1 950 1 951 1 957 1 976 1 986 1 995 1 875 1 903 1 907 1 909 1 912 1 917 1 929 1 977 1 
1 210 15 1 118 1 123 1 156 1 169 1 184 1 185 1 197 1 205 1 214 1 215 1 226 1 253 1 256 1 282 1 289 1 298 1 310 1 314 1 318 1 320 1 344 1 347 1 360 1 369 1 379 1 383 1 435 1 447 1 456 1 481 2 493 1 520 1 523 1 529 1 560 1 599 1 614 1 618 2 619 2 627 2 642 1 645 1 650 1 652 1 678 1 691 1 707 1 733 1 754 1 779 1 786 1 803 1 822 1 827 2 833 1 2 1 3 1 13 1 26 1 54 1 66 1 79 1 90 1 96 1 136 1 145 1 155 1 157 1 173 1 198 1 199 1 200 1 224 1 232 1 245 1 247 1 255 1 277 1 293 1 304 1 337 1 350 1 428 1 492 1 506 1 518 1 526 1 546 1 550 1 553 1 566 1 588 1 610 1 647 1 653 1 692 1 697 1 717 1 723 1 724 1 743 1 746 1 752 1 767 1 777 1 828 1 841 1 844 1 882 1 891 1 947 2 952 2 880 1 886 1 926 1 928 1 932 1 948 1 951 1 979 1 1001 1 1008 1 1012 1 
1 214 23 1 61 2 64 1 83 1 87 1 106 1 113 1 152 1 198 1 206 1 254 1 269 1 283 1 287 1 296 1 300 1 369 1 375 2 405 2 413 1 422 1 424 1 426 1 474 1 478 1 495 1 504 1 546 1 548 1 563 1 568 1 585 1 640 1 651 1 654 1 688 1 697 1 698 1 734 1 767 1 773 1 783 1 819 1 840 1 1 1 28 1 32 1 68 1 78 1 86 1 108 1 121 1 137 1 177 1 183 1 203 1 209 1 218 1 249 1 272 1 278 1 288 1 290 1 291 1 321 1 340 1 374 1 378 1 401 1 402 1 408 1 412 1 418 1 443 1 455 1 510 1 513 1 525 1 540 1 545 1 551 1 571 1 582 1 669 1 689 1 738 1 774 1 802 1 820 1 821 1 824 1 832 1 855 1 859 1 859 1 872 1 891 1 904 1 914 1 933 1 942 1 979 1 863 1 869 1 899 1 900 1 906 1 907 1 924 1 927 1 995 1 1004 1 1008 1 1016 1 
1 211 2 1 4 1 12 2 22 1 62 2 96 1 101 1 104 1 108 1 120 1 140 1 142 1 191 1 203 1 204 1 209 1 238 1 244 1 275 1 287 1 306 1 334 1 335 1 357 1 360 1 390 1 415 1 422 1 430 1 434 2 435 2 438 1 482 1 489 1 495 1 501 1 523 1 526 1 601 1 603 1 647 1 654 1 676 1 697 1 706 1 773 1 794 1 812 1 823 1 840 1 846 1 851 1 13 1 25 1 27 1 45 1 106 1 150 1 152 1 163 1 165 1 176 1 178 1 282 1 289 1 308 1 319 1 328 1 369 1 385 1 401 1 416 1 448 1 464 1 497 1 499 1 584 1 591 1 604 1 615 1 642 1 645 1 689 1 705 1 716 1 731 1 737 1 757 1 762 1 774 1 775 1 779 1 792 1 796 1 807 1 886 1 894 1 903 2 918 1 927 1 930 1 936 1 943 1 984 1 996 1 998 1 889 1 908 1 922 1 925 1 931 1 954 1 956 1 965 1 969 1 980 1 989 1 1012 1 1013 1 
1 218 54 1 82 1 83 1 108 1 111 1 128 1 158 1 187 1 193 1 197 1 210 1 235 1 268 1 320 1 325 1 343 1 344 1 358 1 368 1 381 1 390 1 448 1 454 1 481 1 482 1 530 1 536 1 537 1 541 2 547 1 555 1 570 1 574 1 591 1 593 1 607 1 608 1 614 1 617 1 669 1 698 1 723 1 755 1 771 1 782 1 783 1 816 1 831 1 836 2 840 1 848 2 3 1 34 1 90 1 107 1 191 1 225 1 230 1 272 1 278 1 282 1 290 1 291 1 301 1 321 1 322 1 324 1 389 1 420 1 431 1 449 1 452 1 475 1 488 1 496 1 506 1 507 1 508 1 545 1 566 1 581 1 598 1 633 1 654 1 655 1 663 1 668 1 677 1 681 1 700 1 706 1 711 1 726 1 756 1 769 1 775 1 779 1 787 1 790 1 802 1 815 1 847 1 881 1 887 1 888 1 892 1 902 1 972 1 865 1 891 1 893 1 955 1 1004 1 1007 1 1018 1 
1 205 20 2 50 1 54 1 100 1 129 2 161 1 182 1 218 1 220 1 238 1 285 1 291 1 305 1 319 1 322 1 340 1 345 1 352 1 368 1 385 1 393 1 400 1 450 1 473 1 546 1 558 1 580 1 628 2 652 1 657 1 661 2 664 1 679 1 696 1 711 1 754 1 793 1 796 1 803 1 819 1 6 1 26 1 27 1 35 1 113 1 120 1 127 1 130 1 131 1 156 1 166 1 191 1 201 1 230 1 259 1 308 1 311 1 313 1 327 1 331 1 334 1 343 1 362 1 369 1 421 1 423 1 437 1 452 1 469 1 470 1 487 1 496 1 514 1 547 1 548 1 617 1 688 1 703 1 710 1 722 1 728 1 736 1 743 1 811 1 822 1 843 1 885 1 886 1 908 1 910 1 911 1 979 1 982 1 987 1 990 2 907 1 923 1 929 1 940 1 946 1 948 1 952 1 964 1 971 1 984 1 993 1 999 1 1008 1 
1 211 8 1 24 1 51 1 76 1 83 1 106 1 121 1 127 2 136 1 183 1 185 1 208 1 216 1 240 1 251 1 252 1 262 1 313 1 334 2 349 1 362 1 363 1 370 1 374 1 421 1 472 1 508 1 516 1 525 1 534 1 541 1 543 1 554 1 560 1 568 1 581 1 618 2 624 1 638 2 644 2 650 1 661 1 675 1 686 1 718 1 729 1 20 1 69 1 79 1 102 1 114 1 128 1 133 1 134 1 143 1 150 1 154 1 159 1 163 1 177 1 230 1 255 1 279 1 302 1 329 1 377 1 389 1 392 1 401 1 404 1 448 1 483 1 494 1 503 1 509 1 550 1 577 1 578 1 601 1 608 1 615 1 617 1 630 1 659 1 660 1 677 1 682 1 685 1 695 1 719 1 742 1 745 1 764 1 766 1 822 1 859 1 885 1 903 1 919 1 927 1 940 1 941 1 956 1 979 1 993 1 872 1 876 1 886 1 898 1 899 1 906 1 937 1 964 1 966 1 978 1 997 1 1012 1 1016 1 
1 209 49 1 58 1 98 1 107 1 108 1 149 1 151 1 173 2 175 1 214 1 221 1 234 1 240 1 246 1 250 1 256 1 258 1 262 1 278 1 328 1 330 1 349 1 392 1 403 1 411 2 413 1 429 1 455 1 467 1 502 1 510 1 519 1 526 1 530 1 557 1 585 1 590 2 593 1 649 2 652 1 669 1 688 1 701 1 742 1 749 1 758 1 769 1 774 1 794 1 804 1 809 1 820 1 855 1 15 1 30 1 34 1 40 1 43 1 69 1 83 1 121 1 131 1 132 1 185 1 215 1 257 1 261 1 335 1 352 1 375 1 383 1 414 1 418 1 437 1 452 1 485 1 488 1 489 1 523 1 548 1 551 1 553 1 563 1 564 1 565 1 570 1 572 1 576 1 591 1 599 1 600 1 604 1 616 1 623 1 625 1 633 1 704 1 717 1 718 1 771 1 836 1 851 1 853 1 871 1 881 1 910 1 918 1 924 1 934 1 960 1 969 1 984 1 875 1 880 1 914 1 920 1 926 1 928 1 929 1 932 1 945 1 967 1 999 1 
1 209 57 1 71 1 86 1 97 1 117 1 128 1 156 1 193 1 206 1 215 1 231 1 260 1 268 1 271 2 281 1 291 1 295 1 312 1 324 1 369 1 378 1 387 1 434 1 449 1 454 1 456 1 458 1 467 1 476 1 486 1 498 2 499 2 506 1 538 1 544 1 555 1 585 1 616 1 627 1 634 1 639 1 642 1 647 2 654 1 655 1 666 1 672 2 674 1 680 1 711 1 727 1 759 1 762 1 794 1 810 1 829 1 840 1 854 1 8 1 10 1 24 1 44 1 46 1 61 1 66 1 70 1 75 1 88 1 170 1 183 1 220 1 228 1 237 1 243 1 246 1 272 1 305 1 321 1 329 1 356 1 370 1 376 1 477 1 527 1 550 1 589 1 618 1 656 1 698 1 724 1 726 1 754 1 781 1 784 1 797 1 826 1 861 1 869 1 873 1 886 1 887 1 902 1 919 1 948 1 953 1 973 1 893 1 938 1 958 1 1005 1 1014 1 
1 213 4 1 28 1 89 1 91 2 93 1 103 1 113 1 114 1 132 2 134 1 151 1 203 1 246 1 259 1 303 1 310 1 315 1 318 1 337 1 348 1 349 1 357 1 365 1 410 1 413 1 420 1 432 1 482 1 491 1 503 1 506 2 518 1 528 1 539 1 540 1 556 1 593 1 643 1 668 1 699 1 707 1 710 1 725 1 734 1 751 1 780 1 808 1 814 1 833 1 841 1 844 2 853 1 34 1 35 1 45 1 67 1 74 1 97 1 98 1 99 1 121 1 137 1 138 1 152 1 180 1 232 1 236 1 237 1 265 1 280 1 325 1 327 1 350 1 359 1 379 1 383 1 389 1 404 1 424 1 447 1 458 1 460 1 472 1 473 1 485 1 501 1 505 1 559 1 562 1 578 1 580 1 616 1 617 1 627 1 652 1 670 1 716 1 718 1 719 1 748 1 767 1 793 1 817 1 847 1 867 1 869 1 888 1 898 1 915 1 943 2 980 1 991 1 872 1 884 1 897 1 910 1 966 1 967 1 973 1 976 1 982 1 1015 1 1016 1 
1 206 19 1 36 1 43 1 48 1 50 1 60 1 107 1 117 1 121 1 135 1 136 1 143 1 156 1 157 1 176 1 177 1 200 1 204 1 232 1 251 1 257 1 258 1 267 1 271 1 287 1 291 1 292 1 316 1 321 1 360 1 364 1 382 2 384 1 407 1 417 1 476 1 488 1 513 1 519 1 532 1 538 1 539 1 557 1 646 1 651 1 659 1 676 1 696 1 706 1 707 1 720 1 724 1 730 1 740 1 755 1 756 2 766 1 835 1 836 1 840 1 842 1 855 1 866 1 23 1 34 1 40 1 66 1 83 1 106 1 119 1 188 1 193 1 237 1 240 1 249 1 282 1 289 1 341 1 345 1 380 1 395 1 414 1 430 1 443 1 455 1 465 1 467 1 475 1 501 1 504 1 507 1 512 1 545 1 546 1 555 1 562 1 600 1 601 1 638 1 662 1 667 1 689 1 692 1 698 1 747 1 763 1 809 1 817 1 846 1 964 1 996 1 871 1 882 1 899 1 914 1 919 1 920 1 933 1 946 1 961 1 969 1 1012 1 
1 215 19 2 22 1 32 1 54 1 57 1 64 1 82 1 110 1 111 1 127 1 136 1 141 2 192 1 202 1 227 1 228 1 231 1 248 1 285 1 334 1 341 1 342 1 355 1 356 1 360 1 379 1 388 1 391 1 393 1 461 1 472 1 474 1 485 1 517 1 546 1 566 1 567 1 568 1 569 1 575 1 608 1 614 1 624 2 633 1 651 1 652 1 662 2 664 1 685 1 710 1 737 1 769 1 792 1 797 1 20 1 24 1 50 1 86 1 91 1 109 1 115 1 117 1 124 1 171 1 180 1 210 1 212 1 216 1 245 1 252 1 266 1 275 1 293 1 344 1 353 1 371 1 411 1 416 1 418 1 509 1 525 1 543 1 549 1 571 1 585 1 625 1 642 1 649 1 654 1 656 1 661 1 768 1 774 1 817 1 854 1 855 1 875 1 881 1 914 1 932 1 942 1 977 1 986 1 877 1 894 1 915 1 918 1 945 1 946 1 953 1 960 1 992 1 993 1 1007 1 1009 1 1011 1 1016 1 
1 205 12 1 22 1 25 1 26 1 35 1 49 1 82 1 124 1 139 1 160 1 165 1 189 1 201 1 209 2 211 1 212 1 234 1 251 1 270 1 271 1 296 1 324 2 326 1 371 1 408 1 429 1 442 1 444 1 461 1 470 1 527 1 530 1 566 1 587 1 591 1 606 1 609 1 614 1 624 1 629 1 649 1 662 1 669 1 680 2 697 1 716 1 739 1 749 2 785 1 839 1 840 1 852 1 865 1 866 1 23 1 30 1 54 1 55 1 114 1 132 1 161 1 187 1 198 1 235 1 242 1 248 1 253 1 269 1 305 1 341 1 374 1 454 1 475 1 490 1 493 1 509 1 511 1 550 1 571 1 618 1 619 1 632 1 689 1 714 1 744 1 765 1 772 1 794 1 811 1 859 1 871 1 884 1 901 2 927 1 939 1 941 1 958 1 972 1 990 1 883 1 926 1 945 1 979 1 985 1 993 1 
1 206 1 1 82 1 85 1 91 1 101 1 102 1 120 1 125 1 134 1 148 1 188 1 190 1 195 1 197 1 211 2 228 1 240 1 256 1 258 1 283 1 284 1 305 2 332 1 341 1 427 1 437 1 446 1 461 1 464 1 487 1 488 1 489 1 493 1 498 1 517 1 557 1 577 1 595 2 598 1 617 1 670 1 715 1 760 1 790 1 801 1 824 1 830 1 841 1 846 1 73 1 132 1 141 1 152 1 248 1 285 1 294 1 307 1 313 1 318 1 322 1 331 1 334 1 336 1 345 1 349 1 353 1 363 1 365 1 418 1 423 1 433 1 453 1 497 1 539 1 561 1 573 1 584 1 627 1 636 1 652 1 655 1 682 1 729 1 731 1 740 1 744 1 762 1 779 1 797 1 850 1 871 1 891 2 926 2 955 1 967 1 968 1 969 1 970 1 979 1 981 1 991 1 873 1 912 1 957 1 986 1 1015 1 1016 1 
1 213 4 1 16 1 33 1 51 1 58 1 85 1 87 1 91 1 93 1 95 1 126 1 157 1 158 1 166 1 191 1 192 1 222 1 239 2 311 1 328 1 332 2 352 1 411 1 428 1 430 1 438 1 454 1 478 1 494 1 499 1 510 1 558 2 586 1 595 1 597 1 599 1 604 1 628 1 641 1 649 1 663 1 672 1 695 1 729 1 737 1 764 1 812 2 864 1 869 1 870 1 17 1 56 1 57 1 132 1 174 1 181 1 198 1 199 1 248 1 293 1 296 1 330 1 334 1 337 1 339 1 350 1 353 1 378 1 380 1 385 1 392 1 395 1 397 1 408 1 414 1 432 1 439 1 531 1 551 1 617 1 623 1 721 1 728 1 732 1 744 1 770 1 792 1 793 1 811 1 822 1 823 1 832 1 836 1 867 1 872 1 924 1 959 1 971 1 895 1 909 1 916 1 920 1 942 1 979 1 993 1 1001 1 1006 1 1011 1 1017 1 
1 212 18 1 21 1 25 1 29 1 78 1 83 1 88 1 149 1 168 2 190 1 218 1 222 1 238 1 239 1 243 1 280 1 302 1 367 1 395 1 422 1 471 1 484 1 504 1 511 1 516 1 528 1 532 1 547 1 564 1 572 1 588 2 620 1 640 1 647 1 664 2 667 1 690 1 703 1 726 1 744 1 762 1 779 1 792 1 797 1 803 2 842 1 852 2 859 1 871 1 7 1 30 1 52 1 57 1 91 1 121 1 126 1 254 1 287 1 305 1 321 1 325 1 335 1 365 1 388 1 394 1 401 1 406 1 410 1 420 1 421 1 427 1 450 1 458 1 465 1 466 1 499 1 501 1 502 1 521 1 552 1 579 1 580 1 598 1 604 1 644 1 676 1 709 1 718 1 723 1 746 1 753 1 756 1 770 1 820 1 825 1 863 1 866 1 872 1 872 1 894 1 896 2 907 1 937 1 984 1 883 1 918 1 922 1 968 1 985 1 996 1 1000 1 1004 1 1005 1 1014 1 
1 211 8 1 43 1 69 1 74 1 75 1 139 1 157 1 162 1 173 1 175 1 192 1 232 1 289 1 312 1 317 1 319 1 353 1 373 1 375 1 387 1 407 1 430 2 431 1 448 1 485 1 513 1 551 1 592 1 603 1 604 1 608 1 624 1 637 1 639 1 659 1 663 1 686 1 697 2 704 1 728 1 782 1 796 1 804 1 815 1 865 1 20 1 44 1 46 1 55 1 66 1 85 1 125 1 141 1 154 1 212 1 228 1 280 1 284 1 291 1 331 1 337 1 366 1 378 1 418 1 451 1 456 1 474 1 491 1 503 1 522 1 528 1 535 1 564 1 573 1 594 1 613 1 622 1 672 1 674 1 676 1 680 1 716 1 747 1 795 1 806 1 870 1 889 1 892 1 898 1 905 2 919 1 922 1 926 1 932 1 943 1 948 1 968 1 970 1 878 1 896 1 897 1 904 1 914 1 947 1 958 1 996 1 999 1 
1 207 22 1 46 1 86 1 103 1 133 1 140 1 190 1 197 1 206 1 215 1 222 2 248 1 252 1 256 1 275 1 296 1 314 1 346 1 351 1 353 1 362 1 363 2 419 1 436 1 440 1 452 1 465 1 491 1 522 1 562 2 569 1 585 1 586 1 605 1 637 1 641 1 659 1 664 1 684 1 691 1 713 1 716 1 731 1 738 1 768 1 773 1 776 1 779 1 815 1 833 1 841 1 846 1 850 1 854 1 9 1 14 1 21 1 48 1 65 1 73 1 80 1 90 1 92 1 94 1 102 1 104 1 150 1 169 1 177 1 188 1 204 1 208 1 224 1 262 1 263 1 282 1 301 1 305 1 313 1 320 1 325 1 339 1 381 1 391 1 407 1 427 1 434 1 438 1 443 1 444 1 469 1 494 1 503 1 505 1 529 1 564 1 624 1 638 1 647 1 654 1 662 1 682 1 723 1 737 1 744 1 772 1 798 1 811 1 819 1 824 1 830 1 885 1 888 1 898 1 919 1 933 1 983 1 880 1 922 1 961 1 962 1 978 1 
1 213 55 1 68 1 70 1 79 1 109 1 123 1 131 1 141 1 173 1 181 1 183 1 208 1 245 1 253 1 254 1 258 1 260 1 295 2 312 1 330 1 341 1 345 1 380 1 387 2 390 1 402 1 423 1 432 1 437 1 460 1 471 1 487 1 491 1 508 1 510 1 516 1 570 1 574 1 581 1 615 1 635 1 649 2 657 1 661 1 663 1 689 1 692 1 708 1 749 2 779 1 782 1 789 1 808 1 827 1 843 1 868 1 6 1 15 1 66 1 80 1 84 1 105 1 117 1 119 1 138 1 142 1 154 1 166 1 169 1 203 1 291 1 366 1 377 1 381 1 392 1 407 1 447 1 453 1 462 1 469 1 520 1 523 1 549 1 582 1 619 1 658 1 670 1 678 1 707 1 716 1 721 1 724 1 726 1 781 1 784 1 809 1 820 1 853 1 857 1 864 1 876 1 912 1 972 1 978 1 987 1 997 1 889 1 923 1 943 1 946 1 949 1 1000 1 1008 1 1017 1 
1 209 6 1 41 1 43 1 48 1 61 1 62 1 104 1 120 1 126 1 130 1 132 1 136 1 156 1 177 1 195 1 214 1 221 1 271 1 279 1 294 1 307 1 328 1 329 1 357 2 387 1 400 1 413 1 432 1 434 1 443 1 468 1 470 1 492 1 535 1 543 1 550 1 558 1 564 1 567 1 591 1 605 1 631 2 632 1 644 1 662 1 682 1 683 1 701 1 716 1 721 1 735 1 744 1 751 1 814 1 817 1 845 1 852 1 853 1 875 1 26 1 63 1 95 1 148 1 168 1 191 1 245 1 274 1 300 1 313 1 381 1 419 1 429 1 456 1 462 1 469 1 478 1 521 1 530 1 538 1 557 1 584 1 628 1 637 1 653 1 666 1 694 1 704 1 745 1 770 1 773 1 797 1 802 1 805 1 806 1 856 1 863 1 895 2 920 1 923 1 930 1 940 1 968 1 969 1 902 1 909 1 914 1 921 1 944 1 945 1 967 1 970 1 
1 211 13 1 23 1 28 1 34 1 51 1 62 1 90 1 92 1 114 1 121 1 122 1 170 1 195 1 207 1 215 1 233 1 254 1 258 1 260 1 267 2 276 1 303 2 315 1 323 1 334 1 349 2 371 1 382 1 388 1 401 1 405 1 443 1 446 1 455 1 489 1 492 1 507 1 538 1 545 1 557 1 567 2 574 1 582 1 589 1 593 1 617 1 684 1 720 1 721 1 725 1 763 1 826 1 839 1 6 1 37 1 112 1 127 1 137 1 157 1 162 1 164 1 169 1 177 1 192 1 223 1 227 1 231 1 257 1 265 1 268 1 272 1 273 1 275 1 284 1 326 1 361 1 378 1 379 1 397 1 403 1 424 1 434 1 436 1 481 1 498 1 540 1 554 1 608 1 623 1 639 1 654 1 655 1 701 1 703 1 746 1 757 1 774 1 789 1 798 1 806 1 845 1 856 1 868 1 882 2 914 1 926 1 946 1 952 1 953 1 957 1 975 1 977 2 997 1 905 1 916 1 928 1 944 1 965 1 988 1 1000 1 1006 1 1011 1 
1 207 23 1 31 1 54 1 63 1 137 1 145 1 156 1 160 1 167 1 171 1 190 1 193 1 195 1 198 1 201 1 205 1 228 1 231 1 236 1 243 1 276 1 279 1 288 1 299 1 315 1 337 2 375 1 377 1 384 1 386 1 424 1 429 2 430 1 444 1 463 1 523 1 549 1 555 1 585 1 595 1 604 1 615 1 623 1 627 1 662 1 698 1 701 1 703 1 707 2 718 1 720 1 736 2 749 1 763 1 792 1 807 1 816 1 827 1 13 1 39 1 76 1 95 1 112 1 114 1 132 1 159 1 168 1 174 1 176 1 242 1 272 1 283 1 308 1 321 1 323 1 352 1 355 1 364 1 365 1 369 1 382 1 394 1 401 1 421 1 471 1 492 1 516 1 524 1 534 1 569 1 575 1 611 1 620 1 642 1 671 1 686 1 699 1 709 1 730 1 750 1 752 1 758 1 766 1 767 1 808 1 833 1 835 1 873 1 930 1 891 1 898 1 918 1 969 1 991 1 1007 1 1011 1 
1 207 11 1 38 1 42 2 67 1 70 1 82 1 87 1 107 1 124 1 132 1 196 1 197 2 213 1 219 1 222 1 230 1 240 1 248 1 275 1 309 1 319 1 352 1 375 1 400 1 401 1 406 1 411 1 415 1 433 1 439 1 450 1 532 1 535 2 539 1 553 1 577 1 587 2 615 2 631 1 697 1 724 1 797 2 820 2 839 1 848 1 849 1 31 1 50 1 111 1 121 1 133 1 146 1 147 1 191 1 193 1 200 1 206 1 225 1 232 1 249 1 250 1 289 1 296 1 300 1 315 1 330 1 335 1 364 1 382 1 392 1 393 1 405 1 426 1 432 1 444 1 490 1 507 1 513 1 517 1 529 1 558 1 569 1 627 1 637 1 646 1 649 1 658 1 662 1 676 1 696 1 698 1 727 1 734 1 772 1 784 1 791 1 814 1 816 1 841 1 850 1 852 1 881 1 894 1 922 1 923 1 950 1 966 1 968 2 972 1 990 1 892 1 899 1 906 1 932 1 939 1 943 1 982 1 989 1 996 1 999 1 1008 1 
1 208 23 1 41 1 82 1 88 1 94 1 168 1 179 1 188 1 198 1 211 1 227 1 239 1 259 1 299 1 335 1 338 1 340 1 347 1 356 1 372 1 377 1 385 1 413 1 418 1 428 1 434 1 451 1 453 1 470 1 501 1 523 1 530 1 531 1 536 1 543 1 554 1 565 1 581 1 599 1 632 1 660 1 663 1 670 1 676 1 677 1 681 1 694 1 739 1 743 2 744 1 779 1 812 1 849 1 850 1 3 1 12 1 15 1 32 1 59 1 70 1 80 1 93 1 102 1 143 1 163 1 187 1 207 1 213 1 218 1 237 1 301 1 333 1 346 1 349 1 351 1 359 1 381 1 389 1 390 1 404 1 417 1 444 1 482 1 485 1 516 1 518 1 528 1 564 1 567 1 575 1 577 1 579 1 603 1 606 1 607 1 683 1 688 1 692 1 715 1 729 1 735 1 765 1 775 1 778 1 792 1 830 1 858 1 864 1 874 1 927 1 939 1 946 1 947 1 950 2 970 1 994 1 885 1 923 1 999 1 
1 212 23 1 30 1 36 1 54 1 118 1 134 1 172 1 185 1 218 1 260 1 276 1 278 1 293 2 327 1 351 1 380 1 399 1 463 1 510 1 525 1 537 1 552 1 557 1 560 1 565 1 604 1 669 1 721 1 801 1 802 1 819 1 830 1 861 1 864 1 868 1 879 1 6 1 17 1 27 1 39 1 53 1 62 1 63 1 94 1 117 1 127 1 150 1 157 1 171 1 176 1 196 1 265 1 266 1 279 1 305 1 321 1 347 1 365 1 367 1 400 1 409 1 420 1 429 1 435 1 443 1 450 1 465 1 470 1 475 1 480 1 484 1 490 1 491 1 498 1 501 1 554 1 556 1 566 1 582 1 595 1 630 1 637 1 639 1 643 1 645 1 647 1 658 1 664 1 666 1 695 1 696 1 705 1 723 1 730 1 738 1 751 1 806 1 844 1 893 1 895 1 898 1 924 1 959 1 961 1 885 1 886 1 944 1 973 1 981 1 1003 1 1013 1 1014 1 
1 204 8 1 24 1 40 1 65 1 131 1 170 1 222 1 245 1 265 1 284 1 290 1 309 1 332 1 351 1 355 1 367 1 385 1 464 1 483 1 488 2 502 1 506 1 569 1 570 1 595 1 629 1 646 1 656 1 665 1 685 2 699 1 703 1 711 1 742 1 748 1 767 1 777 1 816 1 837 1 839 1 858 1 877 2 2 1 7 1 39 1 50 1 77 1 108 1 119 1 120 1 144 1 160 1 162 1 176 1 229 1 236 1 281 1 282 1 311 1 348 1 356 1 360 1 378 1 408 1 419 1 456 1 458 1 489 1 521 1 547 1 549 1 553 1 563 1 564 1 591 1 619 1 628 1 631 1 637 1 638 1 658 1 664 1 670 1 677 1 720 1 726 1 733 1 753 1 762 1 763 1 770 1 784 1 788 1 794 1 821 1 867 1 897 1 902 1 911 1 912 1 924 1 929 1 933 1 942 1 951 1 981 1 886 1 928 1 934 1 939 1 958 1 964 1 1008 1 
1 211 24 1 25 2 58 1 193 1 210 2 251 1 292 1 303 1 347 1 355 1 356 1 363 1 376 1 416 1 419 1 423 1 430 1 473 1 488 2 509 1 514 1 526 1 533 1 537 1 540 1 550 1 562 1 564 1 575 1 578 1 595 1 641 1 668 1 699 1 715 1 737 1 770 1 788 1 818 1 823 1 834 1 843 1 853 1 10 1 23 1 28 1 50 1 109 1 118 1 120 1 154 1 174 1 189 1 223 1 231 1 293 1 305 1 309 1 315 1 333 1 337 1 344 1 369 1 381 1 392 1 466 1 471 1 472 1 487 1 494 1 504 1 539 1 542 1 546 1 561 1 583 1 594 1 612 1 626 1 640 1 664 1 724 1 728 1 750 1 777 1 796 1 797 1 800 1 807 1 820 1 828 1 869 1 872 1 895 1 902 2 903 1 911 1 938 1 939 1 946 1 921 1 930 1 932 1 943 1 956 1 968 1 977 1 1000 1 1006 1 1008 1 1016 1 1017 1 
1 209 5 1 47 1 52 1 165 1 207 1 211 1 220 1 229 1 288 1 298 1 309 1 316 1 319 1 320 1 339 1 343 1 349 1 371 1 376 1 377 1 395 1 402 1 407 1 416 1 433 1 448 1 463 1 484 1 495 1 511 1 519 1 526 2 547 1 561 1 586 1 589 1 598 1 603 1 650 1 668 1 669 1 707 1 708 1 713 1 745 1 754 1 774 2 825 1 830 1 855 1 869 1 14 1 35 1 59 1 98 1 106 1 128 1 147 1 152 1 163 1 188 1 196 1 231 1 266 1 271 1 276 1 326 1 352 1 421 1 427 1 460 1 476 1 478 1 485 1 486 1 487 1 490 1 512 1 562 1 602 1 610 1 612 1 656 1 694 1 709 1 723 1 726 1 770 1 777 1 790 1 848 1 851 1 866 1 897 1 925 1 963 1 980 1 985 1 886 1 888 1 893 1 926 1 953 1 961 1 1006 1 1007 1 1012 1 1015 1 
1 213 27 1 36 1 59 1 105 1 123 1 167 1 207 1 209 1 214 1 247 2 278 1 284 1 288 1 359 1 368 1 378 1 386 1 414 1 421 1 425 1 426 1 427 1 536 1 541 1 569 1 588 1 594 1 603 1 624 1 625 1 634 1 660 1 679 1 687 1 689 2 695 1 727 1 738 1 747 1 834 1 841 1 862 1 863 1 874 1 13 1 35 1 69 1 71 1 87 1 97 1 109 1 111 1 129 1 137 1 141 1 142 1 187 1 205 1 259 1 279 1 282 1 285 1 301 1 313 1 322 1 326 1 331 1 339 1 382 1 387 1 391 1 408 1 420 1 423 1 461 1 496 1 498 1 511 1 526 1 539 1 549 1 564 1 573 1 584 1 627 1 661 1 670 1 696 1 716 1 719 1 735 1 751 1 758 1 810 1 824 1 831 1 880 1 881 1 902 1 904 1 926 1 936 1 952 1 993 1 912 1 930 1 935 1 943 1 949 1 974 1 1001 1 1005 1 1016 1 
1 213 8 1 78 1 122 1 139 1 174 2 191 1 194 1 195 1 216 1 234 1 238 1 270 2 271 1 282 1 299 1 308 1 311 1 328 1 351 1 380 1 401 1 405 2 414 1 430 1 433 1 438 1 439 1 444 1 451 1 509 2 542 2 580 1 587 1 613 1 628 1 633 1 648 1 654 1 662 1 667 2 680 1 681 1 707 1 721 1 758 1 770 1 787 2 789 1 807 1 821 1 860 1 862 1 865 1 21 1 39 1 73 1 84 1 107 1 129 1 138 1 140 1 159 1 175 1 189 1 202 1 226 1 237 1 253 1 279 1 309 1 310 1 327 1 335 1 346 1 372 1 426 1 457 1 473 1 477 1 501 1 506 1 546 1 569 1 588 1 597 1 601 1 615 1 686 1 696 1 702 1 717 1 773 1 790 1 804 1 819 1 823 1 842 1 850 1 858 1 863 1 881 1 882 1 884 1 915 1 929 1 934 1 978 1 889 1 911 1 931 1 974 1 985 1 999 1 1003 1 1004 1 1011 1 1016 1 1019 1 
1 211 12 1 40 1 74 1 79 1 106 1 125 1 142 1 151 1 162 1 219 1 229 1 236 1 279 1 306 1 307 1 356 1 371 1 390 1 400 1 415 1 418 1 423 1 438 1 440 1 453 1 499 1 543 1 562 1 578 1 598 1 607 1 633 1 637 1 638 1 658 1 660 1 662 2 686 1 705 1 716 1 717 1 750 1 771 1 796 1 861 1 865 1 10 1 19 1 25 1 31 1 33 1 73 1 75 1 85 1 119 1 126 1 145 1 159 1 173 1 190 1 218 1 221 1 237 1 251 1 267 1 290 1 292 1 323 1 341 1 352 1 354 1 357 1 363 1 391 1 396 1 398 1 404 1 413 1 431 1 441 1 445 1 491 1 500 1 503 1 526 1 536 1 546 1 577 1 587 1 605 1 636 1 639 1 642 1 650 1 712 1 714 1 718 1 745 1 756 1 787 1 801 1 807 1 811 1 832 1 896 1 898 1 910 1 919 1 920 1 924 1 926 1 942 1 966 1 938 1 950 1 969 1 989 1 1004 1 1012 1 1013 1 1017 1 
1 211 8 1 78 1 86 1 101 1 127 1 146 1 151 1 161 1 164 1 169 1 180 1 192 1 262 1 263 1 267 1 280 1 290 1 326 1 329 1 365 1 367 1 393 1 396 1 399 1 430 1 431 1 441 1 489 1 507 1 515 2 524 1 531 1 542 1 545 1 562 1 576 1 642 1 644 1 661 1 670 1 672 1 673 1 677 1 690 1 691 1 715 1 734 1 751 1 763 1 818 2 821 1 842 1 861 1 866 1 874 1 31 1 54 1 84 1 90 1 96 1 114 1 117 1 120 1 122 1 134 1 149 1 173 1 175 1 201 1 209 1 217 1 227 1 241 1 255 1 259 1 285 1 293 1 397 1 414 1 438 1 509 1 511 1 516 1 523 1 560 1 596 1 617 1 618 1 652 1 665 1 671 1 701 1 741 1 745 1 754 1 770 1 782 1 796 1 806 1 815 1 826 1 827 1 884 1 890 1 900 1 912 1 952 1 996 1 906 1 927 1 939 1 943 1 962 1 966 1 1009 1 1013 1 
1 207 11 1 41 2 53 1 57 1 65 1 66 1 67 1 92 1 117 1 125 1 156 1 186 1 208 1 230 1 231 1 257 1 260 1 291 1 294 1 310 1 312 1 315 1 322 1 323 2 333 1 342 1 368 1 383 1 390 1 413 1 426 1 427 1 433 1 463 1 469 1 496 1 525 1 531 1 538 1 542 1 553 2 564 1 567 1 579 1 609 1 651 1 677 2 679 1 681 1 700 1 719 1 786 1 833 2 838 1 847 1 849 1 873 1 19 1 33 1 51 1 78 1 85 1 107 1 108 1 166 1 175 1 179 1 188 1 202 1 206 1 217 1 240 1 301 1 303 1 325 1 340 1 349 1 369 1 402 1 407 1 431 1 432 1 446 1 451 1 464 1 487 1 546 1 591 1 600 1 616 1 626 1 639 1 640 1 652 1 657 1 663 1 675 1 720 1 789 1 804 1 816 1 840 1 860 1 875 1 886 1 936 1 941 1 954 1 967 1 917 1 937 1 944 1 960 1 970 1 988 1 1002 1 
1 205 6 1 10 1 29 1 39 1 42 1 43 1 52 1 53 1 71 1 88 1 89 1 96 2 98 1 123 2 126 1 141 1 163 1 203 1 228 1 312 1 329 1 345 1 383 1 417 1 420 1 421 1 486 1 509 1 531 1 543 2 559 1 573 1 589 1 609 1 610 1 629 1 666 1 680 2 708 1 760 2 768 1 803 1 816 1 818 1 852 1 888 1 3 1 15 1 19 1 21 1 49 1 62 1 113 1 115 1 136 1 156 1 168 1 187 1 196 1 236 1 238 1 246 1 252 1 253 1 260 1 268 1 284 1 301 1 306 1 314 1 326 1 333 1 343 1 360 1 372 1 396 1 398 1 399 1 414 1 438 1 453 1 480 1 481 1 507 1 525 1 534 1 539 1 544 1 563 1 564 1 576 1 585 1 605 1 648 1 659 1 661 1 663 1 668 1 699 1 712 1 753 1 769 1 797 1 798 1 806 1 813 1 822 1 838 1 856 1 930 1 946 1 961 1 964 1 973 1 979 1 891 1 902 1 978 1 991 1 1000 1 
1 218 2 1 5 1 48 1 49 1 69 1 76 2 112 1 120 1 137 1 160 1 182 1 196 1 203 2 249 1 256 1 267 1 272 1 276 2 297 1 303 1 344 1 379 1 384 1 392 1 407 1 410 1 423 1 446 1 455 1 478 1 479 1 482 1 517 1 550 1 585 1 589 1 594 2 598 1 629 1 648 1 649 1 652 1 695 2 703 1 716 1 736 1 753 1 788 1 840 2 848 1 855 1 856 1 858 1 859 1 870 2 6 1 29 1 60 1 95 1 107 1 109 1 116 1 133 1 147 1 166 1 171 1 207 1 215 1 261 1 278 1 338 1 339 1 380 1 383 1 386 1 411 1 484 1 510 1 549 1 557 1 562 1 572 1 575 1 578 1 587 1 608 1 634 1 663 1 666 1 685 1 725 1 726 1 729 1 732 1 739 1 758 1 773 1 799 1 818 1 836 1 861 1 878 1 890 1 892 1 915 1 929 1 933 1 948 1 949 1 957 1 960 2 961 1 985 1 900 1 936 1 951 1 958 1 975 1 982 1 1000 1 1003 1 1019 1 
1 206 38 1 55 1 65 1 69 1 88 1 140 1 168 1 178 1 220 1 269 1 272 1 279 1 288 1 299 1 311 1 316 1 324 1 337 2 444 1 447 1 502 1 531 1 582 1 610 1 663 1 780 1 788 1 795 1 807 1 812 1 828 1 861 1 873 1 891 1 27 1 30 1 48 1 66 1 73 1 89 1 105 1 113 1 144 1 159 1 191 1 210 1 213 1 261 1 268 1 271 1 300 1 302 1 306 1 320 1 325 1 341 1 348 1 362 1 385 1 402 1 412 1 439 1 440 1 448 1 451 1 499 1 505 1 511 1 516 1 535 1 563 1 564 1 587 1 598 1 603 1 621 1 635 1 639 1 677 1 693 1 694 1 707 1 734 1 764 1 766 1 811 1 817 1 829 1 838 1 847 1 851 1 879 1 903 1 913 1 916 1 919 1 924 1 933 1 947 2 983 1 928 1 936 1 951 1 952 1 1004 1 1016 1 
1 207 4 1 15 1 17 1 64 1 66 1 82 1 91 1 94 1 103 1 108 1 142 1 154 1 176 1 184 1 187 2 192 1 218 1 237 1 240 1 248 2 257 1 332 1 342 1 355 1 417 1 431 1 438 1 450 1 466 1 480 1 531 1 546 1 557 1 563 1 594 2 610 1 624 1 629 1 633 1 646 1 662 1 703 1 764 1 797 1 799 1 842 1 881 1 2 1 8 1 24 1 35 1 55 1 67 1 98 1 123 1 130 1 141 1 150 1 158 1 169 1 185 1 212 1 260 1 353 1 383 1 416 1 429 1 435 1 452 1 477 1 488 1 492 1 493 1 499 1 509 1 538 1 560 1 575 1 591 1 593 1 597 1 625 1 634 1 649 1 659 1 667 1 671 1 701 1 707 1 715 1 739 1 740 1 765 1 766 1 774 1 834 1 861 1 865 1 884 1 898 1 904 1 907 1 928 1 931 1 951 1 995 1 916 1 927 1 961 1 968 1 1004 1 
1 210 29 1 36 1 50 2 101 1 120 1 165 1 181 1 202 1 212 2 221 1 228 1 229 1 268 1 284 1 285 1 297 1 312 1 319 1 346 1 415 1 426 1 430 1 444 1 448 1 454 1 458 1 464 1 465 1 490 1 496 2 533 1 546 1 556 1 571 1 606 1 632 1 637 1 649 1 678 1 682 1 686 1 746 1 748 1 791 1 795 1 806 1 825 1 842 1 854 1 860 1 872 1 879 1 5 1 27 1 45 1 58 1 64 1 90 1 98 1 112 1 114 1 118 1 142 1 153 1 171 1 223 1 261 1 273 1 274 1 277 1 309 1 390 1 393 1 395 1 432 1 460 1 474 1 492 1 528 1 544 1 620 1 621 1 623 1 624 1 669 1 689 1 740 1 755 1 762 1 763 1 764 1 768 1 789 1 793 1 801 1 844 1 850 1 868 1 921 1 955 2 957 1 973 1 975 1 986 1 995 1 904 1 908 1 910 1 948 1 969 1 982 1 983 1 1013 1 
1 215 14 1 22 1 26 1 44 2 67 1 98 1 142 1 147 1 168 1 172 1 183 1 186 1 196 1 197 1 229 1 286 1 289 1 291 1 328 1 331 1 358 2 362 1 366 1 378 1 380 1 401 1 416 1 430 1 439 1 443 1 453 1 486 1 494 1 587 1 636 1 640 1 665 1 674 1 676 1 680 1 686 1 709 1 724 1 730 1 749 1 757 1 773 1 821 1 823 1 876 2 881 1 883 1 93 1 99 1 101 1 136 1 152 1 169 1 175 1 193 1 215 1 219 1 240 1 287 1 299 1 335 1 375 1 398 1 503 1 516 1 555 1 616 1 646 1 656 1 687 1 697 1 721 1 734 1 739 1 740 1 755 1 758 1 759 1 774 1 807 1 829 1 842 1 871 1 941 1 942 1 966 1 987 1 906 1 909 1 940 1 956 1 960 1 963 1 977 1 978 1 997 1 1016 1 1017 1 1018 1 
1 209 35 1 36 1 41 1 43 1 65 1 87 1 102 1 105 1 108 1 141 1 145 1 159 1 193 1 221 1 245 1 258 1 261 1 286 1 314 1 366 1 383 1 444 1 460 1 467 1 472 1 473 1 577 1 590 1 597 1 623 1 639 1 659 1 666 1 677 1 722 1 728 1 740 1 744 1 765 1 767 1 777 2 782 1 845 1 849 1 872 2 887 1 13 1 28 1 39 1 83 1 88 1 100 1 123 1 131 1 147 1 158 1 220 1 255 1 299 1 345 1 415 1 462 1 485 1 530 1 537 1 559 1 563 1 571 1 610 1 635 1 642 1 660 1 676 1 691 1 696 1 721 1 745 1 753 1 761 1 775 1 778 1 789 1 792 1 800 1 819 1 824 1 873 1 921 1 928 1 947 1 951 1 953 1 961 1 974 2 902 1 935 1 938 1 944 1 970 1 978 1 986 1 987 1 992 1 997 1 999 1 1013 1 1019 1 
1 214 7 1 33 1 43 1 44 1 49 2 66 1 98 1 101 1 120 1 121 1 181 1 201 1 211 1 218 1 246 1 252 1 255 1 272 1 276 1 281 1 300 1 303 2 309 1 327 1 347 1 357 1 365 1 395 1 411 1 429 1 437 1 440 1 447 1 451 1 463 1 466 1 473 1 483 1 499 1 522 1 540 1 598 1 646 1 649 1 668 1 706 1 757 1 764 1 829 1 830 1 843 1 882 1 884 1 4 1 24 1 25 1 104 1 133 1 134 1 139 1 151 1 153 1 156 1 170 1 216 1 227 1 264 1 273 1 305 1 319 1 331 1 337 1 343 1 364 1 366 1 402 1 435 1 436 1 446 1 482 1 488 1 503 1 519 1 578 1 620 1 624 1 704 1 708 1 730 1 747 1 788 1 803 1 804 1 820 1 847 1 866 1 873 1 900 1 927 2 942 1 946 1 956 1 960 1 977 1 980 1 898 1 912 1 948 1 958 1 966 1 997 1 1007 1 1008 1 1010 1 1012 1 1013 1 1017 1 
1 217 9 1 12 1 39 1 88 1 118 1 132 1 151 1 155 1 161 1 186 1 192 1 218 1 236 1 260 1 262 1 334 1 356 1 372 1 395 1 397 1 403 1 419 1 420 1 450 2 498 1 516 2 541 1 558 2 561 2 565 1 586 1 588 1 593 1 609 1 616 1 630 1 648 1 677 1 688 1 739 1 740 1 745 1 785 1 787 1 790 1 808 1 829 1 866 1 873 1 874 1 881 1 887 1 893 1 4 1 27 1 94 1 96 1 126 1 129 1 169 1 187 1 197 1 204 1 274 1 301 1 303 1 323 1 324 1 327 1 341 1 352 1 355 1 378 1 390 1 463 1 468 1 487 1 495 1 497 1 510 1 511 1 545 1 547 1 555 1 580 1 581 1 602 1 612 1 618 1 619 1 643 1 655 1 667 1 672 1 769 1 791 1 811 1 814 1 817 1 830 1 863 1 878 1 897 1 924 1 929 1 937 1 945 1 969 1 915 1 916 1 923 1 940 1 944 1 948 1 973 1 987 1 1001 1 1002 1 1007 1 1013 1 1015 1 
1 211 16 1 21 1 44 1 55 1 73 2 80 1 94 1 97 1 99 1 105 1 110 1 131 1 148 1 164 1 179 1 181 1 191 1 199 1 250 2 280 1 281 1 284 1 304 1 305 1 319 1 355 1 377 1 396 1 400 1 401 1 501 1 515 1 537 1 548 1 602 1 629 1 660 1 676 1 701 1 717 1 743 1 762 1 767 1 785 1 800 1 805 1 808 1 837 1 842 1 843 1 852 1 6 1 28 1 34 1 40 1 45 1 102 1 111 1 180 1 193 1 194 1 213 1 218 1 223 1 264 1 273 1 303 1 323 1 326 1 384 1 409 1 411 1 433 1 438 1 443 1 456 1 460 1 470 1 475 1 506 1 507 1 545 1 550 1 569 1 669 1 672 1 675 1 724 1 731 1 732 1 739 1 763 1 769 1 787 1 790 1 792 1 798 1 802 1 813 1 824 1 859 1 863 1 867 1 879 1 899 1 899 1 921 1 936 1 969 1 974 1 981 1 983 1 997 1 935 1 937 1 940 1 945 1 954 1 991 1 999 1 1005 1 1008 1 1013 1 
1 206 40 2 48 1 50 1 76 1 97 1 100 1 107 1 109 1 145 1 157 1 198 1 220 2 228 1 229 1 254 1 285 1 286 1 305 1 309 1 320 1 322 1 353 1 420 1 425 1 444 1 451 1 460 1 463 1 480 1 515 1 537 1 562 1 587 1 596 1 616 1 624 2 638 1 643 1 672 2 677 1 689 1 693 1 696 1 715 1 717 1 724 1 735 1 756 1 843 1 846 1 888 1 897 1 16 1 21 1 41 1 52 1 59 1 91 1 128 1 146 1 163 1 170 1 195 1 201 1 206 1 210 1 211 1 236 1 249 1 278 1 288 1 300 1 380 1 386 1 401 1 478 1 481 1 494 1 503 1 539 1 611 1 653 1 657 1 680 1 685 1 691 1 695 1 727 1 753 1 762 1 771 1 773 1 799 1 800 1 853 1 859 1 891 1 917 1 931 1 935 1 956 1 993 1 918 1 924 1 939 1 942 1 952 1 962 1 964 1 
1 211 8 1 90 1 100 1 102 1 103 1 108 1 111 1 116 1 123 1 135 1 163 1 178 1 226 1 242 1 259 2 280 1 307 1 323 1 389 1 403 1 432 1 482 1 512 2 526 1 527 1 533 2 552 2 558 1 564 2 574 1 580 1 645 2 649 1 652 1 657 1 673 1 674 1 678 1 704 1 721 1 729 1 733 1 738 1 743 1 749 2 772 1 775 1 788 1 810 1 814 1 835 1 839 1 846 1 869 2 61 1 71 1 86 1 94 1 112 1 129 1 134 1 147 1 166 1 185 1 199 1 207 1 232 1 268 1 273 1 306 1 322 1 333 1 373 1 377 1 398 1 399 1 411 1 420 1 430 1 431 1 463 1 466 1 468 1 497 1 518 1 519 1 540 1 544 1 555 1 588 1 591 1 595 1 628 1 661 1 702 1 748 1 750 1 758 1 759 1 760 1 784 1 785 1 793 1 796 1 801 1 808 1 855 1 910 1 925 1 936 2 941 1 951 1 965 1 971 1 984 1 912 1 946 1 950 1 962 1 973 1 1004 1 1007 1 
1 214 58 1 59 1 97 1 99 1 100 1 118 1 125 1 173 1 191 1 200 1 213 1 282 1 295 1 313 1 314 1 321 1 374 1 390 1 403 1 405 1 434 1 445 1 460 1 464 1 488 1 525 1 539 1 542 1 591 1 605 1 612 1 613 1 624 1 629 1 678 1 735 2 742 1 744 1 750 1 753 1 782 1 785 1 806 1 828 1 829 1 831 1 845 1 861 1 865 1 882 1 883 2 885 1 13 1 52 1 56 1 98 1 102 1 106 1 117 1 124 1 151 1 158 1 172 1 176 1 196 1 209 1 229 1 232 1 254 1 258 1 259 1 311 1 312 1 359 1 392 1 398 1 422 1 440 1 475 1 484 1 509 1 521 1 535 1 544 1 555 1 557 1 583 1 606 1 620 1 638 1 644 1 676 1 687 1 691 1 693 1 727 1 739 1 760 1 765 1 787 1 794 1 797 1 812 1 817 1 843 1 876 1 890 1 896 1 924 1 932 1 955 1 972 1 950 1 994 1 1006 1 1007 1 1017 1 
1 210 7 1 15 1 25 1 64 2 69 1 109 1 128 1 141 1 151 1 156 1 192 1 198 1 210 1 214 1 232 1 273 1 291 1 294 1 298 1 315 1 353 1 364 1 373 1 413 1 421 1 459 1 463 1 470 1 479 1 480 2 483 1 489 1 518 1 527 2 529 2 547 1 548 1 604 1 608 1 610 1 619 1 634 1 645 1 647 1 651 1 673 1 680 1 692 1 719 1 733 1 735 1 742 1 760 1 765 1 777 1 810 1 816 1 820 1 847 1 860 2 863 1 883 1 892 1 3 1 5 1 34 1 36 1 56 1 60 1 88 1 106 1 118 1 139 1 158 1 169 1 197 1 205 1 250 1 282 1 301 1 332 1 334 1 389 1 397 1 465 1 466 1 472 1 487 1 492 1 494 1 655 1 683 1 718 1 720 1 725 1 730 1 741 1 752 1 785 1 805 1 824 1 841 1 854 1 857 1 916 1 966 2 929 1 933 1 938 1 948 1 977 1 979 1 1017 1 
1 210 10 1 25 1 29 1 35 1 37 1 40 2 49 1 72 1 83 1 89 1 94 1 101 2 106 1 109 1 166 1 174 1 184 1 186 1 194 1 204 1 250 1 253 1 268 1 278 1 295 1 299 1 314 1 328 1 354 1 364 1 398 1 437 1 439 1 451 1 466 1 480 1 534 1 561 1 563 1 570 1 576 1 589 1 609 1 618 1 644 1 668 1 687 1 735 1 746 1 757 1 765 1 770 1 859 1 885 1 893 1 19 1 44 1 55 1 56 1 91 1 92 1 100 1 130 1 195 1 205 1 207 1 223 1 237 1 308 1 331 1 362 1 381 1 413 1 426 1 434 1 441 1 496 1 498 1 513 1 545 1 591 1 611 1 619 1 649 1 682 1 686 1 708 1 730 1 740 1 756 1 760 1 772 1 796 1 803 1 814 1 831 1 834 1 835 1 873 1 894 1 907 1 916 1 931 1 952 1 965 1 970 2 918 1 925 1 937 1 963 1 966 1 1014 1 
1 206 22 2 43 1 111 1 183 1 193 1 212 1 225 1 229 1 259 1 274 1 283 1 315 1 348 1 368 1 371 1 392 1 414 1 415 1 431 1 436 1 456 1 502 1 503 1 517 1 548 1 557 1 596 1 609 1 615 1 636 1 747 1 749 1 752 1 759 1 765 1 780 1 785 1 808 1 831 1 834 1 846 1 873 2 5 1 9 1 30 1 61 1 100 1 112 1 164 1 182 1 232 1 233 1 243 1 247 1 256 1 263 1 265 1 295 1 303 1 314 1 319 1 326 1 334 1 343 1 374 1 387 1 401 1 405 1 418 1 430 1 486 1 488 1 498 1 500 1 505 1 519 1 521 1 528 1 537 1 560 1 581 1 598 1 610 1 661 1 684 1 712 1 737 1 751 1 761 1 779 1 794 1 807 1 825 1 877 1 923 1 929 1 945 1 960 1 961 1 920 1 933 1 937 1 949 1 974 1 975 1 977 1 979 1 1016 1 1017 1 
1 207 18 1 27 1 57 1 87 1 88 1 100 1 104 1 121 1 124 1 166 1 178 1 181 1 182 1 205 1 267 1 273 1 278 2 317 1 339 1 342 1 343 1 430 1 431 1 435 1 452 1 462 1 495 1 500 1 501 1 505 1 543 1 544 1 550 1 555 1 564 1 573 1 582 1 618 1 666 1 684 1 710 1 731 1 749 1 752 1 759 1 794 1 814 1 819 2 827 1 829 1 830 1 848 1 36 1 53 1 62 1 67 1 68 1 71 1 81 1 83 1 107 1 133 1 158 1 172 1 186 1 190 1 208 1 243 1 245 1 262 1 313 1 358 1 373 1 438 1 449 1 479 1 513 1 521 1 554 1 583 1 592 1 620 1 621 1 625 1 632 1 650 1 657 1 691 1 695 1 713 1 760 1 770 1 777 1 780 1 831 1 859 1 863 1 879 1 888 1 895 1 910 1 914 1 946 1 950 1 951 1 960 1 961 1 974 1 978 1 919 1 945 1 948 1 971 1 988 1 994 1 1000 1 1010 1 
1 210 16 1 47 1 63 1 65 1 70 1 100 1 121 1 129 1 158 1 179 1 208 1 217 1 229 1 237 1 250 1 279 1 305 1 312 1 328 1 353 1 363 1 387 1 422 1 454 1 477 1 526 1 547 1 560 1 571 1 586 1 600 1 629 1 645 1 647 1 682 1 714 1 753 1 767 1 783 2 790 1 793 1 797 2 806 1 815 1 824 1 838 1 842 1 851 1 853 1 872 1 893 1 904 1 4 1 15 1 18 1 56 1 84 1 98 1 153 1 205 1 214 1 216 1 241 1 243 1 263 1 265 1 267 1 271 1 296 1 303 1 386 1 409 1 427 1 456 1 475 1 488 1 537 1 542 1 553 1 570 1 607 1 631 1 640 1 641 1 644 1 654 1 661 1 705 1 712 1 721 1 744 1 800 1 804 1 808 1 816 1 829 1 857 1 859 1 862 1 950 1 986 1 997 1 998 1 940 1 954 1 982 1 999 1 1004 1 1005 1 1010 1 1011 1 
1 207 17 1 61 1 64 1 84 1 88 1 106 1 127 1 135 1 141 1 150 1 175 1 179 1 182 1 202 1 255 1 262 1 263 1 276 1 277 1 279 1 294 1 298 1 335 1 340 1 344 1 358 1 366 1 405 1 440 1 468 1 549 1 555 1 592 1 632 1 649 1 651 1 663 1 671 1 695 1 723 1 725 1 731 1 764 1 778 1 781 1 816 1 817 1 823 2 848 1 849 1 862 1 14 1 37 1 53 1 107 1 154 1 176 1 193 1 232 1 238 1 244 1 325 1 336 1 353 1 362 1 376 1 402 1 408 1 421 1 438 1 483 1 507 1 545 1 578 1 599 1 606 1 657 1 729 1 744 1 748 1 773 1 790 1 813 1 829 1 831 1 833 1 835 1 839 1 860 1 894 1 922 1 956 1 970 1 978 1 991 1 995 1 919 1 924 1 943 1 957 1 959 1 977 1 992 1 993 1 997 1 1013 1 
1 213 11 1 17 1 45 1 59 1 65 1 89 1 104 1 121 1 131 1 133 1 146 1 152 1 174 1 179 1 211 1 241 1 249 1 261 1 274 2 276 1 294 1 312 1 320 1 330 1 351 1 370 1 373 1 374 1 383 1 384 1 428 1 438 1 452 1 469 1 472 1 475 1 479 1 497 1 503 1 562 1 589 1 607 1 620 1 676 1 680 1 701 1 709 1 797 1 807 1 809 2 812 1 816 1 840 1 30 1 48 1 68 1 69 1 101 1 126 1 135 1 136 1 145 1 160 1 173 1 175 1 193 1 230 1 238 1 245 1 248 1 265 1 301 1 354 1 357 1 360 1 362 1 363 1 404 1 409 1 414 1 419 1 429 1 434 1 439 1 470 1 471 1 502 1 532 1 540 1 541 1 559 1 583 1 584 1 594 1 596 1 610 1 613 1 615 1 653 1 664 1 665 1 707 1 736 1 743 1 751 1 758 1 762 1 784 1 857 1 871 1 876 1 895 1 927 1 941 1 945 1 961 1 991 1 911 1 964 1 973 1 1001 1 1011 1 1018 1 
1 209 16 1 39 1 83 1 97 2 127 2 128 1 191 1 193 1 228 1 240 1 265 1 266 1 287 1 325 1 372 2 381 1 385 1 389 1 458 1 492 1 504 2 521 1 587 1 613 1 628 1 642 1 663 1 667 1 682 1 711 1 747 1 763 1 771 1 776 1 789 1 799 1 830 2 853 1 862 1 864 1 887 1 901 1 906 1 58 1 68 1 78 1 88 1 122 1 148 1 150 1 154 1 178 1 224 1 234 1 241 1 247 1 248 1 260 1 279 1 280 1 296 1 361 1 362 1 398 1 405 1 417 1 448 1 455 1 465 1 467 1 475 1 478 1 482 1 571 1 595 1 636 1 643 1 649 1 652 1 674 1 675 1 687 1 693 1 700 1 703 1 707 1 725 1 731 1 738 1 749 1 765 1 786 1 798 1 828 1 831 1 833 1 866 1 894 1 929 1 940 1 963 1 986 1 919 1 921 1 939 1 952 1 968 1 977 1 993 1 995 1 996 1 
1 211 108 1 130 1 157 1 159 1 190 1 193 1 205 1 247 1 251 1 273 2 318 1 324 1 355 1 361 1 375 1 381 1 393 2 442 1 528 1 549 1 566 1 603 1 608 1 623 1 651 1 656 1 663 1 678 1 681 1 685 1 705 1 709 2 715 1 729 1 772 1 786 1 789 1 798 1 817 1 835 1 836 1 857 1 862 1 882 1 883 1 44 1 91 1 113 1 117 1 119 1 125 1 136 1 153 1 158 1 162 1 170 1 177 1 182 1 217 1 236 1 241 1 246 1 253 1 256 1 263 1 264 1 271 1 354 1 358 1 363 1 420 1 451 1 462 1 463 1 465 1 467 1 498 1 500 1 525 1 554 1 556 1 560 1 568 1 631 1 636 1 638 1 642 1 645 1 647 1 653 1 654 1 688 1 702 1 718 1 744 1 767 1 818 1 853 1 886 1 909 1 923 2 936 1 942 1 943 1 960 1 966 1 914 1 947 1 971 1 979 1 984 1 1009 1 1011 1 1019 1 
1 209 33 1 43 1 74 1 86 1 88 1 96 1 125 1 130 1 158 1 169 1 178 1 183 1 191 1 228 1 261 1 281 1 300 1 327 1 345 1 388 1 415 1 431 1 436 1 441 1 454 1 491 1 506 1 514 1 525 1 531 1 540 1 550 1 563 1 570 1 577 1 596 1 597 1 608 1 614 1 616 1 619 1 633 1 655 1 712 1 754 1 761 1 814 2 815 2 818 1 875 1 882 1 888 1 12 1 99 1 134 1 137 1 166 1 177 1 189 1 190 1 219 1 229 1 238 1 247 1 267 1 277 1 287 1 308 1 321 1 348 1 383 1 403 1 412 1 439 1 474 1 495 1 498 1 500 1 507 1 512 1 573 1 576 1 595 1 642 1 654 1 656 1 666 1 667 1 690 1 726 1 734 1 737 1 738 1 768 1 794 1 798 1 856 1 857 1 870 1 885 1 897 1 901 1 918 1 926 1 933 1 985 2 997 1 916 1 932 1 936 1 963 1 978 1 994 1 1004 1 1011 1 
1 212 16 1 25 1 42 1 44 1 107 1 111 1 113 1 131 1 132 1 159 1 163 1 191 1 198 1 232 1 233 1 251 1 290 1 292 1 301 1 306 1 321 1 323 1 354 1 365 1 387 1 407 1 408 1 454 1 459 1 499 1 528 1 533 1 555 1 559 1 568 1 572 1 574 1 587 1 593 1 596 1 614 2 632 1 635 1 648 1 650 1 657 1 665 1 672 1 711 1 725 1 739 1 785 1 824 1 829 1 846 1 857 1 892 1 23 1 45 1 66 1 67 1 114 1 151 1 176 1 201 1 206 1 237 1 245 1 313 1 327 1 342 1 350 1 361 1 415 1 423 1 439 1 446 1 451 1 476 1 505 1 524 1 561 1 583 1 712 1 769 1 772 1 787 1 793 1 811 1 815 1 851 1 919 1 920 1 921 1 929 1 969 1 980 1 996 1 938 1 942 1 943 1 948 1 967 1 983 1 998 1 1006 1 1013 1 1019 1 
1 211 17 1 57 1 77 1 78 1 84 1 122 1 144 1 150 1 199 1 200 1 204 1 214 1 225 2 242 2 250 1 277 1 298 1 311 1 318 1 377 1 411 1 412 1 419 1 435 1 446 1 455 1 478 1 543 1 551 1 560 1 575 2 586 1 643 1 676 1 682 2 703 1 717 1 719 1 723 1 724 1 739 1 747 1 760 1 767 1 787 1 809 1 820 1 859 1 868 1 877 1 906 1 4 1 33 1 99 1 102 1 110 1 112 1 127 1 129 1 146 1 153 1 159 1 174 1 193 1 224 1 278 1 279 1 287 1 295 1 301 1 308 1 310 1 314 1 320 1 323 1 334 1 359 1 379 1 408 1 443 1 459 1 466 1 467 1 495 1 505 1 518 1 524 1 583 1 635 1 644 1 666 1 750 1 759 1 766 1 804 1 812 1 848 1 864 1 867 1 873 1 876 1 911 1 917 2 924 1 927 1 935 1 956 1 974 1 978 1 984 1 990 1 996 1 926 1 957 1 982 1 998 1 1004 1 1012 1 1013 1 
1 212 6 1 18 1 28 2 37 1 39 1 95 1 117 1 120 1 126 1 129 1 156 1 226 1 237 1 377 1 380 1 396 2 399 1 410 1 432 1 440 1 457 1 478 1 498 1 529 1 534 1 595 1 605 1 610 1 649 2 670 1 677 1 679 1 733 1 736 1 739 1 748 1 766 1 784 1 790 1 791 1 850 1 852 1 856 1 866 1 886 1 891 1 20 1 43 1 47 1 54 1 71 1 74 1 81 1 94 1 122 1 145 1 149 1 158 1 256 1 262 1 266 1 270 1 289 1 293 1 308 1 315 1 316 1 327 1 364 1 369 1 370 1 379 1 400 1 412 1 444 1 468 1 469 1 495 1 510 1 523 1 541 1 546 1 572 1 580 1 616 1 644 1 658 1 663 1 684 1 738 1 741 1 754 1 776 1 779 1 783 1 797 1 800 1 817 1 826 1 834 1 843 1 868 1 898 1 951 1 963 1 974 1 943 1 948 1 953 1 958 1 960 1 962 1 971 1 1000 1 
1 212 36 1 43 1 46 1 66 1 78 1 83 1 84 2 98 1 102 1 109 1 135 1 159 1 208 1 242 1 257 1 284 1 340 1 353 1 362 1 450 1 461 1 514 2 518 1 534 2 535 1 537 1 545 1 553 1 558 2 570 1 582 1 583 1 587 1 597 1 598 1 604 1 636 1 639 1 717 1 732 1 736 1 743 2 765 1 766 1 770 1 774 1 793 2 808 1 811 1 824 1 827 1 829 1 838 1 842 1 892 1 903 1 904 1 18 1 22 1 52 1 77 1 93 1 96 1 104 1 142 1 148 1 161 1 162 1 169 1 183 1 189 1 196 1 220 1 225 1 269 1 279 1 296 1 300 1 302 1 342 1 345 1 348 1 354 1 358 1 367 1 370 1 415 1 503 1 551 1 566 1 581 1 592 1 602 1 627 1 673 1 690 1 692 1 707 1 747 1 780 1 792 1 801 1 803 1 816 1 822 1 825 1 871 1 877 1 893 1 898 1 912 1 922 1 928 1 935 1 953 1 962 1 980 1 981 1 998 1 920 1 925 1 946 1 947 1 970 1 1011 1 1014 1 1016 1 1019 1 
1 206 1 1 33 1 52 1 53 1 61 1 65 1 70 1 117 1 141 1 186 1 191 1 194 1 217 1 239 1 264 1 265 2 297 1 319 1 328 1 337 1 360 1 364 1 405 1 441 1 448 1 476 2 497 2 534 1 548 1 551 1 553 1 555 1 593 1 607 2 633 1 636 1 642 1 649 1 680 1 707 1 720 1 729 1 741 1 774 1 823 1 833 1 845 1 900 1 914 2 2 1 25 1 26 1 37 1 41 1 62 1 69 1 107 1 160 1 164 1 245 1 249 1 279 1 295 1 299 1 311 1 329 1 387 1 417 1 419 1 488 1 490 1 495 1 502 1 515 1 533 1 575 1 579 1 590 1 592 1 598 1 605 1 610 1 653 1 697 1 735 1 740 1 742 1 750 1 756 1 789 1 832 1 857 1 889 1 945 1 946 1 952 1 954 1 974 1 998 1 922 1 936 1 939 1 960 1 961 1 964 1 972 1 980 1 983 1 991 1 995 1 1003 1 
1 212 6 1 26 1 29 1 56 1 57 1 64 1 75 1 81 1 90 1 101 1 112 1 135 2 164 1 165 1 176 1 181 1 223 1 244 1 253 1 256 2 261 1 316 1 393 1 401 1 419 1 421 1 436 1 490 1 491 1 498 1 517 1 521 2 527 1 543 1 550 1 554 1 614 1 668 1 720 1 749 1 784 2 787 1 807 1 825 2 838 1 860 1 864 1 912 1 32 1 40 1 59 1 71 1 76 1 111 1 126 1 141 1 145 1 174 1 184 1 190 1 209 1 254 1 264 1 287 1 342 1 366 1 378 1 412 1 427 1 438 1 460 1 480 1 483 1 534 1 545 1 556 1 577 1 595 1 596 1 604 1 626 1 655 1 664 1 675 1 678 1 698 1 700 1 702 1 769 1 776 1 800 1 816 1 868 1 872 1 878 1 900 1 904 1 946 1 955 1 957 1 983 1 988 1 993 1 996 1 932 1 940 1 943 1 963 1 972 1 1006 1 1018 1 
1 211 14 1 44 1 74 1 77 1 103 1 180 1 188 1 189 2 193 1 197 1 216 2 234 1 243 1 304 1 305 1 309 1 311 1 324 1 376 1 385 1 391 2 407 1 410 1 421 1 422 1 434 1 440 1 444 1 487 1 499 1 556 1 595 1 621 1 654 1 665 1 680 1 690 1 700 1 727 1 774 1 785 1 791 1 813 1 821 1 831 1 848 1 857 1 863 1 865 1 873 1 874 1 887 1 892 1 913 1 28 1 42 1 48 1 61 1 66 1 79 1 94 1 106 1 114 1 122 1 139 1 147 1 169 1 215 1 218 1 269 1 289 1 306 1 316 1 334 1 368 1 389 1 455 1 462 1 484 1 490 1 510 1 514 1 553 1 560 1 569 1 571 1 597 1 606 1 641 1 655 1 686 1 688 1 691 1 697 1 725 1 740 1 752 1 762 1 784 1 790 1 806 1 815 1 841 1 867 1 906 1 908 1 910 1 929 1 945 1 953 1 969 1 996 1 997 1 924 1 935 1 1018 1 
1 208 13 1 39 1 79 1 86 1 124 1 126 1 157 1 167 1 233 1 269 1 314 1 334 1 339 1 349 1 353 1 363 1 366 1 388 2 400 1 416 1 418 1 438 1 482 1 488 1 499 1 500 1 506 1 547 1 550 1 556 1 558 1 560 1 562 1 580 1 615 1 617 1 620 1 708 1 729 1 801 1 840 1 848 1 876 1 887 1 913 1 14 1 21 1 47 1 62 1 78 1 80 1 101 1 112 1 120 1 134 1 135 1 186 1 200 1 218 1 248 1 260 1 262 1 276 1 281 1 297 1 308 1 326 1 329 1 331 1 336 1 342 1 348 1 379 1 384 1 389 1 407 1 430 1 433 1 440 1 459 1 491 1 514 1 517 1 613 1 670 1 703 1 722 1 733 1 802 1 830 1 864 1 867 1 871 1 905 1 916 1 969 1 992 1 997 1 998 1 921 1 924 1 947 1 957 1 972 1 996 1 1002 1 1005 1 
1 211 8 1 32 1 48 1 60 1 81 1 176 1 197 1 224 1 241 2 244 1 247 1 264 2 265 1 269 1 316 1 323 1 325 1 326 1 353 1 364 1 377 1 379 1 396 1 400 1 402 1 406 1 409 1 414 1 444 1 506 1 522 1 529 2 556 1 557 1 563 1 564 1 575 1 577 1 593 1 684 1 719 1 754 1 781 1 788 1 818 1 827 1 829 1 843 1 894 1 896 1 899 1 913 1 26 1 58 1 68 1 75 1 86 1 89 1 112 1 116 1 151 1 153 1 157 1 161 1 171 1 174 1 188 1 221 1 236 1 248 1 304 1 361 1 369 1 370 1 375 1 412 1 429 1 458 1 461 1 531 1 538 1 558 1 596 1 611 1 632 1 689 1 713 1 722 1 735 1 738 1 742 1 778 1 789 1 795 1 808 1 820 1 840 1 876 1 883 1 910 1 920 1 924 1 941 1 959 1 974 1 987 1 988 1 998 1 942 1 982 1 1001 1 1005 1 1016 1 
1 211 22 1 99 1 108 1 114 1 130 1 137 1 145 1 155 1 170 1 224 1 251 1 286 1 290 1 311 1 347 1 387 1 417 1 424 1 425 1 445 1 452 1 468 1 500 1 506 1 522 1 526 1 577 1 586 1 592 1 599 1 624 1 660 1 792 2 794 1 802 2 850 1 857 1 873 1 879 1 908 1 916 1 12 1 29 1 68 1 74 1 84 1 94 1 123 1 143 1 148 1 149 1 172 1 173 1 179 1 181 1 210 1 227 1 233 1 252 1 313 1 337 1 392 1 394 1 400 1 401 1 418 1 507 1 509 1 513 1 514 1 517 1 518 1 547 1 566 1 573 1 595 1 615 1 636 1 650 1 657 1 673 1 728 1 737 1 750 1 781 1 795 1 799 1 801 1 813 1 838 1 841 1 860 1 872 1 874 1 917 1 928 1 941 1 953 1 966 1 936 1 956 1 959 1 964 1 971 1 978 1 986 1 1006 1 1010 1 
1 208 15 1 37 2 42 1 44 1 72 1 73 1 75 1 79 1 84 1 91 1 110 1 128 1 155 1 165 1 187 1 211 1 222 1 251 1 258 1 263 1 264 1 295 1 298 1 303 1 316 1 318 1 364 1 410 1 428 1 448 1 456 1 468 1 482 1 483 1 513 1 534 2 542 1 544 1 569 1 645 1 657 1 689 1 690 1 692 1 732 1 762 1 764 1 778 1 789 1 790 2 796 1 804 1 827 1 846 1 876 1 879 1 905 1 911 2 24 1 77 1 87 1 94 1 96 1 113 1 140 1 153 1 166 1 167 1 169 1 181 1 191 1 262 1 283 1 284 1 333 1 380 1 401 1 417 1 433 1 455 1 502 1 506 1 537 1 554 1 588 1 607 1 612 1 629 1 635 1 639 1 651 1 652 1 672 1 696 1 709 1 714 1 727 1 743 1 748 1 826 1 836 1 845 1 862 1 875 1 880 1 898 1 940 1 943 1 974 1 986 1 998 1 938 1 1010 1 1012 1 
1 206 10 1 34 1 46 1 52 1 62 1 94 1 107 1 132 1 146 1 210 1 237 1 241 1 248 1 253 1 265 1 292 1 326 1 360 1 369 1 399 1 402 1 435 1 440 1 441 1 467 1 510 1 518 1 521 1 527 1 546 1 598 1 658 1 662 1 667 1 676 1 711 1 712 1 718 1 766 1 786 1 807 1 864 1 871 1 881 1 882 1 887 1 892 1 898 1 902 1 914 1 921 1 4 1 26 1 39 1 44 1 60 1 80 1 104 1 131 1 158 1 178 1 185 1 199 1 204 1 235 1 298 1 301 1 316 1 340 1 342 1 352 1 383 1 403 1 423 1 484 1 499 1 506 1 536 1 548 1 552 1 558 1 559 1 629 1 659 1 671 1 689 1 720 1 724 1 747 1 779 1 789 1 806 1 814 1 820 1 828 1 845 1 859 1 900 1 908 1 919 1 920 1 945 1 976 1 932 1 943 1 967 1 981 1 1006 1 1011 1 1013 1 
1 211 16 2 53 1 64 1 75 1 111 1 135 1 162 1 204 1 231 1 238 1 266 1 293 1 322 1 324 1 328 1 329 1 334 1 373 1 398 1 404 1 408 1 413 1 457 2 496 1 505 1 519 1 538 1 555 1 560 1 572 1 592 1 597 1 619 2 654 1 668 1 671 1 678 1 685 1 691 1 693 1 709 1 712 1 723 1 724 1 727 1 730 1 777 1 795 1 815 1 828 1 835 1 842 2 848 1 884 1 901 1 7 1 28 1 71 1 97 1 105 1 112 1 125 1 186 1 222 1 225 1 228 1 237 1 304 1 316 1 341 1 342 1 344 1 351 1 356 1 360 1 375 1 410 1 423 1 501 1 526 1 534 1 550 1 649 1 673 1 705 1 721 1 728 1 729 1 766 1 775 1 793 1 797 1 807 1 825 1 852 1 860 1 904 1 916 1 925 1 925 1 943 1 982 1 986 1 1002 1 1005 1 1006 1 1009 1 1012 1 
1 211 2 1 4 2 9 1 15 1 23 1 49 1 51 1 86 1 111 1 133 1 135 1 146 1 150 1 162 1 191 1 201 1 211 1 242 1 320 1 329 1 350 1 357 1 361 2 370 1 373 1 384 1 415 1 430 1 439 1 451 1 470 1 517 1 538 2 574 1 584 1 665 1 703 1 707 1 716 1 721 1 746 2 756 1 781 1 802 1 823 1 870 2 873 1 877 1 885 1 887 1 912 1 10 1 22 1 31 1 48 1 67 1 77 1 95 1 97 1 118 1 148 1 154 1 210 1 221 1 238 1 243 1 248 1 251 1 254 1 258 1 274 1 277 1 293 1 308 1 310 1 336 1 354 1 360 1 364 1 388 1 391 1 401 1 414 1 417 1 433 1 438 1 442 1 487 1 563 1 586 1 605 1 608 1 640 1 643 1 645 1 648 1 662 1 673 1 683 1 690 1 701 1 748 1 776 1 791 1 817 1 828 1 837 1 838 1 851 1 858 1 864 1 869 1 884 1 914 1 941 1 954 1 967 1 985 1 933 1 939 1 943 1 950 1 960 1 972 1 1002 1 1006 1 
1 210 12 1 26 1 37 1 46 1 68 1 69 1 95 1 132 2 136 1 140 1 165 1 218 1 220 1 222 1 229 1 237 1 241 1 261 1 280 1 287 1 288 1 302 1 304 1 334 1 354 1 360 1 419 1 430 2 450 1 456 1 460 1 466 1 503 1 508 1 641 1 645 2 647 1 664 1 675 1 715 1 723 1 755 2 759 1 820 1 823 1 860 1 863 1 869 1 880 1 897 2 909 1 914 1 13 1 16 1 19 1 24 1 45 1 158 1 183 1 188 1 200 1 219 1 236 1 268 1 331 1 350 1 368 1 379 1 382 1 425 1 428 1 447 1 457 1 480 1 483 1 536 1 550 1 567 1 582 1 616 1 628 1 636 1 652 1 682 1 684 1 765 1 817 1 842 1 851 1 859 1 888 1 893 1 929 1 975 1 988 1 990 1 948 1 960 1 965 1 978 1 1000 1 1016 1 
1 210 37 1 54 1 94 1 113 1 114 1 156 2 191 1 198 1 199 1 201 1 220 1 224 1 305 1 311 1 314 1 318 1 339 1 352 1 361 1 363 1 370 1 416 1 435 1 448 1 475 1 484 1 496 1 500 1 524 1 532 1 541 1 543 1 575 1 590 1 594 1 601 1 617 1 637 1 638 1 643 1 646 1 682 1 719 1 734 1 741 1 746 1 817 2 835 1 837 1 852 1 853 1 856 1 893 1 896 1 916 1 922 1 10 1 42 1 62 1 70 1 77 1 86 1 119 1 134 1 140 1 143 1 149 1 162 1 165 1 170 1 171 1 184 1 190 1 237 1 296 1 302 1 320 1 350 1 372 1 402 1 414 1 417 1 428 1 434 1 445 1 491 1 503 1 551 1 557 1 580 1 584 1 589 1 606 1 607 1 632 1 652 1 754 1 768 1 808 1 810 1 829 1 851 1 858 1 864 1 877 1 882 1 892 1 939 1 982 1 989 1 994 1 997 1 961 1 965 1 977 1 1016 1 
1 216 12 1 25 1 35 1 39 1 58 1 67 1 85 2 116 1 156 1 178 1 216 1 236 1 237 1 244 1 263 1 267 1 324 1 358 2 364 1 365 1 368 1 381 1 385 1 406 1 483 1 505 1 513 1 527 1 535 1 538 1 597 2 605 1 619 2 636 1 672 1 716 2 726 1 731 1 734 1 755 1 766 1 790 1 810 2 826 1 882 1 886 1 891 1 898 1 905 1 910 1 913 1 919 1 927 1 21 1 37 1 51 1 55 1 65 1 66 1 89 1 114 1 144 1 146 1 210 1 231 1 232 1 238 1 274 1 283 1 288 1 334 1 336 1 342 1 344 1 371 1 376 1 387 1 417 1 418 1 431 1 479 1 495 1 499 1 526 1 528 1 543 1 544 1 615 1 641 1 657 1 663 1 667 1 677 1 678 1 708 1 719 1 721 1 722 1 759 1 760 1 761 1 772 1 776 1 793 1 806 1 823 1 841 1 851 1 856 1 857 1 862 1 864 1 903 1 929 1 929 1 932 1 938 1 954 1 972 1 990 1 981 1 982 1 984 1 997 1 1002 1 1005 1 1015 1 
1 202 19 1 34 1 51 1 69 1 73 1 78 1 85 1 92 1 100 1 134 2 156 1 177 2 191 1 245 1 249 1 268 1 284 1 294 1 322 1 335 1 344 1 372 1 373 1 385 1 397 1 444 1 462 1 517 1 566 1 609 1 613 1 633 1 646 1 654 1 657 1 675 1 681 1 700 1 701 1 727 1 738 1 766 1 775 1 780 1 793 1 834 1 851 1 855 1 856 1 860 1 876 1 878 1 890 1 25 1 45 1 59 1 84 1 89 1 105 1 112 1 121 1 122 1 126 1 139 1 166 1 176 1 198 1 201 1 209 1 239 1 260 1 341 1 347 1 351 1 362 1 366 1 368 1 389 1 442 1 454 1 461 1 469 1 474 1 484 1 493 1 494 1 503 1 561 1 581 1 588 1 602 1 644 1 664 1 669 1 683 1 733 1 832 1 849 1 854 1 883 1 885 1 941 1 954 1 957 1 958 1 965 1 974 1 980 1 964 1 1014 1 
1 208 40 1 52 1 69 1 95 1 109 1 147 1 152 2 155 1 173 1 180 1 212 1 219 1 243 1 249 1 282 1 296 1 335 2 341 1 373 1 387 1 398 1 400 1 406 1 419 1 437 1 439 1 450 1 457 1 490 1 495 1 583 1 585 1 587 1 590 2 611 2 661 2 665 1 668 1 669 1 801 1 808 1 821 1 829 1 830 1 850 1 893 1 900 1 904 1 9 1 16 1 47 1 64 1 98 1 189 1 208 1 217 1 244 1 247 1 301 1 305 1 319 1 347 1 386 1 395 1 407 1 420 1 459 1 514 1 515 1 525 1 546 1 553 1 564 1 575 1 577 1 594 1 598 1 622 1 634 1 657 1 660 1 671 1 692 1 702 1 719 1 726 1 732 1 741 1 758 1 771 1 784 1 813 1 826 1 853 1 860 1 886 1 938 1 966 1 989 1 996 1 933 1 1013 1 
1 208 34 1 45 2 77 1 85 1 150 1 155 1 157 1 159 1 160 1 182 1 194 1 201 1 214 1 232 1 235 1 237 1 298 1 317 1 338 1 352 1 382 1 395 1 414 1 427 1 517 1 529 1 530 1 551 1 555 1 568 1 579 1 587 1 609 1 612 1 617 1 618 1 641 1 666 1 704 1 741 1 751 1 789 1 797 1 815 1 868 1 873 1 902 1 929 1 16 1 44 1 102 1 111 1 121 1 132 1 136 1 139 1 193 1 229 1 263 1 265 1 268 1 272 1 274 1 289 1 311 1 312 1 327 1 347 1 364 1 368 1 381 1 417 1 426 1 434 1 451 1 463 1 470 1 494 1 505 1 534 1 536 1 538 1 554 1 589 1 607 1 610 1 619 1 633 1 636 1 648 1 653 1 673 1 674 1 684 1 703 1 731 1 736 1 752 1 757 1 761 1 783 1 809 1 817 1 818 1 831 1 854 1 855 1 858 1 864 1 879 1 883 1 912 1 918 1 924 1 940 1 949 1 955 1 964 1 986 1 941 1 982 1 984 1 1001 1 1002 1 1003 1 
1 213 2 1 32 1 37 1 40 1 79 1 136 1 160 1 172 1 214 1 237 1 246 1 256 1 290 1 296 1 300 1 438 1 447 1 470 1 472 1 483 1 484 2 490 2 493 1 505 1 513 1 521 1 536 1 551 1 559 2 581 1 626 1 635 1 652 1 704 1 713 1 717 1 718 2 731 1 752 2 757 1 773 1 796 1 801 1 810 1 825 1 834 1 859 1 874 1 882 1 891 1 892 1 912 1 26 1 38 1 52 1 69 1 111 1 126 1 133 1 135 1 181 1 205 1 262 1 337 1 347 1 356 1 428 1 476 1 481 1 508 1 546 1 560 1 568 1 583 1 596 1 687 1 690 1 699 1 779 1 786 1 827 1 854 1 867 1 903 1 905 1 926 1 931 1 944 1 948 2 953 1 954 1 956 1 981 1 988 1 992 1 947 1 963 1 1004 1 1007 1 1008 1 1012 1 1013 1 1017 1 
1 210 1 1 17 1 18 1 24 1 68 1 82 1 90 1 106 1 163 2 178 1 180 1 193 1 228 1 251 1 276 1 320 1 323 1 324 1 362 1 364 1 378 1 403 1 433 1 435 1 449 1 464 1 474 1 494 1 509 1 510 1 542 1 544 1 545 1 555 1 556 1 568 1 571 1 584 1 595 1 602 1 609 1 630 1 660 1 680 1 689 1 698 1 734 1 745 1 776 1 864 1 886 1 30 1 62 1 79 1 97 1 99 1 124 1 130 1 132 1 144 1 153 1 157 1 167 1 173 1 187 1 198 1 214 1 216 1 237 1 295 1 303 1 328 1 339 1 349 1 351 1 381 1 390 1 392 1 399 1 446 1 461 1 518 1 528 1 533 1 541 1 577 1 598 1 619 1 622 1 628 1 645 1 646 1 655 1 657 1 710 1 714 1 716 1 719 1 787 1 816 1 882 1 939 1 935 1 964 1 974 1 990 1 991 1 996 1 1002 1 1006 1 1017 1 
1 214 5 2 8 1 29 1 49 1 84 1 107 1 110 1 111 1 153 1 154 1 155 1 223 1 224 1 271 1 301 1 307 1 314 1 319 1 321 2 342 2 346 1 352 1 367 1 372 1 391 1 398 1 403 1 410 1 431 1 489 1 512 1 549 1 559 1 622 1 625 1 633 1 652 2 670 1 702 1 707 1 709 1 713 1 719 1 720 1 725 1 778 1 900 1 914 1 916 1 26 1 46 1 58 1 85 1 99 1 118 1 130 1 135 1 186 1 196 1 226 1 261 1 281 1 283 1 320 1 328 1 419 1 477 1 478 1 497 1 511 1 523 1 530 1 554 1 584 1 592 1 599 1 639 1 641 1 660 1 680 1 687 1 691 1 695 1 710 1 743 1 744 1 769 1 786 1 794 1 885 1 896 1 899 1 919 1 934 1 941 1 946 1 939 1 953 1 987 1 992 1 1004 1 1006 1 1012 1 1015 1 
1 209 6 1 17 1 25 2 36 1 43 1 103 1 105 1 106 1 117 1 139 1 143 1 156 1 164 1 167 1 174 2 175 1 197 1 210 1 253 1 255 1 285 1 340 1 346 1 347 1 385 1 416 1 422 1 466 1 476 1 498 1 508 1 519 1 521 1 536 1 548 1 591 1 594 1 596 1 605 1 610 1 615 1 618 1 650 1 665 1 669 1 691 1 748 1 758 1 761 1 815 1 847 1 860 1 885 1 889 1 899 1 901 2 911 1 9 1 19 1 80 1 91 1 115 1 120 1 123 1 130 1 152 1 200 1 206 1 209 1 211 1 238 1 252 1 256 1 261 1 292 1 297 1 312 1 380 1 392 1 400 1 428 1 444 1 503 1 532 1 538 1 557 1 563 1 564 1 573 1 577 1 599 1 661 1 680 1 712 1 757 1 773 1 793 1 805 1 831 1 837 1 849 1 891 1 892 1 912 1 917 1 922 1 956 1 963 1 970 1 986 1 990 1 1019 1 
1 208 22 1 41 1 73 1 85 1 102 1 137 1 143 1 146 1 171 1 174 1 178 1 192 1 193 1 195 1 196 1 250 1 295 1 299 2 300 1 311 1 328 1 337 1 351 1 361 1 387 1 391 1 396 1 432 1 455 1 468 1 488 1 496 1 510 1 526 1 536 1 558 1 561 1 585 1 618 2 626 1 628 1 630 1 633 1 692 1 693 1 694 1 751 1 775 1 785 1 796 1 799 1 812 1 816 1 872 1 898 1 23 1 42 1 63 1 64 1 74 1 80 1 83 1 89 1 122 1 175 1 214 1 251 1 264 1 276 1 280 1 285 1 333 1 339 1 340 1 352 1 353 1 402 1 414 1 424 1 445 1 476 1 512 1 516 1 572 1 581 1 601 1 611 1 666 1 684 1 696 1 711 1 714 1 724 1 802 1 863 1 889 1 899 1 904 1 905 1 949 1 972 1 974 1 975 1 991 1 994 1 942 1 957 1 960 1 1000 1 1011 1 1018 1 
1 208 18 1 19 1 42 1 55 2 65 1 72 1 119 1 124 1 129 1 145 1 155 1 181 1 194 1 205 1 239 1 250 1 258 1 263 1 264 1 280 1 288 1 302 1 326 1 327 1 334 1 346 1 350 1 359 1 377 1 382 1 394 1 396 1 399 1 427 1 469 2 501 1 506 2 525 1 544 1 548 1 566 1 567 1 571 1 610 1 616 1 665 1 682 1 693 1 708 2 733 1 750 1 758 1 759 1 777 1 787 1 802 1 808 1 811 1 883 1 929 1 931 1 16 1 39 1 76 1 118 1 127 1 158 1 168 1 180 1 232 1 257 1 270 1 282 1 283 1 289 1 298 1 299 1 335 1 352 1 361 1 365 1 373 1 410 1 415 1 421 1 438 1 440 1 445 1 456 1 468 1 482 1 486 1 497 1 522 1 531 1 538 1 565 1 585 1 594 1 627 1 633 1 645 1 652 1 705 1 711 1 712 1 718 1 719 1 742 1 786 1 810 1 828 1 839 1 853 1 856 1 865 1 887 1 896 1 903 1 913 1 923 1 938 1 938 1 955 1 943 1 964 1 1011 1 1016 1 
1 207 10 1 12 1 16 2 17 2 49 1 57 1 72 1 74 1 98 1 143 1 144 1 150 1 174 2 179 1 226 1 230 1 235 1 285 1 286 1 288 1 312 1 317 1 371 1 394 1 409 1 432 1 434 2 446 1 473 2 479 1 482 2 488 1 515 1 516 1 522 1 561 1 566 1 608 1 626 1 647 1 651 1 657 1 692 1 702 1 720 1 760 1 771 1 799 1 804 1 822 1 836 1 869 1 880 1 883 1 928 1 934 1 8 1 66 1 76 1 94 1 99 1 106 1 124 1 236 1 238 1 239 1 240 1 245 1 247 1 258 1 306 1 350 1 352 1 365 1 369 1 372 1 374 1 376 1 378 1 383 1 393 1 403 1 424 1 476 1 521 1 535 1 538 1 576 1 583 1 614 1 628 1 630 1 640 1 674 1 681 1 749 1 752 1 758 1 765 1 767 1 778 1 879 1 882 1 888 1 900 1 910 1 917 1 926 1 935 1 946 1 958 1 967 1 979 1 986 1 994 2 941 1 959 1 962 1 1000 1 1019 1 
1 208 34 1 41 1 47 1 48 1 54 1 69 1 101 1 147 1 153 1 159 1 219 1 244 1 245 1 257 1 271 1 293 1 295 1 314 1 326 1 364 1 365 1 366 1 383 1 402 1 406 1 446 1 447 1 471 1 472 1 502 1 512 1 527 1 531 1 538 1 548 1 555 1 574 1 640 1 644 1 648 1 653 1 703 1 718 1 743 1 749 1 754 1 757 1 770 1 833 1 863 1 876 1 910 1 923 1 932 1 19 1 20 1 27 1 37 1 45 1 66 1 73 1 84 1 88 1 143 1 152 1 162 1 166 1 172 1 191 1 248 1 255 1 260 1 302 1 311 1 321 1 328 1 345 1 368 1 369 1 374 1 410 1 425 1 430 1 439 1 443 1 491 1 492 1 497 1 509 1 517 1 533 1 549 1 565 1 572 1 601 1 660 1 690 1 710 1 711 1 727 1 758 1 763 1 777 1 782 1 783 1 785 1 790 1 826 1 843 1 849 1 853 1 862 1 895 1 898 1 899 1 907 1 918 1 956 1 958 1 980 2 989 2 954 1 973 1 979 1 995 1 1005 1 1015 1 
1 209 5 1 42 1 45 1 60 1 131 1 136 1 155 1 162 1 210 2 216 1 221 1 240 1 255 1 301 2 304 1 305 1 318 1 336 1 349 1 350 1 352 1 357 1 396 1 417 1 442 1 469 1 477 1 491 1 495 1 510 1 523 1 533 1 576 1 578 1 606 1 611 1 635 1 649 1 655 1 657 2 665 1 679 1 697 1 701 2 707 1 715 1 733 1 739 1 755 1 799 1 854 1 863 1 869 1 889 1 895 1 901 1 909 1 921 1 922 1 926 1 930 1 935 1 15 1 100 1 115 1 138 1 145 1 185 1 206 1 211 1 244 1 346 1 370 1 386 1 393 1 415 1 427 1 464 1 471 1 501 1 511 1 527 1 539 1 545 1 547 1 562 1 566 1 579 1 592 1 605 1 613 1 621 1 654 1 663 1 669 1 676 1 683 1 706 1 726 1 730 1 745 1 779 1 783 1 795 1 811 1 812 1 833 1 842 1 848 1 932 1 939 1 945 1 959 1 995 1 996 1 956 1 979 1 1000 1 1001 1 1014 1 
1 209 72 1 78 1 80 1 96 1 119 1 149 1 154 1 167 1 169 1 217 1 231 1 271 1 292 1 298 1 330 1 348 1 354 1 388 1 391 1 401 1 441 2 485 1 488 1 503 1 544 1 549 1 558 1 570 1 573 1 598 1 603 1 620 1 643 1 692 1 716 1 723 1 726 1 729 1 734 1 735 1 745 1 749 1 763 1 779 1 780 1 783 2 804 1 816 2 833 1 835 1 843 1 859 1 868 1 882 1 887 1 895 1 897 1 911 1 20 1 24 1 62 1 88 1 105 1 127 1 161 1 186 1 187 1 199 1 201 1 257 1 263 1 264 1 270 1 281 1 285 1 297 1 355 1 357 1 375 1 381 1 385 1 399 1 406 1 422 1 433 1 434 1 459 1 469 1 470 1 473 1 487 1 496 1 513 1 545 1 575 1 608 1 622 1 628 1 634 1 652 1 673 1 676 1 732 1 738 1 746 1 792 1 795 1 809 1 827 1 841 1 871 1 900 1 913 1 921 1 937 1 942 1 942 1 953 1 970 1 982 1 996 1 998 1 1004 1 
1 210 12 1 16 1 18 1 24 1 25 1 31 2 49 1 51 1 86 1 95 1 101 1 113 1 120 1 139 1 149 1 152 1 154 1 164 1 176 1 180 1 192 1 203 1 205 1 210 1 221 2 256 1 279 1 310 1 313 1 329 1 336 1 365 1 372 1 374 1 377 1 391 1 417 1 426 1 458 1 463 1 486 1 492 2 503 1 523 1 542 1 547 1 566 1 567 1 651 1 693 1 700 1 701 1 728 2 741 1 749 1 751 1 767 1 784 1 792 1 796 1 811 1 843 1 854 1 860 1 866 2 873 1 911 1 923 1 925 1 39 1 62 1 63 1 68 1 80 1 106 1 133 1 167 1 197 1 249 1 281 1 287 1 303 1 316 1 321 1 343 1 402 1 425 1 462 1 466 1 467 1 483 1 515 1 554 1 558 1 587 1 588 1 640 1 644 1 675 1 694 1 731 1 738 1 757 1 783 1 825 1 846 1 875 1 879 1 883 1 885 1 888 1 908 1 913 1 915 1 918 1 924 1 926 1 938 1 964 2 966 1 997 1 988 1 1006 1 1010 1 1014 1 
1 210 17 1 26 1 28 1 65 1 68 1 72 1 110 1 134 1 138 1 141 1 154 1 176 1 185 1 193 1 276 1 280 1 283 1 292 1 294 1 298 2 309 1 343 1 345 1 350 1 374 1 377 1 404 1 413 1 418 1 425 1 427 1 444 1 450 1 452 1 481 1 501 1 541 1 544 1 568 1 573 1 649 1 656 1 678 1 688 1 693 2 694 1 702 2 720 1 722 1 730 1 740 1 747 1 758 1 796 1 803 1 819 1 933 1 5 1 14 1 19 1 53 1 56 1 69 1 74 1 113 1 128 1 145 1 152 1 209 1 211 1 225 1 228 1 286 1 290 1 336 1 372 1 483 1 570 1 578 1 610 1 617 1 619 1 639 1 651 1 667 1 668 1 689 1 708 1 716 1 727 1 731 1 759 1 781 1 785 1 786 1 813 1 852 1 876 1 877 1 881 1 889 1 896 1 898 1 981 1 994 1 997 1 996 1 1003 1 1005 1 1008 1 1011 1 
1 209 17 1 25 1 39 1 43 1 58 1 68 1 71 1 76 1 90 1 117 1 181 1 187 1 223 1 225 1 231 1 240 1 257 1 269 1 272 1 276 1 283 1 297 1 305 1 313 1 315 1 325 1 347 1 360 1 371 1 401 1 403 1 422 1 423 1 441 1 497 1 498 1 532 1 613 1 615 1 633 1 642 1 648 1 670 1 746 1 752 1 788 1 806 1 812 1 817 1 898 1 905 1 909 1 917 1 919 1 924 1 941 1 5 1 18 1 27 1 49 1 72 1 81 1 96 1 116 1 120 1 134 1 144 1 173 1 195 1 204 1 207 1 247 1 279 1 294 1 312 1 336 1 344 1 354 1 357 1 367 1 369 1 377 1 396 1 427 1 435 1 450 1 461 1 465 1 466 1 517 1 524 1 539 1 545 1 571 1 576 1 582 1 595 1 643 1 672 1 703 1 726 1 733 1 760 1 797 1 864 1 868 1 869 1 876 1 899 1 906 1 946 1 947 1 968 1 970 1 976 1 950 1 955 1 958 1 1006 1 1010 1 1012 1 1015 1 1018 1 
1 210 14 1 48 1 63 1 71 1 103 1 106 1 136 1 159 1 164 1 177 1 211 1 259 1 274 1 326 1 344 1 391 1 418 1 475 1 484 2 506 1 519 2 527 1 531 1 548 1 551 1 577 1 582 1 603 1 610 1 622 1 650 1 679 1 723 1 731 1 740 1 750 1 753 1 756 1 772 1 779 1 799 1 830 1 877 1 880 1 883 1 890 1 897 1 906 1 917 1 918 1 935 1 939 1 945 1 18 1 33 1 60 1 113 1 114 1 117 1 123 1 127 1 130 1 144 1 146 1 151 1 153 1 163 1 166 1 170 1 229 1 233 1 257 1 260 1 262 1 295 1 322 1 370 1 397 1 414 1 425 1 462 1 464 1 474 1 483 1 512 1 513 1 518 1 522 1 526 1 528 1 529 1 539 1 549 1 553 1 562 1 605 1 682 1 683 1 686 1 691 1 692 1 694 1 700 1 720 1 741 1 793 1 806 1 814 1 815 1 828 1 840 1 862 1 867 1 868 1 875 1 901 1 916 1 947 1 958 1 982 1 984 1 1005 1 1008 1 
1 210 2 1 13 1 22 1 29 1 54 2 73 1 86 1 101 1 117 1 119 1 139 1 147 1 167 1 226 1 227 1 228 1 230 1 232 1 240 1 302 1 353 1 368 1 386 1 387 1 398 1 402 1 418 1 424 1 467 1 472 1 480 1 486 1 508 1 515 1 523 1 529 1 543 1 553 1 556 1 561 2 564 1 584 1 589 1 592 1 594 1 624 1 645 1 660 1 663 1 674 1 712 1 715 1 726 1 733 1 750 1 756 1 767 1 802 1 806 1 814 1 822 1 858 2 880 1 892 2 896 1 945 1 946 1 1 1 19 1 37 1 46 1 53 1 67 1 71 1 72 1 76 1 77 1 93 1 94 1 109 1 110 1 120 1 185 1 219 1 229 1 233 1 269 1 293 1 298 1 301 1 306 1 322 1 323 1 378 1 380 1 384 1 401 1 410 1 475 1 502 1 547 1 597 1 623 1 692 1 696 1 732 1 754 1 757 1 774 1 789 1 795 1 812 1 833 1 836 1 844 1 873 1 911 1 916 1 920 1 933 1 961 1 965 1 980 1 972 1 978 1 987 1 1010 1 1013 1 
1 209 5 2 27 1 33 2 74 1 88 1 111 1 150 1 177 1 218 1 224 1 248 1 258 1 265 1 304 1 313 1 314 1 318 1 319 1 322 1 331 2 357 1 368 1 415 1 424 1 436 2 442 1 450 1 469 1 473 1 485 1 539 1 568 1 599 1 614 1 652 1 681 1 695 2 701 2 717 2 720 1 723 1 770 1 776 1 786 1 789 1 796 1 802 1 805 1 825 1 837 1 847 1 854 2 865 1 873 1 891 1 933 2 4 1 51 1 71 1 72 1 80 1 87 1 99 1 132 1 142 1 143 1 149 1 151 1 166 1 185 1 191 1 226 1 254 1 257 1 308 1 320 1 342 1 370 1 413 1 429 1 431 1 437 1 441 1 458 1 476 1 482 1 513 1 525 1 531 1 542 1 569 1 573 1 656 1 662 1 679 1 686 1 704 1 741 1 745 1 750 1 757 1 759 1 771 1 778 1 819 1 858 1 862 1 894 1 897 1 898 1 903 1 906 1 913 1 915 1 927 1 963 1 976 1 964 1 989 1 1016 1 1017 1 1019 1 
1 206 2 1 11 2 14 1 25 1 29 1 39 1 46 1 66 1 115 1 119 1 137 1 152 1 167 1 189 1 213 1 236 2 242 1 248 1 250 1 263 1 276 1 280 1 284 1 294 1 345 1 374 1 409 1 440 1 449 1 455 1 539 1 549 1 571 1 577 1 584 1 588 1 634 1 703 1 727 1 729 1 753 2 756 1 796 1 800 2 811 1 821 1 823 1 891 1 932 1 937 1 15 1 16 1 23 1 52 1 88 1 107 1 109 1 174 1 212 1 216 1 222 1 223 1 231 1 243 1 273 1 292 1 300 1 323 1 326 1 339 1 364 1 372 1 379 1 404 1 417 1 428 1 429 1 446 1 447 1 498 1 513 1 518 1 524 1 526 1 537 1 557 1 574 1 578 1 641 1 666 1 673 1 755 1 759 1 765 1 773 1 775 1 779 1 806 1 808 1 815 1 849 1 855 1 875 1 885 1 905 1 972 1 997 1 962 1 1017 1 
1 213 5 1 30 1 44 1 82 1 96 1 123 1 131 1 134 1 137 1 141 1 146 1 148 1 161 1 273 1 279 1 283 1 303 1 309 1 323 1 342 1 400 1 401 1 442 1 448 1 452 1 507 1 523 1 529 1 547 1 559 1 572 1 581 1 604 1 617 1 639 1 656 1 670 1 672 1 688 1 692 1 709 1 724 1 734 1 735 1 752 1 756 1 758 1 787 1 793 1 797 1 834 1 857 1 879 1 880 2 906 1 907 1 8 1 33 1 71 1 79 1 80 1 121 1 127 1 143 1 240 1 244 1 351 1 357 1 376 1 412 1 413 1 423 1 444 1 446 1 449 1 458 1 474 1 479 1 509 1 533 1 538 1 577 1 579 1 647 1 695 1 699 1 722 1 765 1 809 1 850 1 887 1 901 1 902 1 926 1 945 1 985 1 991 1 955 1 980 1 983 1 984 1 1001 1 1005 1 1008 1 1018 1 
1 212 11 1 14 1 15 1 40 1 49 1 80 1 129 1 148 2 150 1 178 1 196 1 221 1 225 1 231 1 249 1 284 1 291 1 295 1 361 2 383 1 393 1 399 1 417 1 418 1 430 1 431 1 522 1 540 1 550 1 571 1 594 1 601 1 634 1 645 1 699 1 702 1 705 1 710 1 717 1 722 1 765 1 774 1 780 1 796 1 805 1 825 2 832 1 840 1 845 1 857 1 882 1 893 1 896 1 901 1 906 1 915 1 10 1 12 1 13 1 23 1 37 1 38 1 41 1 68 1 96 1 97 1 98 1 128 1 131 1 139 1 145 1 152 1 166 1 270 1 334 1 344 1 356 1 367 1 373 1 413 1 433 1 456 1 460 1 461 1 504 1 506 1 561 1 569 1 585 1 623 1 624 1 625 1 660 1 675 1 704 1 713 1 725 1 746 1 750 1 763 1 767 1 787 1 791 1 792 1 815 1 841 1 852 1 856 1 858 1 891 1 892 1 951 1 951 1 984 1 990 1 994 1 974 1 986 1 1004 1 1011 1 1014 1 
1 213 23 1 24 1 39 1 117 1 132 1 143 1 153 1 180 1 211 1 217 1 240 1 251 1 259 1 268 1 269 1 275 1 331 2 334 1 351 1 354 1 355 1 386 1 387 1 393 1 396 1 410 1 411 1 414 1 424 1 433 1 436 1 459 1 469 1 503 1 549 1 553 1 557 1 563 1 590 1 650 1 674 2 675 1 761 1 788 1 795 1 801 1 840 1 858 2 877 1 885 1 888 1 904 1 917 1 8 1 18 1 40 1 49 1 65 1 78 1 104 1 127 1 134 1 157 1 166 1 177 1 188 1 219 1 250 1 257 1 271 1 276 1 312 1 317 1 318 1 373 1 405 1 407 1 456 1 457 1 463 1 466 1 472 1 473 1 486 1 496 1 498 1 521 1 533 1 567 1 568 1 581 1 601 1 634 1 642 1 656 1 710 1 714 1 724 1 739 1 781 1 782 1 815 1 829 1 862 1 892 1 900 1 910 1 974 1 986 1 994 1 1008 1 1010 1 1014 1 1016 1 1019 1 
1 209 42 1 113 1 120 1 121 1 131 1 132 1 135 1 139 1 163 1 170 1 188 1 196 1 198 1 206 1 223 1 253 1 283 1 293 1 310 1 330 1 338 1 347 1 352 1 358 1 375 1 384 1 433 1 435 1 437 1 440 1 447 1 471 1 488 1 509 1 515 1 531 1 545 1 555 1 558 1 596 1 607 1 641 2 658 1 693 1 720 1 746 2 748 1 753 1 770 1 789 1 807 1 865 1 877 1 896 1 916 1 919 1 922 1 933 1 942 1 8 1 13 1 24 1 40 1 45 1 72 1 94 1 133 1 138 1 153 1 181 1 185 1 186 1 191 1 271 1 279 1 298 1 322 1 326 1 332 1 342 1 351 1 385 1 406 1 418 1 419 1 439 1 442 1 446 1 448 1 469 1 487 1 530 1 549 1 571 1 583 1 588 1 593 1 595 1 617 1 634 1 647 1 662 1 683 1 699 1 715 1 729 1 738 1 750 1 759 1 761 1 797 1 820 1 822 1 828 1 835 1 868 1 884 1 915 1 935 1 988 1 994 1 1017 1 1018 1 
1 216 1 1 14 1 19 1 24 1 62 1 92 1 121 1 126 1 142 1 158 1 160 1 173 1 195 1 217 2 224 1 263 1 284 1 285 1 305 1 337 1 377 1 501 1 515 1 566 1 569 1 570 1 571 1 597 2 601 1 612 1 613 1 616 2 626 1 654 1 656 1 677 1 702 1 749 1 752 1 775 1 778 1 834 1 837 1 889 1 917 1 926 1 929 1 930 1 933 1 5 1 51 1 63 1 91 1 109 1 198 1 226 1 238 1 255 1 271 1 289 1 309 1 329 1 375 1 405 1 406 1 409 1 456 1 475 1 516 1 528 1 537 1 538 1 548 1 559 1 565 1 615 1 622 1 627 1 634 1 686 1 745 1 746 1 763 1 766 1 813 1 860 1 899 1 907 1 940 1 962 1 976 1 990 1 963 1 970 1 978 1 987 1 988 1 999 1 1013 1 1019 1 
1 212 30 1 53 1 65 1 74 1 79 1 128 1 154 2 169 1 173 1 205 1 226 1 228 1 233 1 266 1 271 1 290 1 314 1 318 1 328 1 342 1 357 1 361 1 365 1 372 1 374 2 388 1 444 1 445 1 447 1 452 1 454 1 471 1 486 1 502 1 538 1 549 1 562 1 582 1 592 1 598 1 600 1 606 1 617 1 630 1 635 1 647 1 650 1 664 1 670 1 703 1 706 1 795 1 805 1 839 1 843 1 855 1 870 1 894 2 902 1 918 1 932 1 938 1 14 1 57 1 68 1 70 1 87 1 115 1 121 1 122 1 134 1 140 1 163 1 168 1 175 1 189 1 190 1 193 1 199 1 206 1 207 1 211 1 250 1 293 1 308 1 321 1 344 1 349 1 360 1 382 1 389 1 392 1 411 1 414 1 435 1 453 1 460 1 461 1 466 1 480 1 490 1 504 1 524 1 526 1 528 1 532 1 534 1 541 1 571 1 573 1 597 1 615 1 625 1 631 1 679 1 743 1 744 1 777 1 789 1 790 1 791 1 803 1 840 1 861 1 945 1 950 1 966 1 973 1 986 1 969 1 976 1 997 1 1008 1 1018 1 
1 210 20 1 29 1 31 1 91 1 96 1 109 1 110 1 127 1 133 2 137 1 141 1 150 1 211 1 213 1 216 1 224 1 225 1 226 1 269 1 284 1 296 1 302 1 325 1 330 1 342 1 354 1 358 1 373 1 427 1 455 1 485 1 508 1 515 1 516 1 549 1 576 1 580 1 588 1 589 1 591 1 608 1 636 1 640 2 642 1 645 1 673 1 689 2 806 1 811 1 821 1 840 1 863 1 897 1 900 1 908 1 914 1 933 1 940 1 54 1 101 1 120 1 152 1 168 1 176 1 200 1 202 1 240 1 252 1 276 1 305 1 320 1 323 1 334 1 368 1 370 1 379 1 432 1 436 1 450 1 465 1 492 1 525 1 556 1 599 1 619 1 650 1 654 1 657 1 662 1 664 1 680 1 685 1 694 1 699 1 705 1 715 1 766 1 828 1 831 1 860 1 883 1 895 1 922 1 936 1 941 1 985 1 990 1 992 1 998 1 972 1 977 1 997 1 1006 1 1012 1 1013 1 1015 1 1019 1 
1 209 2 1 5 1 13 1 24 2 42 1 48 1 60 1 70 1 79 2 85 2 100 1 103 1 129 1 132 1 162 1 164 1 183 1 184 1 186 2 191 1 194 1 204 1 251 1 273 1 276 1 283 1 291 1 310 1 377 1 387 1 394 1 404 1 422 1 454 1 485 1 492 1 494 1 523 1 531 1 553 1 560 1 575 1 577 1 608 1 619 1 632 1 684 1 723 1 789 1 790 1 796 1 819 1 834 1 839 1 846 1 852 1 857 1 877 1 891 1 894 1 918 1 930 1 9 1 21 1 61 1 94 1 116 1 143 1 168 1 175 1 182 1 207 1 219 1 235 1 265 1 288 1 304 1 327 1 330 1 429 1 461 1 478 1 486 1 496 1 499 1 510 1 539 1 550 1 555 1 587 1 655 1 669 1 718 1 727 1 729 1 748 1 750 1 753 1 826 1 870 1 908 1 914 1 920 1 937 1 985 1 973 1 994 1 999 1 
1 208 29 1 40 1 51 1 75 1 84 1 87 1 91 1 96 1 100 1 111 1 129 1 147 1 167 2 228 1 230 2 232 1 237 2 238 1 259 1 271 1 317 1 328 1 374 1 386 1 389 1 401 1 415 1 416 1 438 1 439 1 454 1 462 2 470 2 488 1 489 1 512 1 520 1 533 1 542 1 560 1 572 1 601 1 606 1 641 1 657 1 675 1 749 1 771 1 794 1 804 1 807 1 841 1 869 1 930 1 939 1 940 1 946 1 18 1 19 1 34 1 36 1 54 1 104 1 144 1 154 1 164 1 166 1 175 1 178 1 212 1 218 1 233 1 245 1 253 1 288 1 332 1 344 1 350 1 404 1 443 1 457 1 461 1 469 1 477 1 480 1 484 1 492 1 499 1 500 1 517 1 537 1 552 1 584 1 612 1 647 1 651 1 669 1 685 1 693 1 735 1 744 1 768 1 769 1 789 1 826 1 846 1 850 1 865 1 873 1 882 1 891 1 897 1 915 1 945 1 966 1 981 1 997 1 1012 1 1013 1 1015 1 
1 209 14 1 18 1 22 1 27 1 38 1 48 1 67 1 86 1 98 1 103 1 109 1 112 1 129 1 157 1 201 2 203 1 207 2 217 1 232 1 237 1 244 1 304 1 317 1 373 1 388 1 412 1 461 1 470 2 490 1 519 1 528 1 540 1 582 1 584 1 644 1 665 1 692 1 707 1 748 1 758 1 767 1 777 1 779 1 781 1 791 1 815 1 824 1 830 1 834 1 844 1 871 1 881 1 921 1 941 1 2 1 33 1 97 1 110 1 151 1 159 1 163 1 174 1 202 1 219 1 227 1 252 1 287 1 288 1 292 1 294 1 301 1 303 1 352 1 364 1 370 1 413 1 414 1 424 1 459 1 477 1 479 1 496 1 525 1 549 1 561 1 577 1 579 1 587 1 591 1 696 1 703 1 721 1 736 1 754 1 759 1 761 1 766 1 790 1 800 1 828 1 849 1 854 1 908 1 922 1 939 1 959 1 959 1 965 1 969 1 971 1 987 1 1003 1 1012 1 
1 214 9 1 46 1 66 1 145 1 147 1 153 1 161 1 205 1 228 1 240 2 259 2 261 1 284 1 289 1 304 1 310 1 316 1 317 1 389 1 397 1 400 1 407 1 418 1 459 1 506 1 527 1 554 1 562 1 568 2 578 1 615 1 624 1 625 1 654 1 711 1 729 1 737 1 748 1 762 1 763 1 786 1 800 1 803 1 824 2 864 1 891 2 897 1 905 1 906 1 911 1 11 1 22 1 80 1 85 1 98 1 110 1 133 1 139 1 155 1 182 1 192 1 211 1 214 1 217 1 221 1 226 1 248 1 249 1 252 1 282 1 292 1 295 1 297 1 299 1 314 1 318 1 327 1 334 1 336 1 344 1 345 1 356 1 358 1 387 1 401 1 403 1 417 1 421 1 449 1 462 1 470 1 479 1 629 1 638 1 648 1 655 1 671 1 727 1 747 1 780 1 807 1 813 1 826 1 828 1 868 1 889 1 895 1 915 1 917 1 926 1 927 1 937 1 991 1 969 1 971 1 976 1 1016 1 
1 217 6 1 9 1 12 1 17 1 57 1 94 1 99 1 125 1 127 1 139 1 150 1 164 1 168 1 206 1 212 1 226 1 252 1 257 1 272 1 299 1 325 1 333 1 334 1 347 1 348 1 367 1 379 1 385 1 411 1 450 1 457 1 466 1 475 2 495 1 580 1 593 1 600 1 634 1 646 1 648 2 653 1 657 1 663 1 666 1 692 1 699 1 713 2 738 1 749 1 775 1 778 1 790 1 797 1 804 1 811 1 822 1 833 1 845 1 881 1 890 1 891 1 896 1 905 1 906 1 909 1 947 1 15 1 21 1 38 1 39 1 47 1 66 1 67 1 68 1 75 1 86 1 98 1 159 1 184 1 187 1 228 1 234 1 248 1 283 1 286 1 305 1 321 1 355 1 386 1 387 1 392 1 400 1 412 1 420 1 432 1 439 1 443 1 464 1 468 1 474 1 520 1 527 1 561 1 586 1 602 1 617 1 626 1 678 1 685 1 691 1 724 1 726 1 735 1 813 1 841 1 842 1 867 1 874 1 884 1 893 1 917 1 928 1 964 1 1006 1 1007 1 1008 1 1009 1 1011 1 1013 1 1018 1 
1 210 24 1 96 1 111 1 141 1 152 1 167 1 180 1 183 1 189 1 194 1 200 1 204 1 217 1 228 1 251 1 275 1 281 1 313 1 341 1 342 1 359 1 372 1 373 1 395 1 400 1 411 1 414 1 435 1 488 1 502 1 510 1 523 1 571 1 605 1 630 1 658 1 741 1 744 1 773 2 780 1 802 1 803 2 811 1 818 1 827 1 840 1 916 1 954 1 7 1 16 1 38 1 42 1 48 1 88 1 107 1 161 1 171 1 176 1 179 1 227 1 240 1 259 1 278 1 280 1 290 1 295 1 310 1 321 1 332 1 347 1 375 1 425 1 440 1 444 1 480 1 486 1 492 1 550 1 559 1 560 1 593 1 597 1 599 1 626 1 631 1 642 1 657 1 694 1 705 1 713 1 736 1 742 1 751 1 757 1 765 1 781 1 832 1 834 1 874 1 888 1 900 1 901 1 915 1 939 1 949 1 962 1 962 1 988 1 991 1 992 1 995 1 1014 1 1015 1 
1 207 9 1 24 1 31 1 41 1 55 1 66 1 75 1 81 1 86 1 103 1 119 1 143 1 157 1 197 1 208 1 210 1 231 1 241 1 245 1 261 1 283 1 290 1 292 1 298 1 313 2 319 1 340 1 359 1 382 1 401 1 422 1 436 2 441 1 456 1 469 1 505 1 559 1 584 2 607 1 611 1 612 1 620 1 633 1 649 1 650 1 672 1 723 1 735 1 736 1 738 1 741 1 776 2 822 1 884 1 910 1 915 1 948 1 1 1 28 1 34 1 49 1 89 1 124 1 139 1 151 1 164 1 175 1 181 1 186 1 215 1 242 1 252 1 267 1 302 1 315 1 345 1 356 1 372 1 374 1 387 1 390 1 437 1 445 1 485 1 497 1 504 1 514 1 531 1 532 1 544 1 552 1 572 1 573 1 574 1 627 1 648 1 718 1 725 1 740 1 774 1 775 1 778 1 791 1 795 1 804 1 807 1 808 1 851 1 895 1 904 1 912 1 918 1 933 1 936 1 954 1 975 1 985 1 987 1 993 1 977 1 1018 1 
1 206 11 1 51 1 64 1 77 1 91 1 96 1 110 1 125 1 148 1 153 1 191 1 235 1 240 1 242 1 248 1 289 1 328 1 331 1 336 1 364 1 377 1 391 2 403 1 489 2 492 2 529 1 564 1 585 1 591 1 607 1 610 1 614 1 630 1 638 1 651 1 667 1 682 1 699 2 721 1 722 1 737 1 810 1 822 1 867 1 890 1 932 1 943 2 9 1 36 1 39 1 55 1 84 1 101 1 116 1 141 1 173 1 194 1 197 1 224 1 256 1 272 1 281 1 298 1 303 1 312 1 315 1 345 1 347 1 357 1 399 1 414 1 498 1 500 1 504 1 565 1 567 1 573 1 583 1 587 1 623 1 634 1 643 1 663 1 678 1 713 1 714 1 754 1 769 1 787 1 790 1 806 1 819 1 843 1 845 1 856 1 862 1 863 1 882 1 900 1 909 1 917 1 922 1 930 1 934 1 938 1 948 1 961 1 979 1 998 1 983 1 988 1 990 1 1004 1 1007 1 
1 211 18 1 61 1 93 1 96 1 103 2 107 1 138 1 148 1 195 1 229 1 236 1 256 1 263 1 268 1 282 1 297 1 315 1 318 2 326 1 336 1 349 1 372 1 379 2 400 1 449 1 454 1 457 1 474 1 481 1 532 1 548 1 560 1 575 1 591 1 653 1 661 1 692 1 710 1 722 1 766 1 775 1 779 1 835 1 852 1 854 1 901 1 904 1 930 1 947 1 959 1 60 1 63 1 72 1 124 1 142 1 150 1 153 1 173 1 176 1 202 1 205 1 208 1 227 1 271 1 343 1 367 1 368 1 390 1 406 1 408 1 421 1 435 1 438 1 456 1 472 1 486 1 520 1 523 1 542 1 588 1 590 1 593 1 599 1 616 1 620 1 660 1 670 1 671 1 683 1 700 1 728 1 748 1 749 1 760 1 764 1 781 1 785 1 813 1 860 1 877 1 927 1 928 1 974 1 982 1 984 1 993 1 994 1 981 1 986 1 987 1 1011 1 
1 207 19 1 37 1 42 1 65 1 75 1 91 1 109 1 124 1 127 2 142 1 165 1 179 1 194 1 207 1 219 1 232 1 248 1 251 1 259 1 286 1 288 1 302 1 303 1 333 1 372 1 374 2 376 1 383 1 384 1 386 1 400 1 405 1 470 1 501 1 504 1 538 1 543 1 568 1 586 2 596 1 599 1 600 1 644 1 649 1 663 2 670 1 671 1 696 1 700 1 707 1 727 1 747 1 775 1 791 1 798 1 805 1 838 1 848 2 853 2 879 1 887 1 895 1 903 2 911 1 922 1 931 1 943 1 955 1 958 1 90 1 99 1 104 1 131 1 136 1 141 1 159 1 224 1 229 1 263 1 271 1 272 1 275 1 328 1 357 1 370 1 387 1 411 1 416 1 438 1 441 1 450 1 496 1 527 1 530 1 559 1 593 1 603 1 607 1 648 1 675 1 708 1 778 1 821 1 829 1 832 1 833 1 844 1 849 1 863 1 866 1 888 1 897 1 904 1 967 1 971 1 974 1 980 1 972 1 1009 1 1013 1 
1 211 34 1 36 1 76 1 85 1 87 2 88 1 90 1 96 1 148 2 172 2 183 1 192 1 194 1 210 1 212 1 231 1 241 1 245 1 259 1 271 1 329 1 346 1 347 1 352 1 426 1 439 1 472 1 518 1 522 1 545 1 561 1 571 1 593 1 595 1 623 1 629 1 631 1 635 1 642 1 651 1 689 1 690 1 693 1 698 1 714 1 720 1 734 1 738 1 787 1 800 1 811 1 832 1 855 1 870 1 889 1 926 1 939 1 966 1 1 1 18 1 33 1 54 1 79 1 92 1 95 1 105 1 115 1 144 1 155 1 173 1 177 1 184 1 226 1 240 1 324 1 337 1 341 1 378 1 419 1 432 1 436 1 437 1 474 1 547 1 588 1 603 1 605 1 613 1 632 1 640 1 656 1 660 1 670 1 686 1 707 1 730 1 751 1 783 1 788 1 793 1 815 1 864 1 866 1 876 1 913 1 924 1 967 1 967 1 972 1 995 1 999 1 1000 1 1001 1 1005 1 1008 1 
1 215 34 1 42 1 52 1 70 1 87 2 113 1 124 1 145 1 148 1 149 1 153 1 167 1 197 1 217 1 281 1 296 1 369 1 395 1 432 1 444 1 451 1 459 1 465 1 477 1 533 1 543 1 557 1 575 1 596 1 604 1 618 1 624 1 628 1 641 1 682 1 686 1 729 1 735 1 752 1 764 1 775 1 776 1 782 2 799 1 814 1 819 1 823 1 841 1 870 1 873 1 876 1 879 2 945 1 9 1 24 1 37 1 57 1 90 1 116 1 127 1 144 1 157 1 202 1 204 1 207 1 241 1 275 1 280 1 283 1 314 1 337 1 338 1 348 1 353 1 393 1 394 1 429 1 437 1 438 1 471 1 497 1 499 1 500 1 506 1 511 1 524 1 527 1 558 1 560 1 584 1 594 1 609 1 613 1 643 1 661 1 665 1 667 1 676 1 690 1 697 1 698 1 706 1 723 1 755 1 777 1 792 1 800 1 818 1 833 1 872 1 883 1 893 1 910 1 970 1 992 1 995 1 977 1 1001 1 1011 1 
1 212 9 1 44 1 51 1 60 1 99 2 145 1 166 1 168 1 169 1 201 1 236 1 238 1 252 1 258 1 270 1 272 1 277 1 286 2 327 1 328 1 329 1 350 1 367 1 402 1 406 1 415 1 429 1 441 1 459 1 469 1 498 1 507 1 512 1 544 1 551 1 607 1 653 1 655 1 670 1 686 1 689 1 705 2 711 1 728 1 732 1 794 1 801 1 806 1 864 1 870 1 876 1 898 1 899 1 913 1 919 1 920 1 23 1 28 1 31 1 35 1 49 1 64 1 67 1 149 1 150 1 160 1 191 1 208 1 220 1 232 1 290 1 291 1 296 1 321 1 340 1 342 1 351 1 359 1 360 1 365 1 370 1 374 1 376 1 382 1 392 1 399 1 439 1 473 1 486 1 494 1 506 1 542 1 554 1 580 1 594 1 614 1 618 1 632 1 713 1 744 1 771 1 780 1 781 1 789 1 822 1 824 1 848 1 860 1 867 1 878 1 887 1 894 1 955 1 959 1 960 1 974 1 982 2 986 1 997 1 1001 1 1014 1 1019 1 
1 213 18 1 41 1 58 1 75 1 102 1 113 1 139 1 141 1 166 1 168 2 172 1 177 2 227 1 236 1 238 1 241 1 251 1 312 2 315 1 325 1 338 2 364 1 384 1 410 1 449 1 452 1 457 1 491 1 492 1 499 1 506 1 515 1 543 1 546 1 547 1 557 1 575 1 610 1 611 1 617 1 626 1 645 1 650 2 683 1 702 1 729 1 737 1 740 1 757 1 775 1 820 1 822 1 826 1 840 1 870 1 873 1 880 1 904 2 908 1 945 1 968 1 4 1 14 1 49 1 55 1 85 1 89 1 109 1 140 1 232 1 242 1 252 1 323 1 347 1 359 1 380 1 415 1 437 1 458 1 460 1 472 1 480 1 486 1 493 1 494 1 532 1 558 1 654 1 656 1 682 1 687 1 704 1 710 1 714 1 720 1 725 1 727 1 728 1 736 1 760 1 764 1 771 1 780 1 795 1 876 1 889 1 896 1 916 1 936 1 942 1 954 1 970 1 970 1 980 1 992 1 998 1 971 1 979 1 996 1 1000 1 1001 1 1014 1 1015 1 
1 214 8 1 34 1 38 1 61 1 71 1 136 1 172 1 196 1 197 1 242 1 291 1 317 1 327 1 329 1 337 1 415 1 428 1 467 1 527 1 570 1 574 1 582 1 596 1 602 1 612 1 637 1 670 1 691 1 705 1 706 1 708 1 724 1 737 1 758 1 766 1 772 1 773 1 774 1 780 1 809 1 825 1 832 2 847 1 871 1 901 1 966 1 5 1 43 1 53 1 68 1 81 1 84 1 86 1 93 1 110 1 114 1 118 1 137 1 147 1 148 1 154 1 162 1 182 1 193 1 195 1 224 1 229 1 231 1 238 1 247 1 253 1 255 1 262 1 264 1 285 1 297 1 299 1 302 1 318 1 326 1 338 1 346 1 350 1 353 1 354 1 368 1 387 1 393 1 396 1 436 1 439 1 448 1 459 1 463 1 466 1 474 1 484 1 503 1 561 1 567 1 580 1 629 1 652 1 686 1 717 1 742 1 849 1 862 1 906 1 911 1 915 1 922 1 959 1 960 1 970 1 975 1 984 1 987 1 1012 1 1015 1 1016 1 
1 209 19 1 32 1 59 1 72 1 106 1 118 1 120 1 134 1 175 1 191 1 204 1 217 1 244 1 254 1 301 1 316 1 342 1 348 1 396 1 412 1 428 1 450 1 451 1 452 1 458 1 479 1 499 1 514 1 533 1 555 1 567 1 596 1 599 1 621 1 646 1 704 1 751 1 758 1 760 1 768 1 778 1 812 1 828 1 861 1 869 1 875 1 879 1 902 1 929 1 937 1 949 1 967 1 1 1 15 1 17 1 29 1 39 1 68 1 80 1 93 1 121 1 128 1 131 1 138 1 161 1 182 1 196 1 215 1 223 1 234 1 273 1 300 1 318 1 327 1 329 1 361 1 394 1 405 1 425 1 442 1 474 1 506 1 531 1 535 1 537 1 542 1 543 1 561 1 566 1 579 1 580 1 586 1 591 1 612 1 635 1 651 1 677 1 680 1 696 1 699 1 712 1 718 1 798 1 806 1 810 1 838 1 917 1 918 1 920 1 926 1 947 1 956 1 966 1 986 1 979 1 
1 202 1 1 28 2 42 1 43 1 44 1 60 2 82 1 92 2 93 1 102 2 112 1 132 1 136 2 140 1 181 1 190 1 252 1 287 1 303 1 325 1 337 1 338 1 360 2 369 1 375 1 386 1 400 1 424 1 476 1 483 1 484 1 516 1 527 1 546 1 558 1 616 1 623 1 664 1 682 1 684 1 689 2 711 1 724 1 725 1 728 1 741 1 742 1 749 1 779 1 806 1 826 1 828 1 831 2 837 1 852 1 853 1 865 1 890 1 894 1 955 1 21 1 51 1 103 1 122 1 150 1 154 1 168 1 204 1 239 1 283 1 313 1 320 1 343 1 351 1 371 1 380 1 434 1 439 1 440 1 472 1 537 1 539 1 548 1 574 1 587 1 588 1 603 1 622 1 661 1 669 1 709 1 722 1 752 1 781 1 785 1 807 1 811 1 843 1 856 1 866 1 881 1 898 1 901 1 909 1 940 1 957 1 980 1 995 1 1009 1 
1 207 52 1 62 1 139 1 140 2 146 1 151 1 163 1 164 1 179 1 201 1 207 1 247 1 273 2 277 1 330 1 343 1 354 1 392 1 433 1 446 1 454 1 456 1 470 1 473 1 486 1 505 1 507 1 534 1 537 2 543 1 555 1 596 1 598 2 629 1 630 1 652 1 669 1 719 1 720 1 752 1 761 1 783 1 803 1 812 1 850 1 896 2 899 1 906 1 914 1 915 1 917 1 921 1 923 1 930 1 937 1 965 1 966 1 969 1 16 1 32 1 68 1 76 1 89 1 93 1 100 1 110 1 116 1 118 1 137 1 154 1 178 1 205 1 211 1 234 1 235 1 278 1 295 1 303 1 326 1 357 1 404 1 427 1 477 1 500 1 512 1 526 1 535 1 539 1 551 1 592 1 601 1 659 1 694 1 705 1 706 1 713 1 730 1 750 1 755 1 784 1 814 1 816 1 829 1 885 1 886 1 905 1 934 1 951 1 952 1 977 1 980 1 987 1 1008 1 
1 216 46 1 50 1 51 1 58 1 59 1 82 1 140 1 141 1 145 2 147 1 148 1 188 1 198 1 211 1 242 1 254 1 270 2 276 1 310 1 311 1 341 1 346 1 364 1 389 1 395 1 400 1 421 1 435 1 466 1 511 1 515 1 527 1 528 1 535 1 565 1 582 1 584 1 595 1 596 1 609 1 617 1 622 1 623 2 631 2 633 1 681 1 684 1 704 2 728 1 743 1 758 1 780 1 817 1 832 1 835 1 877 1 894 1 927 1 937 1 963 1 1 1 22 1 35 1 107 1 122 1 179 1 180 1 220 1 252 1 260 1 292 1 297 1 306 1 307 1 316 1 319 1 329 1 331 1 347 1 372 1 382 1 427 1 442 1 456 1 474 1 502 1 567 1 570 1 625 1 626 1 649 1 655 1 687 1 691 1 703 1 720 1 737 1 787 1 815 1 845 1 891 1 905 1 971 1 985 1 1000 1 1001 1 1006 1 1009 1 1010 1 1015 1 
1 211 1 1 8 1 32 1 60 1 64 1 97 1 103 1 104 1 108 1 109 1 148 1 151 1 164 1 177 1 186 1 218 1 233 1 253 1 270 1 272 1 285 1 288 1 350 1 379 1 397 1 400 1 416 1 433 1 466 1 479 1 504 1 531 1 535 1 547 1 582 1 591 1 596 1 608 1 611 1 618 1 625 1 629 1 643 1 664 1 696 1 708 1 710 1 714 1 720 1 797 1 807 1 814 1 817 2 824 1 857 1 924 1 945 1 948 1 954 1 29 1 39 1 55 1 68 1 83 1 89 1 90 1 128 1 215 1 219 1 221 1 225 1 239 1 266 1 268 1 275 1 292 1 314 1 347 1 366 1 381 1 449 1 460 1 475 1 480 1 486 1 530 1 533 1 540 1 562 1 602 1 630 1 644 1 645 1 724 1 738 1 742 1 790 1 798 1 804 1 811 1 825 1 830 1 838 1 847 1 852 1 866 1 955 1 960 1 978 1 986 1 987 1 977 1 1001 1 1009 1 1014 1 1017 1 
1 215 17 1 24 2 56 1 89 1 92 1 108 1 109 1 131 1 155 1 184 1 191 1 210 1 212 1 213 1 219 1 236 1 277 2 296 2 298 1 315 1 318 1 324 1 333 1 381 1 403 1 415 1 486 1 495 1 496 1 521 1 552 1 572 1 576 1 580 1 603 1 631 1 663 1 682 1 684 1 689 1 690 1 700 1 706 1 716 1 718 1 738 1 751 1 765 1 772 1 775 1 781 1 782 1 789 1 801 1 808 1 868 1 877 2 897 1 9 1 12 1 38 1 127 1 133 1 207 1 227 1 263 1 291 1 292 1 300 1 334 1 364 1 371 1 412 1 432 1 445 1 446 1 458 1 475 1 500 1 531 1 590 1 624 1 634 1 687 1 705 1 725 1 753 1 776 1 805 1 811 1 812 1 815 1 833 1 834 1 857 1 883 1 895 1 903 1 905 1 908 1 910 1 928 1 956 1 963 1 968 1 974 1 976 1 997 1 998 1 1002 1 1006 1 1008 1 1014 1 1018 1 
1 210 29 1 36 1 41 1 56 1 63 1 105 1 115 1 189 1 212 1 214 1 266 1 304 1 306 1 347 2 368 1 373 1 374 1 375 1 384 1 404 1 413 1 432 1 435 1 475 1 478 1 482 1 496 1 506 1 539 1 565 1 566 1 574 1 591 1 636 1 641 2 688 2 698 1 712 1 713 1 717 1 738 1 746 1 754 1 762 1 774 1 777 1 789 1 802 1 836 1 847 1 875 1 886 1 906 1 908 1 914 1 976 1 8 1 21 1 34 1 60 1 81 1 92 1 97 1 119 1 150 1 162 1 183 1 188 1 193 1 270 1 302 1 310 1 327 1 341 1 365 1 398 1 407 1 410 1 416 1 462 1 465 1 469 1 483 1 607 1 623 1 632 1 638 1 645 1 668 1 671 1 674 1 676 1 694 1 702 1 719 1 735 1 751 1 772 1 786 1 809 1 826 1 835 1 855 1 863 1 874 1 890 1 895 1 896 1 912 1 922 1 927 1 947 1 954 1 983 1 999 1 1006 1 
1 210 3 1 9 1 10 1 59 1 69 1 76 1 96 1 121 1 127 1 153 1 154 1 189 1 219 1 269 1 279 1 282 2 287 1 299 1 314 2 321 1 322 1 351 1 398 1 404 1 415 1 468 1 484 1 500 1 507 1 514 1 527 1 548 1 552 1 553 1 565 1 584 1 598 1 613 1 622 1 623 1 635 1 645 1 651 2 661 1 668 1 674 1 675 1 692 1 693 1 694 1 699 1 703 2 735 1 746 1 770 1 775 1 794 1 795 1 806 1 813 1 828 1 859 1 862 1 863 1 870 1 890 1 939 1 964 1 7 1 11 1 18 1 31 1 39 1 42 1 43 1 47 1 85 1 112 1 120 1 144 1 161 1 185 1 194 1 205 1 309 1 310 1 318 1 334 1 346 1 355 1 366 1 367 1 402 1 409 1 428 1 435 1 467 1 469 1 501 1 513 1 517 1 520 1 533 1 538 1 583 1 618 1 629 1 639 1 643 1 660 1 704 1 720 1 728 1 731 1 742 1 751 1 768 1 791 1 799 1 823 1 837 1 847 1 858 1 869 1 871 1 903 1 905 1 911 1 940 1 941 1 970 1 972 1 993 1 1013 1 1018 1 
1 208 1 1 11 1 15 1 22 2 60 1 73 1 125 1 144 2 153 1 154 1 158 1 159 2 186 1 193 1 202 1 217 1 229 1 230 1 243 1 252 1 253 1 257 1 272 1 290 1 317 1 350 1 373 1 410 1 413 1 414 1 415 1 427 1 457 1 462 1 471 1 488 1 495 1 504 2 517 1 521 1 536 1 538 1 604 1 633 1 687 1 691 1 702 1 704 1 736 1 754 2 809 1 824 2 849 1 866 1 884 1 897 1 913 1 916 1 930 1 940 2 947 1 966 1 970 1 973 1 10 1 38 1 69 1 95 1 100 1 108 1 156 1 173 1 176 1 195 1 270 1 368 1 371 1 391 1 395 1 439 1 466 1 479 1 534 1 564 1 571 1 573 1 608 1 621 1 651 1 658 1 680 1 715 1 725 1 734 1 758 1 767 1 769 1 776 1 786 1 814 1 845 1 860 1 917 1 950 1 974 1 993 1 996 1 1005 1 1012 1 
1 215 4 1 8 1 13 1 30 1 36 1 57 1 69 1 82 1 120 1 124 1 126 1 131 1 171 2 175 1 200 1 214 1 230 1 274 1 280 1 328 1 331 1 356 1 369 1 376 1 388 2 435 1 439 1 458 1 459 1 476 1 490 1 520 1 522 1 535 1 552 1 555 1 581 1 586 1 617 1 646 1 656 1 657 1 661 1 697 1 743 2 764 1 767 1 772 1 820 1 826 1 831 1 837 1 840 1 870 1 882 1 899 1 916 1 933 1 944 1 1 1 25 1 43 1 59 1 81 1 86 1 102 1 113 1 125 1 157 1 186 1 192 1 236 1 240 1 354 1 373 1 383 1 415 1 423 1 436 1 438 1 440 1 447 1 455 1 479 1 502 1 506 1 548 1 577 1 583 1 597 1 611 1 629 1 643 1 645 1 652 1 687 1 711 1 742 1 768 1 778 1 789 1 799 1 804 1 881 1 924 1 929 1 958 1 965 1 987 1 993 1 997 1 984 1 1002 1 1008 1 1009 1 1012 1 1017 1 
1 206 1 1 20 1 69 1 72 1 76 1 81 1 130 1 132 1 134 1 135 1 156 1 166 1 180 1 198 1 226 1 295 1 298 1 300 1 310 1 342 1 362 1 372 1 391 1 415 1 452 2 453 1 476 1 483 1 495 1 501 2 520 1 527 1 534 1 584 1 624 1 631 1 638 1 675 1 704 1 729 1 782 1 807 1 838 1 862 1 925 1 928 1 965 1 969 2 38 1 64 1 79 1 100 1 112 1 179 1 200 1 235 1 238 1 250 1 258 1 287 1 325 1 348 1 358 1 360 1 373 1 374 1 385 1 392 1 408 1 423 1 457 1 460 1 470 1 481 1 482 1 488 1 494 1 523 1 553 1 562 1 567 1 582 1 608 1 625 1 662 1 733 1 754 1 797 1 805 1 814 1 826 1 828 1 843 1 847 1 866 1 879 1 891 1 894 1 907 1 914 1 921 1 929 1 932 1 942 1 946 1 992 1 1000 1 1005 1 1017 1 
1 211 102 1 125 1 180 1 184 1 193 1 201 1 228 1 270 1 272 1 282 1 309 1 342 1 355 1 361 1 400 1 412 1 426 1 450 1 488 1 490 1 494 1 506 1 511 1 515 1 517 1 518 1 524 1 527 1 530 1 537 1 550 1 562 1 592 1 595 2 597 1 598 1 601 1 619 1 627 1 717 1 730 1 740 2 760 1 812 1 828 1 830 1 843 1 847 1 874 1 892 1 899 1 918 1 978 1 1 1 9 1 29 1 39 1 41 1 59 1 74 1 91 1 212 1 215 1 216 1 255 1 281 1 287 1 290 1 303 1 364 1 367 1 401 1 402 1 440 1 478 1 508 1 510 1 513 1 521 1 531 1 546 1 564 1 604 1 609 1 613 1 650 1 661 1 669 1 687 1 700 1 702 1 727 1 729 1 742 1 752 1 793 1 824 1 894 1 913 1 917 1 950 1 964 1 983 1 983 1 987 1 993 1 998 1 1003 1 1005 1 1011 1 1016 1 
1 213 1 1 33 1 49 1 66 1 73 1 82 1 85 1 86 1 147 1 153 1 158 1 191 1 210 1 234 1 235 1 282 1 288 1 318 1 323 1 360 1 369 1 376 1 380 1 381 1 389 1 392 1 396 1 401 1 418 1 426 1 456 1 480 1 490 1 502 1 531 2 545 1 556 1 594 2 611 1 621 1 628 1 636 1 781 1 789 1 796 1 813 1 849 1 852 2 860 1 864 1 872 1 901 1 914 1 951 1 965 1 26 1 46 1 67 1 79 1 111 1 166 1 189 1 229 1 240 1 252 1 255 1 262 1 277 1 342 1 362 1 384 1 388 1 415 1 429 1 444 1 453 1 457 1 463 1 481 1 482 1 483 1 516 1 523 1 543 1 546 1 548 1 565 1 573 1 610 1 653 1 655 1 656 1 659 1 661 1 692 1 698 1 706 1 714 1 735 1 737 1 740 1 750 1 759 1 840 1 856 1 862 1 911 1 929 1 932 1 946 1 950 1 971 1 981 1 985 1 993 1 1002 1 1006 1 1016 1 1017 1 
1 216 26 1 54 1 55 1 104 2 108 1 114 1 144 1 154 1 165 1 200 1 227 1 236 1 246 1 251 1 253 1 262 1 264 1 265 1 286 1 294 2 295 1 352 1 359 1 402 1 422 1 453 1 460 1 492 1 518 1 536 1 549 1 563 1 567 1 625 1 635 1 660 1 662 1 679 1 705 2 717 1 775 1 776 1 796 1 802 1 808 1 830 1 849 1 884 1 891 1 912 2 926 1 950 1 956 1 957 1 963 1 975 1 1 1 2 1 83 1 89 1 93 1 107 1 119 1 148 1 155 1 216 1 225 1 249 1 252 1 275 1 285 1 292 1 296 1 298 1 309 1 326 1 345 1 353 1 358 1 363 1 369 1 382 1 387 1 403 1 407 1 430 1 431 1 482 1 543 1 547 1 548 1 586 1 615 1 624 1 674 1 675 1 677 1 708 1 712 1 739 1 756 1 831 1 869 1 872 1 886 1 984 1 997 1 1003 1 1006 1 1012 1 1014 1 1016 1 1018 1 
1 212 4 1 14 1 19 1 38 1 53 1 58 1 68 1 82 1 110 1 148 1 165 1 173 1 183 1 188 1 206 1 220 1 240 1 244 1 260 1 276 1 277 1 282 1 294 1 316 1 331 2 355 1 397 1 416 1 429 1 447 1 470 1 481 1 490 1 513 1 542 1 564 1 569 2 571 1 595 2 616 1 618 1 638 1 643 1 653 1 718 1 766 1 775 1 785 1 851 1 857 1 868 1 894 1 907 1 910 1 923 1 932 1 939 1 955 1 969 1 972 1 976 1 41 1 48 1 50 1 60 1 66 1 70 1 77 1 85 1 116 1 138 1 178 1 202 1 246 1 268 1 315 1 374 1 395 1 401 1 403 1 407 1 418 1 419 1 453 1 455 1 491 1 492 1 527 1 529 1 559 1 563 1 591 1 597 1 600 1 611 1 612 1 630 1 639 1 651 1 660 1 666 1 703 1 704 1 715 1 746 1 829 1 831 1 838 1 853 1 870 1 896 1 922 1 925 1 936 1 951 1 952 1 965 1 1008 1 1010 1 1017 1 
1 206 13 1 36 1 53 1 56 1 77 1 114 1 131 1 138 1 149 1 162 1 170 1 206 1 226 1 230 1 254 1 260 1 289 1 311 1 317 1 348 1 350 1 394 1 403 1 416 1 429 1 433 1 438 1 482 1 485 1 486 1 520 1 555 2 572 1 606 1 608 1 665 1 694 1 702 2 738 1 760 1 784 1 793 2 821 1 822 1 862 1 875 1 895 1 921 1 963 1 976 1 981 1 983 1 7 1 43 1 50 1 67 1 95 1 136 1 145 1 148 1 208 1 221 1 234 1 237 1 247 1 264 1 328 1 373 1 422 1 440 1 442 1 460 1 468 1 477 1 490 1 501 1 506 1 549 1 552 1 557 1 558 1 586 1 587 1 590 1 593 1 609 1 623 1 638 1 641 1 644 1 649 1 669 1 684 1 696 1 709 1 723 1 730 1 765 1 773 1 778 1 796 1 807 1 809 1 845 1 896 1 898 1 935 1 947 1 954 1 959 1 965 1 971 1 974 1 996 1 998 1 1001 1 1017 1 
1 212 8 1 9 1 29 1 44 1 63 1 72 1 82 1 92 1 96 1 102 1 107 1 109 1 125 1 141 1 142 2 197 1 199 1 202 1 222 1 252 1 272 1 277 2 282 1 295 1 299 2 326 1 338 1 344 1 356 1 370 1 388 1 401 1 422 1 440 1 443 1 484 1 530 1 614 1 634 1 668 1 699 1 723 1 736 1 767 1 794 1 801 1 806 1 828 1 835 1 918 1 921 1 927 1 933 1 962 1 1 1 3 1 11 1 34 1 45 1 65 1 105 1 121 1 144 1 162 1 183 1 189 1 191 1 196 1 213 1 223 1 236 1 255 1 261 1 268 1 284 1 291 1 294 1 328 1 336 1 340 1 396 1 407 1 416 1 432 1 442 1 457 1 521 1 534 1 550 1 558 1 580 1 583 1 584 1 605 1 629 1 640 1 647 1 660 1 667 1 719 1 727 1 748 1 775 1 789 1 811 1 821 1 838 1 877 1 889 1 906 1 943 1 953 1 954 1 964 1 989 1 1003 1 1004 1 1006 1 1015 1 
1 212 17 1 84 1 105 1 132 1 141 1 147 1 159 1 231 1 240 1 248 2 274 2 290 1 292 1 301 1 319 1 327 1 341 1 343 1 345 1 348 1 351 1 364 1 368 1 371 1 389 1 390 1 414 1 425 1 443 2 459 1 469 1 502 1 506 1 512 1 539 1 552 1 555 1 576 1 591 1 627 1 647 1 689 1 702 1 718 1 767 1 793 1 800 1 812 1 838 1 842 1 928 1 931 1 940 2 988 1 21 1 29 1 48 1 56 1 61 1 64 1 66 1 85 1 104 1 127 1 137 1 175 1 181 1 182 1 196 1 216 1 218 1 222 1 225 1 234 1 253 1 254 1 277 1 295 1 302 1 314 1 315 1 385 1 412 1 413 1 445 1 448 1 497 1 605 1 623 1 625 1 668 1 705 1 710 1 723 1 750 1 757 1 758 1 790 1 803 1 810 1 847 1 850 1 860 1 879 1 887 1 948 1 992 1 995 1 1011 1 1012 1 1013 1 1014 1 
1 210 40 1 130 1 158 1 161 2 169 1 175 1 192 1 197 1 216 1 228 1 303 1 323 1 324 2 344 1 360 1 377 1 387 1 402 1 412 1 422 1 454 1 481 1 500 1 504 1 515 1 538 1 555 1 561 1 568 1 571 1 622 1 673 1 675 1 688 1 702 1 709 1 716 1 718 1 725 1 740 1 742 1 753 1 757 1 809 1 820 1 824 1 862 2 869 1 879 1 914 1 927 1 929 1 951 1 954 1 956 1 7 1 19 1 27 1 31 1 44 1 83 1 109 1 140 1 162 1 196 1 213 1 246 1 248 1 270 1 308 1 334 1 365 1 368 1 392 1 397 1 416 1 423 1 426 1 435 1 509 1 512 1 550 1 572 1 591 1 593 1 600 1 617 1 634 1 676 1 678 1 699 1 710 1 738 1 743 1 781 1 792 1 832 1 837 1 841 1 934 1 936 1 964 1 1019 1 
1 210 3 1 32 1 85 1 99 1 168 1 176 1 181 1 187 1 212 1 244 1 250 1 259 2 269 1 292 1 295 1 388 1 422 1 451 1 454 1 458 1 496 1 529 1 554 1 583 1 634 1 641 1 644 1 645 1 651 1 673 1 686 1 688 1 689 1 705 2 710 2 734 1 736 1 738 1 759 2 774 1 781 1 806 1 807 1 833 1 851 1 854 1 866 1 870 1 908 1 909 1 937 1 950 1 960 1 962 1 27 1 45 1 81 1 87 1 102 1 115 1 134 1 142 1 148 1 155 1 159 1 165 1 227 1 264 1 280 1 284 1 285 1 309 1 310 1 320 1 359 1 374 1 415 1 416 1 417 1 429 1 437 1 460 1 562 1 567 1 603 1 612 1 632 1 635 1 648 1 657 1 666 1 701 1 722 1 728 1 735 1 739 1 779 1 788 1 794 1 796 1 811 1 852 1 878 1 890 1 899 1 917 1 934 1 998 1 1003 1 1009 1 1011 1 
1 207 5 1 25 1 26 1 27 1 41 1 52 1 81 1 99 1 125 1 127 1 139 1 141 1 143 1 145 1 154 1 177 1 194 1 210 1 237 1 264 1 289 1 322 1 336 1 349 1 363 1 376 1 378 1 395 1 397 1 400 1 416 1 435 1 441 1 457 1 473 1 481 1 503 1 504 1 520 1 525 1 569 1 571 1 598 1 599 1 616 1 632 1 640 1 648 1 664 2 681 1 708 1 748 1 775 1 806 1 920 1 933 1 956 1 962 1 968 1 970 1 989 1 39 1 54 1 65 1 84 1 85 1 92 1 103 1 120 1 123 1 149 1 153 1 157 1 181 1 202 1 208 1 214 1 216 1 222 1 272 1 280 1 285 1 287 1 330 1 402 1 446 1 461 1 467 1 476 1 485 1 530 1 548 1 560 1 588 1 605 1 609 1 626 1 629 1 646 1 688 1 719 1 727 1 742 1 749 1 797 1 839 1 868 1 896 1 908 1 935 1 982 1 995 1 
1 213 16 1 62 1 85 1 90 1 106 1 110 1 111 1 113 1 127 1 133 1 155 1 158 1 171 1 185 1 193 2 210 1 227 1 242 1 256 1 264 1 274 1 300 1 301 1 308 1 310 1 323 1 384 1 385 1 398 1 429 1 437 1 452 1 484 1 499 1 502 1 516 1 517 1 554 1 569 1 581 1 614 1 616 1 631 1 670 1 698 1 710 1 757 1 791 1 807 1 810 1 824 1 863 1 885 1 900 1 918 1 963 1 965 1 981 1 983 1 51 1 59 1 64 1 77 1 112 1 115 1 131 1 239 1 241 1 262 1 285 1 288 1 363 1 422 1 433 1 469 1 477 1 498 1 534 1 540 1 607 1 609 1 612 1 618 1 632 1 633 1 642 1 661 1 676 1 685 1 724 1 741 1 762 1 818 1 819 1 828 1 843 1 849 1 856 1 862 1 868 1 869 1 871 1 908 1 910 1 979 1 980 1 984 1 997 1 1001 1 1003 1 1007 1 1010 1 1018 1 
1 211 51 1 70 1 101 1 105 1 106 1 112 1 119 1 137 1 139 2 176 1 179 1 196 1 197 1 207 1 211 1 258 1 301 1 306 1 333 1 338 1 344 1 351 2 382 1 388 1 396 1 420 1 422 1 424 1 454 1 466 1 509 1 522 1 574 1 586 1 596 1 624 1 653 1 660 2 668 1 679 1 685 1 706 1 751 2 754 1 782 1 787 1 790 1 794 1 798 1 825 1 835 2 880 1 928 1 937 1 939 2 944 1 951 1 965 1 11 1 20 1 96 1 107 1 110 1 116 1 123 1 133 1 142 1 198 1 212 1 232 1 251 1 261 1 262 1 267 1 274 1 349 1 355 1 372 1 377 1 380 1 386 1 395 1 398 1 406 1 409 1 427 1 447 1 449 1 462 1 467 1 478 1 494 1 499 1 506 1 516 1 580 1 613 1 634 1 651 1 698 1 709 1 731 1 732 1 736 1 738 1 803 1 805 1 807 1 838 1 855 1 902 1 906 1 912 1 952 1 953 1 957 1 998 1 
1 212 47 1 88 1 114 1 130 1 142 2 143 1 161 1 171 2 198 1 213 1 249 1 260 1 283 1 284 2 290 1 298 1 323 1 326 1 347 1 353 2 369 1 373 1 415 1 456 2 462 1 467 1 470 1 500 1 506 1 530 1 541 1 573 1 585 1 593 1 602 1 652 1 664 1 683 1 701 1 715 1 735 1 739 1 753 1 771 1 783 1 786 1 790 1 810 1 817 1 819 1 824 1 840 1 845 2 857 1 893 1 894 1 908 1 941 1 962 1 968 1 1 1 4 1 12 1 20 1 105 1 137 1 165 1 172 1 195 1 224 1 228 1 241 1 272 1 322 1 359 1 377 1 435 1 450 1 457 1 496 1 499 1 516 1 545 1 556 1 558 1 600 1 614 1 616 1 623 1 643 1 691 1 699 1 718 1 831 1 852 1 859 1 910 1 917 1 940 1 967 1 973 1 989 1 992 1 1001 1 1015 1 1016 1 1017 1 
1 205 8 1 24 1 31 1 41 1 49 1 79 1 89 1 100 1 126 1 140 1 141 1 147 1 166 1 178 1 183 1 206 1 218 1 232 1 292 1 304 1 306 1 309 1 317 1 318 1 325 1 331 1 333 2 352 1 354 1 394 1 415 1 467 1 471 1 492 1 499 1 521 1 535 1 542 1 557 1 577 1 620 1 628 1 641 2 642 1 651 1 692 1 693 1 702 1 708 1 729 1 730 1 753 2 770 1 782 1 785 1 820 1 829 1 831 1 839 1 860 1 867 1 888 1 913 1 914 1 918 1 919 1 931 1 941 1 11 1 16 1 20 1 33 1 67 1 71 1 78 1 95 1 96 1 101 1 128 1 161 1 170 1 174 1 180 1 208 1 238 1 263 1 308 1 311 1 369 1 371 1 400 1 489 1 490 1 509 1 514 1 547 1 553 1 566 1 569 1 615 1 639 1 649 1 678 1 706 1 717 1 741 1 805 1 822 1 872 1 873 1 879 1 910 1 920 1 934 1 942 1 944 1 970 1 980 1 987 1 1008 1 1013 1 
1 207 48 1 93 1 96 1 113 1 154 1 158 1 168 1 174 1 200 1 206 1 233 1 241 1 245 1 256 1 277 1 279 1 284 1 299 1 304 1 320 1 324 1 328 2 339 1 364 1 367 1 373 1 394 1 415 1 420 1 421 1 426 1 430 1 444 1 447 1 452 1 477 1 486 1 487 1 509 1 517 1 524 1 562 1 598 1 619 1 651 1 655 1 657 1 682 1 704 1 717 1 724 1 731 1 733 2 748 1 755 1 784 1 802 1 822 1 843 1 850 1 875 1 877 1 899 1 907 1 912 1 919 1 920 1 928 1 943 1 944 1 949 1 969 1 981 1 985 1 993 1 1 1 9 1 38 1 55 1 70 1 116 1 179 1 182 1 231 1 251 1 254 1 319 1 323 1 350 1 353 1 375 1 379 1 382 1 395 1 396 1 405 1 416 1 418 1 442 1 449 1 450 1 459 1 464 1 484 1 500 1 535 1 538 1 555 1 574 1 579 1 588 1 595 1 604 1 666 1 672 1 673 1 676 1 678 1 713 1 723 1 816 1 821 1 846 1 863 1 895 1 896 1 897 1 908 1 929 1 955 1 956 1 958 1 977 1 998 1 1002 1 
1 216 10 1 29 1 54 1 63 1 83 1 92 1 95 1 110 1 116 1 156 1 159 1 161 1 163 1 192 1 193 1 198 1 215 1 227 1 228 2 251 1 266 1 290 1 372 1 376 1 398 1 404 2 406 1 444 2 449 2 473 1 481 1 525 1 567 1 568 2 585 1 607 1 632 1 635 1 646 1 665 1 666 1 669 1 676 1 689 1 694 1 697 1 713 2 720 1 779 1 786 1 799 2 814 1 830 1 840 1 853 2 860 1 907 1 916 1 917 1 920 1 921 1 923 1 956 1 964 1 970 1 983 1 991 1 997 1 1 1 9 1 12 1 42 1 109 1 127 1 151 1 158 1 170 1 184 1 233 1 234 1 289 1 429 1 442 1 485 1 493 1 507 1 515 1 517 1 532 1 562 1 565 1 591 1 647 1 685 1 704 1 708 1 717 1 739 1 798 1 913 1 914 1 942 1 977 1 987 1 994 1 1017 1 
1 0 230 1 504 1 722 1 701 1 696 1 447 1 437 1 594 1 978 1 785 1 279 1 214 1 140 1 831 1 296 1 400 1 177 1 338 1 751 1 295 1 45 1 548 1 568 1 732 1 14 1 657 1 407 1 827 1 278 1 199 1 436 1 896 1 864 1 84 1 552 1 907 1 138 1 899 1 223 1 954 1 520 1 507 1 957 1 98 1 838 1 674 1 153 1 67 1 459 1 656 1 428 1 408 1 763 1 421 1 815 1 46 1 456 1 472 1 42 1 642 1 302 1 539 1 361 1 879 1 222 1 593 1 886 1 474 1 206 1 765 1 210 1 403 1 348 1 334 1 321 1 562 1 126 1 57 1 175 1 281 1 844 1 563 1 700 1 117 1 717 1 880 1 31 1 497 1 843 1 371 1 108 1 862 1 853 1 378 1 750 1 516 1 846 1 655 1 547 1 11 1 418 1 754 1 711 1 306 1 715 1 141 1 873 1 852 1 30 1 836 1 799 1 477 1 429 1 967 1 784 1 
1 0 216 1 915 1 790 1 883 1 927 1 141 1 92 1 617 1 547 1 255 1 839 1 772 1 735 1 23 1 497 1 787 1 573 1 47 1 113 1 299 1 637 1 90 1 371 1 500 1 733 1 710 1 217 1 780 1 821 1 238 1 333 1 55 1 572 1 970 1 470 1 506 1 323 1 439 1 776 1 613 1 982 1 720 1 265 1 891 1 18 1 364 1 606 1 684 1 259 1 522 1 537 1 694 1 937 1 308 1 872 1 44 1 588 1 783 1 77 1 834 1 764 1 595 1 473 1 258 1 619 1 967 1 368 1 906 1 112 1 491 1 205 1 218 1 421 1 464 1 310 1 237 1 797 1 324 1 686 1 875 1 168 1 843 1 328 1 795 1 941 1 384 1 149 1 420 1 819 1 598 1 586 1 736 1 877 1 86 1 698 1 530 1 646 1 79 1 354 1 890 1 939 1 807 1 88 1 395 1 666 1 975 1 66 1 320 1 771 1 434 1 
1 0 619 1 95 1 306 1 976 1 86 1 303 1 885 1 127 1 871 1 724 1 987 1 387 1 829 1 419 1 604 1 690 1 601 1 789 1 728 1 932 1 27 1 376 1 858 1 61 1 102 1 167 1 328 1 744 1 967 1 569 1 90 1 968 1 995 1 432 1 727 1 307 1 391 1 64 1 497 1 630 1 970 1 950 1 808 1 288 1 688 1 538 1 241 1 969 1 340 1 396 1 715 1 250 1 701 1 909 1 637 1 489 1 580 1 193 1 695 1 476 1 429 1 993 1 729 1 812 1 395 1 615 1 676 1 554 1 777 1 258 1 705 1 799 1 547 1 280 1 32 1 351 1 485 1 810 1 264 1 69 1 836 1 739 1 975 1 720 1 2 1 745 1 92 1 292 1 596 1 178 1 898 1 732 1 639 1 3 1 349 1 575 1 286 1 576 1 94 1 941 1 852 1 833 1 289 1 483 1 921 1 442 1 561 1 
1 0 387 1 112 1 232 1 787 1 110 1 669 1 526 1 90 1 42 1 356 1 531 1 84 1 465 1 304 1 628 1 443 1 144 1 504 1 711 1 330 1 839 1 300 1 693 1 575 1 542 1 806 1 77 1 444 1 743 1 929 1 549 1 920 1 138 1 772 1 273 1 556 1 984 1 826 1 415 1 778 1 712 1 458 1 271 1 450 1 309 1 932 1 67 1 388 1 836 1 236 1 115 1 384 1 461 1 221 1 255 1 142 1 29 1 925 1 399 1 157 1 91 1 658 1 389 1 353 1 760 1 224 1 126 1 428 1 599 1 825 1 217 1 729 1 544 1 218 1 337 1 690 1 651 1 898 1 88 1 245 1 441 1 251 1 25 1 278 1 316 1 436 1 363 1 227 1 934 1 318 1 140 1 175 1 841 1 789 1 257 1 184 1 926 1 790 1 783 1 855 1 977 1 162 1 834 1 564 1 550 1 763 1 889 1 517 1 108 1 997 1 286 1 377 1 69 1 981 1 704 1 
1 0 47 1 392 1 443 1 585 1 472 1 854 1 529 1 26 1 359 1 183 1 265 1 139 1 699 1 307 1 583 1 747 1 991 1 114 1 319 1 149 1 742 1 347 1 348 1 107 1 16 1 32 1 704 1 290 1 145 1 750 1 667 1 678 1 126 1 380 1 193 1 76 1 228 1 993 1 303 1 983 1 195 1 497 1 563 1 817 1 717 1 843 1 71 1 430 1 379 1 15 1 245 1 421 1 886 1 427 1 70 1 932 1 445 1 467 1 802 1 581 1 771 1 211 1 551 1 483 1 270 1 431 1 12 1 597 1 891 1 414 1 460 1 798 1 278 1 536 1 453 1 728 1 649 1 437 1 357 1 425 1 509 1 417 1 466 1 959 1 640 1 24 1 125 1 378 1 420 1 130 1 944 1 51 1 881 1 82 1 52 1 917 1 988 1 500 1 600 1 456 1 468 1 719 1 985 1 167 1 612 1 7 1 696 1 842 1 274 1 542 1 682 1 
1 0 715 1 168 1 499 1 503 1 563 1 553 1 110 1 25 1 494 1 942 1 358 1 404 1 61 1 306 1 886 1 793 1 818 1 20 1 268 1 698 1 255 1 93 1 901 1 766 1 717 1 426 1 346 1 539 1 391 1 803 1 349 1 579 1 737 1 387 1 107 1 660 1 679 1 140 1 817 1 111 1 178 1 283 1 933 1 964 1 765 1 220 1 545 1 912 1 759 1 504 1 951 1 859 1 796 1 914 1 4 1 139 1 34 1 636 1 184 1 781 1 454 1 218 1 217 1 823 1 250 1 650 1 170 1 784 1 368 1 760 1 179 1 988 1 312 1 441 1 935 1 861 1 167 1 892 1 125 1 907 1 284 1 725 1 893 1 402 1 626 1 14 1 824 1 353 1 762 1 872 1 731 1 21 1 83 1 291 1 150 1 30 1 690 1 519 1 699 1 808 1 137 1 5 1 447 1 742 1 341 1 677 1 302 1 887 1 747 1 45 1 299 1 49 1 315 1 546 1 786 1 753 1 
1 0 609 1 802 1 533 1 773 1 507 1 193 1 199 1 235 1 967 1 652 1 709 1 377 1 92 1 771 1 628 1 391 1 839 1 740 1 754 1 980 1 573 1 588 1 2 1 655 1 162 1 885 1 770 1 447 1 76 1 196 1 412 1 14 1 944 1 625 1 337 1 3 1 608 1 907 1 375 1 921 1 748 1 362 1 214 1 191 1 444 1 154 1 37 1 57 1 946 1 449 1 899 1 249 1 23 1 800 1 982 1 549 1 213 1 135 1 117 1 983 1 405 1 635 1 653 1 109 1 316 1 920 1 320 1 950 1 584 1 179 1 335 1 574 1 389 1 530 1 188 1 753 1 402 1 679 1 756 1 18 1 139 1 503 1 222 1 698 1 455 1 612 1 872 1 73 1 334 1 432 1 929 1 435 1 78 1 925 1 940 1 469 1 21 1 720 1 311 1 307 1 446 1 97 1 855 1 240 1 606 1 750 1 445 1 865 1 382 1 637 1 774 1 677 1 378 1 497 1 
1 0 678 1 956 1 854 1 362 1 303 1 59 1 486 1 902 1 883 1 961 1 583 1 913 1 282 1 202 1 793 1 780 1 438 1 772 1 325 1 570 1 67 1 935 1 985 1 702 1 481 1 422 1 819 1 95 1 220 1 832 1 719 1 218 1 528 1 945 1 98 1 16 1 467 1 659 1 629 1 794 1 127 1 203 1 238 1 487 1 475 1 448 1 934 1 918 1 131 1 272 1 285 1 392 1 42 1 824 1 509 1 621 1 477 1 877 1 192 1 19 1 589 1 686 1 943 1 978 1 540 1 926 1 762 1 685 1 409 1 113 1 310 1 38 1 660 1 367 1 200 1 590 1 924 1 855 1 672 1 118 1 11 1 670 1 607 1 785 1 529 1 617 1 206 1 399 1 397 1 988 1 9 1 977 1 975 1 925 1 267 1 566 1 222 1 248 1 884 1 244 1 208 1 263 1 157 1 306 1 497 1 143 1 450 1 243 1 308 1 287 1 66 1 597 1 662 1 442 1 656 1 50 1 922 1 871 1 767 1 155 1 32 1 195 1 295 1 984 1 
1 0 855 1 451 1 452 1 845 1 45 1 519 1 264 1 312 1 393 1 259 1 833 1 75 1 180 1 344 1 700 1 676 1 1 1 964 1 295 1 575 1 164 1 141 1 848 1 183 1 528 1 720 1 507 1 511 1 671 1 605 1 728 1 878 1 707 1 783 1 868 1 147 1 532 1 188 1 385 1 682 1 560 1 884 1 303 1 275 1 478 1 649 1 404 1 806 1 606 1 266 1 294 1 901 1 678 1 167 1 376 1 436 1 743 1 667 1 43 1 961 1 79 1 52 1 288 1 27 1 78 1 706 1 434 1 902 1 897 1 50 1 237 1 732 1 861 1 717 1 96 1 652 1 761 1 826 1 622 1 114 1 578 1 993 1 325 1 831 1 487 1 719 1 545 1 203 1 933 1 153 1 620 1 399 1 421 1 518 1 55 1 851 1 505 1 463 1 99 1 745 1 636 1 462 1 166 1 5 1 192 1 217 1 196 1 784 1 539 1 898 1 814 1 177 1 614 1 60 1 86 1 439 1 631 1 223 1 84 1 
1 0 457 1 270 1 723 1 612 1 484 1 977 1 36 1 77 1 413 1 478 1 727 1 403 1 578 1 447 1 279 1 382 1 620 1 128 1 849 1 694 1 271 1 706 1 455 1 851 1 518 1 200 1 811 1 190 1 689 1 690 1 825 1 210 1 245 1 606 1 643 1 45 1 383 1 879 1 677 1 967 1 52 1 305 1 974 1 883 1 652 1 519 1 144 1 346 1 464 1 659 1 944 1 422 1 899 1 803 1 540 1 862 1 35 1 828 1 106 1 712 1 12 1 897 1 950 1 832 1 548 1 94 1 747 1 961 1 247 1 579 1 309 1 92 1 396 1 454 1 986 1 629 1 250 1 348 1 6 1 848 1 543 1 446 1 489 1 243 1 61 1 22 1 812 1 29 1 981 1 955 1 859 1 146 1 705 1 722 1 107 1 858 1 875 1 222 1 946 1 342 1 882 1 833 1 415 1 605 1 534 1 47 1 933 1 150 1 292 1 388 1 437 1 103 1 490 1 781 1 655 1 529 1 596 1 952 1 173 1 39 1 840 1 617 1 377 1 831 1 574 1 996 1 366 1 306 1 328 1 
1 0 341 1 275 1 234 1 694 1 282 1 253 1 700 1 961 1 45 1 544 1 347 1 645 1 517 1 34 1 262 1 284 1 555 1 71 1 486 1 855 1 12 1 427 1 925 1 143 1 845 1 448 1 598 1 260 1 150 1 496 1 105 1 508 1 191 1 62 1 239 1 810 1 868 1 606 1 236 1 208 1 225 1 202 1 624 1 10 1 477 1 467 1 533 1 369 1 719 1 649 1 755 1 516 1 44 1 399 1 780 1 786 1 410 1 154 1 337 1 750 1 442 1 404 1 975 1 832 1 515 1 167 1 189 1 286 1 329 1 550 1 50 1 683 1 830 1 184 1 504 1 635 1 911 1 888 1 976 1 531 1 973 1 740 1 490 1 627 1 991 1 274 1 228 1 373 1 173 1 597 1 800 1 186 1 218 1 446 1 499 1 285 1 795 1 741 1 543 1 807 1 409 1 380 1 231 1 966 1 18 1 735 1 258 1 803 1 536 1 315 1 658 1 487 1 32 1 981 1 766 1 451 1 632 1 83 1 85 1 393 1 51 1 
1 0 591 1 632 1 349 1 101 1 770 1 778 1 407 1 751 1 296 1 415 1 250 1 569 1 231 1 79 1 772 1 24 1 489 1 586 1 633 1 679 1 167 1 943 1 947 1 922 1 714 1 193 1 143 1 494 1 847 1 311 1 146 1 400 1 320 1 299 1 619 1 333 1 641 1 562 1 438 1 754 1 945 1 18 1 491 1 542 1 528 1 993 1 259 1 170 1 793 1 95 1 248 1 470 1 272 1 825 1 399 1 532 1 206 1 48 1 975 1 699 1 583 1 906 1 484 1 706 1 103 1 84 1 129 1 37 1 232 1 768 1 227 1 590 1 986 1 478 1 109 1 15 1 220 1 588 1 897 1 62 1 766 1 923 1 952 1 207 1 468 1 485 1 907 1 350 1 41 1 846 1 384 1 383 1 159 1 603 1 625 1 668 1 371 1 300 1 128 1 229 1 5 1 219 1 838 1 30 1 336 1 504 1 841 1 672 1 317 1 
1 0 56 1 170 1 49 1 543 1 276 1 423 1 25 1 87 1 707 1 529 1 517 1 22 1 627 1 449 1 234 1 798 1 514 1 520 1 117 1 536 1 886 1 92 1 229 1 788 1 772 1 503 1 912 1 937 1 840 1 556 1 474 1 877 1 149 1 1 1 522 1 301 1 961 1 817 1 425 1 524 1 989 1 452 1 350 1 108 1 394 1 185 1 701 1 614 1 699 1 871 1 540 1 367 1 983 1 261 1 64 1 747 1 735 1 110 1 289 1 241 1 389 1 911 1 561 1 571 1 802 1 662 1 208 1 590 1 916 1 907 1 807 1 924 1 657 1 385 1 221 1 634 1 314 1 205 1 308 1 760 1 736 1 991 1 89 1 909 1 944 1 578 1 71 1 341 1 868 1 430 1 548 1 685 1 624 1 390 1 318 1 878 1 849 1 951 1 938 1 406 1 51 1 965 1 177 1 311 1 130 1 968 1 277 1 439 1 746 1 728 1 676 1 569 1 330 1 697 1 
1 0 791 1 619 1 971 1 768 1 289 1 456 1 232 1 246 1 779 1 959 1 884 1 781 1 782 1 867 1 358 1 589 1 503 1 323 1 958 1 925 1 258 1 115 1 714 1 295 1 635 1 750 1 412 1 300 1 362 1 670 1 318 1 741 1 7 1 985 1 345 1 446 1 338 1 721 1 21 1 354 1 715 1 981 1 213 1 600 1 283 1 466 1 818 1 754 1 848 1 684 1 183 1 945 1 613 1 346 1 19 1 552 1 751 1 755 1 372 1 52 1 742 1 44 1 164 1 675 1 630 1 923 1 527 1 736 1 572 1 335 1 860 1 265 1 486 1 980 1 396 1 733 1 193 1 989 1 689 1 483 1 361 1 421 1 530 1 375 1 122 1 571 1 404 1 112 1 303 1 320 1 500 1 709 1 863 1 442 1 134 1 737 1 887 1 659 1 671 1 933 1 956 1 60 1 858 1 221 1 430 1 914 1 553 1 149 1 280 1 200 1 89 1 679 1 458 1 405 1 766 1 668 1 897 1 488 1 935 1 773 1 279 1 476 1 218 1 
1 0 838 1 956 1 749 1 125 1 246 1 914 1 175 1 14 1 348 1 612 1 499 1 519 1 529 1 795 1 357 1 4 1 515 1 896 1 277 1 395 1 894 1 57 1 848 1 368 1 10 1 958 1 255 1 543 1 714 1 198 1 341 1 349 1 888 1 93 1 11 1 579 1 120 1 393 1 60 1 642 1 397 1 271 1 180 1 488 1 1 1 53 1 265 1 270 1 115 1 898 1 65 1 202 1 711 1 560 1 524 1 954 1 924 1 735 1 793 1 378 1 603 1 340 1 301 1 99 1 881 1 913 1 98 1 59 1 242 1 694 1 369 1 586 1 383 1 221 1 92 1 720 1 150 1 757 1 908 1 478 1 295 1 961 1 538 1 475 1 90 1 626 1 343 1 947 1 501 1 736 1 332 1 860 1 933 1 94 1 186 1 266 1 827 1 22 1 897 1 254 1 645 1 979 1 582 1 899 1 406 1 156 1 476 1 303 1 358 1 698 1 133 1 966 1 285 1 996 1 12 1 288 1 414 1 170 1 989 1 771 1 402 1 176 1 585 1 228 1 656 1 931 1 887 1 530 1 
1 0 236 1 653 1 623 1 710 1 123 1 157 1 881 1 311 1 92 1 293 1 8 1 312 1 280 1 904 1 951 1 865 1 321 1 166 1 970 1 738 1 755 1 142 1 842 1 851 1 514 1 100 1 61 1 60 1 579 1 319 1 690 1 778 1 574 1 374 1 677 1 42 1 503 1 698 1 291 1 839 1 77 1 1 1 662 1 50 1 930 1 962 1 649 1 989 1 793 1 707 1 784 1 33 1 422 1 256 1 819 1 573 1 203 1 576 1 220 1 309 1 184 1 601 1 370 1 491 1 916 1 463 1 383 1 376 1 145 1 658 1 740 1 638 1 650 1 661 1 102 1 943 1 9 1 772 1 185 1 346 1 284 1 977 1 976 1 20 1 508 1 462 1 63 1 790 1 557 1 689 1 758 1 243 1 985 1 872 1 941 1 336 1 969 1 32 1 728 1 477 1 619 1 580 1 827 1 513 1 340 1 473 1 621 1 642 1 219 1 578 1 952 1 533 1 679 1 640 1 
1 0 437 1 514 1 771 1 325 1 64 1 956 1 613 1 259 1 784 1 397 1 104 1 403 1 792 1 238 1 97 1 191 1 805 1 935 1 378 1 77 1 103 1 388 1 607 1 587 1 390 1 487 1 106 1 192 1 148 1 540 1 822 1 611 1 356 1 808 1 573 1 215 1 606 1 940 1 402 1 243 1 112 1 313 1 870 1 472 1 801 1 716 1 75 1 834 1 407 1 809 1 544 1 185 1 898 1 27 1 340 1 46 1 62 1 703 1 200 1 460 1 177 1 265 1 645 1 975 1 773 1 230 1 970 1 722 1 589 1 26 1 616 1 165 1 541 1 823 1 971 1 318 1 307 1 290 1 255 1 65 1 694 1 246 1 525 1 545 1 538 1 362 1 419 1 218 1 945 1 87 1 326 1 90 1 288 1 742 1 866 1 995 1 454 1 712 1 608 1 249 1 491 1 988 1 958 1 962 1 142 1 884 1 929 1 60 1 757 1 745 1 536 1 198 1 
1 0 362 1 284 1 594 1 607 1 743 1 71 1 185 1 814 1 952 1 789 1 287 1 195 1 780 1 223 1 655 1 788 1 671 1 15 1 467 1 546 1 792 1 892 1 984 1 188 1 441 1 553 1 471 1 367 1 597 1 566 1 67 1 706 1 995 1 916 1 868 1 528 1 160 1 719 1 153 1 895 1 52 1 141 1 64 1 885 1 859 1 340 1 847 1 640 1 819 1 765 1 507 1 793 1 983 1 295 1 863 1 760 1 278 1 866 1 758 1 785 1 308 1 614 1 474 1 928 1 85 1 24 1 40 1 389 1 585 1 870 1 921 1 38 1 189 1 80 1 20 1 43 1 702 1 886 1 411 1 42 1 364 1 100 1 416 1 143 1 583 1 883 1 744 1 985 1 305 1 76 1 824 1 960 1 905 1 27 1 54 1 152 1 798 1 506 1 948 1 75 1 678 1 736 1 178 1 938 1 10 1 584 1 87 1 927 1 372 1 612 1 630 1 481 1 722 1 293 1 409 1 971 1 576 1 
1 0 524 1 976 1 653 1 987 1 447 1 176 1 114 1 600 1 634 1 96 1 335 1 529 1 596 1 701 1 380 1 493 1 568 1 953 1 819 1 156 1 441 1 137 1 875 1 100 1 533 1 833 1 544 1 661 1 305 1 464 1 995 1 778 1 62 1 180 1 246 1 621 1 525 1 146 1 794 1 812 1 366 1 933 1 854 1 393 1 49 1 376 1 949 1 150 1 86 1 729 1 101 1 516 1 505 1 293 1 440 1 718 1 806 1 948 1 675 1 905 1 391 1 99 1 697 1 424 1 326 1 323 1 543 1 981 1 871 1 213 1 620 1 605 1 11 1 269 1 507 1 715 1 308 1 513 1 666 1 883 1 14 1 934 1 841 1 398 1 902 1 887 1 998 1 343 1 364 1 78 1 537 1 555 1 461 1 680 1 768 1 897 1 986 1 436 1 692 1 982 1 765 1 849 1 789 1 903 1 384 1 616 1 609 1 301 1 984 1 160 1 895 1 43 1 476 1 743 1 59 1 226 1 153 1 145 1 726 1 17 1 640 1 683 1 
1 0 977 1 293 1 560 1 458 1 760 1 300 1 945 1 243 1 418 1 700 1 57 1 455 1 456 1 294 1 26 1 895 1 484 1 489 1 21 1 478 1 142 1 638 1 993 1 488 1 463 1 430 1 724 1 196 1 7 1 314 1 544 1 152 1 812 1 443 1 182 1 979 1 604 1 156 1 611 1 648 1 738 1 834 1 843 1 111 1 68 1 291 1 167 1 733 1 399 1 985 1 919 1 658 1 961 1 15 1 260 1 306 1 909 1 535 1 316 1 113 1 918 1 71 1 765 1 295 1 461 1 855 1 195 1 400 1 697 1 963 1 955 1 197 1 719 1 584 1 751 1 712 1 557 1 761 1 861 1 715 1 3 1 522 1 565 1 591 1 169 1 506 1 369 1 323 1 708 1 161 1 953 1 553 1 304 1 348 1 146 1 135 1 516 1 266 1 766 1 524 1 351 1 677 1 228 1 422 1 470 1 554 1 679 1 477 1 13 1 596 1 373 1 640 1 551 1 383 1 683 1 87 1 937 1 56 1 501 1 435 1 566 1 397 1 20 1 656 1 950 1 
1 0 254 1 565 1 740 1 832 1 529 1 911 1 956 1 836 1 780 1 891 1 410 1 430 1 939 1 733 1 594 1 564 1 362 1 350 1 969 1 599 1 221 1 73 1 778 1 913 1 238 1 105 1 705 1 413 1 563 1 122 1 948 1 743 1 335 1 291 1 634 1 507 1 653 1 558 1 954 1 797 1 807 1 886 1 990 1 774 1 9 1 316 1 473 1 231 1 357 1 620 1 916 1 540 1 323 1 188 1 685 1 674 1 10 1 854 1 326 1 302 1 331 1 622 1 424 1 952 1 26 1 97 1 260 1 590 1 512 1 255 1 400 1 92 1 660 1 12 1 675 1 688 1 225 1 749 1 123 1 792 1 775 1 747 1 896 1 770 1 605 1 355 1 845 1 356 1 178 1 633 1 138 1 680 1 598 1 822 1 481 1 271 1 50 1 275 1 509 1 759 1 936 1 203 1 376 1 815 1 834 1 201 1 
