1027 59524 011 2
1 208 12 1 25 1 40 1 59 1 85 1 104 2 109 1 120 1 121 1 134 1 150 1 151 1 153 1 154 1 160 1 202 1 209 1 225 1 247 1 264 1 285 1 290 1 322 1 341 1 379 1 446 2 459 1 485 1 529 1 535 1 538 1 540 1 546 1 560 1 586 1 595 1 610 1 618 1 631 1 649 1 656 1 680 1 727 1 743 1 766 1 856 1 860 1 879 1 884 1 885 1 892 1 917 1 927 1 935 1 952 1 975 1 998 1 22 1 49 1 62 1 127 1 190 1 256 1 303 1 320 1 369 1 374 1 413 1 441 1 448 1 466 1 467 1 477 1 487 1 489 1 491 1 495 1 528 1 541 1 544 1 545 1 557 1 572 1 575 1 604 1 623 1 629 1 639 1 707 1 745 1 749 1 750 1 753 1 759 1 801 1 803 1 817 1 827 1 847 1 878 1 886 1 926 1 956 1 965 1 967 1 970 1 978 1 995 1 1003 1 1008 1 1010 1 1012 1 1016 1 1022 1 
1 211 9 1 30 1 75 1 97 1 105 1 107 1 131 1 145 1 187 1 195 1 208 1 218 1 229 1 239 1 262 1 305 1 312 1 314 1 329 1 348 1 355 1 356 1 358 1 363 1 374 1 399 1 429 1 465 1 481 1 511 1 520 2 526 1 590 1 618 1 651 1 654 1 657 1 665 1 702 1 737 1 746 1 755 1 759 1 776 1 807 1 808 1 842 1 872 1 893 1 896 1 956 1 957 1 963 1 977 1 979 1 980 1 991 1 997 1 62 1 63 1 87 1 91 1 94 1 103 1 110 1 112 1 135 1 169 1 189 1 198 1 225 1 243 1 250 1 255 1 369 1 373 1 380 1 422 1 435 1 458 1 462 1 466 1 476 1 479 1 482 1 519 1 528 1 549 1 553 1 572 1 580 1 610 1 629 1 631 1 674 1 695 1 711 1 713 1 730 1 741 1 745 1 749 1 763 1 772 1 779 1 794 1 804 1 815 1 819 1 846 1 853 1 862 1 877 1 881 1 897 1 913 1 934 1 955 1 962 1 974 1 1001 1 1002 1 1016 1 1019 1 1020 1 
1 214 14 1 15 1 17 1 32 1 39 1 65 1 115 1 125 1 149 1 176 1 227 1 243 1 252 1 256 1 282 1 297 1 301 1 309 1 315 1 320 1 327 1 378 1 392 2 446 1 448 2 470 1 520 1 523 1 572 1 579 1 583 1 606 1 609 1 613 1 625 1 630 2 633 1 648 1 658 1 667 1 677 1 740 1 758 1 767 1 773 1 831 1 841 1 843 1 862 1 865 1 873 1 912 1 921 1 937 1 23 1 36 1 45 1 73 1 80 1 102 1 118 1 144 1 148 1 158 1 163 1 222 1 241 1 251 1 261 1 272 1 286 1 293 1 331 1 332 1 366 1 373 1 390 1 410 1 417 1 422 1 423 1 424 1 427 1 434 1 469 1 474 1 496 1 507 1 517 1 533 1 542 1 543 1 557 1 580 1 618 1 622 1 640 1 707 1 764 1 784 1 800 1 801 1 807 1 812 1 814 1 858 1 885 1 889 1 890 1 891 1 906 1 907 1 936 1 942 1 945 1 975 1 993 1 1002 1 1006 1 1016 1 1022 1 
1 210 24 1 33 1 35 1 56 1 58 1 63 1 88 1 119 2 126 1 161 1 175 1 208 1 235 1 242 1 260 1 287 1 289 1 301 1 337 1 344 1 378 1 387 1 438 1 503 1 504 1 506 1 512 1 527 1 535 1 536 1 542 1 543 1 548 1 574 1 594 1 601 1 639 1 646 1 662 1 688 1 695 1 702 1 774 1 806 2 815 1 817 1 842 1 845 1 885 2 897 1 903 1 939 1 941 1 956 1 966 1 20 1 62 1 64 1 66 1 114 1 142 1 189 1 197 1 202 1 210 1 212 1 214 1 218 1 229 1 236 1 240 1 296 1 313 1 318 1 325 1 343 1 373 1 457 1 465 1 501 1 507 1 511 1 534 1 540 1 582 1 584 1 605 1 657 1 670 1 689 1 692 1 697 1 718 1 726 1 744 1 771 1 790 1 808 1 867 1 872 1 906 1 924 1 946 1 950 1 968 1 976 1 1008 1 1014 1 
1 206 18 1 25 1 45 1 61 1 67 1 87 1 139 1 144 1 179 1 190 1 223 1 224 1 227 1 241 1 267 1 288 1 302 1 304 1 326 1 352 1 361 1 367 1 368 1 403 1 404 2 440 1 472 1 496 1 530 1 532 1 560 1 576 1 619 1 624 2 680 1 684 1 708 1 737 1 773 1 782 1 792 1 796 1 821 1 827 1 839 1 844 2 867 1 868 1 901 1 905 1 944 1 988 1 6 1 14 1 23 1 35 1 56 1 62 1 63 1 74 1 81 1 100 1 119 1 127 1 184 1 185 1 188 1 193 1 196 1 199 1 205 1 220 1 225 1 232 1 235 1 250 1 253 1 256 1 275 1 293 1 297 1 321 1 341 1 365 1 451 1 459 1 465 1 473 1 600 1 609 1 637 1 656 1 685 1 699 1 705 1 711 1 712 1 723 1 736 1 743 1 750 1 757 1 771 1 786 1 855 1 862 1 878 1 914 1 925 1 935 1 969 1 976 1 991 1 1001 1 1009 1 1021 1 
1 207 5 1 15 1 26 2 46 1 87 1 100 1 103 1 104 1 112 1 118 1 142 1 174 1 192 1 202 1 227 1 242 1 270 1 272 1 297 1 299 1 300 1 317 1 326 1 334 1 349 1 364 1 443 1 451 1 467 1 501 1 512 1 519 1 520 1 544 1 553 1 575 1 609 1 636 2 719 1 730 1 744 1 753 1 776 1 777 1 785 1 786 1 808 1 843 1 844 1 856 1 873 1 888 1 936 1 952 1 959 1 967 1 981 1 27 1 33 1 37 1 61 1 90 1 92 1 98 1 107 1 150 1 152 1 170 1 180 1 186 1 214 1 228 1 229 1 257 1 262 1 318 1 345 1 346 1 354 1 365 1 371 1 375 1 391 1 404 1 418 1 444 1 463 1 474 1 523 1 532 1 561 1 597 1 605 1 624 1 643 1 657 1 710 1 720 1 732 1 739 1 755 1 759 1 762 1 837 1 854 1 870 1 890 1 911 1 925 1 934 1 947 1 950 1 993 1 995 1 998 1 1007 1 1008 1 
1 208 47 1 51 1 58 1 75 1 76 1 117 2 120 1 129 1 132 1 151 2 155 1 162 1 193 1 211 2 232 1 238 1 247 1 259 2 273 1 289 1 293 1 301 1 324 1 333 1 373 1 408 1 463 1 468 1 507 1 607 1 620 1 623 1 635 1 655 1 682 1 683 1 684 1 718 1 729 1 749 1 779 1 792 1 800 1 832 1 833 1 834 1 852 1 869 1 878 1 884 1 911 1 919 1 930 1 947 1 998 1 19 1 25 1 60 1 67 1 100 1 137 1 150 1 170 1 192 1 203 1 222 1 241 1 261 1 283 1 315 1 331 1 349 1 359 1 425 1 444 1 524 1 528 1 564 1 592 1 604 1 622 1 629 1 631 1 653 1 672 1 696 1 700 1 715 1 726 1 731 1 775 1 799 1 808 1 810 1 843 1 895 1 897 1 973 1 988 1 1010 1 1016 1 1017 1 
1 206 22 1 25 1 39 1 41 1 47 1 83 1 84 1 86 1 89 1 99 1 144 1 162 1 176 1 179 1 188 1 206 1 264 1 277 2 300 2 302 1 308 1 326 1 337 1 345 1 378 1 388 1 390 1 419 1 440 1 453 1 492 1 517 1 524 1 578 1 596 1 608 1 621 1 650 1 693 1 703 1 705 1 723 1 752 1 768 1 810 1 831 1 832 2 843 1 868 1 870 2 933 1 945 1 963 1 965 1 987 1 990 1 17 1 21 1 23 1 76 1 78 1 85 1 107 1 131 1 147 1 185 1 256 1 268 1 276 1 286 1 301 1 303 1 307 1 325 1 333 1 340 1 346 1 361 1 369 1 381 1 410 1 436 1 466 1 476 1 497 1 499 1 525 1 530 1 543 1 547 1 561 1 594 1 610 1 620 1 651 1 713 1 733 1 760 1 765 1 802 1 842 1 845 1 865 1 872 1 877 1 902 1 909 1 911 1 919 1 936 1 941 1 946 1 980 1 1019 1 
1 215 2 1 41 1 43 1 97 1 103 1 127 1 157 1 171 1 174 1 187 1 204 1 223 1 227 1 262 1 314 1 321 1 326 1 341 1 347 1 349 2 393 1 436 1 439 2 449 1 454 1 510 1 542 1 584 1 585 1 601 1 607 1 642 1 670 1 671 1 674 1 677 1 701 1 702 1 734 1 747 2 753 1 757 1 762 1 767 2 782 1 833 1 837 1 867 1 877 1 886 1 907 1 909 1 961 1 967 1 974 1 983 1 76 1 90 1 108 1 123 1 178 1 207 1 247 1 253 1 267 1 290 1 300 1 316 1 317 1 363 1 366 1 408 1 427 1 429 1 455 1 466 1 472 1 496 1 499 1 509 1 526 1 550 1 565 1 578 1 597 1 599 1 624 1 630 1 633 1 690 1 693 1 723 1 763 1 780 1 787 1 798 1 805 1 821 1 862 1 880 1 883 1 888 1 892 1 904 1 941 1 955 1 959 1 992 1 1000 1 1004 1 1005 1 1009 1 1012 1 1027 1 
1 213 17 1 40 1 48 1 71 1 87 1 97 1 105 1 110 1 111 1 123 1 127 1 143 1 180 1 197 1 223 1 233 2 236 1 255 1 256 1 293 1 300 1 318 1 326 1 384 1 385 1 415 1 420 1 430 1 435 1 441 1 445 1 451 1 454 1 481 1 503 1 527 1 559 1 571 2 589 1 598 1 604 1 608 1 615 1 631 2 632 1 635 1 647 1 670 1 716 1 720 1 722 1 780 1 783 2 785 1 786 1 789 1 794 1 810 2 843 1 845 1 854 1 891 1 895 1 920 1 953 1 15 1 36 1 45 1 61 1 69 1 132 1 140 1 166 1 234 1 235 1 247 1 269 1 322 1 345 1 349 1 375 1 382 1 398 1 406 1 436 1 470 1 498 1 509 1 519 1 530 1 561 1 564 1 596 1 600 1 601 1 602 1 603 1 627 1 678 1 711 1 717 1 731 1 766 1 773 1 802 1 852 1 853 1 857 1 879 1 896 1 958 1 972 1 973 1 974 1 975 1 996 1 1015 1 1019 1 1021 1 1022 1 
1 215 19 1 29 1 32 1 47 1 59 1 73 1 113 1 114 1 139 1 146 1 159 1 160 1 164 1 190 1 200 2 206 1 234 1 261 1 274 1 284 1 312 1 323 1 341 1 342 1 343 1 349 1 350 1 392 1 393 1 406 1 412 1 449 1 450 1 470 1 492 1 507 1 510 1 511 1 525 1 583 1 590 1 592 1 632 1 648 1 675 1 726 1 728 1 739 1 745 1 755 1 758 1 766 1 783 1 864 1 866 1 870 1 919 1 921 1 927 1 961 1 963 1 993 1 13 1 48 1 55 1 63 1 112 1 135 1 163 1 186 1 193 1 219 1 230 1 256 1 266 1 279 1 334 1 339 1 366 1 387 1 453 1 460 1 462 1 474 1 481 1 538 1 541 1 544 1 552 1 607 1 610 1 616 1 643 1 674 1 676 1 680 1 689 1 718 1 723 1 724 1 752 1 770 1 790 1 812 1 843 1 891 1 917 1 943 1 951 1 991 1 1004 1 1005 1 1022 1 1023 1 1024 1 1025 1 
1 211 1 1 14 2 70 1 81 1 89 1 135 1 158 1 190 1 195 1 213 1 220 1 232 1 240 1 245 1 270 1 271 1 279 1 281 1 301 1 303 1 345 1 350 1 351 1 359 1 413 1 442 1 462 1 466 1 479 1 487 1 493 1 533 1 537 1 549 1 572 1 646 1 653 1 681 1 691 1 702 1 708 1 736 1 740 1 755 1 772 1 778 1 794 2 805 1 812 1 819 1 834 1 841 1 856 2 908 1 911 1 945 1 952 1 954 1 965 1 988 1 997 1 35 1 87 1 114 1 121 1 127 1 137 1 155 1 178 1 206 1 209 1 217 1 219 1 264 1 273 1 285 1 289 1 291 1 309 1 353 1 374 1 396 1 403 1 404 1 409 1 443 1 459 1 475 1 486 1 514 1 534 1 545 1 603 1 641 1 643 1 644 1 650 1 704 1 707 1 721 1 733 1 745 1 752 1 798 1 801 1 825 1 829 1 833 1 843 1 847 1 850 1 878 1 895 1 920 1 926 1 930 1 931 1 953 1 980 1 986 1 990 1 1010 1 
1 210 11 1 25 1 48 1 51 1 57 1 77 1 83 1 84 1 96 1 101 1 105 1 108 1 119 1 180 1 193 1 194 1 198 1 204 1 249 2 264 1 316 1 348 1 352 1 378 1 423 1 450 1 454 1 519 1 536 2 539 1 547 1 548 1 609 2 613 1 624 1 631 1 634 1 671 1 683 1 701 1 718 1 720 1 737 1 747 2 756 1 789 1 814 1 885 1 912 1 925 1 936 1 943 1 955 1 973 1 974 1 991 1 17 1 30 1 44 1 70 1 74 1 124 1 129 1 138 1 162 1 166 1 223 1 226 1 235 1 247 1 333 1 340 1 357 1 386 1 413 1 414 1 418 1 424 1 428 1 434 1 465 1 467 1 473 1 486 1 492 1 525 1 530 1 535 1 545 1 554 1 563 1 566 1 567 1 597 1 606 1 608 1 618 1 625 1 652 1 750 1 758 1 816 1 834 1 839 1 851 1 855 1 862 1 881 1 883 1 909 1 934 1 937 1 981 1 1022 1 1023 1 1025 1 
1 208 3 1 12 2 5 1 18 1 22 1 30 1 34 1 46 1 79 1 82 2 95 1 103 1 106 1 108 1 109 1 112 1 116 1 157 1 175 1 210 1 301 1 341 1 415 1 447 1 467 1 529 1 531 1 550 1 566 1 582 1 606 1 622 1 641 1 649 1 655 1 689 1 691 1 707 1 714 1 747 1 778 1 783 2 785 1 790 1 809 1 876 2 887 1 889 1 896 1 900 1 922 1 928 1 953 1 973 1 975 1 981 1 998 1 33 1 42 1 64 1 88 1 90 1 101 1 131 1 142 1 163 1 166 1 197 1 203 1 228 1 239 1 272 1 288 1 298 1 305 1 308 1 334 1 340 1 346 1 357 1 361 1 401 1 407 1 425 1 444 1 488 1 491 1 530 1 533 1 546 1 555 1 591 1 601 1 616 1 676 1 685 1 704 1 742 1 749 1 782 1 791 1 807 1 817 1 819 1 830 1 836 1 858 1 862 1 881 1 925 1 926 1 932 1 941 1 949 1 959 1 978 1 980 1 999 1 1024 1 1026 1 
1 206 3 1 6 1 10 1 57 1 71 1 75 1 85 1 93 1 165 1 184 1 195 1 211 1 212 1 221 1 238 1 269 2 299 1 306 1 326 1 336 1 380 1 387 1 415 1 427 1 429 1 435 1 438 1 440 1 453 2 470 1 471 1 483 1 522 1 540 1 543 1 566 1 589 1 600 1 617 1 623 1 706 1 719 1 723 1 746 1 757 1 792 1 796 1 818 1 846 1 872 2 905 1 906 1 918 1 924 1 954 1 985 1 1001 1 50 1 77 1 98 1 100 1 142 1 152 1 166 1 169 1 220 1 286 1 295 1 296 1 298 1 303 1 305 1 309 1 324 1 347 1 430 1 437 1 474 1 487 1 492 1 494 1 499 1 515 1 516 1 524 1 527 1 532 1 533 1 539 1 547 1 594 1 618 1 622 1 628 1 681 1 691 1 720 1 733 1 755 1 814 1 827 1 858 1 890 1 895 1 925 1 929 1 931 1 944 1 955 1 977 1 
1 206 25 1 50 1 116 1 117 1 149 1 162 1 234 1 240 1 247 1 283 1 323 2 345 1 361 1 363 2 367 1 371 1 404 1 426 1 438 1 443 1 444 1 449 1 471 1 474 1 487 1 501 1 566 1 577 1 607 1 623 1 625 1 633 1 653 1 670 1 680 1 682 1 695 1 696 1 699 1 789 1 821 1 825 1 831 1 836 1 848 1 882 1 897 1 934 2 938 1 953 1 956 1 962 1 988 1 1000 1 26 1 30 1 37 1 38 1 44 1 71 1 122 1 134 1 152 1 169 1 254 1 308 1 351 1 390 1 410 1 485 1 488 1 503 1 508 1 525 1 599 1 612 1 615 1 626 1 659 1 678 1 702 1 726 1 727 1 745 1 765 1 785 1 791 1 797 1 805 1 820 1 835 1 849 1 885 1 903 1 905 1 937 1 961 1 969 1 975 1 994 1 1008 1 
1 208 3 1 10 1 8 1 13 1 24 1 41 1 42 1 46 1 59 1 71 1 138 1 145 1 222 1 231 1 241 1 267 1 268 1 279 1 280 1 287 1 323 1 342 2 344 1 360 1 398 1 424 1 428 1 429 1 485 1 492 1 513 1 525 1 535 1 542 1 625 1 650 1 653 2 660 1 707 2 729 1 738 1 758 1 763 1 776 1 801 1 810 1 828 1 849 1 855 1 861 1 863 1 876 1 916 1 919 1 929 1 937 1 949 1 968 1 19 1 49 1 53 1 63 1 67 1 88 1 95 1 103 1 175 1 178 1 187 1 196 1 229 1 262 1 264 1 277 1 278 1 326 1 329 1 357 1 361 1 371 1 376 1 383 1 395 1 402 1 522 1 530 1 536 1 547 1 549 1 636 1 662 1 664 1 672 1 679 1 689 1 698 1 728 1 744 1 769 1 770 1 796 1 809 1 811 1 840 1 856 1 879 1 888 1 935 1 954 1 967 1 990 1 995 1 1005 1 1023 1 
1 212 5 1 14 1 22 1 39 1 42 1 60 1 90 1 95 1 102 1 105 1 106 1 107 1 113 2 152 1 173 1 181 1 217 1 235 1 251 1 274 1 303 1 358 1 396 1 453 1 464 1 480 1 501 1 519 1 533 1 554 1 563 1 577 1 581 1 609 2 636 1 682 1 689 1 696 1 711 1 796 1 808 1 820 1 840 1 861 1 926 1 969 1 970 1 976 1 997 1 34 1 37 1 54 1 85 1 88 1 116 1 119 1 162 1 186 1 198 1 199 1 211 1 219 1 222 1 241 1 271 1 278 1 328 1 329 1 331 1 351 1 382 1 425 1 435 1 451 1 460 1 474 1 484 1 497 1 502 1 504 1 508 1 544 1 555 1 602 1 608 1 616 1 630 1 665 1 673 1 694 1 735 1 744 1 746 1 757 1 792 1 805 1 844 1 847 1 871 1 875 1 940 1 953 1 983 1 1003 1 1009 1 1016 1 1024 1 
1 207 11 1 7 1 17 1 19 1 19 1 29 1 74 1 101 1 122 1 170 1 178 1 250 1 299 1 327 2 336 1 341 1 360 1 363 1 373 1 407 1 427 1 470 1 504 1 529 1 530 1 539 1 551 1 555 1 565 1 566 1 583 1 589 1 610 1 615 1 626 1 684 1 713 1 748 1 780 1 785 1 792 1 800 1 816 1 858 1 863 1 919 1 999 1 1001 1 26 1 44 1 94 1 133 1 146 1 162 1 201 1 220 1 230 1 272 1 289 1 291 1 309 1 326 1 340 1 342 1 386 1 398 1 411 1 421 1 446 1 463 1 468 1 471 1 476 1 499 1 500 1 561 1 568 1 581 1 586 1 588 1 596 1 598 1 606 1 625 1 649 1 667 1 689 1 697 1 742 1 757 1 758 1 765 1 773 1 776 1 782 1 783 1 786 1 810 1 830 1 835 1 837 1 838 1 857 1 871 1 884 1 912 1 915 1 957 1 958 1 981 1 987 1 1000 1 
1 207 4 1 48 1 69 1 74 1 95 1 148 1 168 1 172 1 179 2 181 1 187 1 193 1 209 1 222 1 228 1 250 1 270 1 271 1 283 1 287 2 298 1 321 2 348 2 352 1 358 1 373 1 378 2 403 1 410 2 414 1 415 1 423 1 430 1 462 1 471 1 478 1 509 1 518 1 546 1 547 1 554 1 562 1 568 1 576 1 586 1 622 1 645 1 654 1 701 1 739 1 768 1 777 1 814 1 824 1 842 1 903 1 924 1 936 1 945 1 950 1 966 1 982 1 991 1 994 1 32 1 34 1 42 1 110 1 111 1 119 1 123 1 129 1 137 1 142 1 155 1 188 1 189 1 194 1 219 1 234 1 263 1 316 1 328 1 330 1 384 1 413 1 436 1 454 1 466 1 476 1 486 1 529 1 534 1 536 1 557 1 559 1 575 1 587 1 595 1 598 1 628 1 641 1 657 1 706 1 715 1 728 1 731 1 732 1 735 1 770 1 773 1 786 1 832 1 835 1 846 1 855 1 865 1 894 1 897 1 908 1 915 1 918 1 925 1 960 1 999 1 1002 1 1003 1 
1 209 8 1 26 1 97 2 126 1 150 1 156 1 174 1 196 1 199 1 201 1 250 2 271 1 299 1 308 1 319 1 334 1 351 1 375 1 408 1 413 1 414 1 431 1 439 1 465 1 493 1 535 1 539 1 543 1 584 1 588 1 591 1 637 1 644 1 647 1 670 1 679 1 680 1 681 1 682 1 701 1 723 1 729 2 741 1 753 1 754 1 760 1 763 1 777 1 791 1 815 1 830 1 837 1 878 1 889 1 910 1 925 1 937 1 960 1 974 1 32 1 35 1 76 1 79 1 106 1 121 1 149 1 162 1 171 1 211 1 227 1 274 1 278 1 285 1 291 1 292 1 310 1 327 1 366 1 383 1 390 1 403 1 417 1 422 1 432 1 503 1 515 1 548 1 555 1 604 1 609 1 619 1 646 1 700 1 705 1 709 1 726 1 731 1 732 1 733 1 746 1 749 1 806 1 835 1 892 1 895 1 899 1 929 1 956 1 981 1 997 1 1004 1 
1 205 8 1 14 1 18 1 1 1 48 1 61 1 72 1 137 1 181 1 194 1 238 1 239 1 260 1 274 1 292 1 299 1 300 1 342 1 361 1 362 1 368 1 381 1 391 1 398 1 404 1 405 2 409 1 428 1 441 1 467 1 480 1 483 1 498 1 500 1 506 1 518 1 546 1 557 1 560 1 568 1 578 1 583 1 590 1 618 1 630 1 659 1 678 1 683 1 686 1 703 1 734 1 736 1 737 1 748 1 771 1 798 1 842 1 904 1 913 1 915 1 924 1 938 1 945 1 988 1 992 1 994 1 28 1 29 1 36 1 49 1 51 1 66 1 67 1 94 1 96 1 125 1 161 1 171 1 175 1 198 1 221 1 240 1 242 1 282 1 301 1 367 1 383 1 435 1 485 1 493 1 521 1 542 1 548 1 623 1 637 1 640 1 651 1 676 1 761 1 788 1 800 1 830 1 838 1 851 1 856 1 871 1 894 1 917 1 925 1 942 1 954 1 975 1 980 1 990 1 1019 1 1023 1 
1 212 3 1 5 1 8 1 32 1 35 1 36 1 49 1 64 1 107 1 122 1 155 1 166 1 203 1 210 1 223 1 228 1 235 1 252 1 266 1 273 1 292 1 337 1 397 1 422 1 431 1 443 1 444 1 451 1 471 1 512 2 530 1 531 1 541 1 571 1 627 1 639 1 666 2 682 1 686 1 697 2 713 1 731 1 733 2 753 1 764 1 772 2 790 1 813 1 817 1 820 1 821 1 823 1 825 1 841 1 848 1 856 1 876 1 877 1 884 1 907 1 910 1 917 1 919 1 932 1 946 1 951 1 997 1 28 1 51 1 66 1 69 1 71 1 77 1 91 1 96 1 108 1 116 1 117 1 146 1 167 1 183 1 196 1 221 1 226 1 234 1 263 1 293 1 299 1 379 1 386 1 389 1 447 1 461 1 489 1 511 1 520 1 562 1 584 1 589 1 595 1 598 1 616 1 623 1 654 1 659 1 699 1 720 1 721 1 746 1 759 1 765 1 777 1 798 1 842 1 858 1 859 1 878 1 894 1 937 1 943 1 959 1 980 1 990 1 999 1 1015 1 
1 215 4 1 17 1 36 1 68 1 123 1 140 1 150 1 151 1 157 1 165 1 241 1 281 1 300 1 312 2 316 1 325 1 336 1 373 2 386 1 394 1 395 1 415 1 443 2 472 1 478 1 498 1 502 1 535 1 567 1 617 2 631 1 660 1 670 1 686 1 688 1 763 1 771 1 814 1 817 1 854 1 865 1 870 1 919 2 941 1 948 1 949 1 953 1 960 1 972 2 63 1 86 1 94 1 108 1 109 1 118 1 126 1 171 1 175 1 182 1 210 1 214 1 215 1 243 1 333 1 342 1 344 1 346 1 372 1 418 1 419 1 421 1 426 1 441 1 481 1 482 1 485 1 521 1 529 1 595 1 600 1 625 1 637 1 639 1 640 1 672 1 691 1 697 1 723 1 724 1 757 1 762 1 779 1 790 1 791 1 805 1 818 1 824 1 840 1 847 1 858 1 879 1 902 1 917 1 925 1 945 1 947 1 971 1 986 1 1002 1 1006 1 1016 1 1020 1 1021 1 
1 212 1 1 5 1 8 1 13 1 16 1 7 1 59 1 98 1 125 1 152 1 156 1 176 1 201 1 202 1 223 1 249 1 288 1 296 1 313 2 370 1 383 1 399 1 419 1 427 1 439 1 512 1 514 1 517 1 519 1 565 1 588 1 597 1 639 1 663 2 668 1 685 1 713 1 714 1 737 1 746 1 773 1 776 1 784 1 823 1 837 1 839 1 842 1 843 1 850 1 855 1 863 1 875 1 896 1 898 1 934 1 940 1 942 1 946 1 953 1 954 1 957 1 961 1 965 1 969 1 982 1 988 1 90 1 92 1 107 1 138 1 186 1 216 1 218 1 222 1 225 1 244 1 248 1 280 1 304 1 309 1 314 1 324 1 347 1 353 1 372 1 379 1 421 1 423 1 441 1 506 1 513 1 526 1 528 1 548 1 555 1 560 1 562 1 569 1 580 1 635 1 641 1 643 1 654 1 661 1 745 1 775 1 785 1 801 1 818 1 849 1 852 1 860 1 865 1 874 1 879 1 914 1 922 1 933 1 944 1 956 1 980 1 989 1 992 1 1009 1 1020 1 1023 1 
1 208 6 2 21 1 16 1 19 1 34 1 58 1 69 1 110 1 126 2 146 1 167 1 172 1 174 1 199 1 203 1 209 1 212 1 264 1 281 1 299 1 306 1 321 1 349 1 361 1 381 1 404 1 406 1 422 1 431 1 480 1 503 1 513 1 518 1 535 1 545 1 561 1 563 1 569 1 623 1 627 1 641 1 642 1 665 1 669 1 682 1 685 1 694 1 703 1 707 1 725 1 841 1 879 1 881 1 886 1 895 1 901 1 922 1 928 1 953 1 991 1 44 1 56 1 72 1 93 1 95 1 119 1 130 1 179 1 190 1 204 1 223 1 231 1 268 1 311 1 328 1 333 1 334 1 344 1 415 1 416 1 423 1 442 1 447 1 452 1 456 1 527 1 546 1 554 1 578 1 589 1 603 1 616 1 625 1 631 1 635 1 640 1 643 1 651 1 667 1 673 1 675 1 709 1 713 1 735 1 751 1 765 1 768 1 769 1 778 1 796 1 876 1 887 1 935 1 946 1 963 1 970 1 981 1 1020 1 1022 1 
1 212 6 1 39 1 41 1 62 2 65 1 71 1 73 1 97 1 99 1 139 1 211 1 216 1 218 1 263 1 275 2 292 2 298 1 310 1 337 1 339 1 352 1 370 1 372 1 392 1 399 1 419 1 435 1 446 2 450 1 456 1 458 1 464 1 472 1 499 1 569 1 572 1 578 1 586 1 608 1 653 1 657 1 664 1 709 1 736 1 738 1 765 1 766 1 770 1 771 1 772 1 775 1 801 1 845 1 852 1 900 1 919 1 939 1 948 1 964 1 971 1 994 1 29 1 31 1 33 1 51 1 54 1 72 1 83 1 95 1 101 1 109 1 135 1 153 1 160 1 179 1 192 1 208 1 212 1 213 1 225 1 235 1 249 1 286 1 290 1 324 1 353 1 374 1 396 1 426 1 430 1 466 1 467 1 476 1 481 1 510 1 529 1 547 1 551 1 573 1 584 1 625 1 634 1 644 1 666 1 667 1 684 1 710 1 715 1 724 1 727 1 740 1 817 1 848 1 877 1 882 1 898 1 931 1 995 1 1006 1 1021 1 1026 1 
1 214 22 1 23 1 40 1 112 1 136 1 152 1 154 1 172 1 174 1 199 1 201 1 204 1 209 1 226 1 262 1 298 1 311 1 316 1 321 2 351 1 357 1 377 1 394 1 413 1 421 1 426 1 427 1 434 1 443 1 446 1 450 1 504 1 517 1 531 1 541 1 546 1 547 2 567 1 586 1 645 1 679 1 709 1 724 1 727 1 752 1 778 1 779 1 801 1 804 1 851 1 860 2 894 1 896 1 924 1 933 1 946 1 952 1 965 1 994 1 47 1 55 1 83 1 92 1 156 1 157 1 171 1 176 1 211 1 253 1 275 1 295 1 299 1 301 1 318 1 332 1 355 1 366 1 370 1 373 1 374 1 404 1 407 1 435 1 439 1 486 1 518 1 553 1 582 1 590 1 608 1 613 1 625 1 628 1 662 1 663 1 666 1 702 1 708 1 720 1 786 1 796 1 803 1 810 1 824 1 835 1 840 1 841 1 856 1 885 1 948 1 950 1 964 1 972 1 1008 1 1011 1 1013 1 1017 1 1020 1 
1 205 11 1 19 1 22 1 27 1 50 1 79 1 118 1 136 1 144 1 150 1 154 1 169 1 181 1 187 1 196 1 233 1 266 1 280 1 282 1 317 1 325 1 329 1 331 1 347 1 350 1 367 1 407 1 429 1 430 1 452 1 475 1 490 1 493 1 503 1 548 1 560 1 591 1 641 1 657 2 664 1 665 1 666 1 673 1 703 1 722 1 730 1 736 1 762 1 802 1 803 1 815 1 822 1 825 1 837 1 859 1 863 1 876 1 878 1 896 1 897 1 909 1 911 1 922 1 928 1 30 1 44 1 54 1 80 1 85 1 113 1 120 1 124 1 126 1 130 1 162 1 170 1 173 1 185 1 239 1 253 1 270 1 273 1 309 1 330 1 346 1 375 1 408 1 420 1 449 1 457 1 487 1 495 1 497 1 504 1 513 1 535 1 576 1 656 1 670 1 691 1 766 1 780 1 786 1 788 1 805 1 823 1 839 1 853 1 957 1 971 1 986 1 995 1 996 1 999 1 1026 1 
1 207 2 1 14 1 13 1 16 1 29 1 33 1 42 1 49 1 62 1 64 1 95 1 96 1 102 1 134 1 138 1 144 1 171 1 295 1 323 1 342 1 351 2 353 1 375 1 378 1 379 1 435 1 446 1 456 1 458 1 521 1 523 1 542 1 570 1 609 1 612 1 615 1 617 1 635 1 640 1 664 1 673 1 681 1 683 2 698 1 702 1 732 1 740 1 764 1 777 1 804 1 833 1 841 1 926 1 928 2 933 2 954 1 959 1 982 1 985 1 1000 1 36 1 87 1 90 1 125 1 129 1 167 1 180 1 181 1 219 1 222 1 228 1 268 1 279 1 282 1 288 1 298 1 303 1 318 1 330 1 335 1 345 1 361 1 362 1 373 1 392 1 416 1 419 1 457 1 465 1 473 1 485 1 490 1 501 1 529 1 533 1 536 1 548 1 553 1 567 1 577 1 602 1 620 1 621 1 648 1 650 1 665 1 708 1 738 1 749 1 765 1 775 1 813 1 829 1 831 1 854 1 857 1 866 1 906 1 915 1 921 1 931 1 936 1 981 1 1012 1 1017 1 1020 1 
1 209 27 1 68 1 80 1 90 1 125 1 138 1 140 1 145 1 166 1 187 2 193 1 236 2 256 1 272 1 282 1 298 1 321 1 342 2 347 1 353 1 358 1 366 1 375 1 413 2 414 1 422 1 441 1 458 1 459 1 461 2 470 1 475 1 505 1 513 1 520 1 561 1 592 1 639 1 643 1 680 1 699 1 703 1 718 1 741 1 774 1 792 1 820 1 821 1 846 1 848 1 855 1 890 1 895 1 904 1 999 1 32 1 54 1 56 1 95 1 135 1 142 1 147 1 150 1 153 1 172 1 181 1 202 1 207 1 215 1 261 1 294 1 307 1 312 1 360 1 380 1 394 1 406 1 428 1 437 1 497 1 512 1 515 1 572 1 573 1 579 1 595 1 600 1 601 1 608 1 628 1 637 1 645 1 660 1 668 1 681 1 684 1 700 1 712 1 735 1 753 1 784 1 785 1 805 1 833 1 836 1 851 1 876 1 908 1 918 1 924 1 949 1 977 1 988 1 
1 210 3 1 11 1 23 1 20 1 21 1 31 1 46 1 73 1 90 1 101 1 114 1 121 1 140 1 142 1 147 1 151 1 186 1 193 1 225 1 267 1 271 1 275 1 287 1 294 1 312 1 322 1 343 1 359 1 367 1 374 1 377 1 378 1 387 1 396 1 401 1 438 1 455 2 461 1 490 1 497 1 540 1 566 1 574 1 579 1 582 1 627 2 677 1 687 1 720 1 722 1 727 1 742 1 764 1 770 1 772 1 790 1 793 1 818 1 819 1 827 1 836 1 845 1 867 1 876 1 896 1 904 1 922 1 959 1 992 1 998 1 40 1 105 1 108 1 115 1 127 1 162 1 169 1 182 1 196 1 200 1 217 1 274 1 314 1 335 1 338 1 352 1 356 1 365 1 369 1 376 1 418 1 423 1 445 1 451 1 454 1 498 1 502 1 506 1 512 1 546 1 589 1 646 1 668 1 703 1 741 1 746 1 755 1 757 1 820 1 821 1 831 1 838 1 900 1 901 1 926 1 933 1 943 1 958 1 967 1 971 1 986 1 1005 1 1007 1 1015 1 1023 1 
1 208 4 1 30 1 6 1 14 1 27 1 38 1 75 1 81 1 83 1 96 1 105 1 112 1 141 1 158 1 188 1 217 1 236 1 256 1 261 1 272 1 287 1 288 1 296 1 319 1 344 2 351 1 365 1 371 1 385 1 418 1 478 1 496 1 505 1 518 1 521 1 526 1 548 1 599 1 612 1 617 1 648 1 649 1 669 1 671 1 673 1 682 1 729 1 742 2 754 1 771 1 807 1 848 1 851 1 872 1 878 1 909 1 914 1 930 1 937 1 967 2 978 1 981 1 45 1 57 1 63 1 111 1 115 1 140 1 144 1 157 1 181 1 205 1 211 1 224 1 234 1 269 1 270 1 315 1 345 1 348 1 384 1 388 1 396 1 406 1 411 1 442 1 443 1 463 1 464 1 468 1 495 1 527 1 533 1 608 1 616 1 634 1 650 1 687 1 710 1 739 1 750 1 817 1 834 1 845 1 857 1 883 1 935 1 992 1 1009 1 1023 1 
1 212 14 1 26 1 18 1 20 1 34 1 34 1 58 1 60 1 84 1 87 1 107 2 136 1 160 1 173 1 180 1 220 2 262 1 265 1 282 1 332 2 348 1 353 1 357 1 395 1 399 1 401 1 424 1 472 1 473 1 496 1 512 1 524 1 525 1 538 1 545 1 558 1 615 1 659 1 674 1 691 1 716 1 732 1 759 1 789 1 792 1 801 1 819 1 828 1 842 1 869 1 877 1 882 1 888 1 904 1 906 1 910 2 927 1 943 1 966 1 993 1 1001 1 47 1 49 1 52 1 75 1 81 1 95 1 101 1 112 1 126 1 132 1 147 1 187 1 189 1 196 1 244 1 249 1 302 1 323 1 373 1 432 1 447 1 453 1 455 1 464 1 468 1 484 1 499 1 501 1 507 1 548 1 580 1 592 1 634 1 637 1 638 1 677 1 699 1 737 1 766 1 831 1 839 1 891 1 934 1 977 1 994 1 1009 1 1018 1 1021 1 1023 1 
1 211 4 1 23 1 5 1 12 1 21 1 41 1 45 1 99 1 100 1 128 1 136 1 159 1 173 1 186 2 192 1 215 1 226 1 253 1 259 1 346 1 351 1 359 1 378 1 394 1 404 1 417 2 433 1 436 1 449 1 494 1 504 1 511 1 557 1 562 1 563 1 565 1 574 1 580 1 627 1 630 1 631 1 641 1 678 2 682 2 706 1 744 1 760 1 768 1 774 1 817 1 821 1 827 1 844 1 848 1 877 1 882 1 898 2 925 1 940 1 946 1 947 1 964 1 56 1 59 1 62 1 68 1 72 1 142 1 169 1 174 1 180 1 184 1 286 1 295 1 299 1 336 1 343 1 374 1 375 1 382 1 419 1 437 1 447 1 477 1 515 1 539 1 567 1 568 1 589 1 600 1 614 1 616 1 621 1 651 1 658 1 660 1 668 1 679 1 683 1 693 1 698 1 710 1 721 1 726 1 748 1 758 1 765 1 842 1 859 1 896 1 902 1 919 1 920 1 932 1 933 1 936 1 944 1 986 1 1014 1 1016 1 1018 1 1023 1 1024 1 
1 213 23 1 24 1 3 1 10 1 22 1 30 1 42 1 48 1 59 1 65 1 90 1 99 1 116 1 140 1 217 1 239 1 280 1 284 1 358 2 359 1 363 1 411 1 414 2 416 1 430 2 445 1 456 1 460 1 466 1 480 1 539 1 579 1 609 1 620 1 659 1 687 1 708 1 715 1 716 1 724 1 757 1 768 1 804 1 810 1 851 1 886 1 890 1 907 1 917 1 918 1 950 1 978 1 983 1 986 1 992 1 63 1 77 1 93 1 94 1 110 1 114 1 136 1 150 1 158 1 218 1 235 1 237 1 244 1 252 1 263 1 279 1 306 1 349 1 357 1 371 1 375 1 392 1 403 1 404 1 415 1 432 1 435 1 479 1 504 1 506 1 510 1 514 1 521 1 529 1 531 1 564 1 578 1 581 1 588 1 626 1 636 1 643 1 693 1 703 1 711 1 741 1 773 1 861 1 891 1 896 1 969 1 1002 1 1010 1 1016 1 
1 213 6 1 16 1 18 1 55 1 57 1 102 1 114 1 116 1 125 1 127 1 154 1 161 1 170 1 183 1 205 1 213 1 223 1 232 1 254 1 286 1 319 1 343 1 348 1 385 1 393 1 422 2 480 1 491 1 492 1 500 1 507 1 512 1 592 1 637 1 664 1 668 2 676 1 683 1 710 1 720 1 729 1 731 1 739 1 741 1 742 1 747 1 749 1 768 1 779 1 784 2 793 1 805 1 807 1 830 1 840 1 856 1 866 1 873 1 902 1 910 1 928 1 932 1 940 1 949 1 971 1 44 1 85 1 118 1 152 1 215 1 230 1 269 1 291 1 292 1 295 1 310 1 324 1 339 1 342 1 352 1 358 1 364 1 395 1 433 1 443 1 451 1 459 1 474 1 513 1 514 1 528 1 547 1 566 1 570 1 602 1 608 1 609 1 615 1 629 1 632 1 645 1 647 1 682 1 734 1 753 1 783 1 794 1 810 1 861 1 874 1 925 1 966 1 975 1 979 1 995 1 1016 1 1025 1 
1 213 33 1 16 1 38 1 38 1 52 1 73 1 92 1 100 1 104 1 131 2 141 1 165 1 171 1 185 1 196 1 206 1 257 1 259 1 260 1 293 1 294 1 299 1 328 1 332 1 341 1 348 1 410 1 439 1 488 1 493 1 496 1 515 1 556 1 557 1 566 1 569 1 599 2 625 1 633 2 639 1 688 1 722 1 758 1 775 1 789 1 796 1 798 1 814 1 846 1 871 2 924 1 925 1 938 1 956 1 978 1 981 1 997 1 998 1 44 1 74 1 88 1 98 1 106 1 113 1 126 1 130 1 164 1 166 1 180 1 218 1 223 1 232 1 236 1 246 1 266 1 270 1 276 1 280 1 286 1 298 1 302 1 308 1 311 1 316 1 338 1 349 1 382 1 393 1 394 1 397 1 406 1 409 1 422 1 490 1 554 1 563 1 572 1 578 1 579 1 595 1 610 1 627 1 628 1 665 1 678 1 679 1 683 1 685 1 713 1 725 1 747 1 762 1 873 1 875 1 893 1 950 1 952 1 986 1 993 1 1019 1 
1 205 3 1 8 1 18 1 27 1 87 1 111 1 127 1 130 1 147 1 168 1 177 1 195 1 199 1 203 1 242 1 298 1 309 1 324 1 338 1 395 1 464 1 477 1 489 1 500 1 501 2 515 1 521 1 528 1 534 1 544 1 545 1 558 1 559 1 566 1 603 1 614 1 617 2 629 1 639 1 656 1 663 1 675 1 688 1 733 1 777 1 820 1 836 1 859 1 918 1 923 1 942 1 959 1 961 1 987 1 997 1 50 1 61 1 69 1 75 1 93 1 107 1 115 1 125 1 140 1 152 1 161 1 189 1 202 1 208 1 223 1 231 1 236 1 246 1 266 1 276 1 312 1 326 1 362 1 365 1 368 1 370 1 385 1 400 1 427 1 439 1 468 1 494 1 557 1 596 1 598 1 662 1 689 1 721 1 743 1 799 1 806 1 808 1 822 1 872 1 875 1 878 1 935 1 937 1 943 1 953 1 954 1 967 1 996 1 998 1 1007 1 1027 1 
1 214 1 1 10 1 28 1 32 1 70 1 72 1 82 1 105 1 109 1 115 1 120 1 168 1 170 1 211 1 217 1 248 1 255 1 309 1 321 1 361 1 429 1 480 1 526 1 540 1 545 2 584 2 613 1 629 1 700 1 743 1 744 1 757 1 759 1 788 1 790 1 799 1 800 1 844 1 871 1 886 1 893 1 923 1 926 2 934 1 938 1 941 1 944 1 986 1 989 1 998 1 43 1 80 1 95 1 147 1 173 1 192 1 202 1 203 1 209 1 213 1 237 1 244 1 245 1 246 1 266 1 286 1 296 1 341 1 370 1 410 1 412 1 421 1 562 1 573 1 586 1 628 1 643 1 652 1 688 1 712 1 714 1 723 1 750 1 785 1 797 1 802 1 806 1 809 1 814 1 824 1 851 1 889 1 903 1 928 1 942 1 943 1 959 1 962 1 978 1 994 1 1003 1 1005 1 1006 1 1012 1 1024 1 
1 212 8 1 9 1 17 1 27 1 35 1 47 1 107 1 112 1 119 1 137 1 147 1 152 1 154 1 160 1 163 1 166 1 171 1 180 1 196 1 213 1 233 1 247 1 249 1 257 1 291 2 298 1 338 1 359 1 372 1 432 1 439 1 524 1 534 1 555 1 565 1 575 1 593 1 601 1 610 1 623 1 641 1 659 1 662 1 666 1 673 1 702 1 714 2 794 1 807 1 813 1 831 1 853 1 858 1 900 1 939 1 942 1 978 1 985 1 99 1 121 1 125 1 128 1 190 1 220 1 225 1 263 1 302 1 306 1 311 1 318 1 320 1 362 1 364 1 435 1 466 1 483 1 498 1 505 1 563 1 569 1 571 1 574 1 617 1 634 1 638 1 677 1 681 1 694 1 696 1 699 1 709 1 727 1 749 1 781 1 789 1 792 1 855 1 876 1 887 1 888 1 891 1 908 1 932 1 979 1 987 1 989 1 1013 1 1021 1 1027 1 
1 207 17 1 18 1 30 1 36 1 14 1 20 1 60 1 76 1 81 1 103 2 104 1 118 1 132 2 137 1 170 1 185 1 194 1 254 1 257 1 275 1 282 2 295 1 299 1 310 1 319 1 345 1 348 1 377 1 383 1 393 1 395 2 417 1 418 1 426 1 438 1 445 1 466 1 499 1 510 1 523 1 548 1 567 1 591 1 594 1 604 1 612 1 620 1 673 1 687 1 703 1 710 1 722 1 728 1 735 1 747 1 758 2 765 1 791 1 801 2 806 1 835 1 900 1 920 1 956 1 961 1 976 1 979 1 56 1 62 1 65 1 67 1 69 1 75 1 101 1 115 1 116 1 121 1 130 1 138 1 187 1 198 1 238 1 240 1 271 1 280 1 288 1 343 1 352 1 359 1 371 1 407 1 504 1 511 1 528 1 554 1 566 1 577 1 607 1 632 1 637 1 646 1 674 1 691 1 730 1 813 1 818 1 836 1 848 1 867 1 877 1 887 1 914 1 931 1 1020 1 1026 1 
1 212 9 1 40 1 46 1 66 1 80 1 99 1 100 1 112 1 131 1 203 1 280 1 283 1 323 1 327 1 339 1 351 1 354 1 379 1 383 1 404 2 410 1 412 1 439 1 467 1 500 1 508 1 516 1 546 2 550 1 555 1 561 1 567 1 575 1 593 1 596 1 598 1 599 1 607 1 631 1 641 2 683 1 705 1 711 1 728 1 735 1 741 1 750 1 790 1 797 1 806 1 810 1 814 1 853 1 867 1 871 1 874 1 881 1 885 1 897 1 902 1 912 1 926 1 929 1 965 1 968 1 972 1 45 1 61 1 62 1 78 1 79 1 86 1 96 1 98 1 110 1 115 1 118 1 121 1 144 1 148 1 159 1 165 1 212 1 262 1 266 1 302 1 330 1 340 1 341 1 376 1 386 1 395 1 408 1 411 1 421 1 429 1 435 1 459 1 518 1 542 1 548 1 549 1 617 1 628 1 695 1 697 1 698 1 702 1 826 1 862 1 870 1 880 1 890 1 892 1 911 1 943 1 1006 1 1010 1 1014 1 1019 1 1024 1 
1 210 13 1 16 1 19 1 26 1 29 1 37 1 38 1 48 1 53 1 99 1 119 1 167 2 182 1 193 1 213 1 218 1 230 1 232 1 233 1 239 1 260 1 267 1 291 1 292 1 295 1 297 1 318 1 325 1 329 1 375 1 451 1 457 1 459 1 460 1 466 1 500 1 512 1 513 1 515 1 521 1 568 1 570 1 572 1 574 2 613 1 614 1 645 1 680 1 703 1 710 1 752 1 756 1 763 1 795 1 830 1 928 1 950 1 966 1 990 1 108 1 123 1 128 1 133 1 143 1 153 1 178 1 179 1 208 1 256 1 272 1 277 1 301 1 321 1 323 1 339 1 345 1 351 1 352 1 357 1 363 1 364 1 381 1 412 1 416 1 428 1 436 1 448 1 470 1 478 1 488 1 493 1 506 1 548 1 557 1 580 1 583 1 586 1 618 1 646 1 647 1 654 1 679 1 744 1 819 1 883 1 887 1 923 1 956 1 971 1 1003 1 1004 1 1005 1 1006 1 1018 1 1019 1 1026 1 
1 206 5 1 35 1 3 1 10 1 33 1 43 1 58 1 71 1 83 1 97 1 107 1 132 1 143 1 167 1 191 1 219 2 227 1 231 1 270 1 310 1 323 1 360 1 376 1 377 1 405 1 406 1 426 1 437 1 440 1 451 1 473 2 479 1 556 1 600 1 611 1 625 1 631 1 668 1 691 1 692 1 697 1 701 1 737 1 741 1 742 1 753 1 754 1 759 1 814 1 821 1 829 1 892 1 895 1 964 1 997 1 50 1 61 1 91 1 118 1 122 1 180 1 198 1 225 1 295 1 300 1 309 1 330 1 366 1 383 1 443 1 459 1 464 1 476 1 496 1 497 1 499 1 500 1 517 1 527 1 535 1 545 1 591 1 595 1 605 1 609 1 654 1 656 1 712 1 746 1 747 1 778 1 784 1 802 1 816 1 822 1 867 1 894 1 920 1 923 1 943 1 955 1 988 1 991 1 993 1 998 1 999 1 1002 1 1020 1 
1 212 6 1 14 1 17 1 32 1 43 1 48 1 65 2 78 1 80 1 94 2 120 1 121 1 124 1 130 1 141 1 183 1 229 2 239 1 261 1 265 1 269 1 283 1 286 1 296 1 331 1 350 1 372 1 386 1 394 1 395 1 397 1 441 1 442 1 445 1 452 1 455 1 458 1 462 1 504 1 546 1 565 1 575 1 589 1 598 1 600 1 610 1 632 2 634 1 635 1 638 1 639 1 679 1 684 1 691 2 693 1 696 1 717 1 729 1 751 2 754 1 816 1 868 1 890 1 894 1 902 1 968 2 98 1 156 1 161 1 167 1 169 1 173 1 188 1 196 1 208 1 212 1 226 1 249 1 297 1 300 1 371 1 375 1 385 1 399 1 430 1 465 1 512 1 592 1 627 1 640 1 642 1 670 1 672 1 678 1 703 1 712 1 723 1 724 1 734 1 785 1 795 1 799 1 803 1 804 1 824 1 841 1 849 1 854 1 865 1 909 1 942 1 946 1 962 1 963 1 1014 1 1023 1 1026 1 
1 208 7 1 8 1 11 1 41 1 28 1 34 1 56 1 67 1 80 1 88 1 107 1 117 1 136 1 152 1 158 1 191 1 217 1 220 1 251 1 260 1 291 1 306 1 311 1 323 1 329 2 332 1 363 2 378 1 383 1 414 1 418 1 436 2 445 1 464 1 489 1 494 1 512 1 514 1 518 1 524 1 528 1 541 1 550 1 554 1 591 1 608 1 611 1 687 1 721 1 756 1 761 1 763 1 764 1 782 1 785 1 793 1 803 1 809 1 821 1 822 1 852 1 872 1 883 1 896 1 901 1 951 1 975 1 987 1 1001 1 58 1 63 1 72 1 84 1 106 1 141 1 146 1 159 1 180 1 185 1 195 1 254 1 264 1 267 1 268 1 296 1 325 1 355 1 373 1 405 1 417 1 419 1 437 1 465 1 473 1 540 1 545 1 569 1 578 1 600 1 604 1 606 1 624 1 636 1 655 1 664 1 698 1 705 1 706 1 750 1 774 1 824 1 827 1 829 1 868 1 878 1 891 1 913 1 925 1 931 1 948 1 955 1 990 1 
1 209 10 1 13 1 20 1 22 1 36 1 44 1 46 1 11 1 50 1 69 1 72 1 113 1 118 1 164 1 190 1 191 1 195 1 215 1 241 1 278 1 311 1 315 1 331 1 333 1 343 1 344 1 362 1 398 1 404 1 410 1 423 1 445 1 455 1 467 1 484 1 486 1 488 1 555 1 568 1 576 1 579 1 584 1 614 1 623 1 638 1 645 1 658 1 674 2 687 1 689 1 690 1 738 1 754 2 771 1 784 1 802 1 820 1 837 1 846 1 851 1 857 1 892 1 896 1 908 1 932 1 935 1 946 1 950 1 954 2 996 1 53 1 64 1 74 1 93 1 94 1 102 1 158 1 187 1 242 1 254 1 302 1 316 1 321 1 323 1 328 1 359 1 393 1 395 1 426 1 480 1 506 1 512 1 548 1 564 1 613 1 636 1 647 1 668 1 673 1 723 1 732 1 759 1 778 1 803 1 821 1 831 1 922 1 942 1 943 1 979 1 980 1 985 1 992 1 994 1 995 1 1004 1 1008 1 1019 1 1024 1 
1 216 23 1 30 1 1 1 17 1 22 1 34 1 52 1 57 1 60 1 80 1 100 1 101 1 152 1 186 1 188 1 278 1 284 1 285 2 293 1 296 1 314 1 349 1 352 2 360 1 396 1 427 1 457 1 474 1 478 1 483 1 544 1 546 1 554 1 563 1 582 1 618 1 646 1 648 1 684 1 693 2 751 1 753 1 762 1 767 1 772 2 787 1 802 1 815 1 832 1 861 1 865 1 924 1 935 1 996 1 51 1 56 1 72 1 86 1 91 1 157 1 159 1 200 1 202 1 217 1 220 1 229 1 239 1 243 1 259 1 291 1 322 1 337 1 340 1 373 1 377 1 380 1 385 1 393 1 409 1 422 1 455 1 462 1 486 1 525 1 535 1 555 1 575 1 576 1 622 1 672 1 680 1 700 1 707 1 712 1 720 1 727 1 738 1 790 1 796 1 801 1 804 1 819 1 836 1 867 1 870 1 895 1 899 1 929 1 936 1 953 1 955 1 960 1 1000 1 1009 1 1010 1 1018 1 1021 1 1027 1 
1 209 16 1 29 1 48 1 15 1 39 1 45 1 58 1 67 1 76 1 89 1 107 1 113 1 154 2 174 1 231 1 244 1 256 1 272 1 282 1 312 1 318 1 320 1 331 1 349 1 388 1 401 1 402 1 403 1 452 1 453 1 465 2 480 1 485 1 503 1 538 1 545 1 582 1 595 1 609 1 626 1 638 1 651 1 693 1 711 1 713 1 714 1 740 1 763 1 778 1 832 1 860 1 907 1 925 1 926 1 950 1 957 1 966 1 975 1 982 1 988 1 51 1 90 1 95 1 97 1 126 1 133 1 136 1 156 1 161 1 191 1 202 1 214 1 225 1 236 1 245 1 257 1 296 1 346 1 363 1 387 1 391 1 426 1 450 1 458 1 470 1 481 1 535 1 542 1 601 1 623 1 642 1 702 1 703 1 726 1 738 1 748 1 780 1 788 1 823 1 825 1 833 1 853 1 861 1 866 1 869 1 902 1 1002 1 1022 1 1025 1 1027 1 
1 210 7 1 13 1 22 1 23 1 27 1 49 1 50 1 84 1 111 1 114 1 141 1 142 1 155 1 191 1 196 1 199 1 205 1 231 1 250 1 270 1 272 1 293 2 295 1 309 1 319 1 320 1 323 1 340 1 343 1 413 1 424 1 425 1 426 1 445 1 447 1 457 1 487 1 491 1 512 1 522 1 561 1 572 1 636 2 649 1 661 1 684 1 703 1 739 1 741 1 780 1 782 1 792 1 830 1 843 1 864 1 909 1 926 1 947 1 962 1 978 1 63 1 124 1 139 1 143 1 144 1 150 1 185 1 187 1 189 1 204 1 208 1 256 1 289 1 302 1 327 1 352 1 367 1 381 1 401 1 427 1 438 1 450 1 461 1 494 1 515 1 533 1 541 1 557 1 570 1 601 1 610 1 612 1 613 1 616 1 641 1 646 1 652 1 669 1 681 1 694 1 774 1 785 1 826 1 833 1 854 1 868 1 883 1 892 1 918 1 929 1 938 1 959 1 972 1 1005 1 1014 1 1015 1 1016 1 1017 1 1026 1 
1 204 38 1 49 1 34 1 54 1 75 1 102 1 113 1 118 1 133 1 145 1 161 1 162 1 216 1 242 1 243 1 296 2 301 1 340 1 369 1 440 1 443 1 477 1 483 1 486 1 490 1 501 1 508 1 519 1 544 1 567 1 588 1 603 1 618 1 625 1 642 1 658 1 659 1 695 1 736 1 739 1 749 2 773 1 785 1 799 1 801 1 808 1 823 2 842 2 847 1 921 1 926 1 956 1 962 1 978 1 988 1 997 1 999 1 1001 1 79 1 92 1 98 1 115 1 116 1 147 1 152 1 166 1 180 1 187 1 236 1 259 1 282 1 292 1 297 1 303 1 325 1 361 1 385 1 416 1 429 1 430 1 436 1 446 1 451 1 460 1 481 1 518 1 523 1 534 1 548 1 552 1 581 1 594 1 598 1 612 1 620 1 626 1 631 1 637 1 645 1 670 1 678 1 680 1 685 1 691 1 693 1 699 1 751 1 765 1 786 1 792 1 802 1 817 1 859 1 867 1 869 1 883 1 885 1 911 1 917 1 919 1 939 1 1000 1 1013 1 
1 208 44 1 17 1 48 1 67 1 72 1 125 1 154 1 162 1 223 1 225 1 269 1 280 1 288 1 289 1 293 1 296 1 317 1 355 1 393 1 400 2 437 1 439 1 446 1 449 1 465 1 476 1 504 1 517 1 528 1 535 1 543 1 550 1 555 1 577 1 588 1 617 2 634 1 646 2 653 1 654 1 700 1 711 1 722 1 728 2 737 2 747 1 750 1 809 1 837 1 857 1 872 1 907 1 915 1 944 1 955 2 967 1 995 1 54 1 61 1 66 1 92 1 102 1 129 1 138 1 141 1 155 1 158 1 189 1 197 1 245 1 255 1 283 1 320 1 324 1 333 1 350 1 351 1 373 1 406 1 416 1 432 1 491 1 579 1 599 1 610 1 635 1 636 1 695 1 706 1 745 1 748 1 766 1 775 1 810 1 822 1 873 1 900 1 912 1 924 1 934 1 939 1 948 1 1004 1 1011 1 1022 1 1027 1 
1 211 52 1 18 1 27 1 29 1 31 1 53 1 63 1 77 2 83 1 87 1 135 1 148 1 185 1 186 1 190 1 191 1 243 1 271 1 304 1 310 1 315 1 319 1 432 1 453 1 464 1 482 1 502 1 503 1 564 1 566 1 586 1 612 1 621 1 630 1 641 1 660 1 673 1 690 1 695 1 703 1 728 1 737 1 754 1 767 2 769 1 800 1 805 1 808 1 826 1 833 1 850 1 851 1 874 1 878 1 882 1 883 1 891 1 903 1 904 1 915 1 932 1 971 1 975 1 991 1 993 1 62 1 64 1 75 1 95 1 119 1 134 1 153 1 162 1 176 1 178 1 197 1 224 1 230 1 244 1 249 1 261 1 264 1 274 1 289 1 313 1 321 1 329 1 339 1 388 1 400 1 500 1 510 1 543 1 559 1 567 1 576 1 597 1 600 1 607 1 628 1 655 1 682 1 715 1 733 1 750 1 785 1 804 1 829 1 838 1 920 1 937 1 940 1 967 1 970 1 976 1 992 1 1000 1 1006 1 1008 1 
1 217 37 1 11 1 28 1 76 1 87 1 88 1 126 2 142 1 164 1 182 1 216 1 219 1 225 1 238 1 244 1 262 1 279 1 286 1 308 2 327 1 341 1 374 1 388 1 391 1 435 1 447 1 469 2 506 1 511 1 551 1 552 1 572 1 574 1 609 1 611 1 644 1 697 1 712 1 716 2 743 1 763 1 779 1 780 1 789 1 798 1 837 1 860 1 867 1 892 1 897 1 917 1 929 2 936 1 941 2 961 1 966 1 981 1 984 1 998 1 70 1 73 1 82 1 94 1 108 1 147 1 185 1 194 1 205 1 210 1 230 1 243 1 253 1 257 1 259 1 283 1 287 1 320 1 350 1 378 1 396 1 403 1 445 1 452 1 488 1 492 1 509 1 519 1 521 1 522 1 532 1 535 1 575 1 605 1 614 1 615 1 624 1 650 1 664 1 677 1 685 1 687 1 710 1 731 1 738 1 754 1 818 1 841 1 853 1 883 1 889 1 900 1 925 1 943 1 969 1 971 1 985 1 1003 1 1004 1 1014 1 1017 1 1018 1 1019 1 1020 1 1025 1 
1 210 4 1 47 1 5 1 26 1 31 1 35 1 42 1 49 1 64 2 76 1 94 1 105 1 123 1 139 1 144 1 152 1 174 2 176 1 191 1 192 1 218 1 219 1 248 1 249 1 318 1 327 2 346 1 350 1 354 1 369 1 380 1 398 1 403 1 423 1 441 1 457 1 463 1 486 1 506 1 529 1 536 1 537 1 544 1 546 1 599 2 609 1 632 1 640 1 687 1 689 1 713 1 743 1 751 1 766 1 817 1 823 1 828 1 833 1 845 1 866 1 867 1 868 1 890 1 898 1 918 1 924 1 927 1 959 1 999 1 82 1 86 1 129 1 143 1 145 1 184 1 217 1 245 1 254 1 309 1 340 1 348 1 356 1 357 1 361 1 375 1 376 1 432 1 436 1 471 1 500 1 511 1 525 1 539 1 678 1 679 1 693 1 722 1 725 1 728 1 730 1 731 1 736 1 777 1 786 1 796 1 809 1 816 1 822 1 829 1 852 1 856 1 874 1 926 1 929 1 961 1 962 1 964 1 998 1 1005 1 1011 1 1015 1 1016 1 1022 1 
1 211 13 1 15 1 37 1 49 1 33 1 71 1 81 1 83 1 100 1 156 1 168 1 189 1 193 1 219 1 225 1 233 1 234 1 249 1 258 1 272 1 279 1 289 1 299 1 300 1 304 1 325 1 332 1 356 1 359 1 362 1 366 1 367 1 411 2 445 1 480 1 486 1 493 1 501 1 515 1 518 1 524 1 544 1 546 1 573 1 606 1 610 1 625 1 655 1 659 1 661 1 662 1 690 1 704 1 723 2 735 1 736 1 746 1 755 1 793 1 795 1 816 1 826 1 832 1 834 2 840 1 932 1 972 1 980 1 1000 1 61 1 89 1 113 1 114 1 115 1 160 1 163 1 165 1 199 1 266 1 274 1 277 1 282 1 283 1 307 1 312 1 315 1 340 1 344 1 379 1 382 1 423 1 462 1 478 1 488 1 520 1 583 1 593 1 600 1 608 1 636 1 668 1 669 1 672 1 695 1 696 1 715 1 724 1 739 1 752 1 818 1 822 1 847 1 893 1 904 1 917 1 974 1 977 1 981 1 990 1 997 1 1015 1 
1 210 4 1 7 1 26 1 34 1 45 1 50 1 47 1 64 1 91 1 101 1 112 1 172 1 203 1 226 1 235 1 237 1 261 1 267 1 329 1 334 1 353 1 373 1 405 1 411 1 414 1 431 1 435 1 453 1 455 1 483 1 484 1 511 1 515 1 520 1 573 1 627 1 633 1 640 1 647 1 652 1 673 1 686 1 701 1 720 1 725 1 743 1 787 1 809 1 853 1 881 1 903 1 923 1 933 1 943 1 957 1 977 2 985 1 998 1 82 1 105 1 107 1 183 1 191 1 215 1 246 1 255 1 262 1 276 1 277 1 288 1 315 1 320 1 322 1 327 1 361 1 376 1 377 1 407 1 460 1 462 1 490 1 505 1 528 1 536 1 570 1 576 1 587 1 628 1 630 1 631 1 687 1 716 1 754 1 761 1 780 1 798 1 857 1 873 1 884 1 917 1 922 1 929 1 936 1 937 1 941 1 947 1 948 1 949 1 951 1 994 1 1003 1 1006 1 1007 1 1008 1 1009 1 1014 1 1024 1 
1 212 1 1 11 1 17 1 25 1 36 1 35 1 104 1 125 1 133 1 141 1 147 1 151 1 160 1 177 1 183 2 187 1 194 1 212 1 220 1 242 1 253 1 262 1 311 1 336 1 338 1 370 1 372 1 395 1 406 1 419 1 420 1 433 1 466 1 479 1 494 1 540 1 544 1 547 1 586 1 619 1 641 2 660 1 669 1 672 1 694 1 698 1 701 1 717 2 744 1 748 1 805 1 825 1 826 1 840 1 842 1 873 1 874 1 891 1 922 1 950 1 953 1 973 1 978 1 984 1 985 1 84 1 100 1 150 1 157 1 198 1 223 1 232 1 249 1 267 1 276 1 286 1 294 1 295 1 299 1 308 1 319 1 342 1 347 1 351 1 368 1 396 1 405 1 429 1 442 1 447 1 449 1 463 1 488 1 501 1 505 1 535 1 537 1 541 1 543 1 551 1 571 1 610 1 613 1 637 1 650 1 655 1 667 1 674 1 675 1 684 1 690 1 714 1 730 1 733 1 735 1 739 1 774 1 789 1 822 1 830 1 836 1 881 1 895 1 898 1 899 1 902 1 927 1 929 1 936 1 942 1 949 1 964 1 989 1 994 1 998 1 1005 1 1023 1 
1 210 18 1 34 1 42 1 49 1 7 1 66 1 89 1 128 2 145 1 149 1 158 1 163 1 170 1 193 1 206 1 208 1 231 1 233 2 245 1 308 1 323 1 346 1 348 1 352 1 376 1 413 1 435 1 478 1 493 1 504 1 512 1 515 1 534 1 535 1 563 1 594 2 596 1 640 1 663 1 713 1 723 1 740 1 768 1 792 1 797 1 798 1 884 1 904 1 920 1 921 1 947 1 956 2 971 1 975 1 981 1 987 1 92 1 101 1 120 1 123 1 135 1 141 1 151 1 165 1 184 1 210 1 240 1 244 1 252 1 292 1 301 1 345 1 362 1 372 1 382 1 445 1 489 1 491 1 511 1 524 1 533 1 551 1 553 1 622 1 625 1 628 1 641 1 675 1 682 1 711 1 764 1 800 1 806 1 820 1 837 1 886 1 913 1 916 1 927 1 931 1 934 1 938 1 944 1 949 1 958 1 1004 1 1007 1 1008 1 1016 1 
1 206 5 1 22 1 6 1 10 1 39 1 43 1 45 1 53 1 57 1 72 1 91 1 128 1 147 1 161 2 165 1 178 1 191 1 198 1 216 1 235 1 247 1 261 2 262 1 265 1 268 1 295 1 319 1 322 2 337 1 356 1 367 1 368 2 370 1 384 1 412 1 422 1 430 1 441 1 463 1 467 1 490 1 495 1 498 1 505 1 526 1 554 1 568 1 572 1 581 1 648 1 657 1 658 1 698 1 712 1 737 1 742 1 749 1 754 2 777 1 780 1 802 1 833 1 847 1 882 1 885 1 965 1 991 1 992 1 85 1 89 1 98 1 101 1 106 1 111 1 120 1 153 1 181 1 196 1 229 1 230 1 232 1 270 1 279 1 307 1 316 1 323 1 341 1 373 1 397 1 439 1 440 1 476 1 487 1 491 1 521 1 536 1 553 1 559 1 579 1 605 1 617 1 644 1 650 1 660 1 696 1 716 1 767 1 770 1 779 1 783 1 794 1 811 1 832 1 836 1 861 1 886 1 912 1 913 1 929 1 939 1 960 1 962 1 1011 1 1013 1 
1 208 27 2 30 1 1 1 2 1 4 1 5 1 35 1 42 1 43 1 54 1 67 1 77 1 79 1 86 1 117 1 183 1 194 1 206 1 208 1 209 1 224 2 245 1 253 1 283 1 300 1 315 1 316 1 317 1 354 1 357 1 381 1 395 1 396 1 398 1 408 1 422 1 444 1 460 1 485 1 537 1 549 1 563 1 578 1 603 1 627 1 645 1 658 1 691 1 708 1 754 1 771 1 798 1 885 1 890 1 901 1 910 1 911 1 997 1 83 1 89 1 98 1 105 1 110 1 199 1 234 1 257 1 286 1 289 1 304 1 324 1 340 1 364 1 406 1 428 1 435 1 440 1 441 1 452 1 457 1 476 1 483 1 487 1 493 1 502 1 510 1 513 1 515 1 518 1 529 1 533 1 542 1 546 1 547 1 602 1 623 1 641 1 684 1 700 1 705 1 736 1 738 1 758 1 759 1 767 1 774 1 813 1 833 1 835 1 842 1 853 1 866 1 876 1 878 1 934 1 936 1 961 1 976 1 996 1 1005 1 1014 1 1021 1 1026 1 
1 211 4 1 54 1 2 1 5 1 11 1 17 1 24 1 33 1 36 1 47 1 51 1 66 1 69 1 100 1 111 1 144 1 151 1 161 1 187 1 188 1 199 1 207 1 208 1 214 1 216 1 242 1 250 1 286 1 341 1 357 1 369 1 389 1 406 1 445 1 469 1 478 1 483 1 490 1 498 1 510 1 529 1 560 2 563 1 569 1 586 1 592 2 596 1 601 1 655 1 673 1 714 1 718 1 726 1 729 1 730 1 762 1 782 1 784 2 797 2 817 1 838 1 854 1 892 1 916 1 927 1 932 1 934 1 981 1 998 1 96 1 110 1 116 1 129 1 131 1 133 1 135 1 141 1 162 1 169 1 182 1 195 1 209 1 226 1 271 1 313 1 350 1 410 1 434 1 438 1 486 1 516 1 542 1 546 1 577 1 593 1 595 1 736 1 746 1 753 1 760 1 771 1 779 1 785 1 799 1 804 1 818 1 820 1 833 1 841 1 881 1 882 1 904 1 918 1 937 1 940 1 952 1 958 1 1005 1 1021 1 
1 208 23 1 30 1 56 2 58 1 4 1 14 1 48 1 54 1 70 1 82 1 84 1 95 1 107 1 122 1 128 1 141 1 145 2 165 1 179 1 185 1 200 1 295 1 307 1 320 1 338 1 357 1 362 1 375 1 380 1 388 1 421 1 469 1 494 1 535 1 562 1 564 1 590 1 591 1 622 1 630 1 656 1 671 1 674 2 693 1 704 1 731 1 769 1 790 1 800 1 864 1 874 2 887 1 914 1 915 1 918 1 931 1 983 1 109 1 112 1 129 1 144 1 152 1 155 1 182 1 184 1 223 1 233 1 249 1 255 1 298 1 305 1 311 1 333 1 351 1 372 1 391 1 404 1 416 1 431 1 444 1 541 1 621 1 655 1 676 1 678 1 679 1 697 1 718 1 730 1 756 1 758 1 759 1 763 1 765 1 771 1 775 1 778 1 779 1 796 1 837 1 850 1 895 1 898 1 959 1 974 1 979 1 989 1 999 1 1003 1 1021 1 1024 1 
1 212 3 1 27 1 36 1 46 2 42 1 66 1 77 2 82 1 100 1 108 1 119 1 158 1 159 1 160 1 187 1 195 1 242 1 260 1 301 1 302 1 320 1 356 1 357 1 364 1 373 1 444 1 490 1 503 1 540 1 561 2 562 1 603 1 618 1 637 1 656 1 669 1 688 1 696 1 715 1 729 2 748 1 773 1 791 1 803 1 812 1 815 1 828 1 829 1 897 1 910 1 919 1 922 1 936 1 944 1 967 1 985 1 1001 2 87 1 121 1 133 1 197 1 235 1 265 1 284 1 310 1 330 1 345 1 349 1 369 1 374 1 405 1 414 1 419 1 423 1 440 1 447 1 474 1 481 1 504 1 527 1 536 1 544 1 547 1 551 1 554 1 556 1 604 1 608 1 619 1 654 1 690 1 693 1 694 1 721 1 735 1 741 1 762 1 763 1 778 1 794 1 807 1 834 1 835 1 852 1 874 1 896 1 925 1 927 1 931 1 932 1 980 1 1004 1 1010 1 1014 1 
1 210 43 1 60 1 63 1 65 1 4 1 22 1 23 1 53 1 76 1 98 1 186 1 198 1 204 1 219 1 226 1 264 1 267 1 272 1 277 1 278 1 314 1 325 1 331 1 333 2 337 1 362 1 367 1 393 2 398 1 440 1 458 1 466 1 469 1 470 1 481 1 520 1 525 1 539 1 540 1 564 1 567 1 600 1 633 1 656 1 665 1 675 1 706 1 708 1 722 1 731 1 754 1 765 2 775 1 792 1 798 2 828 2 844 1 848 2 859 1 864 1 891 2 921 1 944 1 945 1 947 1 952 2 983 1 991 2 92 1 101 1 145 1 168 1 174 1 190 1 209 1 232 1 248 1 303 1 316 1 352 1 354 1 358 1 379 1 400 1 421 1 423 1 428 1 463 1 513 1 533 1 542 1 602 1 695 1 697 1 703 1 705 1 709 1 712 1 715 1 737 1 743 1 750 1 778 1 783 1 842 1 855 1 866 1 898 1 949 1 950 1 970 1 1010 1 1019 1 1026 1 
1 217 5 1 47 1 50 1 53 1 62 1 7 1 17 1 22 1 42 1 79 1 81 1 88 1 101 1 105 1 113 1 121 1 137 1 143 1 214 1 219 1 238 1 240 1 242 1 285 1 290 1 291 1 302 1 306 1 323 1 367 1 375 1 386 1 387 1 398 1 448 1 449 1 473 1 484 2 531 1 565 1 595 1 605 1 612 1 663 1 672 1 683 1 684 1 820 1 829 1 839 1 854 1 939 1 944 1 948 1 963 1 991 2 992 1 104 1 114 1 116 1 128 1 149 1 151 1 155 1 175 1 176 1 186 1 199 1 279 1 283 1 332 1 333 1 343 1 360 1 366 1 385 1 422 1 447 1 489 1 493 1 505 1 511 1 514 1 525 1 534 1 544 1 553 1 576 1 603 1 629 1 633 1 647 1 685 1 703 1 705 1 718 1 739 1 781 1 783 1 798 1 805 1 807 1 833 1 845 1 850 1 867 1 907 1 923 1 927 1 968 1 970 1 1005 1 1007 1 1011 1 1013 1 1014 1 1015 1 1017 1 
1 208 24 1 31 1 35 1 112 1 120 1 156 1 162 2 179 1 193 1 214 1 244 1 248 1 267 1 269 1 282 1 285 2 307 1 324 1 376 2 395 1 397 1 407 1 410 1 429 1 433 1 437 1 477 1 503 1 505 1 516 1 540 1 560 1 610 2 627 1 628 1 630 1 634 1 651 1 657 1 659 1 677 1 681 1 683 1 687 1 723 2 738 1 758 2 761 1 806 1 813 1 862 1 876 1 882 2 906 1 919 1 920 1 957 1 963 1 974 1 978 1 73 1 75 1 82 1 97 1 109 1 127 1 131 1 148 1 175 1 176 1 245 1 261 1 277 1 278 1 303 1 322 1 329 1 348 1 401 1 415 1 424 1 458 1 465 1 485 1 513 1 528 1 545 1 567 1 573 1 625 1 633 1 638 1 639 1 640 1 685 1 696 1 700 1 721 1 767 1 787 1 789 1 829 1 838 1 840 1 893 1 927 1 982 1 987 1 999 1 1015 1 
1 209 20 1 26 1 48 1 63 1 10 1 23 1 39 1 42 1 82 1 85 1 87 1 108 1 115 1 139 1 144 1 158 1 176 1 213 1 217 1 247 1 317 2 355 1 370 1 378 1 395 1 404 1 409 1 430 1 467 1 473 1 507 1 522 1 539 1 552 1 598 2 645 1 658 1 674 1 678 1 704 1 749 1 755 1 763 1 824 1 862 2 866 1 878 1 883 1 893 1 923 1 936 1 994 1 75 1 92 1 100 1 140 1 156 1 169 1 171 1 180 1 182 1 197 1 203 1 224 1 279 1 290 1 306 1 345 1 348 1 366 1 369 1 405 1 413 1 426 1 438 1 462 1 510 1 546 1 581 1 585 1 592 1 599 1 617 1 643 1 652 1 664 1 698 1 717 1 772 1 781 1 812 1 814 1 823 1 837 1 844 1 848 1 868 1 877 1 882 1 908 1 919 1 937 1 943 1 993 1 1026 1 
1 213 12 1 40 1 64 1 13 1 55 1 82 1 111 1 133 2 139 1 160 2 165 1 171 1 197 1 205 1 208 1 260 1 265 2 300 1 302 1 319 1 331 1 364 1 372 1 410 2 425 1 438 2 486 1 509 1 550 1 564 1 568 1 574 1 603 1 609 1 613 1 691 1 707 1 708 1 718 1 737 1 755 1 772 1 808 1 848 1 869 1 890 2 911 1 935 1 951 1 952 1 955 1 957 1 967 1 987 1 994 1 101 1 175 1 196 1 259 1 288 1 306 1 321 1 374 1 387 1 388 1 402 1 416 1 490 1 504 1 594 1 602 1 605 1 617 1 633 1 643 1 651 1 661 1 694 1 695 1 700 1 702 1 711 1 721 1 736 1 778 1 782 1 802 1 816 1 820 1 824 1 847 1 850 1 865 1 874 1 894 1 913 1 916 1 989 1 996 1 1006 1 1019 1 1023 1 1026 1 
1 208 10 1 15 1 17 1 27 1 45 1 57 1 16 1 23 1 75 1 85 1 90 1 121 1 126 1 128 1 132 1 138 1 155 1 165 1 178 1 186 1 187 1 191 1 202 1 203 1 216 1 299 1 337 1 343 1 365 1 373 1 387 1 396 1 410 1 426 1 428 1 437 1 485 1 558 1 563 1 574 1 580 1 590 1 601 1 628 1 643 1 648 1 667 1 707 1 714 1 719 1 721 1 722 1 781 1 797 1 821 1 839 1 906 1 919 1 927 1 963 1 985 1 986 1 74 1 151 1 197 1 198 1 217 1 219 1 232 1 240 1 247 1 261 1 279 1 284 1 325 1 364 1 375 1 405 1 416 1 418 1 421 1 430 1 444 1 461 1 466 1 475 1 477 1 488 1 501 1 526 1 573 1 586 1 602 1 604 1 629 1 673 1 683 1 699 1 759 1 763 1 764 1 774 1 812 1 816 1 836 1 851 1 873 1 880 1 886 1 897 1 912 1 916 1 932 1 964 1 997 1 1000 1 1008 1 1027 1 
1 212 22 1 40 1 48 1 53 1 61 1 26 1 27 1 35 1 47 1 49 1 95 1 100 1 118 1 142 1 151 1 159 1 164 1 171 1 186 1 196 1 201 1 245 1 255 1 261 1 286 1 307 1 314 1 318 2 319 1 323 1 327 1 329 1 363 1 374 1 420 1 456 1 460 1 466 1 474 1 505 1 510 1 525 1 529 1 551 1 555 1 577 1 591 1 602 1 615 1 640 1 642 1 666 1 746 1 751 1 778 1 834 1 880 1 897 1 914 1 921 1 947 1 965 1 980 1 985 1 92 1 94 1 123 1 128 1 137 1 143 1 149 1 155 1 165 1 172 1 177 1 206 1 262 1 267 1 317 1 326 1 333 1 361 1 365 1 368 1 369 1 377 1 379 1 385 1 433 1 447 1 500 1 518 1 521 1 535 1 560 1 604 1 665 1 702 1 705 1 708 1 712 1 722 1 724 1 744 1 748 1 749 1 750 1 805 1 819 1 827 1 832 1 833 1 836 1 838 1 877 1 879 1 972 1 983 1 984 1 1013 1 1019 1 
1 215 11 1 27 1 32 1 38 1 3 1 55 1 68 1 98 1 100 1 146 1 159 1 183 2 196 1 254 1 261 1 288 1 324 1 345 1 356 1 370 1 371 1 380 1 387 1 411 1 417 1 420 1 427 1 443 1 494 2 561 1 566 1 575 1 621 1 623 1 624 1 625 1 627 1 639 1 644 1 655 1 663 2 668 1 669 1 685 1 702 1 706 1 710 1 739 1 777 1 795 1 847 1 851 1 853 1 858 1 863 1 872 1 893 1 902 1 910 2 948 1 999 1 1001 1 85 1 90 1 101 1 108 1 128 1 131 1 168 1 175 1 228 1 247 1 250 1 253 1 264 1 282 1 283 1 294 1 341 1 364 1 377 1 392 1 409 1 436 1 440 1 456 1 511 1 520 1 551 1 565 1 573 1 582 1 599 1 604 1 617 1 664 1 665 1 683 1 700 1 737 1 744 1 765 1 773 1 787 1 800 1 814 1 834 1 843 1 854 1 889 1 896 1 914 1 918 1 939 1 974 1 982 1 986 1 1000 1 1011 1 1018 1 1019 1 1024 1 
1 212 19 1 20 1 5 1 13 1 38 1 48 1 71 1 76 2 104 1 127 1 146 1 153 1 154 1 168 1 195 1 254 2 257 1 270 1 282 2 334 1 341 1 344 1 358 1 368 1 371 2 381 1 398 2 408 1 418 1 421 1 589 1 619 1 631 1 640 1 641 1 648 1 746 1 756 1 770 1 815 1 858 1 869 1 873 1 884 1 885 1 893 1 918 1 920 1 941 1 968 1 973 1 989 2 1000 1 97 1 106 1 111 1 129 1 149 1 160 1 181 1 186 1 192 1 213 1 218 1 223 1 225 1 260 1 279 1 327 1 331 1 335 1 361 1 377 1 395 1 411 1 413 1 422 1 432 1 454 1 480 1 482 1 499 1 565 1 593 1 602 1 634 1 647 1 669 1 678 1 719 1 776 1 826 1 853 1 870 1 892 1 907 1 908 1 916 1 927 1 969 1 978 1 979 1 993 1 1002 1 1006 1 1012 1 
1 214 2 1 7 1 15 1 33 1 52 1 71 1 34 1 39 1 42 1 54 1 68 1 69 1 77 1 99 1 118 1 131 1 132 1 200 1 206 1 230 1 247 1 257 1 281 1 291 1 302 2 306 1 331 2 350 1 383 2 392 1 412 1 452 1 456 1 482 1 492 1 532 1 535 1 584 1 586 1 606 1 618 1 619 1 629 1 647 1 687 1 695 1 711 2 713 1 730 1 749 1 756 1 784 1 789 1 796 1 828 1 834 1 852 1 876 2 880 1 932 1 967 1 79 1 106 1 113 1 120 1 148 1 160 1 165 1 194 1 219 1 244 1 256 1 320 1 337 1 340 1 344 1 353 1 375 1 403 1 421 1 455 1 470 1 480 1 501 1 504 1 512 1 516 1 518 1 549 1 554 1 555 1 557 1 563 1 570 1 581 1 590 1 602 1 608 1 635 1 640 1 641 1 662 1 691 1 694 1 754 1 794 1 805 1 821 1 827 1 840 1 851 1 860 1 863 1 875 1 931 1 951 1 956 1 975 1 978 1 1003 1 1006 1 1015 1 1016 1 1025 1 
1 211 7 1 42 1 50 1 55 1 56 1 66 1 74 2 8 1 9 1 21 1 92 1 100 1 111 1 120 1 154 1 155 1 162 1 163 1 164 1 166 1 168 1 174 1 185 1 203 1 233 1 282 1 309 1 312 1 340 1 356 1 359 1 400 1 427 1 448 2 454 1 463 1 465 1 469 1 482 1 510 1 512 1 514 1 534 1 551 1 579 1 610 1 620 1 632 1 641 1 675 1 677 2 678 1 684 1 689 1 719 1 745 1 764 2 787 1 838 1 891 1 914 1 949 1 988 1 122 1 131 1 141 1 146 1 160 1 165 1 192 1 225 1 226 1 236 1 262 1 266 1 296 1 316 1 321 1 357 1 378 1 382 1 390 1 397 1 404 1 408 1 413 1 435 1 437 1 447 1 461 1 474 1 480 1 491 1 505 1 515 1 531 1 540 1 545 1 568 1 585 1 595 1 614 1 652 1 810 1 814 1 825 1 837 1 850 1 859 1 871 1 874 1 879 1 892 1 926 1 954 1 979 1 1001 1 1005 1 1015 1 1018 1 1020 1 1024 1 
1 208 13 1 54 2 62 1 65 2 75 1 15 1 23 1 36 1 101 1 105 1 124 2 172 2 178 1 180 1 181 1 184 1 200 1 208 2 241 1 258 1 273 1 281 1 288 1 297 1 349 1 361 1 369 1 370 1 410 1 419 1 423 1 432 1 434 2 443 1 529 1 539 1 546 1 548 1 636 1 654 1 678 2 689 1 702 1 731 1 734 1 760 1 806 1 826 1 827 2 907 2 925 1 936 1 940 1 971 2 980 1 985 1 80 1 82 1 83 1 130 1 176 1 201 1 204 1 221 1 237 1 282 1 311 1 322 1 328 1 348 1 397 1 418 1 442 1 485 1 515 1 543 1 550 1 551 1 552 1 557 1 574 1 581 1 582 1 597 1 625 1 639 1 643 1 651 1 666 1 694 1 712 1 727 1 753 1 783 1 813 1 817 1 841 1 843 1 853 1 864 1 877 1 880 1 892 1 910 1 921 1 951 1 957 1 960 1 986 1 997 1 1007 1 1021 1 
1 208 46 1 8 1 43 1 94 1 96 1 109 1 122 2 138 1 156 1 160 1 166 1 168 1 195 1 215 1 217 1 226 1 256 1 278 1 291 1 306 1 323 1 342 1 344 1 353 2 364 1 371 1 373 1 395 1 427 1 479 1 500 1 510 1 536 1 545 1 553 1 563 1 591 1 612 1 618 1 624 1 749 1 752 1 805 1 846 1 849 1 922 1 929 1 934 1 947 1 984 1 996 1 1001 1 81 1 95 1 103 1 112 1 117 1 127 1 128 1 147 1 151 1 169 1 184 1 221 1 233 1 247 1 248 1 262 1 298 1 305 1 314 1 374 1 381 1 383 1 406 1 413 1 426 1 431 1 443 1 452 1 467 1 475 1 483 1 499 1 508 1 541 1 560 1 565 1 615 1 620 1 629 1 656 1 678 1 730 1 781 1 829 1 844 1 870 1 898 1 902 1 903 1 983 1 988 1 998 1 1011 1 1012 1 1016 1 
1 208 14 1 29 1 62 1 67 1 21 1 43 1 52 1 75 1 80 1 81 1 117 1 128 1 135 1 177 1 181 1 213 1 248 1 264 1 290 1 308 1 310 1 339 1 357 1 400 1 414 1 445 1 451 1 459 1 490 1 505 1 511 1 550 2 555 1 575 1 583 1 589 1 640 1 663 1 678 2 681 1 693 1 701 1 706 1 717 1 720 1 730 1 735 1 752 1 762 1 765 1 797 1 809 1 833 1 849 1 855 1 858 1 868 1 899 1 924 1 925 2 941 1 966 1 988 2 995 1 92 1 96 1 134 1 163 1 170 1 176 1 194 1 220 1 238 1 249 1 267 1 282 1 293 1 306 1 309 1 328 1 332 1 348 1 402 1 440 1 471 1 480 1 485 1 503 1 528 1 556 1 613 1 616 1 617 1 622 1 628 1 630 1 639 1 641 1 651 1 667 1 679 1 683 1 689 1 718 1 733 1 763 1 777 1 779 1 800 1 803 1 816 1 819 1 843 1 881 1 886 1 887 1 949 1 964 1 968 1 969 1 978 1 1003 1 
1 210 31 1 43 1 46 1 47 1 49 1 79 1 3 1 29 1 40 1 77 1 136 1 151 1 169 1 194 1 195 2 207 1 244 1 261 1 280 1 288 1 296 1 354 1 355 1 360 1 387 1 414 1 439 2 450 1 487 1 525 1 527 2 538 1 542 1 576 1 583 1 609 1 618 1 619 1 640 1 663 1 682 1 711 1 715 1 731 1 742 1 753 1 775 1 777 1 779 1 803 1 813 1 818 1 836 1 839 1 865 1 901 1 949 1 984 1 996 1 997 1 92 1 100 1 127 1 145 1 182 1 197 1 215 1 221 1 227 1 252 1 310 1 318 1 375 1 452 1 469 1 512 1 548 1 565 1 570 1 669 1 680 1 691 1 717 1 724 1 737 1 764 1 776 1 784 1 790 1 794 1 800 1 819 1 831 1 832 1 866 1 898 1 909 1 930 1 944 1 950 1 985 1 1019 1 1022 1 1023 1 1024 1 
1 209 12 1 33 1 42 1 57 1 67 1 79 1 5 1 34 1 78 1 89 1 107 1 122 1 124 1 157 1 171 1 199 1 265 1 307 1 309 2 316 1 335 1 376 1 406 1 415 1 464 1 478 1 480 2 501 1 504 1 549 1 569 1 634 1 654 1 666 1 702 1 735 1 737 1 742 1 760 1 763 1 805 1 828 1 842 1 846 1 853 1 873 1 874 1 879 1 885 1 915 1 997 1 84 1 88 1 105 1 136 1 162 1 204 1 212 1 223 1 226 1 237 1 248 1 273 1 275 1 298 1 327 1 339 1 341 1 344 1 384 1 395 1 449 1 536 1 556 1 578 1 585 1 589 1 594 1 595 1 609 1 616 1 640 1 643 1 682 1 685 1 696 1 697 1 700 1 708 1 720 1 740 1 774 1 808 1 835 1 843 1 875 1 903 1 906 1 908 1 921 1 950 1 951 1 956 1 984 1 998 1 1000 1 1011 1 
1 210 14 2 40 1 64 1 65 1 69 1 70 1 55 1 56 1 58 1 68 1 77 1 85 1 135 2 140 1 156 1 167 1 174 1 206 1 212 1 218 1 237 1 244 2 266 1 277 1 279 1 288 1 298 1 310 1 315 1 340 1 345 1 364 2 375 1 395 2 407 1 408 1 483 1 492 1 512 1 520 1 538 1 565 1 592 1 593 1 611 1 615 1 618 1 643 1 659 1 676 1 678 1 688 1 709 1 746 1 775 1 809 1 817 1 844 1 845 1 876 1 880 1 905 1 922 1 926 2 951 1 998 1 92 1 98 1 107 1 158 1 163 1 164 1 172 1 186 1 231 1 239 1 258 1 276 1 332 1 357 1 373 1 381 1 386 1 390 1 413 1 414 1 441 1 442 1 504 1 540 1 552 1 560 1 582 1 604 1 628 1 648 1 656 1 680 1 687 1 731 1 736 1 754 1 768 1 771 1 773 1 776 1 822 1 831 1 834 1 859 1 888 1 909 1 947 1 961 1 970 1 980 1 1005 1 1012 1 1016 1 
1 211 8 1 13 1 33 1 45 1 54 1 57 1 27 1 28 1 62 1 77 1 130 1 143 1 155 1 166 1 207 1 217 1 241 1 250 1 276 1 315 1 340 1 353 1 390 1 395 1 422 1 429 1 484 1 488 2 501 1 546 1 575 1 578 1 598 1 602 1 611 1 657 1 668 1 671 1 679 1 685 1 693 2 704 1 773 1 779 1 798 1 799 1 812 1 851 1 859 1 893 1 901 1 967 1 975 1 103 1 114 1 115 1 136 1 170 1 175 1 182 1 200 1 243 1 274 1 331 1 334 1 345 1 380 1 435 1 453 1 463 1 468 1 471 1 475 1 515 1 572 1 583 1 600 1 613 1 617 1 619 1 629 1 642 1 692 1 714 1 721 1 727 1 748 1 768 1 775 1 777 1 780 1 813 1 816 1 818 1 856 1 867 1 876 1 878 1 883 1 884 1 920 1 943 1 976 1 986 1 987 1 995 1 1000 1 1003 1 1014 1 1026 1 
1 208 8 1 13 1 34 1 51 1 64 1 47 1 59 1 81 1 87 1 106 1 112 1 129 1 165 1 177 1 202 1 220 1 249 1 257 1 274 1 293 1 302 1 308 1 318 1 348 1 350 1 395 1 408 1 409 1 411 1 423 1 428 1 441 1 442 2 456 1 472 1 501 1 514 1 520 1 530 1 558 1 588 1 600 1 602 2 612 1 626 1 635 2 640 1 664 1 666 1 684 1 699 1 732 2 752 1 773 1 794 1 798 1 814 1 845 1 867 1 881 1 890 1 931 1 941 1 959 1 962 1 977 1 989 1 995 1 97 1 99 1 120 1 128 1 142 1 171 1 199 1 203 1 212 1 254 1 256 1 277 1 315 1 319 1 329 1 367 1 378 1 413 1 422 1 443 1 481 1 491 1 525 1 534 1 547 1 550 1 560 1 608 1 625 1 633 1 650 1 668 1 669 1 672 1 686 1 714 1 722 1 724 1 741 1 743 1 750 1 771 1 780 1 789 1 808 1 839 1 849 1 858 1 859 1 869 1 912 1 973 1 988 1 1017 1 
1 210 1 1 15 1 69 1 71 1 82 1 8 1 18 1 29 1 37 1 61 1 73 1 92 1 116 1 128 1 145 1 161 1 199 1 210 1 213 1 236 1 268 2 270 1 279 1 291 1 335 1 344 1 365 1 374 1 389 1 395 1 408 1 452 1 455 1 456 1 463 1 465 1 524 1 527 1 555 1 571 1 573 2 574 1 579 2 588 1 601 1 609 1 613 1 624 1 626 2 629 1 630 1 639 1 667 1 726 1 729 2 780 1 796 1 863 1 878 1 891 1 902 1 925 1 931 1 937 1 949 1 955 1 958 1 961 1 996 1 997 1 119 1 122 1 158 1 175 1 177 1 178 1 181 1 224 1 248 1 256 1 261 1 290 1 292 1 296 1 300 1 320 1 357 1 358 1 398 1 410 1 475 1 484 1 487 1 492 1 500 1 546 1 548 1 559 1 595 1 599 1 603 1 608 1 617 1 652 1 665 1 675 1 682 1 683 1 690 1 698 1 706 1 709 1 721 1 755 1 766 1 795 1 819 1 834 1 836 1 848 1 849 1 866 1 886 1 892 1 912 1 977 1 1027 1 
1 211 8 1 62 1 24 1 43 1 49 1 56 1 97 1 109 1 145 1 146 1 151 1 166 1 181 1 203 1 204 1 229 1 231 1 270 1 285 2 318 1 346 1 357 1 363 1 377 1 387 1 401 1 417 2 430 1 435 1 446 1 452 1 455 1 470 1 546 1 569 1 581 1 600 1 606 1 610 1 613 1 620 1 642 1 660 2 666 1 672 1 676 1 730 2 777 2 794 2 825 1 839 1 850 1 864 1 873 2 889 1 901 1 921 1 924 1 925 1 947 1 950 1 983 1 988 1 88 1 89 1 107 1 120 1 126 1 147 1 180 1 183 1 184 1 264 1 281 1 309 1 335 1 339 1 361 1 394 1 396 1 410 1 414 1 458 1 465 1 485 1 522 1 554 1 555 1 601 1 612 1 627 1 633 1 639 1 641 1 659 1 698 1 701 1 706 1 708 1 741 1 749 1 759 1 764 1 765 1 840 1 880 1 895 1 909 1 935 1 937 1 954 1 1007 1 
1 208 5 1 6 1 10 1 34 1 39 1 54 1 55 1 69 1 84 1 2 1 12 1 30 1 65 1 154 1 157 1 191 1 240 1 246 1 272 1 294 1 313 1 320 1 329 1 384 1 435 1 464 1 466 1 475 1 478 1 498 1 508 1 518 1 555 1 564 1 581 1 588 1 590 1 602 1 614 1 647 1 665 1 681 1 684 1 693 1 695 1 731 1 765 1 766 1 788 1 789 1 809 1 815 1 817 1 829 1 832 1 833 1 838 2 840 2 885 1 887 1 890 1 905 1 921 1 923 1 939 1 961 1 962 1 968 1 985 2 990 1 110 1 111 1 115 1 116 1 140 1 153 1 164 1 174 1 181 1 196 1 234 1 271 1 283 1 296 1 360 1 373 1 392 1 472 1 486 1 489 1 503 1 532 1 539 1 573 1 574 1 584 1 613 1 617 1 627 1 637 1 675 1 775 1 805 1 813 1 816 1 929 1 933 1 949 1 954 1 977 1 994 1 1005 1 1010 1 1018 1 
1 206 4 1 47 1 55 1 67 1 14 1 17 1 18 1 38 1 81 1 86 1 122 1 129 1 135 1 152 1 199 1 219 1 221 1 240 1 283 1 292 1 326 1 372 1 396 1 429 1 440 1 450 1 485 1 529 1 540 1 543 1 550 1 552 1 554 1 579 1 614 1 615 1 625 1 627 1 633 1 659 1 674 1 679 1 684 1 685 2 687 1 707 1 734 1 743 1 749 1 755 1 771 1 788 1 794 1 813 1 883 1 888 1 917 1 952 1 961 1 1000 1 106 1 110 1 111 1 114 1 130 1 131 1 138 1 139 1 164 1 185 1 186 1 187 1 234 1 243 1 257 1 273 1 323 1 360 1 370 1 397 1 410 1 442 1 453 1 488 1 532 1 534 1 566 1 577 1 597 1 606 1 653 1 694 1 725 1 730 1 753 1 784 1 790 1 808 1 810 1 841 1 842 1 844 1 849 1 855 1 860 1 867 1 892 1 906 1 925 1 938 1 972 1 974 1 1004 1 1017 1 1020 1 
1 214 8 1 12 1 50 1 60 1 81 1 57 1 61 1 62 1 86 1 126 1 147 1 158 1 197 1 201 1 251 1 269 1 285 1 310 1 371 1 381 1 394 1 398 1 411 1 428 1 437 1 441 1 485 1 489 1 492 1 497 1 622 1 628 1 642 1 648 1 658 1 678 1 681 1 692 1 698 1 699 1 746 1 750 1 752 1 798 2 880 1 894 2 904 1 934 1 948 1 950 1 956 1 973 1 102 1 125 1 128 1 131 1 137 1 142 1 198 1 214 1 227 1 231 1 240 1 256 1 274 1 281 1 293 1 311 1 313 1 315 1 330 1 361 1 383 1 410 1 421 1 458 1 460 1 481 1 486 1 514 1 557 1 559 1 571 1 581 1 597 1 635 1 645 1 665 1 704 1 745 1 771 1 788 1 794 1 810 1 825 1 845 1 854 1 874 1 878 1 925 1 932 1 963 1 968 1 984 1 1003 1 1005 1 1007 1 1021 1 1024 1 
1 212 18 1 31 1 32 1 36 1 71 1 6 1 9 1 14 1 25 1 30 1 50 1 73 1 96 1 101 1 104 1 109 1 123 1 128 1 132 1 137 1 142 1 163 1 171 1 172 1 175 1 209 1 210 1 216 1 251 1 260 1 351 1 380 1 391 1 415 1 426 1 430 1 464 1 475 1 485 1 488 1 505 1 514 1 544 1 547 1 552 2 557 1 564 1 592 1 608 2 621 2 627 1 632 1 653 2 657 1 661 1 680 1 687 1 700 1 708 1 720 1 742 2 743 1 784 1 816 1 820 1 831 1 851 1 855 1 858 1 882 1 913 1 967 1 982 2 983 1 124 1 125 1 170 1 185 1 205 1 224 1 229 1 231 1 253 1 269 1 284 1 291 1 314 1 321 1 323 1 341 1 347 1 352 1 385 1 389 1 411 1 418 1 419 1 474 1 495 1 520 1 584 1 590 1 623 1 629 1 692 1 711 1 728 1 733 1 749 1 751 1 752 1 768 1 786 1 836 1 837 1 863 1 865 1 866 1 867 1 880 1 894 1 941 1 952 1 997 1 1010 1 1015 1 1018 1 1021 1 1025 1 
1 211 58 1 61 1 2 1 23 1 45 1 49 1 102 1 114 1 120 1 137 1 150 1 179 1 186 1 189 1 220 1 226 1 246 1 247 1 254 1 269 1 277 2 292 1 301 1 314 1 345 2 351 1 379 1 388 2 395 1 417 1 441 1 461 1 494 1 509 1 515 1 528 1 537 2 576 1 585 1 611 1 616 1 625 1 627 1 690 1 706 1 710 1 716 1 719 1 723 1 751 1 754 1 820 1 888 1 955 1 961 1 982 1 99 1 112 1 116 1 139 1 152 1 163 1 176 1 213 1 236 1 253 1 262 1 273 1 283 1 317 1 328 1 331 1 348 1 349 1 353 1 369 1 373 1 392 1 409 1 452 1 481 1 497 1 499 1 505 1 536 1 568 1 577 1 606 1 612 1 617 1 626 1 639 1 641 1 744 1 774 1 793 1 796 1 906 1 910 1 918 1 928 1 929 1 959 1 960 1 964 1 979 1 981 1 988 1 992 1 994 1 1005 1 1007 1 1010 1 1024 1 
1 209 38 1 76 1 85 1 6 1 25 1 28 1 52 1 53 1 60 1 66 1 69 1 72 1 79 1 80 1 82 1 124 1 131 1 140 1 157 1 173 1 181 1 252 2 364 1 366 1 386 1 387 1 402 1 426 1 427 1 452 1 467 1 497 1 533 1 534 1 574 2 576 1 588 1 605 1 609 1 613 1 616 1 637 1 651 1 712 1 722 1 742 1 747 1 752 1 776 1 798 1 801 1 805 1 809 1 822 1 827 1 859 1 878 1 891 1 894 1 904 1 923 1 944 1 960 1 989 1 1001 1 96 1 133 1 144 1 147 1 195 1 200 1 221 1 226 1 230 1 253 1 269 1 272 1 279 1 289 1 318 1 334 1 337 1 339 1 343 1 346 1 429 1 441 1 522 1 526 1 552 1 561 1 619 1 626 1 630 1 638 1 654 1 657 1 662 1 681 1 688 1 695 1 702 1 713 1 739 1 770 1 786 1 788 1 791 1 833 1 846 1 875 1 921 1 978 1 984 1 1011 1 1027 1 
1 209 15 1 26 1 36 1 39 1 48 1 104 1 105 1 127 1 198 1 204 1 219 1 225 1 235 1 252 1 328 1 334 1 338 1 367 1 379 1 399 1 402 1 412 1 414 1 421 1 428 1 431 1 444 1 479 1 511 1 518 1 543 1 569 1 584 1 589 1 657 1 659 2 739 1 745 1 755 1 773 1 806 1 828 1 848 1 879 1 937 1 955 1 962 1 964 1 967 1 970 1 971 1 987 1 990 1 109 1 133 1 146 1 157 1 158 1 161 1 186 1 212 1 239 1 242 1 274 1 280 1 289 1 290 1 335 1 340 1 388 1 393 1 396 1 415 1 436 1 451 1 459 1 475 1 481 1 490 1 501 1 506 1 535 1 558 1 563 1 567 1 570 1 577 1 590 1 594 1 596 1 625 1 649 1 654 1 656 1 690 1 693 1 694 1 696 1 701 1 713 1 720 1 726 1 727 1 833 1 869 1 918 1 927 1 929 1 958 1 1012 1 1014 1 1025 1 1027 1 
1 210 46 2 56 1 78 1 2 1 19 1 22 1 24 1 36 1 48 1 55 1 72 1 106 1 108 1 130 1 163 1 176 2 177 1 178 1 200 1 217 1 230 1 248 1 257 1 285 1 286 1 287 1 314 1 329 1 347 2 384 1 388 1 420 1 435 1 438 1 474 1 491 1 510 1 512 1 515 1 527 1 571 1 586 1 596 1 631 1 632 1 638 1 644 1 652 2 666 1 672 1 695 1 696 1 730 1 736 1 746 1 783 1 790 1 799 1 806 1 809 1 823 1 827 1 834 1 842 1 855 1 859 1 894 1 896 1 910 1 912 1 926 1 931 1 948 1 956 1 959 1 960 1 136 1 149 1 152 1 157 1 158 1 172 1 186 1 190 1 193 1 194 1 195 1 199 1 232 1 261 1 288 1 337 1 351 1 368 1 375 1 392 1 431 1 448 1 454 1 469 1 495 1 513 1 547 1 575 1 578 1 580 1 581 1 584 1 605 1 633 1 648 1 659 1 678 1 702 1 705 1 714 1 749 1 766 1 767 1 780 1 795 1 821 1 824 1 839 1 854 1 876 1 887 1 889 1 899 1 939 1 949 1 966 1 1004 1 1013 1 
1 210 14 1 18 1 20 1 30 1 64 1 72 1 17 1 26 1 27 1 31 1 34 1 40 1 50 1 54 1 78 1 109 1 110 1 117 1 125 1 138 1 153 1 166 1 212 1 214 1 217 1 224 1 265 1 269 1 271 1 296 1 304 1 305 1 310 1 312 1 313 1 343 1 371 1 388 1 419 1 421 1 425 1 430 1 454 1 463 2 487 2 499 1 503 1 512 2 545 1 588 1 608 1 615 1 631 1 635 1 643 1 673 1 686 1 715 1 738 1 749 1 753 1 756 1 761 1 811 1 816 1 822 1 843 1 851 1 853 1 854 1 875 1 892 1 917 1 921 1 922 2 932 1 934 1 943 1 947 1 955 2 968 2 973 1 987 1 114 1 129 1 156 1 165 1 168 1 175 1 219 1 222 1 240 1 242 1 253 1 293 1 303 1 329 1 331 1 338 1 395 1 400 1 415 1 437 1 496 1 518 1 525 1 618 1 624 1 644 1 652 1 664 1 671 1 679 1 681 1 691 1 696 1 707 1 716 1 731 1 767 1 885 1 895 1 896 1 916 1 946 1 949 1 951 1 981 1 1010 1 1021 1 
1 213 13 1 30 1 33 1 78 1 90 1 22 1 23 1 43 1 63 1 79 1 92 1 133 1 134 1 139 1 168 1 170 1 177 1 179 1 212 1 213 1 233 1 248 1 258 1 296 1 332 1 352 1 386 1 418 1 470 2 472 1 481 1 486 1 500 1 509 1 529 1 545 1 552 1 560 1 573 1 583 1 615 1 638 1 685 1 746 1 790 1 809 1 834 2 840 1 845 1 850 1 888 1 894 1 896 1 908 1 920 1 926 1 958 1 963 1 986 1 1000 1 101 1 107 1 132 1 201 1 214 1 228 1 237 1 239 1 255 1 257 1 324 1 338 1 363 1 371 1 395 1 450 1 451 1 458 1 471 1 482 1 488 1 513 1 520 1 533 1 537 1 558 1 582 1 596 1 604 1 606 1 610 1 613 1 681 1 693 1 721 1 740 1 741 1 803 1 807 1 824 1 893 1 907 1 923 1 1008 1 1009 1 1024 1 1025 1 
1 210 2 1 9 1 10 1 21 2 27 1 45 1 86 1 50 1 68 1 74 1 84 1 120 1 123 1 171 1 188 2 225 1 288 1 289 1 327 1 335 1 347 2 350 1 362 1 384 1 427 1 435 1 444 1 446 1 448 1 500 1 517 1 522 1 525 1 536 2 574 1 581 1 592 1 594 1 600 1 601 1 624 1 630 1 635 2 706 1 714 1 745 1 781 1 789 1 798 1 826 1 845 2 848 1 857 1 863 1 869 2 880 1 881 1 891 1 901 1 923 1 936 1 948 1 949 1 961 1 969 1 977 1 103 1 115 1 128 1 137 1 140 1 141 1 158 1 164 1 231 1 253 1 257 1 258 1 259 1 260 1 305 1 307 1 322 1 324 1 357 1 372 1 373 1 403 1 430 1 440 1 452 1 457 1 464 1 492 1 533 1 556 1 562 1 567 1 582 1 596 1 598 1 615 1 623 1 648 1 667 1 671 1 679 1 760 1 776 1 804 1 816 1 879 1 885 1 903 1 908 1 937 1 959 1 963 1 971 1 1001 1 1009 1 
1 208 25 1 66 1 73 1 6 1 15 1 38 1 43 1 46 1 52 1 61 1 62 1 82 1 116 1 125 1 136 1 148 1 168 1 218 1 246 1 268 1 294 1 310 1 320 1 339 1 341 1 342 1 414 1 420 1 428 1 443 1 445 1 499 1 502 1 538 1 559 1 586 1 593 2 595 1 603 1 620 1 633 1 695 1 710 1 713 1 715 1 722 1 762 1 770 1 797 1 821 1 888 2 889 1 893 1 898 1 921 1 930 1 937 1 949 1 966 1 972 1 981 1 983 1 987 1 989 1 109 1 111 1 167 1 172 1 195 1 229 1 249 1 272 1 277 1 278 1 296 1 315 1 325 1 338 1 343 1 361 1 389 1 393 1 396 1 405 1 412 1 413 1 447 1 473 1 529 1 537 1 551 1 618 1 619 1 646 1 667 1 670 1 671 1 688 1 738 1 740 1 764 1 779 1 780 1 785 1 805 1 818 1 856 1 863 1 883 1 904 1 908 1 909 1 936 1 950 1 975 1 979 1 1000 1 1018 1 1027 1 
1 213 8 1 27 1 35 1 36 1 43 1 44 1 75 1 41 1 84 1 91 1 115 1 161 1 173 1 179 1 198 1 221 1 227 1 239 1 242 1 253 1 260 1 267 1 269 1 270 1 281 1 287 1 368 1 402 1 415 1 428 1 429 1 484 1 510 1 518 1 524 1 537 1 552 1 559 1 566 1 571 1 574 1 578 1 585 1 629 1 633 1 640 1 646 1 650 1 674 1 711 1 743 1 794 1 802 1 811 1 820 1 832 1 850 1 866 1 873 1 910 1 931 1 933 1 955 1 972 1 989 1 126 1 145 1 194 1 200 1 214 1 229 1 233 1 279 1 280 1 289 1 310 1 313 1 316 1 337 1 351 1 388 1 391 1 411 1 417 1 458 1 461 1 531 1 561 1 596 1 617 1 630 1 651 1 652 1 668 1 697 1 715 1 717 1 737 1 764 1 804 1 861 1 874 1 889 1 897 1 915 1 962 1 965 1 968 1 971 1 976 1 977 1 1007 1 1009 1 1014 1 1025 1 1027 1 
1 215 6 1 35 1 38 1 43 1 49 1 57 1 63 1 65 1 72 1 73 1 76 1 5 1 7 1 15 1 59 1 69 1 80 1 131 1 208 1 227 1 240 1 268 1 290 1 309 1 310 1 313 1 329 1 337 1 342 1 345 1 347 2 353 1 354 1 373 1 475 2 479 1 507 1 538 1 539 1 554 1 565 1 575 1 587 1 612 1 614 1 634 2 639 1 649 1 654 1 673 1 677 1 680 1 686 1 702 1 711 1 724 1 736 2 744 1 765 1 767 1 790 1 795 1 817 1 843 1 853 1 872 1 882 1 891 1 940 1 945 1 961 1 999 1 109 1 123 1 136 1 168 1 179 1 204 1 291 1 294 1 323 1 332 1 334 1 352 1 375 1 402 1 416 1 417 1 444 1 449 1 515 1 516 1 541 1 545 1 589 1 594 1 602 1 650 1 726 1 728 1 731 1 740 1 766 1 768 1 797 1 805 1 821 1 833 1 861 1 875 1 926 1 936 1 948 1 956 1 964 1 965 1 968 1 990 1 1009 1 1012 1 1013 1 
1 215 13 1 19 1 32 1 49 1 58 1 67 1 77 1 90 1 14 1 27 1 34 1 42 1 60 1 61 1 66 1 70 1 73 1 96 1 103 1 136 1 154 1 164 1 169 1 206 1 216 1 252 1 263 1 268 1 314 1 341 1 372 1 376 1 378 2 387 1 400 1 410 1 418 1 434 1 444 1 467 1 498 1 500 1 514 1 516 1 517 1 520 1 577 1 613 1 655 1 685 1 717 1 733 1 768 1 771 1 807 1 811 2 842 1 851 1 856 1 930 1 934 1 944 2 958 1 963 2 104 1 116 1 117 1 119 1 120 1 121 1 125 1 150 1 165 1 176 1 185 1 186 1 188 1 238 1 239 1 243 1 265 1 346 1 352 1 360 1 363 1 380 1 409 1 413 1 417 1 508 1 521 1 535 1 559 1 607 1 612 1 626 1 640 1 642 1 647 1 648 1 658 1 665 1 678 1 693 1 703 1 716 1 738 1 748 1 765 1 786 1 798 1 814 1 821 1 844 1 848 1 859 1 879 1 902 1 921 1 931 1 947 1 956 1 968 1 1002 1 1003 1 1013 1 1020 1 
1 208 18 1 30 1 37 1 52 1 91 1 3 1 48 1 53 1 89 1 110 1 153 1 156 1 176 1 182 1 196 1 203 1 212 1 245 1 265 1 268 1 273 1 288 1 303 1 307 1 315 1 320 1 325 1 335 1 346 1 373 1 391 1 406 1 413 2 437 1 450 1 456 1 463 1 466 1 485 1 519 1 530 2 532 1 584 1 591 1 592 1 602 1 605 1 687 1 708 1 716 1 724 1 736 1 752 1 770 2 790 1 792 1 821 2 887 1 900 1 910 1 926 1 974 1 990 1 103 1 104 1 122 1 138 1 146 1 163 1 185 1 209 1 221 1 277 1 329 1 332 1 337 1 347 1 397 1 401 1 402 1 418 1 429 1 434 1 459 1 460 1 467 1 482 1 489 1 545 1 571 1 614 1 641 1 667 1 698 1 729 1 741 1 751 1 777 1 782 1 784 1 791 1 878 1 908 1 955 1 976 1 987 1 988 1 991 1 1012 1 
1 208 6 1 9 1 14 1 42 2 101 1 2 1 17 1 78 1 83 1 97 1 102 1 115 1 133 2 173 1 183 1 205 1 221 1 229 1 241 1 248 1 249 1 310 1 311 1 316 1 334 1 342 2 388 1 403 1 412 1 429 1 473 1 489 2 509 1 525 1 539 1 552 1 560 1 563 1 566 1 572 1 579 2 583 1 588 1 621 1 637 1 643 1 665 1 669 1 686 1 747 1 755 1 763 1 792 1 799 1 832 1 835 1 840 1 867 1 872 1 888 1 921 1 927 1 940 1 941 1 952 1 968 1 986 1 145 1 157 1 165 1 201 1 213 1 237 1 279 1 312 1 322 1 327 1 347 1 380 1 395 1 396 1 421 1 428 1 442 1 456 1 478 1 486 1 492 1 524 1 527 1 534 1 548 1 596 1 608 1 611 1 618 1 627 1 638 1 655 1 691 1 695 1 707 1 730 1 758 1 759 1 764 1 778 1 803 1 805 1 811 1 812 1 829 1 861 1 882 1 894 1 902 1 928 1 959 1 966 1 981 1 1022 1 1027 1 
1 210 1 2 6 1 38 1 42 1 59 1 74 1 90 1 93 1 67 1 101 1 102 1 106 1 110 1 118 1 172 1 193 1 204 2 220 1 234 1 262 1 294 1 333 1 336 1 339 1 351 1 385 1 400 1 411 1 459 1 461 1 477 1 484 1 485 1 486 1 509 1 521 1 533 1 546 1 547 1 573 1 591 1 598 1 646 1 648 1 649 1 686 1 696 1 706 1 713 1 715 1 725 1 731 1 732 1 738 1 756 1 819 1 830 1 859 1 862 1 871 1 877 1 880 1 888 1 892 1 904 1 916 1 954 1 963 1 112 1 143 1 175 1 176 1 209 1 231 1 296 1 299 1 357 1 358 1 376 1 380 1 399 1 417 1 423 1 436 1 444 1 475 1 620 1 634 1 670 1 699 1 721 1 722 1 723 1 755 1 791 1 804 1 807 1 814 1 829 1 833 1 834 1 849 1 873 1 875 1 886 1 887 1 900 1 901 1 910 1 911 1 913 1 924 1 929 1 957 1 960 1 962 1 992 1 996 1 1012 1 1019 1 
1 209 2 1 10 1 13 1 18 1 33 1 40 1 56 1 67 1 77 1 93 1 32 1 58 1 62 1 81 1 111 1 126 1 130 1 138 1 173 1 192 1 213 1 236 2 247 1 254 1 280 1 285 1 288 1 371 1 373 1 407 1 416 1 433 1 473 1 488 1 498 1 514 1 536 1 542 1 558 1 598 1 613 2 618 1 650 1 667 1 671 1 678 1 703 1 704 1 712 1 725 1 734 2 736 1 769 1 775 1 796 1 805 1 813 1 818 1 820 1 832 1 863 1 874 1 875 1 890 1 893 1 902 2 937 1 946 1 963 2 980 1 1000 1 115 1 132 1 144 1 151 1 181 1 209 1 243 1 275 1 319 1 330 1 341 1 351 1 380 1 420 1 425 1 440 1 455 1 463 1 468 1 501 1 509 1 517 1 527 1 541 1 555 1 556 1 619 1 634 1 684 1 756 1 764 1 778 1 798 1 800 1 833 1 834 1 846 1 860 1 868 1 873 1 877 1 883 1 887 1 900 1 936 1 947 1 949 1 952 1 982 1 990 1 999 1 1016 1 
1 208 14 1 18 1 84 1 94 1 104 1 21 1 38 1 47 1 61 1 74 1 75 1 88 1 114 1 115 1 131 1 184 1 201 1 202 1 237 1 258 1 262 1 277 1 282 1 292 1 297 1 299 1 308 1 313 1 331 1 339 1 340 1 367 1 384 1 387 1 388 1 394 1 414 1 418 1 435 1 436 1 441 1 474 1 493 1 515 1 544 1 553 1 557 1 585 1 622 1 636 1 645 1 652 1 656 1 657 1 668 1 670 1 678 1 702 1 704 1 762 1 774 1 793 1 796 2 811 1 861 1 871 1 941 1 944 1 947 1 975 1 1000 1 107 1 109 1 112 1 144 1 167 1 173 1 181 1 189 1 194 1 197 1 198 1 223 1 249 1 362 1 374 1 393 1 397 1 407 1 421 1 423 1 431 1 511 1 516 1 529 1 536 1 549 1 568 1 615 1 633 1 638 1 655 1 665 1 693 1 703 1 716 1 723 1 730 1 734 1 749 1 771 1 776 1 777 1 786 1 806 1 820 1 843 1 856 1 860 1 872 1 877 1 906 1 916 1 929 1 950 1 958 1 964 1 981 1 984 1 991 1 1011 1 1026 1 
1 205 2 1 18 1 23 1 34 2 41 1 45 1 47 1 50 1 64 1 81 1 6 1 8 1 25 1 39 1 58 1 82 1 86 1 96 1 106 1 112 1 168 1 171 1 201 1 222 1 226 1 248 1 266 1 272 1 280 1 288 1 305 1 341 1 350 1 374 1 412 2 418 1 432 1 447 1 457 1 493 1 495 2 502 1 505 1 507 1 514 1 515 1 518 1 536 1 541 1 544 1 558 1 563 1 597 1 697 1 737 1 740 1 749 1 791 1 803 1 828 1 831 1 855 1 970 1 979 1 988 1 991 1 120 1 131 1 133 1 149 1 256 1 257 1 282 1 293 1 312 1 352 1 376 1 380 1 386 1 415 1 435 1 445 1 452 1 466 1 483 1 492 1 517 1 523 1 524 1 533 1 549 1 583 1 586 1 603 1 625 1 656 1 660 1 661 1 662 1 666 1 715 1 716 1 724 1 732 1 741 1 755 1 765 1 813 1 814 1 816 1 817 1 832 1 833 1 839 1 886 1 922 1 943 1 965 1 973 1 982 1 994 1 
1 210 13 1 14 1 65 1 69 1 94 1 9 1 23 1 24 1 32 1 44 1 55 1 73 1 132 1 151 1 155 1 169 1 170 1 198 1 216 1 229 1 267 1 290 1 307 1 311 1 333 1 340 1 366 1 382 1 397 1 408 1 417 1 426 1 437 1 440 1 455 1 460 1 482 1 487 1 517 1 526 1 536 1 561 1 573 1 576 1 601 1 628 1 632 1 657 1 692 1 693 1 694 1 696 1 699 1 701 1 727 1 750 1 753 1 757 1 774 1 780 1 805 1 840 1 876 1 882 1 907 1 919 1 921 1 925 2 927 1 946 2 950 1 952 1 972 1 997 1 109 1 112 1 120 1 124 1 178 1 224 1 235 1 298 1 319 1 331 1 338 1 347 1 353 1 357 1 390 1 392 1 402 1 406 1 422 1 432 1 463 1 468 1 477 1 478 1 570 1 581 1 605 1 613 1 624 1 639 1 643 1 706 1 718 1 741 1 784 1 808 1 827 1 853 1 864 1 884 1 941 1 944 1 969 1 994 1 1002 1 1010 1 1012 1 1023 1 
1 206 1 1 14 1 40 1 78 1 86 1 90 1 95 1 24 1 27 1 64 1 68 1 93 1 98 1 100 1 106 1 108 1 129 1 134 1 162 1 171 1 180 1 217 2 221 1 235 1 241 1 259 1 263 1 277 1 320 1 334 1 370 1 382 1 404 1 425 1 475 2 487 1 537 1 574 2 597 1 604 1 628 1 692 1 697 1 702 1 715 1 724 1 845 1 853 1 862 1 876 1 885 1 917 1 954 1 956 1 994 2 125 1 132 1 155 1 173 1 182 1 231 1 244 1 297 1 330 1 336 1 374 1 389 1 453 1 470 1 488 1 493 1 508 1 518 1 522 1 523 1 527 1 550 1 564 1 577 1 583 1 592 1 620 1 623 1 631 1 632 1 647 1 674 1 693 1 698 1 708 1 713 1 735 1 744 1 754 1 755 1 791 1 827 1 837 1 843 1 881 1 889 1 899 1 901 1 946 1 971 1 1003 1 
1 210 10 1 26 1 95 1 102 1 104 1 2 1 20 1 36 1 43 1 62 1 63 1 87 1 88 1 123 1 127 2 149 1 163 1 176 2 211 1 225 1 254 1 273 1 276 1 297 2 339 1 354 1 366 1 379 2 403 1 405 2 426 1 454 1 462 1 466 1 535 1 597 1 623 1 649 1 652 1 681 1 686 1 689 1 699 1 705 1 779 1 797 1 800 1 803 1 823 1 829 1 845 1 853 1 855 1 857 2 869 2 982 1 990 1 138 1 139 1 158 1 188 1 190 1 192 1 207 1 266 1 278 1 281 1 293 1 295 1 338 1 351 1 352 1 356 1 377 1 386 1 395 1 402 1 411 1 414 1 448 1 479 1 488 1 511 1 514 1 515 1 531 1 549 1 620 1 634 1 656 1 700 1 704 1 708 1 734 1 736 1 741 1 777 1 778 1 785 1 789 1 798 1 811 1 819 1 824 1 838 1 920 1 926 1 958 1 965 1 974 1 983 1 997 1 999 1 1015 1 
1 209 10 1 39 1 51 1 63 1 70 1 76 1 105 1 20 1 33 1 61 1 74 1 87 1 88 1 98 1 125 1 167 1 168 1 212 1 279 1 287 1 296 1 305 1 313 1 337 1 344 1 355 1 356 1 359 1 362 1 363 1 393 2 397 1 412 1 428 1 431 1 449 1 453 1 456 1 461 1 464 1 482 2 495 1 499 1 502 1 519 1 532 1 547 1 550 2 559 1 579 2 585 2 608 1 619 1 624 1 701 1 724 2 749 1 798 1 821 1 908 1 926 1 948 1 956 1 960 1 964 1 166 1 173 1 195 1 197 1 205 1 250 1 299 1 308 1 312 1 387 1 391 1 398 1 422 1 434 1 437 1 457 1 508 1 525 1 533 1 548 1 578 1 595 1 604 1 642 1 658 1 661 1 686 1 692 1 699 1 703 1 713 1 739 1 780 1 781 1 785 1 813 1 834 1 877 1 900 1 917 1 920 1 942 1 958 1 1003 1 1009 1 
1 209 6 1 14 1 28 1 33 1 41 1 43 1 58 1 68 1 84 1 107 1 2 1 11 1 34 1 64 1 78 1 91 1 104 1 106 1 108 1 126 1 128 1 134 1 135 1 145 1 156 1 186 1 199 1 231 1 252 1 255 1 281 2 294 1 334 2 344 1 361 1 363 1 369 1 379 1 397 1 404 2 410 1 442 1 467 1 482 1 496 1 497 1 505 1 507 1 530 1 545 1 551 1 568 1 570 1 593 1 648 1 656 1 666 1 696 1 724 1 765 1 780 1 794 1 803 1 804 1 853 1 877 1 905 1 910 1 929 1 934 1 941 1 954 1 958 1 998 1 113 1 125 1 172 1 194 1 204 1 246 1 305 1 316 1 332 1 333 1 356 1 392 1 400 1 403 1 412 1 429 1 435 1 458 1 459 1 466 1 484 1 509 1 520 1 537 1 539 1 546 1 562 1 563 1 569 1 584 1 589 1 594 1 606 1 618 1 649 1 658 1 668 1 700 1 709 1 717 1 747 1 749 1 767 1 813 1 816 1 819 1 821 1 863 1 912 1 915 1 927 1 946 1 969 1 1003 1 1013 1 1026 1 
1 205 11 1 18 2 48 1 50 1 52 1 67 1 29 1 38 1 57 1 75 1 112 1 119 1 123 1 169 1 181 1 191 1 199 1 214 1 215 1 267 1 275 1 300 1 323 1 327 1 350 1 369 1 370 1 382 1 397 1 406 2 424 1 445 1 456 1 461 1 486 1 524 1 545 1 581 1 597 1 609 1 610 1 632 2 682 1 704 1 750 1 755 1 763 1 784 2 802 1 818 1 834 1 848 1 869 1 908 1 917 1 948 1 958 1 971 1 972 1 973 1 982 2 145 1 158 1 166 1 186 1 208 1 248 1 250 1 254 1 279 1 283 1 285 1 312 1 314 1 320 1 339 1 353 1 375 1 380 1 395 1 396 1 400 1 448 1 452 1 458 1 493 1 500 1 504 1 514 1 533 1 535 1 546 1 555 1 598 1 631 1 633 1 655 1 688 1 699 1 716 1 721 1 726 1 737 1 740 1 743 1 752 1 773 1 789 1 799 1 803 1 816 1 828 1 833 1 837 1 845 1 862 1 924 1 938 1 1006 1 1014 1 
1 209 11 1 32 1 37 1 51 1 91 1 106 1 4 1 12 1 36 1 57 1 67 1 83 1 88 1 95 1 132 1 136 1 140 2 150 1 208 1 218 1 235 1 237 1 284 1 297 1 317 1 323 1 327 1 343 1 351 1 352 1 371 1 442 1 450 1 486 1 491 1 500 1 517 1 556 1 557 1 558 1 565 1 574 1 585 1 597 1 618 1 623 1 626 1 634 1 672 1 679 1 705 1 732 1 742 1 760 1 775 1 792 1 822 1 831 1 871 1 905 1 939 1 959 1 964 1 124 1 127 1 137 1 148 1 174 1 186 1 199 1 216 1 217 1 219 1 244 1 271 1 290 1 375 1 382 1 402 1 421 1 434 1 436 1 441 1 451 1 461 1 465 1 469 1 476 1 516 1 527 1 531 1 541 1 547 1 577 1 581 1 583 1 601 1 641 1 648 1 668 1 698 1 723 1 767 1 782 1 783 1 810 1 814 1 817 1 837 1 840 1 844 1 848 1 869 1 885 1 904 1 937 1 943 1 953 1 1008 1 1011 1 1014 1 1018 1 
1 210 3 1 40 1 69 1 99 1 103 1 106 1 32 1 33 1 39 1 42 1 43 1 52 1 57 1 83 1 87 1 97 1 105 1 153 1 160 1 185 1 239 1 259 1 277 1 321 2 364 1 368 1 396 1 399 1 442 2 445 1 481 1 511 1 540 1 545 1 569 1 577 2 601 1 653 1 655 1 696 1 699 1 704 1 725 1 736 2 746 1 781 1 783 1 797 1 821 1 848 1 870 1 887 1 894 1 905 1 937 1 965 1 979 1 119 1 138 1 144 1 146 1 178 1 212 1 214 1 221 1 250 1 287 1 293 1 295 1 330 1 332 1 334 1 363 1 372 1 430 1 437 1 439 1 474 1 485 1 501 1 508 1 532 1 560 1 565 1 581 1 583 1 612 1 628 1 678 1 706 1 716 1 728 1 733 1 753 1 754 1 766 1 767 1 812 1 818 1 819 1 864 1 867 1 872 1 884 1 932 1 933 1 948 1 960 1 973 1 983 1 998 1 999 1 1007 1 1009 1 1011 1 1016 1 
1 211 14 1 16 1 36 1 37 1 85 1 98 1 18 1 23 1 42 1 52 1 63 1 67 1 87 1 91 1 101 1 133 1 154 1 157 1 163 1 206 1 221 1 228 2 231 1 293 1 303 1 325 2 341 1 349 1 369 1 394 1 396 1 414 1 472 1 477 1 498 1 515 1 526 1 602 1 637 1 662 2 670 1 727 1 754 1 756 1 765 1 803 2 812 1 823 1 833 1 837 1 846 1 867 1 883 1 885 1 976 1 122 1 129 1 203 1 234 1 235 1 238 1 250 1 277 1 286 1 304 1 331 1 346 1 384 1 413 1 422 1 426 1 429 1 431 1 439 1 492 1 500 1 519 1 552 1 568 1 576 1 600 1 654 1 657 1 703 1 723 1 732 1 742 1 762 1 801 1 808 1 817 1 830 1 840 1 856 1 861 1 865 1 877 1 894 1 908 1 918 1 949 1 974 1 1016 1 
1 207 7 2 16 1 47 1 62 1 79 1 95 1 23 1 78 1 101 1 125 1 130 1 167 1 187 1 201 2 202 1 213 1 221 2 231 1 238 1 261 1 268 1 280 1 290 1 294 1 328 1 338 1 343 1 372 1 390 1 411 1 417 1 421 1 433 1 443 1 454 1 464 1 465 1 485 1 498 1 508 1 522 1 530 1 531 1 616 1 617 1 651 1 654 1 676 1 699 1 716 1 727 1 730 1 823 1 853 1 859 1 864 2 868 1 880 2 892 1 926 1 932 1 940 1 965 1 121 1 128 1 138 1 189 1 197 1 209 1 217 1 226 1 240 1 267 1 315 1 323 1 351 1 375 1 386 1 438 1 456 1 457 1 461 1 463 1 514 1 563 1 566 1 571 1 572 1 587 1 599 1 605 1 619 1 621 1 624 1 632 1 640 1 643 1 659 1 679 1 680 1 755 1 760 1 806 1 809 1 824 1 833 1 862 1 888 1 891 1 899 1 905 1 937 1 963 1 977 1 985 1 1004 1 1011 1 1024 1 
1 213 6 1 29 1 42 1 48 1 52 1 72 1 75 1 104 1 3 1 24 1 37 1 43 1 45 1 128 1 145 1 174 1 180 1 192 2 264 1 271 1 285 1 294 1 306 1 311 1 335 1 339 1 344 1 390 1 402 1 419 1 429 1 443 2 457 1 460 1 467 1 510 1 548 1 557 1 567 1 587 1 596 1 598 1 622 1 655 1 660 1 676 1 682 1 685 2 703 1 720 1 738 1 743 1 772 1 782 1 822 1 860 1 872 1 885 1 887 1 924 1 941 1 949 1 993 1 142 1 230 1 234 1 240 1 241 1 279 1 297 1 302 1 309 1 353 1 360 1 366 1 398 1 400 1 401 1 403 1 432 1 453 1 462 1 466 1 473 1 534 1 536 1 538 1 574 1 590 1 610 1 621 1 634 1 641 1 667 1 669 1 726 1 750 1 755 1 757 1 759 1 805 1 818 1 820 1 828 1 839 1 852 1 881 1 909 1 911 1 956 1 1010 1 1014 1 1022 1 
1 216 4 2 13 1 41 1 44 1 65 1 113 1 5 1 18 1 20 1 26 1 54 1 85 1 101 1 115 1 149 1 183 2 192 1 198 1 254 1 286 1 287 1 307 1 331 1 342 1 402 1 496 1 509 1 536 1 562 1 588 1 594 1 601 1 620 1 625 1 633 1 663 1 664 1 685 1 691 2 697 1 698 1 700 1 702 1 706 1 712 1 722 2 729 1 772 1 790 1 820 1 824 1 857 1 881 1 893 2 920 1 937 1 979 1 983 1 995 2 138 1 163 1 170 1 181 1 188 1 231 1 291 1 335 1 336 1 366 1 375 1 377 1 404 1 406 1 423 1 429 1 432 1 436 1 445 1 453 1 494 1 499 1 531 1 579 1 596 1 623 1 642 1 648 1 677 1 701 1 710 1 733 1 783 1 786 1 787 1 802 1 829 1 839 1 851 1 888 1 902 1 936 1 942 1 947 1 981 1 1003 1 1010 1 1012 1 1016 1 1017 1 
1 212 1 1 7 1 40 1 46 1 68 1 76 1 91 1 97 1 29 1 60 1 61 1 75 1 84 1 86 1 101 1 107 1 108 1 135 1 149 1 154 1 177 1 191 1 205 1 217 1 233 2 243 1 254 1 287 1 291 1 293 1 303 1 314 2 358 1 370 1 374 1 433 1 435 1 453 1 461 1 487 1 491 1 508 1 511 1 554 1 559 1 583 1 603 1 608 1 634 1 641 1 645 1 663 1 668 1 688 1 714 1 718 1 733 1 734 1 756 1 774 1 775 1 778 1 779 1 813 1 834 2 853 1 873 1 923 1 925 1 961 1 987 1 1001 1 146 1 147 1 156 1 218 1 224 1 235 1 238 1 246 1 262 1 263 1 277 1 301 1 348 1 355 1 363 1 385 1 388 1 396 1 462 1 471 1 498 1 516 1 538 1 552 1 569 1 571 1 626 1 637 1 638 1 643 1 664 1 673 1 724 1 735 1 792 1 797 1 828 1 838 1 842 1 845 1 858 1 876 1 927 1 935 1 969 1 970 1 979 1 990 1 993 1 995 1 1020 1 1022 1 1026 1 
1 210 1 1 32 1 46 1 67 1 71 1 12 1 21 1 41 1 42 1 43 1 65 1 101 1 117 1 122 1 145 1 158 1 225 1 226 1 258 1 266 1 310 1 314 1 323 1 328 1 329 1 334 1 335 1 341 1 349 2 350 1 371 1 402 1 452 1 472 2 491 1 556 1 561 1 572 1 580 1 653 2 659 1 666 1 714 1 734 2 755 1 758 1 772 1 781 1 784 1 810 1 818 1 829 1 832 1 846 1 847 1 850 1 857 1 874 1 883 1 907 1 949 1 952 1 956 1 959 1 995 1 143 1 153 1 167 1 182 1 188 1 192 1 196 1 197 1 245 1 275 1 280 1 320 1 325 1 346 1 422 1 442 1 444 1 499 1 521 1 537 1 558 1 559 1 592 1 601 1 606 1 621 1 639 1 641 1 651 1 685 1 691 1 696 1 697 1 706 1 765 1 793 1 825 1 890 1 924 1 931 1 935 1 939 1 969 1 1006 1 1009 1 1017 1 
1 210 19 1 23 1 64 1 78 2 81 1 88 1 121 1 16 1 45 1 76 1 85 1 102 1 116 1 130 1 132 1 156 1 157 1 158 1 188 2 189 1 205 2 234 1 244 1 247 1 251 1 262 1 279 1 282 1 317 1 325 1 339 1 350 1 367 1 390 1 437 1 440 1 444 1 464 1 483 1 487 1 493 2 512 2 531 1 541 1 568 1 574 1 578 1 608 1 640 1 642 1 666 1 692 1 700 1 706 1 731 2 741 1 746 1 756 2 779 1 807 1 824 1 829 1 931 1 936 1 940 2 968 1 983 1 990 1 992 1 999 1 1001 1 181 1 186 1 193 1 197 1 239 1 252 1 340 1 363 1 456 1 458 1 507 1 544 1 551 1 555 1 567 1 570 1 600 1 605 1 619 1 632 1 638 1 690 1 703 1 704 1 722 1 730 1 734 1 763 1 800 1 804 1 820 1 863 1 875 1 890 1 913 1 923 1 925 1 949 1 964 1 971 1 974 1 988 1 1003 1 1008 1 1010 1 
1 208 10 1 24 1 56 1 90 1 97 1 110 1 113 1 9 1 20 1 44 1 60 1 72 1 100 1 129 1 130 1 136 1 148 1 162 1 163 1 166 1 179 1 182 1 196 1 222 1 226 1 282 1 312 1 320 1 384 1 389 1 419 1 441 2 447 1 465 1 495 1 537 1 566 1 596 1 598 1 603 1 611 1 613 1 618 1 641 1 642 1 663 1 669 1 678 1 685 1 704 1 725 1 728 1 752 1 761 1 765 1 803 1 808 1 827 1 845 1 859 1 867 1 887 1 962 1 994 1 142 1 152 1 184 1 220 1 240 1 242 1 248 1 252 1 327 1 330 1 399 1 402 1 411 1 423 1 425 1 431 1 433 1 439 1 461 1 489 1 501 1 536 1 568 1 570 1 628 1 632 1 634 1 649 1 671 1 708 1 721 1 731 1 732 1 756 1 790 1 799 1 814 1 818 1 839 1 890 1 948 1 952 1 1010 1 1022 1 1024 1 1025 1 
1 211 46 1 77 2 81 1 92 1 13 1 29 1 51 1 90 1 108 1 114 1 139 1 178 1 215 1 227 2 242 2 255 1 257 1 281 1 292 1 355 1 368 1 403 1 435 1 471 1 494 1 517 1 532 1 552 1 579 1 586 1 589 1 600 1 618 1 628 1 645 2 659 2 669 1 715 1 718 1 740 1 804 1 837 1 843 1 872 1 884 1 890 1 934 1 935 2 963 1 967 1 969 1 974 1 980 1 986 1 987 1 136 1 149 1 155 1 162 1 193 1 230 1 236 1 258 1 262 1 269 1 282 1 293 1 314 1 321 1 324 1 359 1 372 1 381 1 386 1 395 1 416 1 445 1 503 1 514 1 523 1 525 1 571 1 574 1 603 1 679 1 681 1 701 1 743 1 778 1 784 1 786 1 790 1 808 1 812 1 859 1 885 1 889 1 912 1 924 1 930 1 943 1 1003 1 1008 1 1009 1 1015 1 
1 211 3 1 25 1 31 1 37 1 53 1 59 1 95 1 98 1 111 1 117 1 22 1 30 1 39 1 41 1 89 1 90 1 101 1 109 1 112 1 141 1 154 1 179 1 201 1 217 1 220 1 238 1 242 2 243 1 252 1 274 1 298 1 299 1 316 1 321 1 323 1 361 1 371 1 397 1 416 1 422 1 423 1 447 1 458 1 463 2 476 1 480 1 538 1 540 1 570 1 571 1 584 1 680 1 692 1 723 1 768 1 778 1 793 1 815 1 838 1 861 1 940 2 987 1 996 1 149 1 172 1 174 1 176 1 192 1 235 1 246 1 248 1 296 1 339 1 358 1 372 1 382 1 384 1 410 1 415 1 475 1 490 1 495 1 509 1 556 1 559 1 560 1 572 1 576 1 586 1 593 1 599 1 611 1 647 1 656 1 686 1 688 1 740 1 755 1 772 1 801 1 810 1 811 1 833 1 849 1 858 1 873 1 883 1 892 1 926 1 947 1 959 1 1004 1 
1 208 4 1 21 1 26 2 55 2 71 1 89 1 105 1 112 1 24 1 29 1 34 1 38 1 50 1 86 1 99 1 134 1 136 1 210 1 215 1 240 1 281 1 291 1 294 1 305 1 310 1 323 1 380 1 394 1 404 1 411 1 419 1 453 1 458 1 465 1 476 1 491 1 506 1 520 1 538 1 567 1 574 2 582 1 606 1 625 1 629 1 632 1 639 1 640 1 653 1 698 1 710 1 732 1 742 1 753 1 781 1 798 1 809 1 845 1 851 1 854 1 870 1 898 1 907 1 911 1 947 1 972 1 973 1 127 1 130 1 144 1 150 1 154 1 160 1 199 1 202 1 217 1 228 1 257 1 260 1 269 1 304 1 319 1 338 1 346 1 370 1 381 1 422 1 428 1 442 1 471 1 480 1 494 1 499 1 505 1 527 1 637 1 652 1 663 1 687 1 693 1 705 1 712 1 761 1 775 1 793 1 811 1 816 1 850 1 852 1 853 1 855 1 874 1 884 1 925 1 966 1 968 1 974 1 983 1 1021 1 
1 208 9 1 10 1 37 1 39 1 74 1 93 1 110 2 1 1 5 1 12 1 32 1 68 1 78 1 80 1 114 1 126 1 133 1 136 1 137 1 149 1 153 2 160 1 195 1 196 1 204 1 239 1 245 1 257 1 259 1 263 1 297 1 299 1 300 1 332 1 344 1 347 1 348 1 380 1 395 1 420 2 445 1 466 1 485 1 494 1 504 1 547 1 552 1 562 1 567 1 568 1 598 1 622 1 647 1 656 1 671 1 683 1 684 1 688 1 727 1 758 1 763 1 770 1 775 1 816 1 861 1 889 1 942 1 960 1 982 1 167 1 177 1 219 1 273 1 277 1 287 1 289 1 310 1 319 1 330 1 360 1 367 1 368 1 389 1 422 1 476 1 489 1 502 1 508 1 509 1 555 1 558 1 576 1 581 1 591 1 597 1 637 1 650 1 690 1 693 1 715 1 736 1 738 1 755 1 774 1 783 1 797 1 817 1 819 1 823 1 856 1 887 1 890 1 903 1 918 1 939 1 996 1 1007 1 1012 1 1027 1 
1 207 35 1 60 2 61 1 64 1 71 1 79 1 85 1 90 1 112 1 118 1 41 1 44 1 67 1 72 1 73 1 78 1 84 1 89 1 97 1 117 1 215 1 229 1 231 1 264 1 267 1 268 1 273 1 283 1 296 1 327 1 331 1 336 1 342 1 371 1 373 1 378 1 381 1 409 1 439 1 471 1 489 1 505 1 529 1 559 1 581 1 585 1 597 1 614 1 650 2 656 1 661 1 668 1 683 1 701 1 707 1 709 1 727 1 755 1 771 1 775 1 796 1 824 1 867 1 868 1 880 1 893 1 897 1 945 1 958 1 976 1 985 1 989 1 136 1 148 1 149 1 174 1 191 1 194 1 199 1 214 1 289 1 319 1 399 1 406 1 420 1 450 1 454 1 463 1 465 1 469 1 502 1 518 1 531 1 534 1 538 1 558 1 562 1 576 1 596 1 609 1 620 1 654 1 667 1 671 1 676 1 708 1 718 1 740 1 823 1 831 1 875 1 938 1 939 1 944 1 1022 1 
1 207 7 1 84 1 88 1 109 1 123 1 13 1 20 1 30 1 53 1 56 1 63 1 64 1 74 1 95 1 116 1 131 1 134 1 140 1 164 1 174 1 175 1 192 1 214 1 227 1 228 1 235 1 238 1 257 1 274 1 276 1 297 1 310 1 317 2 326 1 346 1 352 1 435 2 459 1 486 1 520 1 551 1 554 1 567 1 602 1 614 2 615 1 616 1 621 1 639 1 676 1 707 1 709 1 723 1 724 1 730 1 739 1 753 1 766 2 783 1 789 1 822 1 824 1 878 1 889 1 904 1 971 1 986 1 1000 1 144 1 147 1 196 1 198 1 209 1 217 1 237 1 239 1 242 1 258 1 289 1 298 1 299 1 311 1 314 1 366 1 438 1 463 1 481 1 500 1 582 1 608 1 620 1 634 1 645 1 647 1 651 1 667 1 673 1 692 1 712 1 747 1 772 1 800 1 835 1 840 1 918 1 932 1 933 1 942 1 944 1 949 1 985 1 1002 1 
1 207 39 1 46 1 83 1 94 1 105 1 117 1 122 1 123 1 26 1 29 1 38 1 42 1 77 1 88 1 126 1 184 1 193 1 208 1 247 1 288 1 309 1 333 1 369 1 415 2 424 1 429 1 438 1 459 2 494 1 495 2 502 1 522 1 539 1 575 1 594 1 629 1 640 1 653 2 668 1 676 1 691 1 720 1 768 1 805 1 806 1 811 1 817 2 928 1 936 1 961 1 973 1 981 1 140 1 190 1 199 1 227 1 230 1 232 1 238 1 272 1 283 1 290 1 323 1 326 1 337 1 339 1 362 1 367 1 379 1 380 1 381 1 382 1 406 1 439 1 453 1 490 1 497 1 508 1 519 1 525 1 535 1 536 1 625 1 631 1 651 1 652 1 695 1 742 1 767 1 779 1 798 1 829 1 834 1 859 1 866 1 868 1 887 1 916 1 937 1 941 1 992 1 994 1 1005 1 1010 1 1020 1 
1 209 2 1 38 2 43 1 75 1 92 1 100 1 106 1 129 1 8 1 14 1 63 1 68 1 73 1 76 1 88 1 89 1 107 1 142 1 189 1 193 1 211 1 229 1 237 1 247 1 267 2 275 1 281 1 286 1 306 1 311 1 332 1 335 1 355 1 359 1 407 1 432 1 442 1 455 1 472 1 517 1 520 1 533 1 536 1 565 2 568 1 570 1 574 1 600 1 616 1 663 1 680 1 684 1 688 1 715 1 745 1 753 1 763 1 772 1 774 1 785 1 786 1 819 1 826 1 863 1 870 1 920 1 966 1 975 1 987 1 993 1 999 1 137 1 138 1 145 1 233 1 255 1 265 1 296 1 319 1 348 1 351 1 358 1 380 1 414 1 423 1 433 1 440 1 465 1 473 1 496 1 512 1 527 1 541 1 562 1 580 1 601 1 643 1 669 1 671 1 673 1 718 1 775 1 787 1 804 1 808 1 810 1 864 1 873 1 877 1 884 1 922 1 934 1 1005 1 1016 1 1021 1 
1 212 7 1 42 2 45 1 71 1 75 1 90 1 108 1 114 1 122 1 10 1 34 1 96 1 105 1 109 1 150 1 154 1 161 1 186 1 224 1 230 1 239 2 297 1 299 1 315 1 327 1 343 1 357 1 363 1 378 1 410 1 435 1 457 1 458 1 463 1 480 1 493 1 511 1 516 1 522 1 565 1 570 1 571 1 625 1 635 1 652 1 662 1 663 1 726 1 751 2 783 1 785 1 792 1 804 1 814 1 839 1 886 1 893 1 898 1 914 1 940 1 941 1 957 1 974 1 981 1 993 1 998 1 194 1 202 1 207 1 212 1 221 1 262 1 271 1 284 1 316 1 329 1 332 1 337 1 353 1 361 1 366 1 367 1 388 1 395 1 429 1 444 1 492 1 512 1 528 1 552 1 553 1 556 1 561 1 562 1 573 1 600 1 610 1 672 1 679 1 683 1 687 1 688 1 717 1 733 1 752 1 765 1 766 1 773 1 776 1 789 1 811 1 824 1 837 1 860 1 873 1 904 1 915 1 965 1 966 1 991 1 992 1 997 1 1008 1 1011 1 
1 206 52 1 59 1 70 2 96 1 103 2 116 1 127 1 19 1 44 1 50 1 63 1 65 1 92 1 93 1 107 1 142 1 176 1 178 1 181 1 199 1 228 1 247 1 289 1 309 2 324 1 348 1 350 1 378 1 462 1 468 1 480 1 511 1 517 1 617 1 652 1 656 1 667 1 686 1 723 1 750 1 765 1 787 1 798 1 835 1 849 1 854 2 860 1 905 1 906 1 918 1 949 1 959 1 961 1 983 1 985 1 995 1 138 1 145 1 174 1 187 1 193 1 257 1 261 1 265 1 269 1 304 1 316 1 321 1 340 1 346 1 375 1 394 1 406 1 418 1 441 1 450 1 523 1 524 1 527 1 546 1 547 1 551 1 559 1 573 1 584 1 607 1 621 1 648 1 689 1 699 1 732 1 752 1 755 1 779 1 790 1 819 1 861 1 939 1 964 1 987 1 1003 1 1007 1 1008 1 1014 1 1021 1 
1 209 1 1 30 1 96 1 109 1 112 1 126 1 129 1 16 1 54 1 79 1 248 1 266 1 273 1 298 1 333 1 400 1 406 1 416 1 446 1 488 1 504 1 511 2 551 1 586 1 620 2 628 1 637 1 675 1 702 2 721 1 762 1 763 2 772 1 787 1 788 1 790 1 792 1 797 1 800 1 860 2 881 1 882 1 887 1 890 1 908 1 909 1 914 1 946 1 963 1 970 1 975 1 981 1 153 1 155 1 156 1 167 1 195 1 207 1 213 1 215 1 243 1 276 1 277 1 279 1 310 1 312 1 357 1 380 1 383 1 391 1 409 1 422 1 434 1 481 1 496 1 510 1 534 1 537 1 546 1 549 1 587 1 596 1 609 1 618 1 626 1 642 1 652 1 680 1 684 1 690 1 694 1 700 1 716 1 750 1 755 1 770 1 786 1 798 1 811 1 845 1 874 1 878 1 922 1 929 1 942 1 947 1 950 1 954 1 966 1 982 1 994 1 1006 1 1008 1 1015 1 1021 1 1022 1 1027 1 
1 211 12 1 54 1 79 1 82 2 88 1 112 1 120 1 2 1 11 1 27 1 31 1 60 1 63 1 138 1 151 1 164 1 191 1 197 1 211 1 227 1 237 2 245 1 261 1 287 1 306 1 312 1 334 1 351 1 356 1 378 1 402 1 413 1 445 1 449 1 465 1 475 1 480 1 490 1 499 1 531 1 532 1 540 1 576 1 579 1 590 1 602 1 619 1 621 1 629 1 630 1 633 1 681 1 683 1 691 1 733 1 741 2 767 1 775 1 802 1 808 1 809 1 810 1 861 1 882 1 887 2 905 1 943 1 971 1 159 1 196 1 205 1 221 1 222 1 247 1 257 1 264 1 274 1 292 1 307 1 320 1 374 1 379 1 383 1 409 1 429 1 434 1 442 1 469 1 488 1 493 1 525 1 546 1 552 1 561 1 580 1 594 1 599 1 606 1 613 1 732 1 743 1 771 1 784 1 811 1 814 1 853 1 858 1 860 1 873 1 874 1 875 1 880 1 934 1 958 1 975 1 1009 1 
1 209 28 1 29 1 34 1 35 1 47 1 80 1 98 1 101 1 114 1 123 1 126 1 127 1 36 1 50 1 81 1 83 1 94 1 100 1 124 1 128 1 151 1 169 1 190 1 217 1 298 1 307 1 316 1 321 1 324 1 328 1 336 1 370 1 379 1 389 1 393 1 400 1 403 1 407 1 430 1 437 1 472 1 475 1 509 1 519 1 521 1 525 1 568 1 590 1 601 1 613 1 627 1 657 1 662 1 670 1 717 1 729 1 738 1 765 1 797 1 831 1 841 1 847 1 848 1 850 1 857 1 926 1 947 1 952 2 971 1 980 1 989 1 163 1 183 1 188 1 198 1 224 1 230 1 235 1 248 1 255 1 258 1 275 1 338 1 352 1 392 1 397 1 408 1 425 1 432 1 434 1 495 1 506 1 524 1 526 1 541 1 559 1 564 1 589 1 649 1 653 1 654 1 659 1 700 1 730 1 755 1 790 1 823 1 862 1 876 1 923 1 925 1 955 1 970 1 1007 1 1018 1 1019 1 1027 1 
1 208 22 1 41 1 42 1 67 1 90 1 91 1 127 1 7 1 12 1 20 1 72 1 89 1 97 1 114 1 131 1 167 1 182 2 190 1 221 1 240 1 276 1 296 1 297 1 303 1 304 1 364 2 366 1 434 1 438 1 457 1 476 1 544 1 607 1 620 1 643 1 654 1 656 1 662 1 665 1 675 1 676 2 679 1 681 1 688 1 700 1 715 1 745 1 757 1 769 1 781 1 786 1 797 1 800 1 825 1 826 1 831 2 843 1 852 2 889 1 908 1 926 1 976 1 999 1 154 1 156 1 166 1 247 1 272 1 312 1 321 1 353 1 398 1 431 1 452 1 453 1 461 1 467 1 468 1 474 1 484 1 490 1 500 1 503 1 535 1 545 1 560 1 593 1 595 1 600 1 616 1 621 1 645 1 646 1 655 1 657 1 668 1 720 1 722 1 739 1 747 1 749 1 754 1 774 1 799 1 823 1 839 1 882 1 907 1 939 1 940 1 949 1 1006 1 1008 1 1026 1 
1 210 17 1 30 1 31 1 71 1 78 1 95 1 105 1 135 1 13 1 25 1 42 1 53 1 88 1 102 1 110 1 115 1 117 1 119 1 131 1 133 1 139 1 141 1 193 1 204 1 224 1 277 1 289 1 348 1 355 1 411 1 416 1 420 1 451 1 464 1 471 1 491 1 507 1 514 1 516 1 538 1 570 1 581 2 584 1 587 1 592 1 599 1 632 1 641 1 673 1 682 1 696 1 708 1 716 1 734 1 767 1 772 1 775 1 777 1 801 1 820 1 827 1 844 1 866 1 889 1 894 2 907 1 946 2 965 1 968 1 976 2 148 1 159 1 166 1 177 1 186 1 205 1 287 1 300 1 307 1 308 1 328 1 329 1 358 1 371 1 374 1 384 1 408 1 429 1 482 1 562 1 594 1 660 1 692 1 717 1 719 1 720 1 731 1 735 1 737 1 740 1 742 1 757 1 761 1 762 1 807 1 808 1 817 1 836 1 856 1 879 1 887 1 909 1 949 1 952 1 983 1 1006 1 1011 1 1013 1 1018 1 1020 1 
1 220 5 1 11 1 27 1 56 1 69 1 70 1 96 1 124 1 138 1 51 1 88 1 91 1 110 1 173 1 177 2 192 1 200 1 224 1 317 1 344 1 348 1 349 1 354 1 359 1 383 1 391 1 405 1 433 1 440 1 477 1 494 1 528 1 550 1 555 1 557 1 566 1 592 1 610 1 627 1 635 1 641 1 650 1 655 1 681 1 713 1 735 1 742 1 748 1 789 1 804 1 816 1 829 1 836 1 842 1 846 2 870 1 905 1 918 1 921 1 954 1 965 1 977 1 980 1 984 1 160 1 161 1 185 1 190 1 199 1 245 1 267 1 313 1 337 1 338 1 341 1 346 1 355 1 360 1 410 1 441 1 449 1 470 1 481 1 490 1 500 1 502 1 512 1 541 1 564 1 568 1 579 1 580 1 621 1 623 1 665 1 677 1 702 1 728 1 752 1 755 1 762 1 769 1 809 1 837 1 848 1 860 1 864 1 891 1 928 1 932 1 953 1 1007 1 1022 1 1025 1 1027 1 
1 212 24 1 31 1 32 1 36 1 82 1 92 1 114 2 129 1 10 1 33 1 39 1 69 1 87 1 97 1 130 1 145 1 183 1 186 1 215 1 275 1 310 1 321 1 337 1 354 1 378 1 389 1 400 2 412 1 413 1 432 1 439 1 440 1 450 1 476 1 501 1 529 1 543 1 559 1 568 1 595 1 603 1 609 1 613 1 618 1 624 1 627 1 629 1 638 1 657 1 659 1 669 2 682 1 692 1 708 1 721 1 722 1 724 1 725 1 733 1 735 1 743 1 748 1 782 1 825 1 830 1 853 1 871 1 877 1 881 1 907 1 953 1 971 1 156 1 171 1 192 1 204 1 207 1 213 1 221 1 231 1 234 1 243 1 274 1 284 1 286 1 294 1 319 1 332 1 365 1 383 1 390 1 393 1 403 1 416 1 453 1 466 1 493 1 499 1 540 1 558 1 561 1 570 1 573 1 639 1 661 1 683 1 697 1 703 1 732 1 736 1 753 1 764 1 790 1 794 1 798 1 859 1 894 1 901 1 936 1 947 1 963 1 985 1 986 1 989 1 991 1 1015 1 
1 209 33 1 38 1 46 1 51 1 59 1 64 1 125 1 138 1 47 1 53 1 60 1 63 1 76 1 97 1 143 1 172 1 240 2 247 1 266 1 269 1 270 1 272 1 278 1 299 1 301 1 341 1 346 1 367 1 377 1 416 1 420 2 425 1 435 1 464 1 489 1 512 1 517 1 538 1 551 1 554 1 575 1 605 1 626 1 649 1 669 1 683 1 723 1 732 1 754 1 800 1 810 1 833 2 837 1 840 1 847 1 863 1 868 1 870 1 877 1 893 1 912 1 927 1 949 1 951 2 979 1 148 1 158 1 162 1 177 1 178 1 179 1 183 1 189 1 203 1 243 1 253 1 276 1 291 1 302 1 314 1 325 1 348 1 360 1 373 1 399 1 414 1 417 1 424 1 448 1 459 1 476 1 484 1 497 1 498 1 531 1 533 1 540 1 581 1 582 1 591 1 603 1 608 1 610 1 619 1 668 1 684 1 721 1 791 1 807 1 855 1 864 1 888 1 897 1 898 1 921 1 922 1 928 1 930 1 998 1 1021 1 1023 1 
1 212 6 1 32 1 51 1 55 1 72 1 90 1 131 1 133 1 4 1 14 1 15 1 20 1 31 1 35 1 84 1 89 1 118 1 123 1 158 1 160 1 183 1 201 1 208 1 218 1 231 1 235 1 260 2 261 1 264 1 280 1 315 1 395 1 453 1 462 1 467 1 508 1 531 1 539 1 568 1 572 1 578 1 585 1 590 1 597 1 636 1 746 1 766 1 770 1 803 1 816 1 846 1 858 1 881 1 897 1 901 1 960 1 990 2 159 1 167 1 188 1 242 1 267 1 274 1 292 1 320 1 341 1 353 1 359 1 368 1 373 1 391 1 398 1 411 1 454 1 460 1 473 1 499 1 501 1 516 1 521 1 533 1 546 1 562 1 602 1 610 1 620 1 621 1 631 1 741 1 772 1 790 1 843 1 872 1 876 1 879 1 888 1 899 1 922 1 927 1 957 1 964 1 968 1 976 1 1006 1 1007 1 1008 1 1012 1 1018 1 1027 1 
1 210 10 1 45 1 67 1 83 1 141 1 44 1 51 1 56 1 72 1 104 1 121 1 149 1 163 1 196 1 210 1 235 1 253 1 283 1 289 1 306 1 328 1 347 1 388 1 409 1 434 1 438 1 463 1 483 1 504 1 524 1 526 1 544 1 552 1 556 1 563 1 605 1 609 1 624 1 629 2 640 1 653 1 669 1 700 2 706 1 711 1 716 1 717 1 726 1 729 1 731 1 760 1 774 2 780 1 828 1 871 1 880 1 905 1 912 1 926 1 949 1 967 1 975 1 999 1 144 1 156 1 164 1 240 1 281 1 299 1 353 1 356 1 376 1 379 1 394 1 408 1 430 1 475 1 494 1 508 1 523 1 590 1 595 1 606 1 665 1 678 1 681 1 685 1 730 1 737 1 766 1 773 1 785 1 789 1 793 1 798 1 814 1 849 1 856 1 861 1 866 1 909 1 921 1 938 1 951 1 988 1 989 1 993 1 1021 1 1023 1 
1 210 5 1 8 1 29 1 30 1 56 1 63 1 69 1 3 1 33 1 43 1 51 1 64 1 92 1 105 1 106 1 115 1 126 1 129 1 143 1 153 1 155 1 164 1 169 1 210 1 219 1 232 1 243 1 252 1 302 1 304 1 320 1 391 1 420 1 428 1 429 2 431 1 456 2 469 1 475 2 477 1 496 2 505 1 533 1 556 1 559 1 585 1 601 1 606 1 621 1 629 1 638 1 652 1 653 1 663 1 671 1 672 1 681 1 697 1 706 1 708 1 711 2 750 1 752 1 764 1 768 1 784 2 785 1 806 1 811 1 830 1 845 1 855 1 858 1 896 1 909 1 938 1 955 1 958 1 982 1 986 2 987 1 165 1 177 1 258 1 277 1 278 1 303 1 312 1 319 1 326 1 393 1 400 1 408 1 423 1 450 1 457 1 490 1 515 1 546 1 564 1 574 1 586 1 694 1 699 1 759 1 796 1 807 1 808 1 814 1 862 1 894 1 912 1 923 1 931 1 937 1 952 1 964 1 981 1 1004 1 1006 1 1017 1 
1 216 2 1 17 1 31 1 52 1 60 1 64 2 85 1 86 1 112 1 118 1 121 1 140 1 56 1 66 1 80 1 99 1 103 1 113 1 131 1 133 1 164 1 167 1 176 1 199 2 222 1 258 1 275 1 286 2 290 1 314 1 328 1 329 1 335 1 360 1 396 1 403 1 449 1 490 1 498 1 512 2 524 1 542 1 552 1 561 2 582 1 590 1 593 1 634 1 637 1 657 1 679 1 683 1 691 1 692 1 714 1 734 2 738 1 739 1 746 1 763 1 785 1 818 1 835 1 846 1 857 1 865 1 872 1 880 1 888 1 891 1 895 1 898 2 906 2 942 1 966 1 969 1 974 1 989 1 163 1 179 1 219 1 220 1 234 1 240 1 248 1 250 1 254 1 264 1 267 1 294 1 299 1 304 1 310 1 341 1 348 1 380 1 423 1 430 1 433 1 452 1 463 1 479 1 513 1 525 1 539 1 540 1 547 1 612 1 776 1 794 1 798 1 810 1 840 1 887 1 893 1 903 1 905 1 921 1 927 1 928 1 949 1 988 1 1002 1 1005 1 1008 1 1027 1 
1 205 11 1 26 1 73 1 74 1 86 1 19 1 23 1 47 1 76 1 93 1 102 1 115 1 120 1 151 2 157 1 168 1 194 1 209 1 234 1 237 1 260 1 262 1 280 1 281 2 298 1 309 1 320 1 331 1 333 1 335 1 347 1 356 1 358 1 380 1 387 1 399 1 403 1 431 1 446 1 447 1 451 1 457 1 503 1 504 1 511 1 512 1 519 1 525 1 551 1 572 1 597 1 607 1 632 1 639 1 655 1 684 1 711 1 758 1 780 1 782 2 785 1 794 1 826 1 829 2 840 1 850 1 851 1 882 1 895 1 914 1 927 1 934 1 953 1 954 1 970 2 972 1 154 1 158 1 188 1 215 1 265 1 267 1 272 1 274 1 290 1 334 1 344 1 355 1 373 1 389 1 448 1 450 1 455 1 475 1 499 1 508 1 542 1 619 1 659 1 672 1 682 1 697 1 706 1 709 1 717 1 763 1 783 1 812 1 817 1 835 1 867 1 922 1 931 1 936 1 948 1 969 1 993 1 999 1 1006 1 1008 1 
1 210 32 1 39 1 41 1 59 1 61 1 89 1 8 1 31 1 34 1 40 1 52 1 55 1 78 1 86 1 92 1 120 1 129 1 152 1 164 1 191 1 197 1 218 1 234 1 236 1 293 1 304 1 314 1 329 1 333 1 338 1 366 1 371 1 398 1 405 2 419 1 440 1 455 1 456 2 490 1 510 1 518 1 523 1 527 1 538 1 588 2 602 1 603 1 604 1 614 1 642 1 647 1 650 1 659 1 671 1 679 1 705 1 706 1 717 1 724 1 727 1 755 1 763 1 766 1 769 1 778 1 814 1 824 1 848 1 857 1 869 1 920 1 926 1 936 1 948 1 988 2 999 1 194 1 202 1 226 1 246 1 248 1 250 1 283 1 320 1 322 1 361 1 413 1 416 1 423 1 468 1 486 1 489 1 507 1 526 1 536 1 542 1 546 1 559 1 584 1 605 1 625 1 643 1 653 1 680 1 707 1 721 1 737 1 742 1 762 1 782 1 801 1 811 1 815 1 840 1 902 1 907 1 921 1 939 1 946 1 951 1 954 1 963 1 970 1 971 1 1002 1 1016 1 1017 1 
1 214 20 1 54 1 98 1 123 1 3 1 43 1 68 1 75 1 114 1 128 1 138 1 141 1 151 2 182 1 187 1 192 1 199 1 210 1 240 1 249 1 273 1 300 1 319 1 333 1 345 1 352 2 365 1 418 1 422 1 432 1 433 1 466 1 491 1 497 1 558 1 569 1 570 1 583 1 615 1 639 1 684 1 717 1 762 1 784 1 796 1 814 1 836 1 842 1 844 1 894 1 923 1 928 1 931 1 155 1 157 1 158 1 266 1 271 1 274 1 284 1 286 1 302 1 321 1 347 1 348 1 366 1 442 1 473 1 474 1 480 1 504 1 506 1 537 1 538 1 554 1 564 1 571 1 576 1 584 1 585 1 610 1 633 1 641 1 653 1 670 1 679 1 691 1 705 1 734 1 743 1 764 1 769 1 777 1 820 1 853 1 857 1 859 1 860 1 872 1 883 1 890 1 942 1 972 1 980 1 1002 1 1006 1 1007 1 1009 1 1016 1 1023 1 1024 1 
1 210 3 1 16 1 60 1 110 1 119 1 120 1 127 1 143 1 21 1 67 1 72 1 74 1 94 1 107 1 124 1 125 1 128 1 169 1 196 1 229 1 245 1 269 1 322 1 333 1 362 1 371 1 377 1 378 1 404 1 413 1 426 1 429 1 461 1 470 1 487 1 488 1 493 2 575 1 632 1 633 1 682 2 703 1 718 1 728 1 741 1 753 1 778 1 802 1 803 1 813 1 827 1 847 1 848 1 854 1 902 1 903 1 908 1 933 1 944 1 946 1 983 1 990 1 994 1 150 1 152 1 171 1 173 1 208 1 211 1 216 1 234 1 260 1 293 1 311 1 316 1 317 1 346 1 349 1 372 1 380 1 416 1 468 1 471 1 490 1 551 1 556 1 570 1 571 1 582 1 585 1 595 1 641 1 642 1 692 1 712 1 717 1 756 1 759 1 765 1 806 1 814 1 867 1 873 1 878 1 913 1 917 1 945 1 970 1 972 1 984 1 985 1 1003 1 1022 1 
1 207 1 1 21 1 24 1 29 1 91 1 114 1 132 1 6 1 7 1 31 1 36 1 51 1 59 1 101 1 126 1 149 1 186 1 210 1 291 1 298 1 307 1 308 1 310 1 316 1 331 1 361 1 400 1 434 1 436 1 444 1 466 1 533 1 548 1 577 1 586 1 593 2 664 1 669 1 724 1 743 1 751 1 761 1 770 1 773 1 775 1 778 1 824 1 825 1 831 1 848 1 878 1 882 1 885 1 901 1 907 1 942 1 945 1 958 1 999 1 161 1 166 1 201 1 223 1 244 1 269 1 285 1 344 1 347 1 354 1 415 1 430 1 432 1 467 1 523 1 526 1 550 1 571 1 603 1 608 1 638 1 654 1 667 1 679 1 685 1 689 1 697 1 706 1 716 1 725 1 727 1 750 1 756 1 785 1 792 1 797 1 809 1 838 1 853 1 865 1 880 1 887 1 896 1 899 1 917 1 926 1 936 1 961 1 970 1 983 1 1006 1 1010 1 1018 1 1024 1 1027 1 
1 212 1 1 7 2 24 1 32 1 59 1 63 1 72 1 80 1 86 1 108 1 135 1 136 1 146 2 148 2 60 1 67 1 71 1 78 1 105 1 170 1 172 1 174 1 209 1 210 1 226 1 234 1 283 1 289 1 316 1 319 1 364 1 379 1 387 1 418 1 426 1 441 1 454 1 470 1 571 1 583 1 598 1 615 1 696 1 728 1 786 1 810 1 835 1 847 1 852 1 858 1 883 1 901 1 915 1 917 1 931 1 947 1 976 1 983 1 985 1 997 1 164 1 195 1 196 1 200 1 219 1 227 1 235 1 266 1 275 1 298 1 313 1 336 1 350 1 351 1 389 1 404 1 413 1 416 1 489 1 502 1 511 1 526 1 529 1 532 1 567 1 586 1 589 1 602 1 617 1 619 1 620 1 634 1 645 1 657 1 661 1 675 1 681 1 689 1 695 1 700 1 704 1 719 1 734 1 741 1 760 1 788 1 792 1 819 1 839 1 851 1 902 1 912 1 922 1 942 1 944 1 954 1 974 1 988 1 1010 1 1017 1 1020 1 1022 1 1025 1 1027 1 
1 211 18 1 25 1 28 1 41 1 47 1 49 1 56 1 88 1 147 1 6 1 15 1 16 1 37 1 39 1 52 1 64 1 91 1 94 1 123 1 149 1 167 1 169 1 172 1 183 1 191 1 210 1 216 1 225 1 253 2 313 1 323 1 332 1 365 1 373 1 439 1 453 1 482 2 487 2 519 1 540 1 556 1 580 1 594 1 616 1 620 2 667 1 672 1 676 1 696 1 705 1 720 1 783 1 787 2 806 1 809 1 814 1 828 1 858 1 899 1 916 2 922 1 952 1 960 1 980 1 992 2 157 1 174 1 229 1 256 1 260 1 273 1 327 1 331 1 341 1 374 1 380 1 390 1 397 1 443 1 464 1 469 1 495 1 497 1 506 1 510 1 517 1 538 1 571 1 587 1 617 1 632 1 643 1 660 1 665 1 692 1 693 1 701 1 744 1 760 1 826 1 827 1 835 1 838 1 843 1 862 1 872 1 877 1 900 1 935 1 956 1 971 1 981 1 1002 1 1004 1 1013 1 1020 1 
1 212 1 1 74 1 95 1 102 1 115 1 127 2 144 1 27 1 31 1 44 1 54 1 61 1 87 1 121 1 134 1 181 1 205 1 243 1 254 1 271 1 331 1 341 1 360 1 372 1 388 1 411 1 420 1 424 1 470 1 487 1 503 1 515 1 517 1 570 1 575 1 605 1 611 1 618 1 635 1 651 2 654 1 684 1 686 1 702 1 725 1 746 2 776 1 784 1 827 1 837 1 843 1 860 1 875 1 880 1 907 1 938 1 961 1 972 1 987 1 201 1 226 1 238 1 244 1 246 1 252 1 259 1 266 1 278 1 316 1 319 1 330 1 343 1 354 1 363 1 364 1 415 1 417 1 450 1 483 1 539 1 547 1 574 1 603 1 643 1 644 1 669 1 680 1 699 1 717 1 747 1 758 1 792 1 803 1 820 1 838 1 849 1 867 1 872 1 876 1 878 1 888 1 893 1 983 1 996 1 997 1 1020 1 
1 217 1 1 28 1 29 1 37 1 41 1 50 2 53 1 74 1 76 1 87 1 101 1 116 1 120 1 125 1 132 1 126 1 137 1 146 1 189 1 203 1 212 1 229 1 236 1 267 2 275 1 310 1 337 1 338 1 351 1 356 1 361 1 392 1 453 1 457 1 463 1 485 1 495 1 519 1 527 1 540 2 548 1 550 1 555 1 557 1 599 1 613 1 616 1 627 1 640 1 642 1 659 1 662 1 673 1 702 2 723 1 732 1 739 1 799 1 800 1 832 1 847 1 859 1 915 1 940 1 958 1 968 1 1000 1 183 1 209 1 227 1 231 1 306 1 324 1 328 1 349 1 376 1 395 1 403 1 448 1 462 1 466 1 471 1 473 1 480 1 517 1 531 1 552 1 554 1 581 1 585 1 592 1 604 1 610 1 620 1 630 1 633 1 676 1 708 1 717 1 827 1 834 1 877 1 943 1 951 1 956 1 959 1 966 1 984 1 986 1 1008 1 1017 1 1019 1 1025 1 1026 1 
1 215 7 1 23 1 51 1 71 1 76 1 83 1 108 1 144 1 12 1 20 1 53 1 64 1 67 1 72 1 109 1 124 1 134 1 148 1 162 1 166 1 171 1 194 1 199 1 203 1 220 1 232 1 235 1 248 2 250 1 263 1 271 1 285 1 295 1 323 1 332 1 361 1 365 1 381 1 389 1 408 1 416 1 432 1 435 1 465 1 474 2 495 1 525 1 530 1 533 1 549 1 557 1 561 1 585 1 603 1 656 1 670 1 687 1 719 1 759 1 768 1 770 1 780 1 786 1 815 2 850 1 856 1 860 1 900 1 902 1 909 1 917 1 943 1 957 1 981 1 986 1 181 1 207 1 233 1 251 1 297 1 298 1 315 1 325 1 336 1 354 1 379 1 406 1 452 1 476 1 478 1 492 1 509 1 528 1 531 1 550 1 558 1 574 1 587 1 590 1 596 1 639 1 646 1 654 1 666 1 718 1 798 1 811 1 820 1 825 1 836 1 844 1 870 1 881 1 906 1 912 1 925 1 940 1 944 1 956 1 960 1 992 1 1007 1 1010 1 1015 1 1016 1 1027 1 
1 208 21 1 25 1 57 1 68 1 78 1 82 1 102 1 112 1 122 1 28 1 46 1 50 1 69 1 95 1 120 1 134 1 137 1 140 1 143 1 192 1 197 1 202 1 205 1 235 1 245 1 249 1 259 1 262 2 284 1 315 1 316 1 346 1 351 1 387 1 394 1 400 1 407 1 411 1 413 1 432 1 434 1 437 1 459 1 501 1 509 1 542 1 574 1 640 1 662 1 680 1 707 1 729 1 734 1 759 1 773 1 794 1 813 1 831 1 837 1 875 1 879 1 880 1 883 1 902 1 915 1 921 1 955 1 957 1 964 1 997 1 164 1 165 1 190 1 191 1 285 1 311 1 358 1 359 1 368 1 385 1 393 1 414 1 423 1 430 1 477 1 495 1 506 1 545 1 582 1 586 1 589 1 593 1 607 1 632 1 656 1 657 1 669 1 673 1 681 1 691 1 700 1 757 1 758 1 767 1 768 1 787 1 800 1 827 1 832 1 865 1 869 1 873 1 878 1 927 1 947 1 972 1 991 1 1008 1 1019 1 
1 212 9 1 14 1 24 1 81 1 87 1 92 1 116 1 122 1 146 1 28 1 33 1 49 1 59 1 93 1 94 1 103 1 148 1 152 1 158 1 190 1 224 1 235 1 254 1 268 1 300 1 333 1 340 1 371 1 436 1 446 1 506 1 521 1 540 1 554 1 556 1 558 1 598 1 608 1 612 1 615 1 626 2 631 2 635 1 661 1 683 2 689 1 692 1 793 1 798 1 800 1 814 1 827 1 831 1 834 1 841 1 895 1 906 1 912 1 930 1 942 1 951 1 954 1 962 2 964 1 980 1 983 1 159 1 166 1 169 1 193 1 221 1 253 1 271 1 280 1 284 1 295 1 298 1 304 1 326 1 327 1 329 1 345 1 376 1 379 1 387 1 402 1 423 1 429 1 431 1 451 1 452 1 457 1 462 1 463 1 488 1 518 1 525 1 544 1 597 1 613 1 677 1 696 1 730 1 737 1 756 1 801 1 893 1 900 1 923 1 997 1 998 1 1026 1 
1 210 12 1 33 1 47 1 60 1 65 1 69 1 89 1 121 1 122 1 142 1 157 1 3 1 36 1 48 1 53 1 82 1 85 1 93 1 94 1 97 1 110 1 113 1 141 1 146 1 148 1 178 1 215 1 242 1 275 1 282 1 294 1 324 1 329 1 358 1 386 1 436 1 456 1 486 1 508 1 521 1 532 1 578 1 611 2 648 1 658 1 664 2 700 1 707 1 736 1 790 1 820 1 825 1 833 1 910 1 914 1 917 1 922 2 924 1 928 2 936 1 952 1 994 1 996 1 183 1 205 1 226 1 232 1 244 1 245 1 273 1 277 1 278 1 299 1 342 1 357 1 359 1 374 1 378 1 413 1 416 1 417 1 418 1 420 1 435 1 449 1 454 1 468 1 480 1 507 1 526 1 539 1 573 1 579 1 587 1 592 1 604 1 605 1 627 1 635 1 639 1 672 1 702 1 715 1 725 1 754 1 800 1 806 1 846 1 857 1 893 1 981 1 982 1 988 1 991 1 993 1 1010 1 1011 1 1023 1 1027 1 
1 203 11 1 35 1 65 1 72 1 73 1 43 1 47 1 49 1 135 1 138 1 142 1 157 1 165 1 174 1 195 1 203 1 266 1 268 1 278 1 285 1 290 1 320 1 335 1 361 1 368 1 369 1 386 1 406 1 412 1 422 1 423 1 424 1 425 1 428 1 460 1 467 1 479 1 506 1 510 1 515 1 521 1 545 1 547 1 558 1 566 1 584 1 595 1 601 1 650 1 651 1 659 1 665 1 669 1 675 2 683 1 697 1 704 1 712 1 714 1 737 2 744 1 793 1 812 1 821 1 839 1 857 1 877 1 909 1 914 1 967 1 974 1 977 1 980 1 982 1 169 1 180 1 186 1 220 1 231 1 252 1 260 1 269 1 443 1 519 1 534 1 538 1 572 1 596 1 618 1 633 1 642 1 657 1 662 1 696 1 709 1 716 1 721 1 740 1 755 1 756 1 764 1 772 1 779 1 781 1 819 1 870 1 903 1 930 1 945 1 
1 213 1 1 11 1 34 1 41 1 59 1 65 1 70 2 78 1 115 1 127 1 142 1 27 1 57 1 74 1 75 1 76 1 126 1 139 1 193 1 219 1 220 1 223 1 225 1 229 2 256 1 257 1 285 1 286 1 296 1 299 1 357 1 406 1 424 1 433 1 446 1 462 1 471 2 477 1 482 1 484 1 491 1 525 1 558 1 560 1 563 1 569 1 577 1 583 1 613 1 651 1 662 1 666 1 709 1 718 1 730 2 731 2 742 1 744 1 769 1 812 1 855 1 856 1 857 1 874 1 913 1 931 1 932 1 963 1 976 1 990 1 173 1 196 1 226 1 230 1 248 1 276 1 278 1 287 1 290 1 298 1 312 1 350 1 361 1 367 1 388 1 397 1 401 1 436 1 455 1 466 1 470 1 476 1 517 1 559 1 646 1 653 1 676 1 693 1 741 1 746 1 748 1 772 1 779 1 796 1 806 1 809 1 827 1 831 1 873 1 887 1 939 1 954 1 991 1 1004 1 1011 1 1020 1 
1 208 4 1 37 1 52 1 61 2 63 1 85 1 99 1 132 1 22 1 39 1 46 1 50 1 93 1 139 1 150 1 175 2 206 1 225 1 239 1 243 1 250 1 252 1 283 1 286 1 301 1 326 1 328 1 339 1 385 1 410 1 413 1 417 2 429 1 454 1 471 1 482 1 489 1 544 1 551 1 607 1 612 1 633 1 666 1 671 1 675 1 696 1 698 1 713 1 750 1 762 1 766 1 796 1 806 1 818 1 826 1 834 1 877 1 890 1 904 1 921 1 925 1 986 1 990 1 996 1 165 1 178 1 179 1 237 1 240 1 247 1 269 1 296 1 313 1 334 1 338 1 349 1 361 1 363 1 379 1 383 1 408 1 412 1 414 1 415 1 439 1 466 1 504 1 508 1 579 1 586 1 587 1 597 1 599 1 602 1 613 1 622 1 628 1 652 1 777 1 804 1 809 1 820 1 827 1 837 1 862 1 891 1 928 1 992 1 994 1 1017 1 1019 1 1021 1 
1 214 7 1 8 1 16 1 52 1 53 1 68 2 76 1 109 1 123 1 155 1 13 1 18 1 19 1 21 1 29 1 32 1 54 1 63 1 81 1 124 1 141 1 165 1 188 1 195 1 250 1 278 1 320 1 363 1 426 1 427 1 441 1 481 1 488 1 508 1 509 1 525 1 560 1 582 1 599 2 605 1 667 1 683 1 694 1 739 1 748 1 778 1 808 1 811 1 828 1 838 1 868 1 878 1 879 1 888 1 896 1 910 1 920 2 978 1 987 1 174 1 177 1 218 1 263 1 272 1 298 1 310 1 322 1 338 1 354 1 387 1 399 1 402 1 403 1 433 1 435 1 454 1 467 1 507 1 521 1 576 1 581 1 602 1 613 1 626 1 627 1 682 1 693 1 697 1 711 1 721 1 731 1 758 1 772 1 773 1 777 1 779 1 806 1 820 1 822 1 833 1 835 1 842 1 882 1 898 1 899 1 903 1 944 1 1019 1 
1 210 41 1 60 1 76 1 90 1 94 1 110 1 116 1 123 1 143 1 3 1 11 1 14 1 57 1 79 1 82 1 91 1 102 1 119 1 136 1 145 1 164 1 168 1 213 2 259 1 281 1 301 1 318 1 328 1 338 1 343 1 355 1 377 1 398 1 439 1 440 1 448 1 469 1 482 1 483 1 494 1 496 1 532 1 540 1 554 1 555 1 557 1 574 1 578 1 591 1 601 1 620 1 660 1 667 1 681 1 700 1 733 1 753 1 760 1 782 1 786 1 790 1 792 1 807 1 812 1 832 1 835 1 838 1 856 1 869 1 879 1 906 1 921 1 929 1 937 1 972 1 983 1 997 1 998 1 185 1 193 1 210 1 223 1 229 1 250 1 255 1 288 1 296 1 306 1 334 1 367 1 385 1 388 1 391 1 399 1 402 1 476 1 484 1 527 1 551 1 575 1 604 1 608 1 663 1 673 1 709 1 736 1 741 1 745 1 765 1 801 1 816 1 852 1 872 1 878 1 882 1 892 1 939 1 953 1 970 1 976 1 982 1 989 1 1011 1 1017 1 1018 1 
1 206 11 1 48 1 55 1 72 1 76 1 101 1 129 1 135 1 144 1 145 1 147 1 163 1 38 1 82 1 87 1 88 1 97 1 143 1 151 1 156 1 166 1 174 2 179 1 191 1 236 1 247 1 261 1 300 1 301 1 325 1 336 1 380 2 385 1 388 1 407 1 411 1 419 1 426 1 448 1 459 1 492 1 493 1 496 1 508 2 545 1 573 1 597 1 611 1 617 1 635 1 654 1 673 1 684 1 688 1 694 1 695 1 704 1 747 1 751 2 756 1 767 1 788 1 797 1 805 1 813 1 831 1 846 1 863 1 879 1 881 1 903 1 928 1 930 1 953 1 957 1 972 1 187 1 231 1 232 1 322 1 344 1 352 1 378 1 381 1 434 1 437 1 452 1 454 1 460 1 477 1 491 1 590 1 621 1 626 1 629 1 639 1 648 1 701 1 758 1 763 1 808 1 883 1 890 1 924 1 979 1 999 1 1000 1 1015 1 1022 1 
1 211 15 1 24 1 38 1 61 1 64 1 70 1 71 1 84 1 159 1 162 1 43 1 57 1 60 1 72 1 75 1 76 1 95 1 101 1 103 1 144 1 156 1 161 1 181 1 217 1 282 2 285 1 329 1 350 1 364 1 380 1 397 1 398 1 402 1 407 1 433 2 437 1 440 1 449 1 456 1 472 1 477 1 489 1 577 1 583 1 593 2 594 1 614 1 621 1 627 1 637 1 674 1 714 1 726 1 727 1 744 1 768 1 789 1 796 1 798 1 803 1 819 1 841 1 850 1 857 1 899 1 916 2 929 1 935 1 996 1 180 1 205 1 231 1 261 1 267 1 273 1 276 1 278 1 281 1 284 1 292 1 301 1 323 1 334 1 349 1 367 1 371 1 374 1 375 1 377 1 466 1 484 1 501 1 513 1 529 1 536 1 568 1 599 1 622 1 623 1 626 1 659 1 693 1 804 1 837 1 845 1 846 1 873 1 880 1 884 1 894 1 898 1 907 1 930 1 936 1 985 1 1005 1 1006 1 1015 1 
1 208 23 1 31 1 41 1 76 1 78 1 83 1 86 1 95 1 123 1 155 1 164 1 10 1 13 1 14 1 15 1 38 1 52 1 111 1 113 1 137 1 138 1 150 1 157 1 201 1 202 1 207 1 249 1 291 1 303 1 308 1 314 1 319 2 326 1 356 1 357 1 361 1 421 1 424 1 453 2 477 1 478 1 479 1 509 1 519 1 534 2 536 1 556 1 561 1 599 1 601 1 605 1 611 1 613 1 649 1 662 1 663 1 679 1 683 1 711 1 716 1 738 1 747 1 796 1 813 1 833 1 882 1 918 1 962 1 973 1 980 1 185 1 196 1 208 1 224 1 242 1 259 1 281 1 285 1 305 1 321 1 340 1 341 1 408 1 437 1 449 1 481 1 495 1 502 1 553 1 566 1 571 1 576 1 591 1 667 1 675 1 682 1 703 1 748 1 758 1 769 1 771 1 781 1 811 1 825 1 836 1 845 1 895 1 899 1 907 1 978 1 1004 1 1012 1 1027 1 
1 208 26 1 44 2 45 1 82 1 111 1 117 1 137 1 145 1 152 1 23 1 30 1 46 1 98 1 106 1 121 1 127 1 134 1 142 1 169 1 179 1 198 1 214 1 226 2 228 1 238 1 271 1 282 1 287 1 298 1 304 1 373 1 386 1 396 1 411 1 432 1 436 1 449 1 522 1 572 1 580 1 597 1 654 1 686 1 753 1 760 1 768 1 812 1 829 1 845 1 846 1 854 1 858 1 889 1 915 1 977 1 184 1 194 1 215 1 219 1 222 1 246 1 251 1 267 1 276 1 326 1 415 1 418 1 440 1 448 1 454 1 477 1 501 1 502 1 506 1 514 1 521 1 550 1 551 1 569 1 578 1 600 1 607 1 645 1 651 1 713 1 741 1 772 1 782 1 793 1 807 1 824 1 826 1 831 1 832 1 861 1 908 1 929 1 962 1 972 1 992 1 1012 1 1014 1 1015 1 1020 1 1025 1 
1 206 20 1 39 1 40 1 57 1 74 1 76 1 78 1 96 1 98 1 107 1 111 1 146 1 163 1 66 1 73 1 95 1 100 1 185 1 189 1 209 1 214 1 224 1 228 1 231 1 253 1 267 1 289 1 295 1 322 1 324 1 346 1 367 1 368 1 388 1 452 1 461 1 467 1 497 1 556 1 592 1 621 1 665 1 666 1 675 1 707 2 718 2 720 1 723 1 764 1 779 1 797 1 800 1 824 1 875 1 891 1 920 1 931 1 937 1 943 1 950 1 989 2 994 1 215 1 266 1 293 1 306 1 308 1 349 1 354 1 385 1 391 1 396 1 412 1 421 1 429 1 453 1 455 1 462 1 483 1 534 1 564 1 590 1 599 1 607 1 618 1 631 1 645 1 684 1 685 1 706 1 726 1 743 1 781 1 794 1 804 1 834 1 837 1 850 1 897 1 915 1 935 1 955 1 962 1 968 1 1002 1 1014 1 1025 1 
1 210 29 1 80 1 101 1 108 1 113 1 136 1 144 1 149 1 152 1 167 1 2 1 15 1 16 1 32 1 35 1 46 1 63 1 69 1 78 1 157 1 159 1 176 1 177 1 181 1 200 1 202 1 209 1 214 1 222 1 228 1 283 1 290 1 296 1 331 1 368 1 373 1 382 1 396 1 465 1 500 1 510 1 517 1 552 2 558 1 577 1 593 1 598 1 607 2 641 1 694 1 703 1 744 1 750 1 753 1 762 1 779 1 817 1 832 1 837 2 855 1 860 1 862 1 878 1 888 1 895 1 897 1 925 1 983 1 219 1 288 1 292 1 314 1 319 1 329 1 378 1 513 1 514 1 516 1 520 1 535 1 564 1 579 1 589 1 597 1 656 1 661 1 671 1 686 1 692 1 702 1 721 1 737 1 738 1 742 1 801 1 831 1 849 1 850 1 864 1 866 1 881 1 884 1 932 1 959 1 974 1 978 1 1012 1 1024 1 1025 1 
1 212 19 1 37 1 40 1 42 1 60 1 96 1 108 1 151 1 6 1 7 1 29 1 79 1 83 1 90 1 119 1 185 1 207 1 225 1 241 1 254 1 255 1 257 2 354 1 358 1 400 1 417 1 489 1 491 2 500 1 521 1 534 1 551 1 553 1 561 1 566 1 584 1 598 1 611 1 626 1 652 1 663 1 746 1 756 2 775 1 789 1 795 1 802 1 835 1 838 1 858 1 881 1 883 1 889 1 893 1 903 2 928 1 951 2 998 1 186 1 193 1 235 1 243 1 262 1 277 1 279 1 285 1 291 1 299 1 346 1 406 1 419 1 424 1 445 1 461 1 470 1 475 1 513 1 549 1 576 1 578 1 582 1 601 1 624 1 634 1 644 1 702 1 734 1 755 1 766 1 790 1 808 1 853 1 895 1 906 1 916 1 920 1 976 1 989 1 1005 1 1007 1 1013 1 1016 1 1021 1 1022 1 
1 208 9 1 30 1 38 1 41 1 70 1 72 1 81 1 90 1 97 1 107 1 109 1 155 1 21 1 22 1 24 1 28 1 69 1 84 1 140 1 149 1 182 1 248 1 254 1 262 1 283 1 290 1 296 1 355 1 356 1 359 1 363 1 405 1 406 2 408 1 447 1 452 1 464 1 481 1 484 1 496 2 511 1 599 1 603 1 610 1 616 1 620 1 631 1 658 1 692 1 753 1 764 1 809 1 816 1 819 1 823 1 852 1 877 1 912 1 922 2 926 1 934 1 942 1 947 1 976 1 991 1 996 1 185 1 192 1 196 1 202 1 204 1 213 1 217 1 233 1 252 1 259 1 268 1 270 1 315 1 338 1 340 1 342 1 465 1 475 1 515 1 530 1 576 1 595 1 615 1 642 1 644 1 671 1 683 1 708 1 722 1 785 1 787 1 800 1 806 1 812 1 813 1 836 1 851 1 902 1 925 1 933 1 960 1 965 1 981 1 984 1 988 1 1001 1 1003 1 1013 1 1015 1 1019 1 1027 1 
1 211 20 1 26 1 28 1 58 1 77 2 90 1 104 1 141 1 151 1 152 1 31 1 72 1 82 1 94 1 98 1 112 1 125 1 206 1 256 1 258 1 271 1 279 1 294 2 330 1 336 1 348 1 357 1 366 1 368 1 382 2 383 1 398 1 435 1 446 1 456 1 522 1 533 1 566 1 585 1 590 1 614 1 642 1 657 1 658 1 694 1 702 1 757 1 767 1 803 1 812 2 836 1 849 1 882 1 895 1 919 1 921 1 974 1 975 1 979 1 988 1 996 1 199 1 217 1 224 1 226 1 227 1 264 1 289 1 296 1 326 1 338 1 362 1 394 1 405 1 415 1 427 1 463 1 466 1 496 1 546 1 560 1 564 1 579 1 601 1 607 1 627 1 669 1 678 1 684 1 689 1 707 1 733 1 746 1 782 1 800 1 834 1 861 1 866 1 868 1 885 1 894 1 924 1 940 1 945 1 952 1 1004 1 1015 1 1016 1 1018 1 1021 1 
1 212 18 1 34 1 35 1 92 1 99 1 103 1 105 1 139 1 29 1 40 1 46 1 106 1 109 1 111 1 149 1 160 1 182 1 201 1 216 1 217 1 238 1 241 1 255 1 269 1 305 1 323 1 328 1 333 1 358 1 388 1 390 1 434 1 466 1 467 1 481 1 522 1 553 1 568 1 575 1 637 1 652 1 656 2 670 1 672 1 673 1 674 1 676 1 725 2 752 1 759 1 761 1 780 1 802 1 804 1 809 1 840 1 842 1 849 1 871 1 879 2 927 2 929 1 936 1 938 1 951 1 956 1 237 1 264 1 271 1 326 1 342 1 367 1 416 1 441 1 465 1 471 1 482 1 483 1 489 1 509 1 512 1 524 1 527 1 579 1 598 1 624 1 631 1 641 1 647 1 662 1 691 1 714 1 717 1 720 1 732 1 739 1 770 1 785 1 811 1 812 1 847 1 902 1 964 1 991 1 1000 1 1003 1 1004 1 1017 1 1026 1 
1 210 6 1 9 1 21 1 26 1 28 1 50 1 56 2 76 1 82 1 118 1 129 1 151 1 159 1 164 2 35 1 66 1 87 1 114 1 125 1 128 1 133 1 152 1 162 1 174 1 174 1 209 1 216 1 226 1 240 1 284 1 305 1 306 1 314 1 370 1 384 1 388 1 402 1 415 1 419 1 443 1 447 1 462 2 479 1 491 1 503 1 507 1 532 1 536 1 548 1 603 1 606 1 650 2 668 2 730 1 740 1 743 1 750 1 754 1 762 1 771 1 864 1 878 1 895 1 905 1 919 1 942 1 946 1 973 2 980 1 181 1 195 1 238 1 248 1 274 1 278 1 281 1 295 1 385 1 405 1 427 1 442 1 449 1 450 1 453 1 464 1 486 1 516 1 550 1 558 1 564 1 599 1 601 1 609 1 648 1 681 1 683 1 688 1 759 1 795 1 796 1 811 1 836 1 843 1 890 1 932 1 934 1 971 1 999 1 1014 1 1021 1 1026 1 
1 210 4 1 14 1 90 1 129 1 161 2 17 1 22 1 24 1 67 1 68 1 70 1 73 1 83 1 85 1 95 1 104 1 194 1 209 1 216 1 225 1 235 1 249 1 263 1 287 1 295 1 305 2 314 1 337 1 342 1 376 1 429 1 472 2 473 1 499 1 529 1 550 1 571 1 574 1 579 1 580 1 581 1 597 2 599 1 602 1 611 1 626 1 634 1 641 1 648 1 663 1 666 1 669 1 683 1 699 1 756 1 761 1 766 1 772 2 773 1 775 1 804 1 928 1 985 1 179 1 188 1 195 1 215 1 217 1 236 1 239 1 251 1 252 1 284 1 323 1 338 1 339 1 411 1 417 1 423 1 454 1 469 1 489 1 492 1 498 1 502 1 518 1 526 1 528 1 535 1 546 1 553 1 589 1 606 1 615 1 627 1 680 1 687 1 703 1 708 1 726 1 746 1 767 1 838 1 842 1 851 1 852 1 857 1 908 1 912 1 915 1 946 1 950 1 957 1 976 1 983 1 987 1 996 1 1002 1 1014 1 1016 1 1017 1 1022 1 
1 210 3 1 8 1 25 1 56 1 69 1 94 2 102 1 110 2 133 1 145 1 169 1 28 1 54 1 67 1 68 1 77 1 79 1 91 1 101 1 104 1 125 1 186 1 200 1 203 2 249 1 266 1 287 1 374 1 382 1 429 1 439 1 442 1 452 1 468 1 486 1 516 1 543 1 556 1 567 1 588 2 612 1 643 1 652 2 700 1 702 1 722 1 734 1 770 1 780 1 781 1 786 1 843 1 854 2 860 1 863 1 902 1 948 1 951 1 970 1 978 1 184 1 193 1 212 1 228 1 231 1 238 1 273 1 279 1 328 1 352 1 356 1 368 1 370 1 390 1 432 1 453 1 457 1 523 1 539 1 540 1 568 1 664 1 665 1 668 1 671 1 672 1 674 1 688 1 716 1 721 1 727 1 747 1 787 1 865 1 867 1 878 1 898 1 953 1 964 1 972 1 984 1 985 1 992 1 1016 1 1022 1 
1 213 39 1 59 1 79 1 84 1 94 1 96 1 120 1 139 2 169 1 72 1 85 1 127 1 138 1 141 1 144 1 162 1 190 1 222 1 259 1 273 1 296 1 299 1 304 1 306 1 310 1 318 1 337 1 342 1 352 1 375 1 388 1 408 1 432 1 446 1 483 2 486 1 537 1 603 2 631 1 632 1 646 1 655 1 670 1 675 1 676 1 684 1 705 1 709 1 729 1 745 1 748 1 766 1 773 1 839 1 881 1 887 1 915 1 934 2 994 1 1001 1 179 1 191 1 201 1 287 1 315 1 347 1 393 1 399 1 426 1 439 1 453 1 482 1 500 1 516 1 526 1 547 1 549 1 551 1 578 1 591 1 592 1 609 1 616 1 642 1 666 1 669 1 672 1 687 1 738 1 744 1 762 1 917 1 976 1 977 1 1012 1 1025 1 
1 205 19 1 61 1 71 1 77 1 94 1 124 1 133 1 158 1 9 1 12 1 17 1 44 1 54 1 85 1 108 1 115 1 141 1 161 1 199 1 222 1 251 1 253 1 326 1 347 1 359 1 371 1 394 1 408 1 420 1 422 1 461 1 465 1 489 1 491 1 554 1 557 1 576 2 594 1 624 1 628 1 673 1 675 1 676 1 678 1 690 1 691 1 705 1 764 1 767 1 768 1 769 1 787 1 788 1 830 2 849 1 852 2 870 1 931 1 957 1 966 2 992 1 995 1 182 1 187 1 189 1 193 1 219 1 227 1 250 1 271 1 283 1 284 1 305 1 393 1 413 1 423 1 505 1 512 1 520 1 527 1 568 1 571 1 603 1 614 1 633 1 639 1 650 1 651 1 680 1 695 1 709 1 718 1 738 1 740 1 750 1 828 1 840 1 873 1 885 1 894 1 907 1 908 1 917 1 951 1 993 1 1005 1 
1 212 5 1 8 1 20 2 64 1 68 1 91 1 96 1 99 1 123 1 125 1 164 1 167 1 26 1 27 1 44 1 100 1 141 1 145 1 161 1 175 1 177 1 182 1 192 1 217 1 219 1 260 1 264 1 291 1 306 1 308 1 333 1 339 1 360 1 437 2 451 1 455 1 456 2 472 1 477 1 483 1 513 1 552 1 591 1 617 1 630 1 650 1 736 1 748 1 836 1 840 1 842 1 869 2 885 1 887 1 896 1 899 1 914 1 920 1 947 1 976 1 987 1 998 1 1000 1 200 1 209 1 240 1 247 1 248 1 257 1 278 1 344 1 366 1 367 1 375 1 388 1 406 1 425 1 431 1 444 1 454 1 460 1 467 1 484 1 526 1 536 1 555 1 576 1 589 1 633 1 636 1 643 1 658 1 659 1 687 1 724 1 739 1 754 1 757 1 766 1 770 1 798 1 814 1 832 1 849 1 881 1 908 1 923 1 926 1 928 1 1007 1 1013 1 1014 1 1025 1 
1 211 10 1 13 1 34 1 41 1 77 1 109 1 118 1 6 1 30 1 35 1 38 1 45 1 47 1 52 1 69 1 86 1 159 1 165 1 194 1 213 1 236 1 249 1 260 1 283 1 289 1 293 1 331 1 338 1 343 1 351 1 399 1 409 1 432 1 436 1 496 1 506 1 515 1 572 1 577 1 590 1 606 2 635 1 649 1 701 1 763 1 768 1 783 1 840 1 841 1 848 1 870 1 872 1 921 1 922 1 943 1 953 1 961 1 983 2 992 1 993 1 192 1 193 1 196 1 218 1 219 1 225 1 245 1 301 1 315 1 336 1 337 1 370 1 375 1 385 1 429 1 431 1 467 1 481 1 484 1 499 1 507 1 569 1 578 1 585 1 607 1 620 1 671 1 672 1 680 1 683 1 686 1 736 1 756 1 761 1 771 1 772 1 802 1 825 1 826 1 827 1 832 1 849 1 852 1 873 1 877 1 931 1 944 1 978 1 979 1 987 1 995 1 1010 1 1012 1 1026 1 
1 207 18 1 20 1 22 1 29 1 77 1 79 1 86 1 92 1 113 1 133 1 153 1 165 1 169 1 30 1 31 1 33 1 61 1 74 1 85 1 87 1 105 1 106 1 119 1 122 1 155 1 174 1 182 1 217 1 221 1 226 1 244 1 256 1 287 1 290 1 302 1 333 1 356 1 360 1 388 1 397 1 398 1 445 1 454 1 467 1 470 1 476 1 487 1 493 1 526 1 572 1 586 1 596 1 609 1 611 1 661 1 691 1 694 1 711 2 716 1 717 1 736 2 745 1 757 1 768 1 779 1 780 1 798 1 801 1 804 1 818 1 836 1 856 1 888 1 891 1 893 1 899 1 909 1 924 1 944 1 959 1 963 1 971 1 981 1 196 1 200 1 222 1 238 1 263 1 296 1 303 1 323 1 325 1 373 1 390 1 399 1 405 1 406 1 413 1 433 1 466 1 471 1 484 1 496 1 525 1 539 1 553 1 576 1 607 1 610 1 623 1 627 1 637 1 652 1 658 1 667 1 677 1 687 1 698 1 707 1 724 1 824 1 840 1 862 1 898 1 923 1 969 1 997 1 1012 1 1023 1 1027 1 
1 205 44 1 55 1 102 1 123 1 137 2 148 1 171 1 173 1 179 1 181 1 24 1 32 1 63 1 64 1 69 1 80 1 83 1 109 1 121 1 178 1 201 1 211 1 212 1 217 1 239 1 246 1 269 1 302 1 313 1 320 1 363 1 369 1 370 1 388 1 391 1 421 1 429 1 451 1 458 1 465 1 473 1 489 1 502 1 509 1 536 1 553 1 554 1 558 1 561 1 564 1 584 1 585 1 605 2 648 1 657 1 658 1 697 1 757 1 758 1 759 1 763 1 782 1 788 1 811 1 815 1 823 1 836 1 861 1 882 1 912 2 982 1 190 1 226 1 240 1 241 1 275 1 297 1 316 1 326 1 330 1 349 1 381 1 407 1 414 1 430 1 470 1 496 1 504 1 523 1 530 1 535 1 627 1 637 1 638 1 671 1 696 1 702 1 708 1 710 1 719 1 720 1 741 1 748 1 754 1 840 1 845 1 866 1 874 1 900 1 927 1 951 1 
1 211 37 1 46 1 59 2 62 1 73 2 103 1 119 2 140 1 142 1 152 1 23 1 58 1 86 1 136 1 141 1 154 1 158 1 184 1 185 1 192 1 205 1 207 1 218 1 236 2 242 1 266 1 279 1 287 1 288 1 289 1 290 1 300 1 319 1 321 1 330 1 335 1 339 1 376 1 383 1 426 1 432 1 481 1 502 1 514 1 523 1 544 1 574 1 580 1 583 2 591 1 622 1 631 1 633 1 652 1 661 1 698 1 710 1 722 2 723 1 742 1 770 1 777 1 783 1 786 1 812 1 820 1 836 1 838 1 839 1 887 1 903 1 904 1 914 1 976 1 987 1 988 1 225 1 253 1 262 1 267 1 278 1 283 1 285 1 303 1 310 1 332 1 360 1 366 1 401 1 463 1 464 1 496 1 519 1 524 1 560 1 601 1 611 1 619 1 643 1 712 1 719 1 721 1 726 1 736 1 754 1 772 1 779 1 787 1 788 1 806 1 830 1 847 1 867 1 886 1 911 1 913 1 937 1 945 1 991 1 1007 1 1008 1 1018 1 1027 1 
1 212 15 1 77 1 106 1 130 1 183 1 5 1 35 1 56 1 60 1 64 1 78 1 86 1 123 1 167 1 176 1 187 1 220 1 226 1 230 1 238 1 241 1 275 1 310 1 335 1 346 1 357 1 362 1 387 1 394 1 415 1 447 1 456 1 461 1 463 1 467 1 477 1 509 1 545 2 558 1 595 1 650 1 666 1 669 1 689 1 690 1 710 1 742 1 752 1 765 1 778 1 791 1 829 1 833 1 848 1 876 1 880 1 893 1 896 1 975 1 977 1 994 1 192 1 193 1 263 1 315 1 317 1 321 1 336 1 353 1 360 1 363 1 373 1 385 1 386 1 388 1 393 1 410 1 439 1 451 1 457 1 472 1 476 1 484 1 492 1 576 1 577 1 579 1 583 1 620 1 638 1 645 1 649 1 651 1 657 1 671 1 712 1 727 1 728 1 732 1 757 1 771 1 787 1 797 1 914 1 936 1 951 1 968 1 981 1 1006 1 1015 1 
1 206 38 1 42 1 54 1 64 1 76 1 115 1 168 1 170 1 183 1 5 1 8 1 29 1 47 1 51 1 55 1 88 1 90 1 101 1 102 1 139 1 163 1 166 1 171 1 187 1 200 1 213 2 218 1 259 1 284 1 297 1 325 1 335 1 368 1 384 1 419 1 421 2 427 1 428 2 447 1 448 1 479 1 494 2 497 1 538 1 545 1 547 1 551 1 552 1 557 1 573 1 599 1 649 1 653 1 681 1 742 1 753 1 754 2 765 1 778 1 787 1 791 1 812 1 815 1 819 2 835 1 850 1 851 1 869 1 880 1 889 2 897 1 909 1 912 1 916 2 928 1 930 1 957 1 975 1 983 1 212 1 237 1 240 1 246 1 261 1 266 1 280 1 294 1 304 1 309 1 313 1 341 1 412 1 438 1 449 1 489 1 496 1 502 1 537 1 543 1 554 1 572 1 600 1 642 1 646 1 659 1 698 1 712 1 760 1 771 1 777 1 779 1 821 1 829 1 857 1 877 1 984 1 999 1 
1 211 32 1 35 2 49 1 54 1 66 1 71 1 72 1 91 1 112 1 132 1 140 1 150 1 176 1 6 1 11 1 18 1 25 1 67 1 74 1 82 1 88 1 93 1 94 1 101 1 113 1 114 1 122 1 138 1 159 1 170 1 243 2 244 1 315 1 325 1 326 2 339 1 343 1 356 1 362 1 376 1 393 1 394 2 400 1 409 1 434 1 437 1 465 1 474 1 475 1 518 1 521 1 563 1 575 1 588 1 655 1 666 1 681 1 736 1 773 1 810 1 818 1 825 1 884 1 885 1 928 1 961 1 968 1 1000 1 188 1 223 1 233 1 247 1 259 1 273 1 274 1 283 1 285 1 354 1 359 1 368 1 405 1 430 1 433 1 442 1 447 1 460 1 466 1 470 1 488 1 498 1 503 1 556 1 568 1 573 1 582 1 595 1 599 1 604 1 622 1 624 1 639 1 658 1 660 1 680 1 694 1 695 1 735 1 743 1 754 1 772 1 800 1 813 1 862 1 876 1 882 1 892 1 903 1 920 1 923 1 950 1 954 1 962 1 966 1 972 1 977 1 988 1 1004 1 1009 1 1010 1 1020 1 
1 205 2 1 9 1 20 1 29 1 31 2 59 1 63 1 65 1 71 1 117 1 148 1 184 1 185 1 17 1 34 1 42 1 48 1 51 1 52 1 88 1 133 1 164 1 178 1 216 1 243 1 252 1 330 1 334 1 376 1 378 1 408 1 411 1 417 1 434 1 442 1 452 1 470 1 481 1 482 1 489 1 509 1 539 1 541 1 579 2 583 1 590 1 604 1 605 1 644 1 652 1 659 1 699 1 714 1 718 1 720 1 738 1 755 1 770 1 802 1 812 1 813 1 860 1 865 1 899 1 920 1 921 1 953 1 967 1 991 1 995 1 224 1 235 1 250 1 291 1 312 1 313 1 328 1 391 1 407 1 418 1 435 1 449 1 450 1 462 1 479 1 560 1 571 1 619 1 649 1 674 1 681 1 684 1 691 1 715 1 724 1 753 1 762 1 784 1 791 1 846 1 850 1 855 1 859 1 888 1 892 1 937 1 942 1 962 1 976 1 1015 1 
1 207 8 1 33 1 49 1 63 1 97 2 122 2 162 1 5 1 20 1 46 1 101 1 110 1 119 1 121 1 136 1 142 1 146 1 175 1 186 1 195 1 224 1 226 1 227 1 246 1 289 2 291 1 297 1 326 1 329 1 337 1 382 1 391 1 413 2 417 1 435 1 459 1 495 1 500 1 523 1 558 1 572 1 605 1 609 1 637 1 658 2 674 1 681 1 702 1 736 1 752 1 764 1 766 1 806 1 813 1 852 1 857 1 890 1 919 1 921 1 946 1 947 1 949 1 954 1 963 2 978 1 213 1 216 1 243 1 244 1 292 1 316 1 322 1 331 1 340 1 379 1 380 1 398 1 401 1 429 1 452 1 512 1 535 1 566 1 600 1 619 1 626 1 634 1 686 1 697 1 704 1 708 1 731 1 743 1 747 1 792 1 811 1 822 1 824 1 855 1 948 1 1018 1 
1 212 57 1 91 1 122 1 131 1 154 1 168 1 2 1 4 1 20 1 34 1 39 1 51 1 53 1 106 1 117 1 141 1 178 1 207 1 249 1 259 2 261 1 274 1 293 1 350 1 404 1 408 1 418 1 419 1 432 1 434 1 447 1 459 1 508 1 511 1 524 1 548 1 551 1 565 1 566 1 587 1 597 1 608 1 616 2 623 1 638 1 644 1 659 1 669 1 672 1 705 1 758 1 801 1 806 1 807 1 815 1 829 1 863 1 874 1 878 1 890 1 893 1 894 1 899 1 904 2 910 1 961 1 977 1 986 1 991 1 191 1 198 1 265 1 269 1 275 1 286 1 291 1 302 1 304 1 305 1 328 1 338 1 355 1 395 1 421 1 424 1 426 1 468 1 516 1 526 1 573 1 598 1 609 1 664 1 671 1 686 1 720 1 721 1 759 1 771 1 794 1 843 1 870 1 888 1 902 1 908 1 943 1 990 1 995 1 1002 1 1008 1 1011 1 1014 1 1015 1 1019 1 1021 1 1025 1 1027 1 
1 212 5 1 11 1 12 1 48 1 54 1 136 1 137 1 157 1 177 1 1 1 26 1 41 1 66 1 94 1 110 1 130 1 139 1 156 1 182 1 230 1 237 1 269 2 279 1 303 2 327 1 379 1 395 1 403 1 468 1 471 1 488 1 492 1 498 1 533 1 542 1 544 1 593 2 598 1 658 1 672 1 674 2 680 1 763 1 769 1 773 1 783 1 784 1 798 1 799 1 800 1 817 1 822 1 843 1 865 1 872 1 918 2 927 1 944 1 966 1 234 1 259 1 271 1 277 1 314 1 318 1 329 1 350 1 353 1 357 1 406 1 436 1 446 1 484 1 510 1 568 1 573 1 576 1 601 1 619 1 632 1 647 1 673 1 712 1 713 1 715 1 724 1 729 1 730 1 747 1 748 1 761 1 782 1 804 1 813 1 829 1 839 1 848 1 866 1 920 1 929 1 936 1 996 1 997 1 999 1 1002 1 1007 1 1022 1 
1 213 45 1 47 1 48 1 51 1 54 1 56 1 61 1 71 1 87 1 113 1 120 1 135 1 147 1 152 1 164 1 50 1 58 1 128 1 156 1 177 1 189 1 231 2 280 1 297 1 345 1 352 1 356 1 421 1 424 1 431 1 432 1 434 1 445 1 467 1 477 1 506 1 518 1 521 1 538 2 616 1 619 1 622 1 676 1 680 1 700 1 704 1 713 1 718 1 720 1 725 1 727 1 737 2 751 1 757 1 785 1 806 1 823 1 824 1 833 1 862 1 921 1 922 1 923 1 924 1 926 2 927 1 943 1 196 1 223 1 227 1 246 1 247 1 261 1 277 1 285 1 342 1 364 1 377 1 392 1 402 1 403 1 409 1 439 1 454 1 461 1 545 1 547 1 551 1 565 1 594 1 598 1 655 1 657 1 684 1 722 1 733 1 734 1 735 1 758 1 827 1 830 1 840 1 873 1 880 1 894 1 911 1 947 1 989 1 990 1 1015 1 1019 1 1020 1 1026 1 
1 209 6 1 35 1 56 1 105 1 118 2 119 1 129 1 139 1 148 1 156 1 179 1 183 1 7 1 27 1 40 1 74 1 76 1 110 1 121 1 125 1 140 1 171 1 180 1 184 1 237 1 256 1 323 1 351 1 352 1 363 1 378 1 383 1 389 1 412 1 443 1 468 1 478 1 493 1 496 1 502 1 519 1 543 1 555 1 572 2 573 1 596 1 597 1 630 1 643 1 656 2 675 1 692 1 707 1 737 2 766 1 772 1 779 1 787 1 830 1 842 1 850 1 851 2 854 1 865 1 926 1 944 1 989 1 198 1 207 1 254 1 271 1 274 1 283 1 338 1 371 1 372 1 374 1 399 1 419 1 458 1 476 1 477 1 489 1 495 1 507 1 512 1 517 1 522 1 529 1 534 1 536 1 552 1 569 1 601 1 616 1 621 1 663 1 667 1 670 1 690 1 710 1 714 1 740 1 763 1 781 1 795 1 824 1 871 1 879 1 908 1 943 1 951 1 967 1 971 1 977 1 1013 1 1018 1 
1 211 7 1 13 1 20 1 31 1 32 1 44 1 57 1 60 1 68 1 104 1 130 1 131 1 138 1 160 1 5 1 11 1 94 1 122 1 124 1 133 1 157 1 163 1 170 1 176 1 178 1 180 1 184 1 201 1 230 1 257 1 265 1 304 1 318 1 332 1 339 2 362 1 363 1 417 1 423 1 424 1 454 1 459 1 461 1 475 1 483 1 488 1 506 1 514 1 518 1 523 1 536 1 558 1 601 1 605 1 607 2 624 1 648 1 664 1 716 2 718 1 749 1 751 1 754 1 762 1 769 1 808 1 835 1 851 1 888 1 895 1 919 1 987 1 991 1 214 1 237 1 249 1 261 1 267 1 270 1 276 1 277 1 281 1 282 1 307 1 311 1 407 1 421 1 431 1 446 1 473 1 511 1 533 1 548 1 576 1 610 1 625 1 633 1 643 1 659 1 670 1 687 1 705 1 746 1 756 1 774 1 778 1 794 1 826 1 829 1 833 1 839 1 873 1 913 1 921 1 937 1 943 1 964 1 971 1 977 1 1010 1 1021 1 1022 1 1027 1 
1 215 13 1 22 1 42 1 59 1 62 1 80 1 146 1 155 1 175 1 180 1 20 1 55 1 75 1 79 1 94 1 99 1 106 1 112 1 128 1 132 1 147 1 167 1 208 1 223 1 237 1 238 2 242 1 244 1 274 1 280 1 295 1 340 1 354 1 362 1 383 1 393 1 394 1 426 1 470 1 502 1 546 1 569 1 576 1 601 1 607 1 627 1 633 1 659 1 663 1 674 1 683 1 707 1 721 1 749 1 788 1 799 1 802 1 811 1 842 1 892 2 901 1 912 1 913 1 915 1 920 1 931 1 980 1 985 1 986 1 992 1 200 1 203 1 204 1 211 1 249 1 251 1 259 1 284 1 299 1 301 1 304 1 320 1 331 1 360 1 416 1 453 1 469 1 474 1 481 1 504 1 517 1 534 1 536 1 572 1 598 1 609 1 625 1 687 1 752 1 767 1 782 1 784 1 829 1 831 1 873 1 879 1 905 1 929 1 943 1 969 1 972 1 973 1 981 1 996 1 1012 1 1013 1 1014 1 1022 1 
1 214 2 1 12 1 15 1 39 1 48 1 65 1 74 1 78 1 80 2 127 1 159 1 162 1 188 1 47 1 63 1 92 1 94 1 98 1 111 1 134 1 151 1 174 1 175 1 198 1 233 1 237 1 251 1 265 1 282 1 324 1 337 1 345 2 374 1 404 1 405 1 406 1 461 1 473 1 504 1 505 1 521 1 553 2 585 1 590 1 605 1 620 1 631 1 660 1 702 1 728 1 730 1 733 1 747 1 779 1 783 2 795 1 797 1 806 1 807 1 843 1 879 1 891 1 907 1 914 1 937 1 946 1 228 1 281 1 285 1 355 1 379 1 403 1 419 1 423 1 441 1 463 1 474 1 497 1 518 1 525 1 602 1 608 1 612 1 617 1 621 1 628 1 658 1 689 1 718 1 722 1 723 1 785 1 793 1 811 1 819 1 839 1 861 1 864 1 887 1 930 1 938 1 948 1 950 1 959 1 972 1 984 1 1007 1 1008 1 1010 1 1017 1 1020 1 1025 1 1026 1 
1 209 21 1 29 1 38 1 41 1 51 1 72 1 73 1 102 1 123 1 127 1 143 1 149 1 5 1 17 1 23 1 32 1 34 1 46 1 61 1 70 1 87 1 121 1 129 1 135 1 151 1 160 1 166 1 171 1 180 1 181 1 191 1 227 1 230 1 233 1 241 2 257 1 276 1 285 1 351 2 373 1 395 1 455 1 462 1 474 1 493 2 498 1 508 1 523 1 530 1 532 1 536 1 537 1 547 1 551 1 570 1 589 1 611 1 624 1 639 1 663 1 684 2 692 1 698 1 700 1 724 1 745 1 753 1 761 1 767 1 770 2 793 1 834 1 840 2 843 1 877 1 890 1 897 1 905 1 912 1 913 1 948 1 951 1 969 1 975 1 986 1 229 1 294 1 302 1 308 1 316 1 343 1 365 1 381 1 385 1 406 1 411 1 426 1 468 1 490 1 492 1 503 1 520 1 585 1 614 1 621 1 632 1 635 1 702 1 722 1 752 1 754 1 774 1 784 1 821 1 845 1 857 1 874 1 923 1 926 1 940 1 970 1 981 1 1004 1 1014 1 1023 1 1025 1 
1 209 10 1 70 1 89 1 135 1 147 1 156 1 4 1 14 1 53 1 54 1 65 1 69 1 71 1 80 1 106 1 111 1 117 1 121 1 122 1 218 1 228 1 265 1 289 1 293 1 341 1 355 1 425 1 453 2 483 1 501 1 542 1 551 1 552 1 597 1 610 1 624 1 660 1 665 1 673 1 675 1 686 1 708 1 712 1 724 1 757 1 759 1 764 1 784 1 789 1 793 1 811 1 828 1 863 1 875 1 877 1 884 1 898 1 913 1 932 1 938 2 942 1 976 1 980 1 997 1 213 1 214 1 230 1 240 1 241 1 247 1 259 1 305 1 322 1 325 1 345 1 362 1 376 1 400 1 405 1 410 1 461 1 469 1 474 1 486 1 488 1 504 1 519 1 523 1 553 1 562 1 566 1 575 1 605 1 622 1 635 1 640 1 643 1 651 1 697 1 723 1 734 1 746 1 763 1 795 1 806 1 843 1 865 1 881 1 885 1 894 1 918 1 930 1 935 1 937 1 962 1 998 1 1003 1 1027 1 
1 210 13 1 61 1 66 1 93 1 99 1 108 1 119 1 167 1 195 1 2 1 18 1 22 1 42 1 45 1 59 1 71 1 89 1 106 1 129 1 136 1 189 1 192 1 201 1 203 1 234 1 244 1 267 1 304 1 306 1 308 1 346 1 347 1 350 1 354 1 361 2 362 2 365 1 373 1 377 1 383 2 435 1 446 1 450 1 456 1 458 2 461 1 470 1 480 1 485 1 537 1 547 1 567 1 573 1 595 1 631 1 637 1 638 1 645 1 668 1 685 2 699 1 725 1 733 1 763 2 765 1 770 1 822 1 848 1 849 2 851 1 875 2 879 1 896 1 911 1 919 1 934 1 984 1 208 1 218 1 226 1 238 1 262 1 268 1 271 1 301 1 331 1 345 1 349 1 355 1 360 1 366 1 463 1 512 1 536 1 548 1 556 1 569 1 589 1 597 1 599 1 623 1 669 1 692 1 701 1 742 1 759 1 787 1 794 1 813 1 816 1 836 1 837 1 840 1 870 1 914 1 915 1 953 1 954 1 957 1 958 1 978 1 987 1 1006 1 1011 1 1014 1 
1 207 21 1 26 1 28 1 39 1 51 1 63 1 81 1 85 1 88 1 112 1 113 1 133 1 145 2 148 1 155 1 178 1 5 1 18 1 57 1 62 1 67 1 84 1 94 1 114 1 126 1 128 1 130 1 139 1 172 1 205 1 211 1 230 1 232 1 254 1 256 1 280 1 283 1 322 1 357 1 362 1 381 1 424 1 426 1 430 1 445 1 447 1 489 1 509 1 522 1 525 1 526 1 569 1 657 1 667 1 677 1 697 1 701 1 710 1 716 1 721 1 789 1 804 1 807 1 813 1 814 1 854 1 859 1 864 1 876 1 879 1 897 2 930 1 969 1 234 1 249 1 267 1 269 1 284 1 300 1 339 1 353 1 355 1 361 1 403 1 417 1 429 1 448 1 497 1 513 1 514 1 529 1 570 1 572 1 575 1 604 1 614 1 680 1 686 1 705 1 760 1 765 1 794 1 805 1 823 1 827 1 838 1 847 1 860 1 887 1 888 1 935 1 942 1 966 1 987 1 1015 1 
1 215 11 2 64 1 75 1 77 1 94 1 139 1 169 1 176 1 185 1 32 1 49 1 83 1 92 1 99 1 151 1 179 1 181 1 194 1 209 1 211 1 237 1 238 1 241 1 248 1 250 1 255 1 259 1 267 1 271 1 381 1 390 1 398 1 409 1 412 1 429 1 439 1 450 2 469 1 482 1 505 1 537 1 543 1 552 2 561 1 565 1 569 1 603 1 624 1 657 1 668 1 686 1 690 1 698 1 702 1 728 1 769 1 791 1 801 1 806 1 814 1 824 1 840 1 862 1 872 1 907 1 932 1 944 1 963 1 984 1 205 1 213 1 219 1 230 1 269 1 301 1 334 1 336 1 361 1 387 1 404 1 417 1 436 1 451 1 457 1 458 1 516 1 564 1 597 1 602 1 645 1 652 1 655 1 682 1 687 1 692 1 710 1 718 1 731 1 735 1 748 1 754 1 759 1 781 1 782 1 819 1 841 1 848 1 886 1 887 1 893 1 902 1 914 1 936 1 946 1 975 1 981 1 1009 1 1010 1 1014 1 1016 1 1018 1 1023 1 
1 204 21 1 25 1 28 1 72 1 89 1 106 1 107 1 117 2 125 1 142 1 166 1 173 1 182 1 193 1 198 1 19 1 77 1 96 1 103 1 150 1 153 1 177 1 237 1 244 1 249 2 258 1 361 1 380 1 383 1 394 1 395 1 397 1 403 1 449 1 455 2 456 1 468 1 471 1 483 1 498 1 520 1 525 1 535 2 546 1 583 1 588 1 602 1 620 1 630 1 634 1 642 1 671 1 691 1 697 1 706 1 724 1 730 1 741 1 759 1 784 1 803 1 833 1 840 1 875 1 891 1 902 1 907 1 919 1 921 1 939 1 945 1 972 1 987 1 990 1 210 1 370 1 404 1 413 1 431 1 433 1 436 1 464 1 477 1 479 1 482 1 500 1 532 1 544 1 596 1 656 1 692 1 702 1 703 1 729 1 738 1 746 1 751 1 782 1 783 1 817 1 819 1 828 1 888 1 895 1 918 1 931 1 932 1 1012 1 1021 1 
1 209 1 1 6 1 25 1 71 1 84 1 106 1 117 1 156 1 166 1 169 1 4 1 31 1 39 1 40 1 49 1 50 1 126 1 132 1 147 1 171 1 204 1 238 1 273 1 277 1 302 1 312 1 320 1 339 1 345 1 366 1 388 1 416 1 422 1 433 1 446 1 453 1 494 1 496 1 497 1 551 1 581 2 583 1 585 1 597 1 605 1 610 1 617 1 623 1 627 1 669 1 705 1 718 1 722 1 727 1 786 1 795 2 809 1 830 1 867 1 886 1 905 1 911 1 912 1 931 1 955 1 985 1 994 1 241 1 263 1 283 1 303 1 315 1 317 1 321 1 348 1 353 1 376 1 386 1 392 1 400 1 437 1 464 1 486 1 489 1 502 1 509 1 563 1 601 1 647 1 661 1 662 1 687 1 693 1 694 1 726 1 730 1 753 1 758 1 777 1 778 1 787 1 806 1 810 1 819 1 832 1 849 1 871 1 888 1 889 1 904 1 907 1 908 1 933 1 939 1 961 1 972 1 979 1 1010 1 1014 1 1026 1 
1 211 23 1 26 1 39 1 43 1 58 1 71 1 76 1 86 1 102 1 154 1 155 1 159 1 176 2 198 1 7 1 14 1 40 1 69 1 84 1 116 1 141 1 194 1 209 1 215 1 240 1 246 1 303 1 327 1 333 1 366 1 379 1 388 1 401 1 403 2 408 1 506 1 508 2 537 1 541 1 547 1 565 1 580 1 610 1 621 1 624 1 629 1 635 1 660 1 671 2 726 1 731 1 745 1 746 1 753 1 766 1 799 1 804 1 810 1 823 1 849 1 940 1 965 1 971 1 979 1 238 1 252 1 254 1 257 1 273 1 299 1 313 1 316 1 336 1 338 1 354 1 361 1 398 1 413 1 470 1 500 1 513 1 579 1 585 1 623 1 634 1 650 1 651 1 688 1 732 1 744 1 752 1 770 1 771 1 793 1 801 1 828 1 837 1 838 1 841 1 847 1 871 1 881 1 890 1 893 1 919 1 963 1 983 1 994 1 1002 1 1013 1 1015 1 1019 1 1020 1 
1 209 9 1 13 1 28 1 66 1 86 1 93 1 104 2 127 1 138 1 202 1 26 1 51 1 77 1 81 1 100 1 112 1 140 1 171 1 194 1 210 1 224 1 243 1 248 1 268 1 279 1 292 1 301 1 318 1 338 1 346 1 348 2 356 1 362 1 375 2 387 1 397 1 404 1 413 1 416 1 426 1 468 1 485 1 489 1 490 1 496 1 518 1 533 1 562 2 571 1 578 1 598 1 610 1 652 1 682 1 702 1 738 1 773 1 790 1 796 1 799 1 816 1 831 1 837 1 842 1 843 1 856 1 864 1 873 1 904 1 920 1 935 1 939 1 940 1 945 1 949 1 950 1 959 1 960 1 967 1 974 1 997 1 232 1 242 1 264 1 270 1 274 1 315 1 326 1 333 1 349 1 355 1 410 1 419 1 433 1 437 1 440 1 461 1 498 1 503 1 512 1 550 1 564 1 615 1 622 1 631 1 645 1 674 1 692 1 718 1 719 1 741 1 749 1 776 1 809 1 810 1 826 1 882 1 898 1 906 1 907 1 986 1 1007 1 1012 1 1018 1 
1 206 37 1 51 1 70 1 103 1 120 1 122 2 153 1 156 1 183 1 199 1 5 1 33 1 55 1 90 1 111 1 135 1 138 1 158 1 165 1 200 1 208 1 221 1 224 1 236 1 238 1 259 1 269 1 296 1 304 1 332 1 334 1 375 1 443 1 472 1 474 2 489 1 495 1 531 1 535 1 537 1 544 1 545 2 549 1 567 1 584 1 695 1 701 1 741 1 758 2 781 1 841 1 863 1 886 1 892 1 893 2 902 1 942 1 978 1 993 1 995 1 210 1 249 1 284 1 291 1 307 1 328 1 340 1 341 1 355 1 374 1 377 1 389 1 399 1 401 1 408 1 426 1 451 1 462 1 467 1 557 1 586 1 605 1 625 1 640 1 676 1 681 1 702 1 731 1 737 1 763 1 766 1 773 1 780 1 818 1 821 1 824 1 828 1 852 1 865 1 875 1 878 1 880 1 896 1 1002 1 1004 1 
1 214 8 1 11 1 38 1 60 1 62 1 75 1 82 1 101 1 116 1 161 1 172 1 12 1 72 1 207 1 235 1 245 2 249 1 251 1 260 1 278 2 296 1 327 1 328 2 332 1 345 1 357 1 359 1 366 1 367 1 370 1 379 1 390 2 419 1 435 1 529 1 539 1 549 1 562 1 569 1 583 1 587 1 604 1 606 1 617 1 632 1 640 1 650 1 667 1 678 1 695 1 698 1 701 1 703 1 744 1 865 1 868 1 895 1 909 1 958 1 971 1 989 1 990 1 218 1 261 1 289 1 291 1 303 1 305 1 337 1 394 1 397 1 398 1 414 1 415 1 524 1 526 1 543 1 550 1 560 1 572 1 593 1 607 1 623 1 626 1 633 1 677 1 679 1 681 1 690 1 705 1 726 1 734 1 808 1 826 1 836 1 838 1 887 1 893 1 912 1 919 1 935 1 946 1 964 1 976 1 986 1 1005 1 1009 1 1013 1 
1 212 63 1 80 1 83 1 166 1 170 1 183 1 189 1 206 1 9 1 31 1 110 1 132 1 134 1 140 1 155 1 192 1 223 1 247 1 255 1 266 1 273 1 301 1 307 1 316 1 331 1 359 1 368 1 374 1 391 1 392 1 426 1 433 1 452 2 455 1 495 2 551 2 582 1 622 1 624 1 631 1 647 1 672 1 685 1 692 1 695 1 710 2 718 1 719 1 773 1 777 1 781 1 836 1 870 1 886 1 896 1 901 2 914 1 918 1 932 1 933 1 956 1 974 1 234 1 242 1 252 1 282 1 284 1 310 1 321 1 349 1 356 1 358 1 388 1 394 1 406 1 440 1 447 1 479 1 504 1 531 1 545 1 594 1 596 1 639 1 646 1 662 1 688 1 691 1 705 1 716 1 722 1 734 1 745 1 753 1 763 1 784 1 791 1 799 1 868 1 874 1 876 1 877 1 915 1 953 1 960 1 1002 1 1006 1 1013 1 1024 1 
1 209 2 1 4 1 60 1 62 1 63 1 70 1 77 2 100 1 114 1 130 1 142 1 194 1 205 1 27 1 39 1 44 1 46 1 51 1 113 1 149 1 166 1 198 1 226 1 233 1 243 1 258 1 292 1 337 1 351 1 372 1 379 1 404 1 430 1 476 1 477 1 481 1 485 2 547 1 569 1 572 1 594 1 623 1 624 1 647 1 667 1 691 1 712 1 766 1 769 1 782 1 788 1 804 1 814 1 835 1 836 1 837 1 839 1 843 1 846 1 854 1 866 2 897 1 908 1 921 1 943 1 965 1 969 1 971 1 977 1 991 1 999 1 209 1 225 1 260 1 266 1 287 1 316 1 352 1 374 1 380 1 400 1 406 1 417 1 435 1 438 1 445 1 454 1 471 1 493 1 496 1 508 1 522 1 538 1 567 1 570 1 584 1 601 1 608 1 616 1 627 1 641 1 648 1 690 1 695 1 697 1 716 1 721 1 756 1 844 1 863 1 870 1 903 1 915 1 919 1 936 1 974 1 1009 1 
1 207 1 1 20 1 26 1 28 1 62 1 90 1 146 1 151 1 168 1 169 1 174 1 175 1 200 1 203 1 12 1 40 1 63 1 66 1 102 1 104 1 105 1 117 1 129 1 154 1 179 1 208 1 220 1 226 1 231 1 236 1 242 1 246 1 275 1 280 1 286 1 324 1 327 2 345 1 347 1 354 1 360 1 361 1 390 1 412 1 413 1 414 2 429 1 454 1 466 1 468 1 498 1 501 1 525 1 532 1 537 1 579 1 587 1 590 1 592 1 594 1 618 1 626 1 627 1 636 1 638 1 651 1 669 1 678 1 687 1 707 1 740 1 761 1 789 1 790 1 804 2 821 1 873 1 890 1 893 1 899 1 905 1 911 1 913 1 934 1 958 1 962 1 971 1 981 1 214 1 238 1 240 1 255 1 264 1 265 1 296 1 319 1 320 1 335 1 344 1 374 1 386 1 404 1 418 1 419 1 472 1 491 1 504 1 529 1 545 1 546 1 557 1 563 1 571 1 633 1 676 1 681 1 694 1 721 1 725 1 744 1 745 1 755 1 757 1 854 1 868 1 870 1 895 1 923 1 994 1 998 1 1008 1 1018 1 1021 1 1027 1 
1 212 14 1 23 1 85 1 90 1 126 1 143 1 144 1 148 1 150 1 151 1 152 1 204 1 4 1 24 1 55 1 60 1 163 1 201 1 205 1 294 1 349 1 362 1 391 1 420 1 427 1 432 1 446 1 497 1 511 1 514 2 522 1 542 1 555 1 595 1 630 1 665 1 670 1 684 1 692 1 704 1 720 2 747 1 761 1 768 1 773 1 777 1 786 1 793 1 800 1 818 1 842 1 867 1 883 1 889 1 899 1 938 1 942 1 943 1 959 2 962 1 963 1 979 1 984 1 255 1 267 1 284 1 285 1 307 1 322 1 340 1 351 1 367 1 376 1 398 1 448 1 476 1 490 1 492 1 498 1 505 1 528 1 551 1 556 1 568 1 578 1 582 1 608 1 616 1 635 1 687 1 689 1 702 1 705 1 719 1 729 1 738 1 748 1 796 1 822 1 840 1 872 1 898 1 900 1 966 1 992 1 1006 1 1020 1 1025 1 
1 206 7 2 15 1 27 1 40 1 110 1 131 1 135 1 182 1 199 1 200 1 18 1 21 1 28 1 33 1 149 1 194 1 308 1 312 1 324 2 349 1 397 1 407 1 424 1 429 1 459 1 461 1 487 1 524 1 527 1 566 1 567 1 569 1 584 1 604 1 607 1 611 1 620 1 622 1 623 1 624 1 661 1 687 1 730 1 734 1 740 1 758 1 782 1 807 1 818 1 821 1 837 1 843 1 846 1 872 1 897 1 918 1 941 1 943 1 948 1 982 1 262 1 269 1 283 1 306 1 310 1 336 1 375 1 380 1 396 1 400 1 427 1 433 1 436 1 455 1 466 1 504 1 533 1 539 1 543 1 556 1 591 1 619 1 621 1 633 1 638 1 647 1 650 1 663 1 681 1 704 1 727 1 752 1 756 1 763 1 768 1 814 1 869 1 922 1 931 1 933 1 952 1 966 1 969 1 976 1 1000 1 1019 1 1022 1 
1 211 15 1 26 1 59 1 82 1 95 1 96 1 102 1 111 1 154 1 182 1 4 1 27 1 43 1 46 1 81 1 84 1 93 1 115 1 132 1 176 1 185 1 213 1 222 1 234 1 236 1 249 1 251 2 263 1 283 1 291 1 303 1 307 1 332 1 352 1 354 1 389 1 393 1 418 1 449 1 451 1 481 1 486 1 498 1 531 1 587 1 593 1 598 1 602 1 607 1 608 1 698 2 704 1 737 1 738 1 806 1 834 1 845 1 860 1 869 1 952 1 971 1 995 2 1001 1 244 1 250 1 279 1 305 1 313 1 314 1 345 1 349 1 374 1 377 1 405 1 414 1 416 1 417 1 434 1 480 1 492 1 493 1 507 1 510 1 528 1 533 1 536 1 537 1 560 1 573 1 594 1 600 1 616 1 635 1 686 1 708 1 712 1 803 1 815 1 875 1 883 1 887 1 890 1 910 1 914 1 932 1 953 1 958 1 960 1 964 1 972 1 975 1 1004 1 1008 1 1022 1 1023 1 
1 215 12 1 37 1 41 1 44 1 69 1 79 1 85 1 96 1 105 1 117 1 163 2 180 1 185 2 212 1 27 1 40 1 74 1 91 1 103 1 134 1 140 1 171 1 188 1 197 1 200 1 230 1 233 1 234 1 270 1 273 1 340 1 360 1 366 1 408 1 437 1 455 1 471 1 515 1 520 1 549 1 559 1 603 1 607 1 614 1 651 1 769 1 796 1 809 1 814 1 857 1 863 1 872 1 881 1 887 1 951 1 958 1 963 2 222 1 235 1 287 1 304 1 315 1 317 1 326 1 339 1 352 1 377 1 385 1 391 1 396 1 432 1 441 1 452 1 457 1 464 1 476 1 489 1 494 1 503 1 514 1 536 1 547 1 553 1 569 1 574 1 590 1 608 1 625 1 637 1 685 1 732 1 735 1 743 1 756 1 787 1 790 1 829 1 852 1 855 1 868 1 877 1 878 1 898 1 913 1 924 1 930 1 968 1 978 1 989 1 991 1 1004 1 1009 1 1018 1 1022 1 1025 1 
1 212 63 1 67 1 68 1 95 1 113 1 129 1 167 1 168 1 169 1 4 1 6 1 24 1 50 1 89 1 96 1 99 1 115 1 128 1 193 1 197 1 209 1 236 2 252 1 265 1 268 1 270 2 272 1 277 1 309 1 331 1 341 1 355 1 379 1 410 1 433 1 460 1 461 1 463 1 493 1 497 1 559 1 569 1 628 1 646 1 653 1 664 1 665 1 694 1 757 1 780 1 807 1 813 1 815 1 826 1 827 1 868 2 870 1 877 1 882 1 884 1 903 1 933 1 998 1 241 1 248 1 279 1 282 1 303 1 320 1 350 1 408 1 431 1 452 1 478 1 496 1 510 1 532 1 538 1 551 1 557 1 590 1 610 1 629 1 648 1 651 1 697 1 712 1 726 1 735 1 743 1 744 1 784 1 786 1 787 1 809 1 820 1 832 1 835 1 840 1 863 1 879 1 909 1 928 1 932 1 942 1 952 1 970 1 983 1 989 1 993 1 1025 1 1026 1 
1 212 35 1 48 1 78 1 113 1 124 1 126 1 128 1 140 1 158 1 203 1 24 1 31 1 37 1 58 1 80 1 134 1 146 1 167 1 168 1 175 1 222 1 234 1 246 1 255 2 263 1 267 1 300 1 307 1 336 1 346 1 353 1 375 1 379 1 412 1 428 1 448 1 457 1 464 1 475 1 476 1 484 1 499 1 524 1 534 1 562 1 563 1 565 1 580 2 603 1 621 1 622 1 634 1 643 1 647 1 662 2 695 1 703 1 725 1 739 1 751 1 753 1 867 1 885 1 899 1 913 1 958 1 959 1 987 1 991 1 995 2 240 1 247 1 250 1 251 1 265 1 272 1 277 1 290 1 316 1 330 1 332 1 338 1 354 1 394 1 417 1 489 1 515 1 564 1 576 1 611 1 635 1 700 1 710 1 735 1 742 1 743 1 769 1 781 1 787 1 789 1 804 1 821 1 834 1 880 1 927 1 943 1 969 1 1002 1 1003 1 1007 1 1015 1 1020 1 1026 1 
1 207 27 1 52 1 55 1 61 1 63 1 71 1 90 1 101 1 108 1 152 1 173 1 174 1 175 1 187 1 25 1 114 1 149 1 188 1 241 1 248 1 249 1 257 1 270 1 280 1 297 1 316 1 317 1 324 1 367 1 390 1 412 1 425 1 455 1 464 1 545 1 571 1 573 1 574 1 579 1 599 1 616 1 640 1 657 1 659 1 687 1 721 1 725 1 736 1 778 1 811 1 812 1 829 1 861 1 869 1 916 1 942 1 953 1 974 1 245 1 274 1 313 1 330 1 331 1 364 1 372 1 386 1 387 1 398 1 403 1 404 1 434 1 450 1 457 1 469 1 485 1 536 1 543 1 549 1 589 1 621 1 649 1 651 1 661 1 746 1 760 1 761 1 765 1 794 1 816 1 839 1 844 1 845 1 860 1 880 1 896 1 897 1 903 1 928 1 936 1 969 1 978 1 1008 1 
1 209 18 1 33 1 36 1 40 1 47 1 69 1 78 1 83 1 94 1 95 1 109 2 120 1 125 1 136 1 165 1 173 1 179 1 181 1 182 1 12 1 32 1 49 1 56 1 71 1 114 1 117 1 126 1 129 1 171 1 172 1 175 1 250 1 349 1 351 1 355 1 369 1 378 1 408 1 443 1 464 1 497 1 498 1 525 2 527 1 570 1 587 1 591 1 593 1 596 1 657 1 674 1 678 1 764 1 782 1 790 1 800 1 816 1 826 1 846 1 863 1 865 1 883 1 934 1 953 1 954 1 959 1 977 1 991 1 1000 1 229 1 288 1 318 1 330 1 356 1 381 1 435 1 441 1 442 1 457 1 500 1 536 1 565 1 566 1 602 1 605 1 666 1 671 1 676 1 685 1 719 1 723 1 724 1 797 1 803 1 814 1 854 1 858 1 872 1 874 1 876 1 881 1 925 1 929 1 938 1 951 1 969 1 970 1 993 1 1014 1 1016 1 
1 213 2 1 27 1 44 1 56 1 82 1 98 1 114 1 142 1 147 1 183 1 185 1 197 1 4 1 25 1 36 1 38 1 74 1 120 1 162 1 180 1 198 1 206 1 219 1 249 1 261 1 300 1 303 1 321 1 329 1 335 1 350 1 351 1 391 1 398 1 401 1 446 1 486 1 489 1 499 1 500 1 504 1 505 1 516 2 581 1 616 1 621 1 625 1 633 1 654 2 659 1 670 1 676 1 688 2 700 1 702 1 711 1 729 1 732 1 767 1 796 2 818 1 821 1 825 1 833 1 844 1 845 1 848 1 894 1 899 1 903 1 942 1 961 1 979 1 983 1 985 1 988 1 995 1 232 1 236 1 268 1 273 1 295 1 306 1 320 1 413 1 415 1 420 1 430 1 437 1 440 1 458 1 479 1 488 1 517 1 535 1 556 1 566 1 592 1 607 1 630 1 655 1 685 1 697 1 701 1 717 1 723 1 738 1 790 1 820 1 842 1 857 1 873 1 875 1 887 1 896 1 912 1 950 1 1015 1 1018 1 1021 1 1023 1 1024 1 
1 211 45 2 55 1 56 1 57 1 66 1 67 1 88 1 93 1 144 1 160 1 179 1 218 1 11 1 12 1 18 1 20 1 30 1 71 1 75 1 95 1 114 1 127 1 145 1 151 1 167 1 169 1 178 1 180 1 200 1 233 1 235 1 239 1 247 1 330 1 356 1 370 1 373 1 378 2 382 1 426 1 443 1 477 2 508 1 522 1 536 1 541 1 545 1 549 1 560 1 562 1 571 1 580 1 660 1 671 1 690 1 702 1 731 1 734 1 741 1 778 1 782 1 783 1 846 1 864 1 895 1 902 1 916 1 926 1 942 1 982 1 983 1 231 1 244 1 252 1 255 1 267 1 272 1 296 1 302 1 315 1 318 1 348 1 367 1 425 1 433 1 469 1 471 1 487 1 504 1 524 1 561 1 566 1 578 1 603 1 634 1 651 1 657 1 665 1 678 1 691 1 711 1 712 1 724 1 747 1 760 1 772 1 794 1 802 1 825 1 839 1 841 1 861 1 890 1 905 1 910 1 956 1 985 1 1003 1 1010 1 
1 211 12 1 34 2 47 1 59 1 84 1 91 1 104 1 125 1 155 1 160 1 184 1 209 1 5 1 15 1 19 1 41 1 49 1 79 1 123 1 145 1 159 1 226 1 230 1 256 1 265 1 275 1 314 1 317 1 359 1 361 1 367 1 446 1 467 1 482 1 504 1 542 1 545 1 572 1 605 1 636 1 638 1 649 1 687 1 691 1 700 1 734 1 742 1 750 1 770 1 799 1 805 1 815 1 822 1 845 1 846 1 889 2 898 1 918 1 949 1 980 1 1000 1 232 1 282 1 319 1 320 1 373 1 376 1 384 1 426 1 441 1 442 1 485 1 512 1 515 1 526 1 587 1 600 1 613 1 635 1 650 1 660 1 673 1 714 1 756 1 762 1 790 1 794 1 806 1 823 1 827 1 855 1 858 1 871 1 872 1 880 1 886 1 912 1 930 1 941 1 943 1 961 1 962 1 973 1 1003 1 1008 1 1011 1 1023 1 
1 211 15 1 88 1 99 1 103 1 109 1 116 1 117 2 137 1 181 1 205 1 22 1 23 1 77 1 78 1 80 1 92 1 102 1 115 1 132 1 135 1 140 1 157 1 230 1 248 1 249 1 255 1 265 1 275 1 309 1 336 1 363 1 369 1 371 1 382 1 401 1 430 1 491 1 494 1 496 1 501 1 537 1 563 1 567 1 579 1 585 1 612 1 614 1 618 1 643 1 644 1 645 1 670 1 675 1 685 2 686 1 689 2 695 1 714 1 723 1 739 1 764 1 769 1 799 2 801 1 859 1 863 1 867 1 871 1 877 1 880 1 886 1 913 1 915 1 922 1 926 1 933 1 943 1 947 1 951 1 953 1 225 1 232 1 241 1 258 1 259 1 285 1 295 1 300 1 318 1 321 1 329 1 335 1 398 1 408 1 445 1 459 1 468 1 533 1 535 1 540 1 549 1 565 1 569 1 622 1 660 1 665 1 669 1 681 1 691 1 707 1 737 1 762 1 770 1 810 1 874 1 894 1 905 1 918 1 924 1 929 1 950 1 954 1 991 1 998 1 1007 1 1016 1 1019 1 1026 1 1027 1 
1 210 17 1 20 1 107 1 123 1 145 1 169 1 177 1 178 1 212 1 215 1 3 1 7 1 18 1 25 1 30 1 95 1 135 1 167 1 181 1 213 1 223 1 227 1 263 1 288 1 329 1 343 1 386 1 414 1 441 1 455 1 467 1 487 2 494 1 525 1 545 1 562 1 587 1 594 1 611 1 623 1 626 1 636 1 683 1 690 2 713 1 718 1 756 1 762 1 792 1 798 1 825 1 836 1 861 1 862 1 909 1 910 1 917 1 920 1 960 1 968 1 988 2 999 1 224 1 225 1 244 1 246 1 256 1 270 1 272 1 287 1 322 1 344 1 361 1 375 1 392 1 399 1 402 1 424 1 435 1 496 1 503 1 523 1 549 1 577 1 627 1 656 1 665 1 688 1 716 1 726 1 796 1 802 1 804 1 814 1 865 1 874 1 879 1 898 1 916 1 922 1 930 1 998 1 1004 1 1008 1 
1 210 5 1 9 1 10 1 23 1 25 1 37 1 53 1 160 1 194 1 207 1 222 1 13 1 26 1 38 1 39 1 59 1 64 1 74 1 81 1 106 1 150 1 163 1 186 1 191 1 233 1 238 1 260 1 278 1 313 1 322 1 347 1 348 1 357 1 365 1 431 1 466 1 484 2 491 1 499 1 509 1 528 1 552 1 553 1 558 1 573 1 577 1 582 1 584 1 609 1 611 1 613 1 636 1 646 1 648 1 665 1 692 1 709 1 740 1 746 1 750 1 758 1 771 1 774 1 793 1 799 1 800 1 813 1 822 1 835 1 857 1 868 1 876 1 883 1 884 1 886 1 887 2 891 1 893 2 902 1 907 1 935 1 942 1 954 2 231 1 284 1 294 1 303 1 304 1 308 1 321 1 328 1 353 1 358 1 371 1 393 1 443 1 446 1 462 1 470 1 476 1 478 1 562 1 570 1 606 1 608 1 637 1 639 1 645 1 668 1 701 1 737 1 787 1 794 1 874 1 879 1 895 1 910 1 925 1 940 1 972 1 974 1 984 1 1020 1 
1 214 5 1 62 2 95 1 132 1 138 1 139 1 157 1 168 1 188 1 204 1 205 1 33 1 54 1 69 1 85 1 90 1 108 1 120 1 136 1 166 1 172 1 187 1 222 1 268 1 295 1 296 1 298 1 319 1 337 1 364 1 371 1 403 1 419 1 434 2 446 1 454 1 478 1 501 1 502 1 527 1 535 1 555 1 565 1 580 1 582 2 592 1 646 1 654 1 656 1 669 1 672 1 683 1 691 1 745 1 749 2 750 1 773 1 774 1 792 1 793 2 804 1 813 1 823 1 846 1 871 1 885 1 908 1 912 1 931 1 950 1 967 1 990 1 992 1 236 1 243 1 326 1 333 1 355 1 410 1 424 1 429 1 460 1 483 1 508 1 520 1 531 1 548 1 588 1 603 1 616 1 633 1 642 1 657 1 667 1 686 1 716 1 721 1 757 1 776 1 782 1 797 1 859 1 864 1 883 1 890 1 900 1 921 1 960 1 977 1 1002 1 
1 205 1 1 32 1 53 1 55 1 57 1 93 1 97 1 110 1 121 1 152 1 160 1 161 1 170 1 175 1 2 1 5 1 25 1 27 1 41 1 45 1 50 1 74 1 76 1 180 1 183 1 208 1 221 1 222 1 226 1 316 1 332 1 346 1 352 1 362 1 372 1 373 1 395 1 400 1 409 1 412 1 419 1 421 1 422 1 427 1 434 2 446 1 454 1 458 1 462 1 470 1 494 1 496 1 501 1 538 1 539 1 550 1 569 1 581 1 582 2 585 1 586 1 588 2 606 1 691 1 729 1 765 1 781 1 793 1 805 1 839 1 851 1 875 1 904 1 923 1 945 1 949 1 979 1 982 1 987 1 254 1 258 1 267 1 275 1 294 1 308 1 319 1 341 1 350 1 358 1 437 1 438 1 441 1 482 1 512 1 515 1 534 1 555 1 558 1 559 1 577 1 604 1 610 1 631 1 658 1 672 1 676 1 678 1 712 1 742 1 775 1 797 1 816 1 821 1 845 1 853 1 855 1 858 1 862 1 869 1 874 1 943 1 997 1 1006 1 
1 203 28 1 35 1 58 1 66 1 78 1 91 1 107 1 121 1 123 1 151 1 167 2 174 1 181 1 184 1 188 1 208 1 209 1 220 1 225 1 13 1 23 1 46 1 63 1 76 1 81 1 92 1 117 1 147 1 153 1 158 1 160 1 172 1 182 1 198 1 235 1 260 1 303 1 310 1 318 1 323 1 325 1 363 1 369 1 380 1 385 1 386 2 420 1 450 1 457 1 477 1 503 1 513 1 525 1 571 1 575 1 607 1 615 1 617 1 659 1 660 1 662 1 666 1 681 1 707 1 722 1 737 1 746 1 752 1 773 1 820 1 837 2 889 1 911 1 921 1 935 1 951 1 954 1 966 1 974 1 984 1 311 1 321 1 345 1 379 1 381 1 383 1 402 1 423 1 425 1 434 1 438 1 462 1 491 1 531 1 554 1 594 1 596 1 598 1 618 1 653 1 654 1 663 1 669 1 730 1 759 1 761 1 768 1 770 1 781 1 783 1 805 1 808 1 817 1 835 1 843 1 863 1 872 1 890 1 899 1 901 1 923 1 926 1 942 1 945 1 997 1 1013 1 1023 1 1025 1 
1 208 3 1 5 1 6 1 9 1 45 1 99 1 100 1 124 2 129 1 135 1 188 1 196 1 222 1 21 1 80 1 89 1 130 1 151 1 154 1 172 1 178 1 191 1 246 1 269 1 276 1 277 1 289 1 293 1 305 1 310 1 311 1 387 1 424 1 441 1 445 1 446 1 452 1 506 1 519 1 578 1 600 1 620 2 639 1 693 1 741 1 749 1 750 1 755 1 770 1 794 1 798 1 835 2 854 1 856 1 904 1 908 1 914 1 921 1 950 1 984 1 999 1 232 1 234 1 260 1 267 1 279 1 290 1 315 1 328 1 335 1 364 1 406 1 419 1 482 1 486 1 489 1 512 1 535 1 541 1 572 1 573 1 583 1 608 1 623 1 629 1 646 1 651 1 653 1 657 1 659 1 687 1 702 1 708 1 744 1 747 1 759 1 762 1 793 1 824 1 828 1 844 1 899 1 956 1 982 1 987 1 1002 1 1003 1 1004 1 1008 1 1020 1 
1 209 20 1 23 1 116 2 129 1 133 1 167 1 168 1 169 1 197 1 6 1 14 1 30 1 73 1 96 1 126 1 176 1 195 1 232 1 251 1 290 1 307 1 318 1 321 1 329 1 443 1 447 1 454 1 470 1 473 1 481 1 499 1 561 1 573 1 611 1 614 1 640 2 653 2 654 1 677 2 678 1 680 1 690 1 698 1 703 1 765 2 768 2 802 1 818 1 822 1 878 1 880 1 892 1 926 1 948 1 953 1 960 1 973 1 978 1 998 1 1000 1 230 1 233 1 252 1 266 1 276 1 302 1 367 1 375 1 404 1 435 1 477 1 485 1 517 1 540 1 569 1 585 1 601 1 604 1 608 1 609 1 623 1 635 1 661 1 662 1 679 1 697 1 706 1 725 1 749 1 757 1 758 1 772 1 803 1 812 1 824 1 841 1 844 1 846 1 854 1 858 1 916 1 949 1 951 1 970 1 993 1 1002 1 1019 1 
1 211 2 1 46 2 86 1 103 1 108 1 128 1 131 1 149 1 154 1 160 2 4 1 6 1 17 1 49 1 61 1 90 1 98 1 99 1 152 1 163 1 196 1 217 1 244 1 267 1 269 1 275 1 282 1 290 1 294 1 301 1 315 1 343 1 408 1 416 1 419 2 420 1 466 1 470 1 479 1 493 1 504 1 511 1 549 1 550 2 576 1 596 1 612 1 630 1 649 1 666 1 670 1 681 1 721 1 729 1 739 1 784 1 790 1 792 1 795 1 800 1 809 1 815 1 840 2 892 1 916 1 925 1 937 1 941 1 959 1 979 1 999 1 259 1 271 1 305 1 318 1 319 1 338 1 357 1 364 1 382 1 430 1 445 1 458 1 460 1 502 1 506 1 515 1 575 1 607 1 631 1 635 1 638 1 640 1 643 1 650 1 653 1 655 1 661 1 667 1 677 1 688 1 690 1 698 1 718 1 737 1 749 1 776 1 842 1 848 1 890 1 911 1 914 1 920 1 931 1 962 1 980 1 986 1 992 1 996 1 1004 1 1008 1 1009 1 1011 1 1012 1 1019 1 
1 209 44 1 75 1 94 1 132 1 184 1 190 1 193 1 196 1 199 1 213 1 220 1 221 1 11 1 19 1 37 1 54 1 55 1 61 1 92 1 118 1 124 1 130 1 136 1 160 1 197 1 200 1 228 1 232 1 263 1 272 1 298 1 306 1 313 1 321 1 360 1 389 1 393 1 405 1 410 1 414 1 427 1 431 1 439 1 444 1 467 1 489 1 491 1 492 1 512 1 513 1 533 2 556 1 565 1 595 1 600 1 644 1 650 1 653 1 666 1 681 1 687 1 709 1 728 1 765 1 788 2 808 1 810 1 816 1 825 1 845 1 860 2 861 1 867 1 873 1 876 1 878 1 884 1 896 2 897 1 902 1 948 1 242 1 268 1 287 1 301 1 327 1 374 1 413 1 451 1 456 1 498 1 501 1 516 1 555 1 609 1 614 1 621 1 662 1 692 1 705 1 725 1 735 1 745 1 772 1 792 1 797 1 851 1 865 1 895 1 921 1 941 1 963 1 1002 1 1006 1 1008 1 1020 1 
1 213 17 1 45 1 50 1 51 1 60 1 86 1 112 1 116 1 117 1 128 1 142 1 168 1 191 2 209 1 26 1 39 1 82 1 89 1 90 1 97 1 104 1 109 1 119 1 140 1 154 1 159 1 164 1 165 1 176 1 219 1 223 1 247 1 256 1 262 1 265 1 277 1 281 1 318 1 331 1 332 1 335 1 336 1 355 1 390 1 399 1 402 1 403 1 421 1 451 1 468 1 476 1 481 1 483 1 494 1 522 1 547 2 549 1 615 1 616 1 641 1 644 2 649 1 660 1 690 1 692 1 719 1 733 1 774 1 792 1 841 1 856 1 925 1 966 1 995 1 243 1 246 1 308 1 312 1 341 1 344 1 350 1 373 1 411 1 488 1 495 1 517 1 520 1 524 1 525 1 545 1 553 1 555 1 572 1 600 1 656 1 685 1 736 1 758 1 771 1 790 1 794 1 811 1 836 1 846 1 852 1 853 1 872 1 891 1 911 1 947 1 1005 1 1006 1 1015 1 1016 1 1017 1 1020 1 1024 1 
1 211 7 1 12 1 37 1 44 1 144 1 155 1 199 1 228 1 230 1 5 1 38 1 59 1 61 1 66 1 71 1 94 1 130 1 158 1 164 1 204 1 218 1 220 1 221 1 227 1 258 1 274 1 282 1 285 1 300 1 314 1 319 1 334 1 345 2 371 1 380 1 411 1 425 2 445 1 446 1 464 1 494 1 504 1 508 1 525 1 537 1 543 1 544 1 610 1 627 1 637 1 643 1 658 1 670 1 682 1 683 1 694 1 706 1 726 1 730 1 748 1 752 1 757 1 761 1 774 1 782 2 798 1 822 1 855 1 860 1 887 1 896 1 926 1 940 1 978 1 980 1 998 1 241 1 246 1 266 1 294 1 330 1 333 1 352 1 415 1 479 1 480 1 515 1 519 1 535 1 598 1 639 1 659 1 768 1 791 1 832 1 839 1 840 1 843 1 881 1 886 1 915 1 925 1 936 1 962 1 965 1 975 1 988 1 1012 1 1015 1 1022 1 1023 1 
1 208 10 2 29 1 41 1 44 1 57 1 60 2 76 1 96 1 120 2 195 1 196 1 208 1 213 1 219 1 223 1 64 1 78 1 99 1 131 1 155 1 171 1 186 1 228 1 249 1 251 1 295 1 308 1 321 1 339 1 349 1 353 1 358 2 362 1 401 2 440 1 531 2 534 1 537 2 550 1 554 1 555 1 561 1 563 1 564 1 567 1 578 1 591 1 598 1 612 1 624 1 629 1 651 1 666 1 668 1 712 1 742 1 752 1 768 1 780 1 820 1 869 1 950 1 988 2 989 1 304 1 311 1 331 1 341 1 342 1 364 1 388 1 399 1 402 1 404 1 450 1 453 1 486 1 508 1 536 1 552 1 569 1 577 1 582 1 616 1 630 1 640 1 642 1 653 1 656 1 664 1 698 1 714 1 771 1 779 1 783 1 853 1 859 1 890 1 907 1 925 1 932 1 960 1 967 1 1023 1 
1 205 11 1 16 1 57 1 104 1 122 1 146 1 147 1 151 1 198 1 212 1 213 1 215 1 10 1 20 1 23 1 33 1 62 1 87 1 88 1 116 1 118 1 140 1 145 1 149 1 190 1 199 1 207 1 227 1 253 1 258 1 271 1 291 1 319 1 333 1 343 1 357 1 361 1 366 1 375 1 382 1 398 1 442 1 503 1 511 1 519 1 523 1 549 1 563 1 587 1 594 1 625 1 627 1 637 1 645 1 650 1 663 1 675 1 689 1 691 1 732 1 736 1 745 1 793 1 809 1 824 1 825 2 831 1 838 1 907 1 928 2 936 1 941 1 944 1 957 1 984 1 985 1 245 1 262 1 270 1 310 1 312 1 346 1 362 1 376 1 377 1 384 1 400 1 415 1 423 1 452 1 462 1 499 1 507 1 525 1 529 1 539 1 540 1 558 1 571 1 582 1 585 1 595 1 601 1 604 1 709 1 742 1 778 1 795 1 853 1 854 1 861 1 876 1 917 1 937 1 942 1 976 1 994 1 1006 1 1013 1 1019 1 
1 211 4 1 18 1 23 1 58 1 61 1 93 1 109 1 114 1 129 1 142 1 143 1 155 1 156 1 157 1 175 1 206 1 219 1 226 1 5 1 10 1 13 1 27 1 36 1 65 1 108 1 116 1 120 1 125 1 136 1 151 1 170 1 187 1 213 1 248 1 276 1 309 1 314 2 318 1 320 1 330 1 331 1 343 1 351 1 352 1 359 1 360 1 379 1 390 1 394 2 413 1 428 1 467 1 477 1 508 1 538 1 541 1 543 1 597 1 620 1 645 1 667 1 671 1 676 2 743 1 748 1 753 1 758 1 805 1 840 1 844 1 851 1 856 1 873 1 881 1 891 1 916 1 923 1 936 1 954 1 238 1 274 1 283 1 291 1 300 1 303 1 312 1 319 1 323 1 329 1 335 1 345 1 365 1 409 1 422 1 435 1 441 1 446 1 459 1 482 1 491 1 504 1 580 1 635 1 669 1 714 1 717 1 719 1 746 1 752 1 767 1 795 1 801 1 804 1 815 1 825 1 875 1 876 1 896 1 900 1 907 1 928 1 955 1 983 1 999 1 1008 1 1014 1 1016 1 
1 213 10 1 31 2 33 1 85 1 105 2 147 1 154 1 164 1 180 1 183 2 205 1 209 1 212 1 214 2 4 1 38 1 39 1 50 1 52 1 76 1 91 1 124 1 175 1 218 1 224 1 237 1 265 1 275 1 276 1 278 1 280 1 288 1 301 1 314 1 353 1 362 1 374 1 379 1 409 1 417 1 428 1 460 1 464 1 467 1 477 1 539 2 551 1 556 1 558 1 573 2 575 1 600 1 602 1 613 1 631 1 650 1 662 1 704 1 713 1 749 1 785 1 789 1 813 1 817 1 818 1 823 1 847 1 862 1 871 1 883 1 887 1 929 1 970 1 255 1 270 1 323 1 349 1 355 1 367 1 372 1 442 1 479 1 496 1 502 1 514 1 521 1 541 1 548 1 552 1 589 1 591 1 683 1 685 1 693 1 699 1 710 1 716 1 717 1 730 1 774 1 783 1 795 1 799 1 834 1 841 1 895 1 915 1 921 1 952 1 997 1 1000 1 1012 1 1018 1 
1 207 58 1 82 1 106 1 114 1 131 1 135 2 146 1 190 1 192 1 194 1 195 1 200 1 201 1 236 1 36 1 40 1 77 1 81 1 96 1 103 1 129 1 161 1 173 1 185 1 193 1 258 1 276 1 277 1 306 1 315 1 319 1 345 1 354 1 390 1 431 1 440 1 441 1 450 1 477 1 480 1 484 1 495 1 498 1 504 1 507 1 513 1 515 1 518 1 528 1 535 1 545 1 559 1 561 1 576 1 578 1 596 1 673 1 674 1 678 1 684 1 685 1 721 2 728 1 736 1 739 1 815 1 849 1 851 1 907 1 911 1 943 1 945 1 961 1 984 1 998 1 305 1 312 1 318 1 330 1 369 1 375 1 396 1 398 1 404 1 419 1 426 1 462 1 478 1 494 1 509 1 534 1 553 1 554 1 562 1 592 1 619 1 637 1 657 1 668 1 671 1 676 1 714 1 733 1 743 1 748 1 761 1 775 1 783 1 816 1 858 1 867 1 872 1 884 1 928 1 936 1 965 1 975 1 977 1 978 1 993 1 1006 1 
1 215 7 1 15 1 22 1 55 1 67 1 117 1 125 1 129 1 167 1 173 1 184 1 194 2 200 1 202 1 205 1 223 1 42 1 79 1 101 1 116 1 120 1 130 1 153 1 174 1 176 1 181 1 198 1 203 1 209 1 235 1 245 1 251 2 260 1 266 2 271 1 276 1 300 1 307 1 342 2 349 1 355 1 389 1 396 1 408 1 421 1 434 1 441 1 449 1 453 2 460 1 461 1 469 1 516 1 544 1 547 1 580 1 586 1 595 1 599 1 619 1 620 1 626 1 628 1 635 1 638 1 639 1 643 1 663 1 694 1 705 1 714 1 728 1 764 1 778 1 823 1 842 1 895 1 906 1 912 1 916 1 921 1 929 2 959 1 982 1 985 1 986 1 1001 1 279 1 283 1 293 1 305 1 310 1 325 1 332 1 333 1 334 1 365 1 372 1 397 1 403 1 406 1 414 1 415 1 422 1 427 1 450 1 459 1 482 1 493 1 494 1 507 1 511 1 519 1 532 1 613 1 616 1 641 1 662 1 667 1 670 1 700 1 715 1 732 1 741 1 742 1 754 1 755 1 763 1 838 1 847 1 861 1 863 1 875 1 892 1 903 1 965 1 1002 1 1014 1 1020 1 1024 1 
1 207 2 1 22 1 36 1 44 1 46 1 99 1 115 1 127 1 132 2 161 1 182 1 219 1 14 1 29 1 49 1 82 1 93 1 96 1 101 1 122 1 129 1 175 1 239 1 239 1 241 1 259 1 285 1 300 1 309 1 327 1 328 1 340 1 361 1 433 1 435 1 437 1 442 1 453 1 472 1 477 1 482 1 513 1 559 1 563 1 589 2 608 1 609 1 619 1 635 1 641 1 650 1 658 1 679 2 686 1 690 1 700 1 707 1 718 1 734 1 757 1 759 1 761 1 764 1 771 1 781 1 800 1 829 1 831 1 863 1 887 1 908 1 909 1 919 1 947 1 988 1 993 1 248 1 251 1 265 1 320 1 338 1 390 1 404 1 406 1 421 1 430 1 448 1 452 1 462 1 464 1 479 1 535 1 537 1 562 1 636 1 642 1 643 1 649 1 652 1 653 1 654 1 661 1 672 1 676 1 701 1 710 1 743 1 807 1 871 1 892 1 937 1 958 1 965 1 976 1 1004 1 1006 1 1018 1 1020 1 
1 208 12 1 16 1 67 1 87 1 88 1 100 1 126 1 137 1 141 2 148 1 174 1 203 1 4 1 22 1 42 1 60 1 71 1 89 1 95 1 117 1 118 1 123 1 143 1 145 1 161 1 179 1 182 1 185 1 197 1 209 1 215 1 270 1 276 1 284 1 301 1 305 1 319 1 364 1 365 1 374 1 387 1 388 1 411 1 423 1 425 1 443 1 452 1 460 1 469 1 499 1 521 1 530 1 536 1 541 1 542 1 588 1 590 1 667 1 671 1 683 1 690 2 720 1 760 2 771 1 789 1 795 1 816 1 817 1 841 1 847 1 869 1 895 1 905 1 907 1 911 1 912 1 914 1 925 1 926 1 934 1 938 1 968 1 971 1 990 1 241 1 261 1 282 1 291 1 338 1 342 1 346 1 354 1 369 1 395 1 401 1 444 1 455 1 467 1 478 1 491 1 553 1 557 1 608 1 617 1 630 1 648 1 659 1 660 1 662 1 679 1 738 1 757 1 783 1 819 1 822 1 829 1 873 1 933 1 955 1 958 1 976 1 983 1 987 1 998 1 1003 1 1011 1 1017 1 
1 208 5 1 17 1 24 1 48 1 77 1 83 1 103 1 109 1 170 1 173 1 184 1 196 2 200 1 216 1 239 1 3 1 7 1 18 1 118 1 182 1 197 1 202 1 214 1 221 1 232 1 240 1 241 1 241 1 254 1 263 1 269 1 278 1 310 1 317 2 319 1 325 1 342 1 368 1 402 1 409 1 471 1 551 1 563 1 567 1 613 1 617 1 624 1 627 2 654 1 661 1 685 1 697 1 702 1 732 1 738 1 745 1 784 1 811 1 826 1 829 1 839 1 847 1 859 1 865 2 876 1 883 1 897 1 904 1 944 1 969 1 973 1 982 1 992 1 251 1 270 1 292 1 300 1 322 1 337 1 394 1 404 1 455 1 469 1 470 1 472 1 493 1 503 1 509 1 543 1 583 1 631 1 632 1 644 1 647 1 649 1 668 1 714 1 725 1 792 1 807 1 828 1 838 1 851 1 855 1 867 1 871 1 926 1 931 1 933 1 958 1 960 1 1005 1 1011 1 1025 1 
1 216 4 1 6 1 39 1 52 1 59 1 63 1 65 1 67 1 99 1 124 2 125 2 158 1 183 1 194 1 209 1 22 1 48 1 93 1 95 1 123 1 129 1 142 1 166 1 204 1 207 1 230 1 248 1 271 1 275 2 297 1 329 1 358 1 370 1 454 1 501 1 514 1 527 2 579 1 587 1 605 1 608 1 622 2 635 1 688 2 692 1 698 1 715 1 736 2 757 1 788 1 852 1 878 1 931 1 940 1 944 1 953 1 956 1 969 1 974 1 983 1 985 1 991 1 256 1 260 1 285 1 286 1 313 1 315 1 344 1 345 1 348 1 362 1 379 1 419 1 444 1 468 1 478 1 488 1 498 1 511 1 519 1 521 1 574 1 583 1 589 1 617 1 651 1 660 1 680 1 723 1 745 1 773 1 837 1 844 1 853 1 855 1 856 1 862 1 962 1 986 1 1002 1 1006 1 1007 1 1013 1 1018 1 
1 207 3 1 52 1 54 1 120 1 125 1 144 1 153 1 161 1 186 2 187 1 204 1 208 1 2 1 24 1 49 1 55 1 83 1 88 1 101 1 105 1 134 1 140 1 141 1 170 1 188 1 224 1 231 1 261 1 271 1 273 1 287 1 339 1 352 1 360 1 381 1 386 1 419 1 435 2 478 1 549 1 576 1 577 1 580 1 600 1 634 1 655 1 665 1 676 1 686 1 707 1 742 1 748 1 751 1 752 1 753 1 764 1 784 1 813 1 815 1 825 2 849 1 854 1 913 2 973 1 982 1 989 1 258 1 277 1 289 1 368 1 389 1 443 1 484 1 491 1 495 1 499 1 514 1 519 1 535 1 543 1 546 1 583 1 597 1 598 1 605 1 618 1 679 1 683 1 694 1 695 1 708 1 714 1 749 1 820 1 821 1 841 1 903 1 1013 1 1025 1 
1 212 50 1 55 1 68 1 80 1 82 2 122 1 181 1 186 1 194 1 198 1 201 1 229 1 25 1 34 1 36 1 40 1 54 1 60 1 75 1 109 1 114 1 150 1 153 1 158 1 188 1 212 1 219 1 222 1 246 1 250 1 267 1 281 1 283 1 304 1 322 1 328 1 342 1 359 1 367 1 379 1 383 1 385 1 397 1 426 1 439 1 445 1 449 1 452 1 485 1 497 1 506 1 508 1 520 1 637 1 663 1 687 1 705 1 708 1 745 1 769 1 796 1 803 1 806 1 830 1 845 1 849 1 864 1 876 1 910 1 917 1 921 1 956 1 962 1 997 1 999 1 255 1 261 1 266 1 278 1 285 1 306 1 326 1 327 1 345 1 355 1 368 1 369 1 474 1 522 1 523 1 578 1 595 1 606 1 626 1 631 1 641 1 642 1 669 1 671 1 706 1 725 1 726 1 733 1 734 1 741 1 755 1 781 1 784 1 800 1 807 1 814 1 818 1 838 1 844 1 861 1 879 1 893 1 902 1 907 1 916 1 933 1 942 1 947 1 955 1 982 1 1022 1 
1 206 12 1 60 1 62 1 72 1 102 1 127 1 135 1 149 1 156 1 206 2 238 1 40 1 50 1 53 1 56 1 68 1 121 1 139 1 158 1 180 1 216 1 234 1 266 1 268 1 283 1 293 1 303 1 306 1 308 1 310 1 314 1 333 1 335 2 365 1 370 1 378 2 389 1 474 1 488 1 496 1 519 1 524 1 527 1 540 2 552 1 562 1 564 1 607 1 620 1 641 1 657 1 662 1 674 1 688 1 698 1 705 1 745 1 786 1 810 1 824 1 838 1 855 1 862 1 905 1 917 1 931 2 940 1 949 1 990 1 252 1 339 1 364 1 375 1 380 1 423 1 435 1 447 1 457 1 464 1 542 1 555 1 585 1 610 1 612 1 633 1 637 1 643 1 644 1 653 1 656 1 684 1 716 1 719 1 722 1 773 1 803 1 817 1 822 1 829 1 869 1 889 1 898 1 922 1 938 1 944 1 975 1 996 1 999 1 1016 1 1024 1 1025 1 
1 210 87 1 91 1 98 1 182 1 188 1 203 1 209 1 215 1 227 1 244 1 38 1 39 1 40 1 58 1 112 1 120 1 125 1 147 1 153 1 167 1 185 1 191 1 222 1 231 1 232 1 261 1 265 1 296 1 301 1 382 1 386 1 422 1 435 1 462 1 470 1 478 1 480 1 541 1 544 2 564 1 579 1 584 1 593 1 610 1 630 1 638 2 653 1 656 1 676 1 679 1 682 1 707 1 792 1 811 1 831 1 834 1 838 1 862 1 869 1 871 1 896 1 906 1 909 1 917 1 923 1 931 1 966 1 270 1 294 1 295 1 304 1 313 1 326 1 350 1 369 1 372 1 415 1 420 1 440 1 448 1 466 1 508 1 528 1 539 1 540 1 551 1 578 1 592 1 625 1 635 1 734 1 742 1 755 1 766 1 791 1 848 1 888 1 895 1 919 1 973 1 1010 1 1020 1 1021 1 1022 1 
1 207 1 1 7 1 16 1 41 1 61 1 69 1 75 1 91 1 105 1 122 1 130 1 131 1 133 1 141 1 164 1 207 1 219 1 231 1 9 1 10 1 13 1 71 1 73 1 78 1 135 1 137 1 161 1 179 1 186 1 191 1 197 1 215 1 297 1 299 1 300 1 301 1 302 1 337 1 344 1 348 1 354 1 355 1 384 2 397 1 398 1 420 1 432 1 461 1 468 1 483 1 484 1 519 1 523 1 538 1 550 1 553 1 575 1 577 1 578 1 581 1 589 1 627 1 655 1 670 2 710 1 765 1 779 1 789 1 794 1 797 1 813 1 821 1 836 1 848 1 856 1 889 1 907 1 967 1 970 2 253 1 259 1 285 1 303 1 313 1 340 1 364 1 378 1 391 1 423 1 434 1 439 1 447 1 453 1 490 1 549 1 556 1 568 1 585 1 608 1 629 1 671 1 728 1 731 1 769 1 782 1 792 1 793 1 796 1 807 1 814 1 838 1 895 1 919 1 948 1 953 1 980 1 986 1 991 1 1001 1 1008 1 
1 210 40 1 56 1 68 1 79 1 94 1 96 1 103 1 107 1 134 1 155 2 171 1 200 1 204 1 216 1 221 1 235 1 242 1 25 1 66 1 78 1 81 1 85 1 113 1 123 1 125 1 136 1 145 1 147 1 160 1 174 1 179 1 214 1 239 1 289 1 347 1 362 1 365 1 397 1 429 2 430 1 445 1 457 1 495 2 509 1 552 1 572 1 604 1 672 1 687 1 690 1 692 2 712 1 726 1 730 1 765 1 776 1 779 1 787 2 811 1 834 1 851 1 891 1 907 1 909 1 960 1 973 1 260 1 261 1 296 1 314 1 343 1 346 1 359 1 366 1 395 1 403 1 418 1 447 1 458 1 475 1 485 1 537 1 553 1 596 1 607 1 615 1 621 1 622 1 734 1 754 1 762 1 767 1 775 1 825 1 826 1 827 1 843 1 857 1 867 1 890 1 896 1 902 1 908 1 933 1 954 1 955 1 976 1 1003 1 1006 1 1008 1 1013 1 1015 1 
1 207 13 2 25 1 41 1 56 1 57 1 84 1 103 1 148 1 156 1 166 1 175 1 176 1 180 1 189 1 201 2 206 1 212 1 216 1 218 1 221 1 233 1 27 1 34 1 46 1 54 1 59 1 64 1 79 1 98 1 106 1 193 1 194 1 199 1 205 1 252 1 268 1 284 1 332 1 357 1 384 1 418 1 420 1 424 1 437 1 439 1 444 1 456 1 496 1 506 1 507 2 515 1 516 1 534 1 594 1 600 1 605 1 606 1 649 1 654 1 672 1 675 1 709 1 716 1 744 1 764 1 766 1 782 1 818 1 821 1 828 1 858 1 884 1 909 1 913 1 916 1 944 1 972 1 974 1 976 1 999 1 259 1 262 1 290 1 308 1 318 1 382 1 387 1 389 1 399 1 406 1 421 1 422 1 438 1 448 1 497 1 508 1 511 1 522 1 524 1 536 1 554 1 561 1 564 1 566 1 601 1 661 1 670 1 696 1 724 1 725 1 735 1 737 1 761 1 763 1 794 1 795 1 799 1 801 1 841 1 851 1 864 1 910 1 927 1 939 1 946 1 978 1 984 1 1003 1 1010 1 1019 1 1026 1 
1 207 19 1 20 1 21 2 51 1 63 1 83 1 155 1 161 1 162 1 200 1 217 1 244 1 2 1 5 1 73 1 111 1 113 1 115 1 116 1 145 1 147 1 163 1 178 1 187 1 212 1 215 1 275 1 295 1 299 1 322 1 342 1 346 1 423 1 452 1 477 1 505 1 516 1 528 1 540 1 558 1 569 1 576 1 577 1 581 1 609 1 623 1 624 1 644 1 669 1 670 1 678 1 708 1 745 1 770 1 783 1 791 1 800 1 814 1 822 1 827 2 846 1 864 1 883 1 903 1 919 1 921 1 931 1 953 1 955 1 970 1 267 1 272 1 316 1 321 1 334 1 348 1 424 1 437 1 448 1 458 1 494 1 511 1 530 1 587 1 615 1 628 1 649 1 652 1 653 1 656 1 677 1 679 1 682 1 687 1 695 1 731 1 742 1 768 1 782 1 838 1 849 1 867 1 876 1 893 1 917 1 920 1 933 1 934 1 943 1 951 1 971 1 984 1 994 1 1010 1 1016 1 1022 1 
1 206 18 1 47 1 89 1 90 1 122 1 178 1 195 1 206 1 212 2 228 1 233 1 238 2 3 1 155 1 167 1 175 1 194 1 215 1 239 1 241 1 291 1 343 1 349 1 350 1 358 1 378 1 397 1 402 1 473 1 476 1 492 1 495 1 504 1 514 1 522 1 525 1 527 2 532 1 551 2 552 1 586 1 595 1 618 1 634 1 651 1 660 2 669 1 724 1 728 1 731 1 741 1 758 1 773 1 775 1 781 1 789 1 861 1 863 1 869 1 895 1 896 1 909 1 932 1 936 1 943 1 273 1 310 1 332 1 365 1 368 1 376 1 391 1 411 1 421 1 427 1 430 1 448 1 460 1 486 1 524 1 526 1 531 1 536 1 540 1 545 1 588 1 613 1 621 1 632 1 664 1 667 1 677 1 693 1 712 1 751 1 752 1 765 1 770 1 786 1 797 1 832 1 834 1 871 1 904 1 912 1 940 1 954 1 960 1 968 1 973 1 979 1 981 1 994 1 
1 204 3 1 23 1 92 2 93 1 101 1 112 1 125 1 144 1 161 1 187 1 214 1 249 1 36 1 60 1 80 1 122 1 123 1 153 1 159 1 171 1 175 1 203 1 207 1 219 1 228 1 245 1 254 1 290 1 304 1 344 1 348 1 370 1 396 2 405 1 418 2 450 1 490 1 500 1 504 1 518 1 529 1 534 1 558 1 586 1 597 1 600 1 647 1 663 1 668 1 669 1 680 1 691 1 698 1 734 1 738 1 741 1 747 1 756 1 763 1 789 1 826 1 849 1 912 1 947 1 955 1 963 1 964 1 965 1 966 1 974 1 987 1 264 1 283 1 296 1 309 1 314 1 332 1 336 1 354 1 355 1 363 1 366 1 393 1 401 1 433 1 456 1 467 1 483 1 499 1 501 1 567 1 574 1 585 1 592 1 608 1 632 1 636 1 665 1 716 1 720 1 727 1 745 1 753 1 768 1 772 1 795 1 832 1 841 1 855 1 880 1 881 1 920 1 925 1 937 1 945 1 971 1 
1 212 35 1 59 1 62 1 99 1 143 1 152 2 168 1 178 1 234 1 5 1 9 1 28 1 29 1 55 1 73 1 90 1 91 1 92 1 95 1 97 1 141 1 157 1 183 1 247 1 257 1 281 1 287 1 306 1 307 1 326 1 333 1 339 2 382 1 389 1 396 1 399 1 403 1 421 1 435 1 436 1 480 1 486 1 491 1 506 1 525 1 528 1 545 1 577 1 605 1 688 1 705 1 718 1 736 1 787 1 802 1 817 1 819 1 847 1 849 1 864 1 879 1 917 1 919 1 935 1 957 1 266 1 273 1 286 1 293 1 351 1 384 1 387 1 422 1 423 1 425 1 451 1 459 1 479 1 496 1 534 1 560 1 581 1 595 1 599 1 601 1 603 1 639 1 644 1 681 1 682 1 701 1 716 1 723 1 738 1 748 1 789 1 796 1 805 1 823 1 831 1 854 1 870 1 904 1 910 1 914 1 928 1 941 1 959 1 966 1 972 1 979 1 1006 1 1007 1 1008 1 1017 1 1020 1 1027 1 
1 209 37 1 42 1 73 1 74 2 91 1 105 1 110 1 119 1 120 1 153 1 157 1 170 1 171 1 199 1 241 1 252 1 16 1 47 1 48 1 56 1 84 1 113 1 145 1 192 1 203 1 225 1 255 1 270 1 280 1 286 1 310 1 321 1 323 1 420 1 472 1 487 1 498 1 513 1 514 1 517 1 525 1 560 1 571 1 575 1 584 1 590 1 594 1 601 1 625 1 638 1 644 1 650 1 666 1 670 1 675 1 676 1 709 1 714 1 729 1 734 1 745 1 746 1 757 1 764 1 768 1 769 1 771 1 784 1 796 1 811 1 822 1 852 1 863 1 874 1 876 1 894 1 910 1 914 1 958 1 970 1 985 1 330 1 385 1 389 1 413 1 442 1 455 1 474 1 479 1 482 1 496 1 506 1 509 1 515 1 551 1 557 1 669 1 678 1 705 1 721 1 807 1 818 1 897 1 903 1 912 1 942 1 953 1 957 1 967 1 995 1 1005 1 1020 1 1025 1 
1 209 10 1 40 1 72 1 112 1 124 1 170 1 173 1 200 1 207 1 215 2 221 1 254 1 2 1 53 1 58 1 64 1 96 1 131 1 136 1 163 1 209 1 210 1 219 1 236 1 244 1 311 1 326 1 333 1 342 1 345 1 353 1 376 1 423 1 431 1 434 1 466 1 478 1 484 1 486 1 500 1 513 1 527 1 538 1 547 1 554 1 563 1 570 1 597 2 631 1 668 1 673 1 680 1 698 1 715 1 738 1 744 1 751 1 766 1 791 1 838 1 849 1 901 1 961 2 995 1 1000 2 261 1 287 1 304 1 306 1 315 1 318 1 327 1 332 1 343 1 382 1 387 1 406 1 477 1 498 1 512 1 517 1 571 1 577 1 588 1 591 1 607 1 608 1 636 1 640 1 662 1 665 1 674 1 682 1 683 1 692 1 711 1 721 1 722 1 724 1 728 1 741 1 745 1 774 1 776 1 828 1 833 1 869 1 879 1 883 1 909 1 910 1 916 1 921 1 934 1 938 1 949 1 1018 1 1026 1 
1 212 3 1 10 1 31 1 33 1 50 1 78 1 160 1 172 1 181 1 192 1 199 1 220 1 231 1 1 1 5 1 8 1 11 1 44 1 51 1 75 1 84 1 85 1 89 1 107 1 152 1 222 1 242 1 257 1 278 1 279 1 295 1 297 1 354 1 366 1 370 1 371 1 385 1 429 1 442 1 465 1 470 1 482 1 485 1 574 1 631 1 652 1 660 1 661 1 667 2 690 1 698 2 721 1 733 1 751 1 765 1 810 1 861 1 863 1 888 1 904 1 915 1 923 1 928 1 929 1 931 1 954 1 957 1 966 1 972 1 989 1 990 1 996 1 271 1 285 1 292 1 313 1 335 1 350 1 412 1 425 1 450 1 480 1 486 1 497 1 502 1 554 1 557 1 626 1 633 1 648 1 663 1 664 1 673 1 683 1 809 1 826 1 879 1 886 1 892 1 911 1 922 1 955 1 970 1 976 1 1000 1 1003 1 1007 1 1018 1 1023 1 
1 212 38 1 41 1 42 1 74 1 75 1 84 1 94 1 124 1 127 1 129 1 160 1 170 2 193 1 196 1 216 1 253 1 256 1 6 1 50 1 55 1 62 1 88 1 96 1 97 1 107 1 126 1 133 1 135 1 179 1 203 1 278 1 285 1 292 1 341 2 347 2 355 1 373 1 381 1 385 1 394 1 416 1 425 1 440 1 474 1 475 1 486 1 499 1 512 1 579 1 588 1 613 1 615 2 647 1 650 2 666 1 713 2 756 1 761 1 766 1 823 1 824 1 825 1 841 1 845 2 851 1 858 1 887 1 895 1 896 1 921 1 929 1 951 1 980 1 994 1 1001 1 310 1 348 1 382 1 468 1 479 1 480 1 541 1 575 1 605 1 631 1 634 1 645 1 655 1 680 1 695 1 730 1 732 1 745 1 752 1 777 1 781 1 782 1 807 1 816 1 844 1 856 1 875 1 877 1 907 1 968 1 1008 1 1009 1 1011 1 1023 1 
1 213 57 1 77 1 96 1 106 1 121 1 145 1 172 1 201 1 208 1 232 1 234 1 237 1 82 1 97 1 124 1 129 1 136 1 144 1 221 1 225 1 243 1 264 1 271 1 328 1 342 1 359 1 422 1 427 1 438 1 446 1 450 1 465 1 473 1 524 1 539 1 550 1 568 1 571 1 597 1 598 1 622 1 641 1 687 1 694 1 698 1 699 1 739 1 754 1 760 1 793 1 797 2 798 1 800 1 824 1 842 1 849 1 863 1 882 1 912 1 926 1 949 1 962 1 277 1 278 1 304 1 310 1 318 1 349 1 350 1 386 1 405 1 543 1 557 1 630 1 638 1 653 1 664 1 673 1 680 1 686 1 688 1 713 1 737 1 747 1 773 1 787 1 807 1 811 1 869 1 887 1 929 1 944 1 981 1 998 1 1000 1 1002 1 1003 1 1008 1 1009 1 1021 1 1022 1 
1 211 7 2 35 1 38 1 109 1 115 1 127 1 156 1 163 1 177 1 185 1 189 2 200 1 205 1 239 1 49 1 52 1 55 1 70 1 97 1 153 1 166 1 171 1 186 1 190 1 194 1 197 1 221 1 229 1 247 1 249 1 264 1 284 1 295 1 302 1 317 1 330 1 367 1 385 1 393 1 413 1 441 1 459 1 482 1 493 1 522 1 526 1 531 1 534 1 541 1 644 1 652 1 672 1 702 1 705 1 746 1 826 1 833 1 840 1 845 1 879 1 915 1 917 1 937 1 964 1 965 1 970 1 993 1 309 1 352 1 366 1 425 1 439 1 471 1 473 1 479 1 483 1 519 1 566 1 590 1 597 1 601 1 608 1 611 1 667 1 668 1 673 1 677 1 679 1 687 1 773 1 785 1 796 1 797 1 810 1 849 1 858 1 861 1 931 1 936 1 943 1 968 1 982 1 994 1 1017 1 1019 1 
1 211 4 1 22 1 38 1 44 1 47 1 65 1 70 1 90 1 99 1 142 2 146 1 179 1 180 1 206 1 223 1 226 1 238 1 74 1 97 1 126 1 149 1 152 1 159 1 208 1 227 1 242 1 248 1 294 1 303 1 313 1 316 1 318 1 333 1 343 1 365 1 382 2 391 1 397 1 467 1 490 1 514 1 528 1 529 1 547 1 551 1 576 1 586 2 611 1 619 1 622 1 632 1 642 1 644 1 656 1 661 1 682 1 758 1 760 1 761 1 763 1 778 1 785 1 821 1 833 1 836 1 851 1 857 1 869 1 873 1 878 1 887 1 976 1 986 1 1000 1 271 1 288 1 367 1 372 1 401 1 420 1 433 1 444 1 448 1 517 1 563 1 607 1 640 1 650 1 652 1 710 1 737 1 738 1 746 1 747 1 777 1 792 1 798 1 819 1 824 1 835 1 843 1 874 1 896 1 927 1 929 1 931 1 933 1 940 1 962 1 1014 1 1021 1 
1 211 11 1 33 1 46 1 58 1 61 2 72 1 73 1 80 1 117 1 135 1 142 1 164 1 189 1 218 1 243 1 246 1 3 1 7 1 31 1 54 1 68 1 71 1 85 1 94 1 133 1 165 1 185 1 191 1 193 1 206 1 240 1 244 1 248 1 255 1 278 1 299 1 318 1 360 1 364 1 379 1 404 1 406 1 446 1 480 1 481 1 492 2 495 1 511 1 512 1 513 1 522 2 538 1 609 1 628 1 629 1 632 1 636 1 655 1 661 1 665 1 686 1 695 1 717 1 723 1 724 1 728 1 741 1 743 1 745 1 774 1 815 1 845 1 860 1 886 1 905 1 935 1 982 1 271 1 274 1 276 1 280 1 298 1 304 1 308 1 334 1 354 1 395 1 417 1 433 1 451 1 461 1 468 1 528 1 529 1 541 1 577 1 578 1 579 1 651 1 657 1 677 1 691 1 719 1 756 1 764 1 781 1 786 1 802 1 811 1 827 1 831 1 840 1 853 1 890 1 912 1 927 1 942 1 944 1 947 1 959 1 1003 1 1014 1 
1 207 2 1 9 1 28 1 34 1 55 1 59 1 61 1 104 1 106 1 122 1 146 1 156 2 171 1 231 1 6 1 17 1 43 1 58 1 72 1 76 1 78 1 91 1 120 1 124 1 132 1 170 1 183 1 198 1 211 1 234 1 249 1 298 1 311 1 315 1 329 1 340 1 357 1 403 1 443 1 464 1 478 1 543 1 557 1 603 1 630 1 634 2 646 1 648 1 661 1 663 1 682 1 694 1 697 1 731 1 748 1 752 1 762 1 789 2 800 1 825 1 839 2 955 1 959 1 964 1 967 1 992 1 273 1 290 1 320 1 380 1 388 1 392 1 396 1 397 1 401 1 405 1 427 1 432 1 444 1 448 1 460 1 471 1 477 1 519 1 545 1 586 1 588 1 600 1 657 1 658 1 659 1 683 1 693 1 706 1 722 1 742 1 746 1 777 1 782 1 794 1 808 1 827 1 850 1 901 1 949 1 953 1 971 1 
1 205 27 1 101 1 109 1 127 1 155 1 175 1 212 1 215 1 222 1 230 1 241 1 20 1 23 1 36 1 41 1 120 1 162 1 181 1 184 1 202 1 268 1 288 1 294 1 295 1 316 1 317 1 318 2 334 1 345 1 357 1 358 1 379 1 399 1 409 1 414 1 429 1 435 1 453 1 454 1 455 1 474 1 476 1 485 1 496 1 518 1 612 1 641 1 659 1 665 1 669 1 671 1 672 1 682 1 699 1 714 1 740 1 788 1 793 1 805 1 819 1 870 1 887 1 901 2 918 1 951 1 990 1 271 1 282 1 289 1 312 1 323 1 337 1 340 1 353 1 395 1 398 1 406 1 472 1 491 1 512 1 523 1 571 1 578 1 580 1 585 1 599 1 645 1 646 1 666 1 686 1 690 1 698 1 708 1 724 1 755 1 762 1 774 1 821 1 822 1 853 1 914 1 915 1 932 1 959 1 961 1 964 1 985 1 1005 1 1022 1 
1 210 1 1 8 1 13 1 26 1 66 1 79 1 118 1 128 1 142 1 179 1 258 1 259 1 12 1 17 1 47 1 54 1 73 1 86 1 135 1 145 1 172 1 173 1 204 1 209 1 252 1 270 1 281 1 290 1 292 1 320 1 325 1 332 1 344 1 346 1 365 2 369 1 372 1 383 1 391 1 459 1 483 1 521 1 545 1 561 1 564 1 580 1 592 1 631 1 674 1 696 1 724 1 761 1 774 1 803 1 808 1 874 1 878 2 892 1 898 1 903 1 904 1 932 1 955 1 963 1 968 2 975 1 977 1 286 1 288 1 311 1 314 1 327 1 370 1 384 1 396 1 424 1 429 1 447 1 451 1 482 1 486 1 568 1 584 1 587 1 616 1 622 1 623 1 637 1 642 1 670 1 677 1 751 1 768 1 799 1 826 1 836 1 859 1 861 1 922 1 928 1 972 1 981 1 985 1 1004 1 1014 1 1015 1 1027 1 
1 210 34 1 46 1 61 1 70 2 81 1 95 1 102 1 193 1 195 1 197 1 214 1 220 1 221 1 231 1 236 1 246 1 65 1 101 1 131 1 133 1 146 1 189 1 209 1 215 1 239 1 279 1 311 1 352 1 353 1 359 2 361 1 366 1 370 1 380 1 390 1 391 1 399 1 425 1 453 1 483 1 490 1 508 1 521 1 527 1 554 1 562 1 593 2 596 1 611 2 637 1 649 1 663 1 671 1 687 1 690 1 758 1 776 1 779 1 827 1 832 1 838 1 910 1 927 1 935 1 939 2 951 1 981 1 278 1 312 1 322 1 326 1 329 1 341 1 344 1 356 1 362 1 393 1 394 1 412 1 418 1 446 1 456 1 460 1 465 1 475 1 503 1 523 1 529 1 572 1 609 1 627 1 629 1 657 1 664 1 667 1 695 1 713 1 719 1 781 1 787 1 796 1 801 1 813 1 820 1 843 1 859 1 863 1 868 1 871 1 872 1 891 1 911 1 912 1 921 1 934 1 943 1 952 1 967 1 1002 1 1004 1 1016 1 1021 1 1027 1 
1 210 23 1 29 1 82 1 107 1 121 1 134 1 141 1 159 1 176 1 183 1 207 1 238 2 245 1 11 1 38 1 39 1 40 1 43 1 57 1 76 1 110 1 148 1 151 1 153 1 168 1 185 1 208 1 228 1 232 1 244 1 253 1 271 1 282 1 285 1 319 1 323 1 325 1 336 1 356 1 363 1 382 2 415 1 418 1 456 1 466 1 468 2 493 1 541 1 596 1 651 1 657 2 665 2 688 1 714 1 722 1 723 1 733 1 741 1 744 1 745 1 762 1 766 1 770 1 776 1 820 1 823 1 830 1 909 1 919 1 921 1 966 1 296 1 428 1 536 1 556 1 576 1 582 1 584 1 609 1 626 1 640 1 652 1 661 1 669 1 676 1 679 1 695 1 743 1 748 1 795 1 814 1 862 1 873 1 879 1 885 1 934 1 936 1 964 1 979 1 980 1 1005 1 1007 1 1024 1 1027 1 
1 210 5 1 17 1 32 1 44 1 58 1 66 1 68 1 99 1 108 1 113 1 128 1 131 2 154 2 168 1 198 1 200 1 215 1 229 1 244 1 9 1 47 1 59 1 72 1 79 1 117 1 139 1 142 1 145 1 146 1 165 1 167 1 183 1 193 1 199 1 210 1 219 1 225 1 227 1 250 1 277 1 278 1 335 1 342 1 347 1 358 1 377 1 379 1 468 1 488 1 513 1 524 1 529 1 539 1 592 1 595 1 609 1 655 1 674 1 679 1 686 1 769 1 794 1 815 1 818 1 822 1 835 2 843 1 854 2 905 1 921 2 924 1 988 1 274 1 279 1 282 1 288 1 296 1 298 1 311 1 319 1 340 1 378 1 387 1 393 1 408 1 439 1 447 1 465 1 478 1 518 1 549 1 556 1 568 1 573 1 575 1 594 1 629 1 634 1 659 1 669 1 727 1 731 1 738 1 800 1 823 1 833 1 874 1 930 1 945 1 985 1 1000 1 1007 1 1020 1 1021 1 
1 208 17 1 61 1 85 2 98 1 100 1 101 1 102 1 117 1 128 1 157 1 159 1 204 1 214 1 224 1 245 1 249 1 263 1 8 1 26 1 30 1 47 1 171 1 198 1 218 1 230 1 268 1 268 1 281 1 352 1 360 1 398 1 414 1 433 1 460 1 465 1 480 1 481 1 499 1 515 1 529 1 543 1 555 2 562 2 576 2 590 1 632 1 635 1 644 1 660 1 671 1 683 1 700 1 705 1 708 1 728 1 730 1 735 1 748 1 777 1 800 1 805 1 829 1 842 1 852 1 864 1 886 1 933 1 954 1 989 1 991 1 284 1 312 1 324 1 326 1 365 1 373 1 385 1 394 1 417 1 418 1 443 1 450 1 453 1 468 1 472 1 478 1 495 1 528 1 611 1 647 1 670 1 678 1 698 1 717 1 758 1 759 1 862 1 910 1 923 1 924 1 930 1 937 1 942 1 943 1 952 1 957 1 972 1 979 1 990 1 1005 1 1016 1 1019 1 1022 1 
1 210 15 2 46 1 53 1 68 1 89 1 91 1 95 1 99 1 141 1 149 1 173 1 182 1 190 2 205 1 227 1 229 1 241 1 10 1 33 1 37 1 90 1 92 1 124 1 126 1 133 1 150 1 159 1 161 1 189 1 199 1 200 1 211 1 273 1 294 1 308 1 313 1 343 1 368 1 372 1 388 1 392 1 405 1 409 1 424 1 426 1 432 1 436 1 444 1 447 1 462 1 465 1 477 1 493 1 501 1 510 1 520 1 562 1 592 1 603 2 652 1 686 1 734 1 754 1 762 1 784 1 823 1 846 1 881 1 894 1 901 1 926 1 965 1 969 1 986 1 277 1 283 1 285 1 316 1 337 1 349 1 355 1 389 1 458 1 471 1 481 1 495 1 505 1 575 1 585 1 622 1 632 1 682 1 688 1 697 1 706 1 711 1 726 1 731 1 735 1 741 1 773 1 774 1 783 1 801 1 805 1 807 1 844 1 851 1 869 1 882 1 886 1 904 1 915 1 928 1 934 1 939 1 940 1 981 1 985 1 1002 1 1003 1 1018 1 
1 206 6 1 12 1 20 1 45 1 51 1 74 1 85 1 86 1 99 1 141 1 213 1 214 2 216 1 240 1 254 1 264 1 29 1 33 1 38 1 61 1 171 1 193 1 204 1 222 1 234 1 236 1 241 1 246 1 283 1 289 1 290 1 293 1 307 1 317 1 322 1 344 1 397 1 411 1 426 2 455 1 492 2 509 1 556 1 581 1 630 1 632 2 635 1 636 1 663 1 700 1 710 1 723 1 740 1 744 2 771 1 781 1 783 1 795 1 808 2 818 2 850 1 858 1 866 1 920 1 921 1 933 1 967 1 982 1 278 1 294 1 316 1 325 1 332 1 376 1 391 1 420 1 440 1 501 1 515 1 551 1 555 1 580 1 583 1 626 1 634 1 650 1 687 1 699 1 711 1 715 1 717 1 726 1 736 1 738 1 814 1 836 1 861 1 869 1 884 1 897 1 901 1 914 1 946 1 966 1 991 1 999 1 1003 1 
1 210 12 1 20 1 21 1 32 1 54 1 95 1 118 1 153 1 155 1 167 1 172 1 200 1 234 1 238 1 242 1 243 1 258 1 266 1 18 1 42 1 63 1 87 1 114 1 132 1 148 1 157 1 173 1 178 1 190 1 192 1 198 1 229 1 256 1 260 1 261 1 263 1 305 1 419 1 439 1 460 1 476 1 479 1 495 1 501 1 506 1 516 1 531 1 537 1 566 1 567 1 592 1 634 1 719 1 728 1 799 1 804 1 807 1 845 1 851 1 855 1 927 1 933 1 955 1 967 1 990 1 996 1 276 1 280 1 303 1 327 1 348 1 366 1 393 1 507 1 512 1 518 1 520 1 521 1 536 1 563 1 576 1 609 1 620 1 627 1 649 1 660 1 664 1 670 1 731 1 742 1 744 1 765 1 776 1 890 1 924 1 938 1 976 1 991 1 997 1 1014 1 1016 1 1021 1 1026 1 
1 211 6 1 31 1 33 1 50 1 51 1 57 1 66 1 87 1 107 1 141 1 214 1 230 1 3 1 14 1 19 1 44 1 92 1 98 1 130 1 137 1 146 1 162 1 215 1 219 1 222 1 250 1 338 1 346 1 357 1 383 1 443 1 469 1 475 1 485 1 498 1 532 1 533 1 546 1 574 1 621 1 627 1 639 1 646 1 668 1 697 1 721 1 739 1 760 1 765 1 780 1 792 1 877 1 888 1 891 1 898 1 909 1 929 1 931 1 932 1 935 1 948 1 969 1 973 1 996 1 997 2 276 1 308 1 314 1 337 1 341 1 353 1 359 1 364 1 454 1 472 1 502 1 517 1 522 1 524 1 591 1 612 1 637 1 652 1 656 1 705 1 778 1 786 1 796 1 815 1 821 1 828 1 836 1 870 1 893 1 912 1 916 1 934 1 947 1 950 1 979 1 983 1 992 1 1004 1 1007 1 1011 1 1022 1 
1 210 7 1 23 1 77 1 102 1 110 1 128 1 134 1 148 1 177 1 202 1 207 1 213 1 243 1 269 1 12 1 29 1 81 1 88 1 91 1 127 1 152 1 158 1 165 1 176 1 186 1 203 1 218 1 251 1 253 1 262 1 288 1 289 1 290 1 303 1 324 1 325 1 334 1 346 1 358 1 374 1 392 1 399 1 425 1 432 1 435 1 511 2 539 1 564 1 565 1 570 1 577 1 614 2 631 2 645 1 653 1 661 1 669 1 676 1 688 2 689 1 693 1 694 1 731 1 735 1 747 1 752 1 763 1 771 1 779 1 823 1 827 1 832 1 833 1 851 2 871 1 873 1 874 1 884 1 886 1 913 1 935 1 961 1 977 1 984 1 995 1 1001 1 291 1 292 1 293 1 328 1 353 1 371 1 384 1 394 1 445 1 449 1 462 1 480 1 481 1 505 1 529 1 547 1 581 1 582 1 623 1 664 1 696 1 705 1 708 1 717 1 739 1 770 1 801 1 821 1 854 1 885 1 897 1 910 1 946 1 962 1 972 1 1002 1 1005 1 1011 1 1019 1 
1 207 11 1 18 1 22 1 84 1 125 1 129 1 189 1 194 1 232 1 21 1 32 1 54 1 57 1 83 1 89 1 93 1 135 1 140 1 142 1 146 1 148 1 174 1 186 1 192 1 204 1 216 1 235 1 261 1 267 1 295 1 330 1 347 1 359 2 388 1 391 1 401 1 405 1 420 1 440 1 464 1 468 1 484 1 519 1 528 1 555 1 563 1 565 1 591 1 598 1 601 2 611 1 661 1 704 1 736 1 738 1 750 1 755 1 776 1 796 1 822 1 827 1 855 1 873 1 879 1 886 1 907 1 941 1 964 1 278 1 303 1 305 1 316 1 331 1 342 1 348 1 356 1 377 1 382 1 394 1 439 1 471 1 475 1 500 1 548 1 561 1 568 1 605 1 628 1 676 1 677 1 686 1 688 1 712 1 735 1 759 1 785 1 786 1 795 1 798 1 799 1 812 1 829 1 854 1 877 1 888 1 891 1 908 1 918 1 936 1 961 1 963 1 976 1 
1 210 27 2 32 1 42 1 113 1 131 1 140 1 145 1 154 1 158 1 184 1 209 1 220 1 221 1 229 1 236 1 242 2 250 1 5 1 28 1 81 1 105 1 121 1 136 1 151 1 182 1 189 1 225 1 278 1 285 1 287 1 291 1 295 1 315 1 328 1 330 1 333 1 360 1 381 1 399 1 410 1 463 1 473 1 489 1 544 1 591 1 614 1 630 1 654 1 668 1 689 1 691 1 752 1 754 1 795 1 803 1 811 1 872 1 890 1 318 1 321 1 338 1 350 1 374 1 375 1 383 1 389 1 405 1 447 1 462 1 469 1 475 1 478 1 495 1 510 1 514 1 532 1 562 1 569 1 570 1 600 1 605 1 610 1 633 1 647 1 705 1 709 1 714 1 724 1 742 1 743 1 756 1 770 1 778 1 779 1 786 1 814 1 820 1 827 1 832 1 837 1 864 1 877 1 882 1 901 1 902 1 912 1 918 1 925 1 927 1 935 1 939 1 960 1 1002 1 1005 1 1013 1 1025 1 
1 216 83 1 110 1 129 1 137 1 196 1 227 1 235 1 236 1 237 1 238 1 240 1 8 1 38 1 39 1 58 1 59 1 82 1 134 1 141 1 160 1 165 1 167 1 193 1 228 1 261 1 271 1 272 1 326 1 334 1 340 1 386 1 401 1 414 1 432 1 457 2 465 1 466 1 476 1 487 1 508 1 553 1 642 2 654 1 678 1 725 1 729 1 754 1 757 1 790 1 791 1 799 1 800 1 804 1 827 1 855 1 859 1 864 1 896 1 904 1 927 1 930 1 948 1 963 2 977 2 980 1 284 1 289 1 292 1 301 1 331 1 350 1 363 1 366 1 402 1 418 1 422 1 425 1 436 1 438 1 439 1 485 1 488 1 504 1 516 1 523 1 538 1 578 1 624 1 631 1 645 1 652 1 684 1 685 1 708 1 712 1 730 1 738 1 752 1 794 1 796 1 807 1 831 1 836 1 847 1 899 1 908 1 925 1 945 1 984 1 993 1 1000 1 1006 1 1015 1 1022 1 1023 1 
1 211 8 2 66 1 82 1 91 2 106 1 109 1 115 1 138 1 202 1 214 1 227 1 231 1 237 1 267 1 17 1 44 1 57 1 58 1 68 1 84 1 98 1 102 1 116 1 120 1 127 1 134 1 144 1 158 1 170 1 190 1 191 1 193 1 215 1 243 1 258 1 269 1 278 1 290 1 309 1 325 2 367 1 408 1 421 1 426 1 449 1 452 1 460 1 466 1 478 1 481 1 507 1 509 1 522 1 549 1 557 1 598 1 604 1 613 1 654 1 697 1 707 1 718 1 766 1 793 1 804 1 820 1 859 1 865 1 878 1 937 1 279 1 435 1 436 1 450 1 455 1 461 1 463 1 504 1 516 1 526 1 530 1 550 1 571 1 574 1 586 1 596 1 628 1 632 1 637 1 657 1 701 1 704 1 715 1 758 1 765 1 773 1 779 1 791 1 799 1 826 1 831 1 855 1 858 1 866 1 876 1 908 1 921 1 928 1 941 1 1007 1 
1 215 48 1 49 1 66 1 78 1 141 1 159 1 162 1 206 2 223 1 236 1 241 1 256 1 257 1 261 1 267 1 275 1 277 1 17 1 18 1 21 1 68 1 98 1 110 1 144 1 153 1 158 1 160 1 165 1 174 1 179 1 183 1 244 1 258 1 265 1 270 1 274 1 305 1 342 1 372 1 385 1 397 1 405 1 467 1 499 2 503 2 537 1 550 1 603 1 632 1 644 1 649 1 655 1 662 1 665 1 678 1 682 1 688 1 748 1 785 2 819 1 823 1 836 1 837 1 860 1 897 1 952 1 977 2 988 1 334 1 339 1 348 1 358 1 370 1 378 1 403 1 409 1 420 1 423 1 435 1 449 1 487 1 508 1 514 1 526 1 556 1 571 1 586 1 624 1 636 1 647 1 684 1 718 1 738 1 745 1 768 1 773 1 814 1 847 1 875 1 886 1 901 1 945 1 972 1 995 1 1004 1 1013 1 1014 1 1019 1 1024 1 
1 211 12 1 17 1 55 1 57 1 82 1 85 1 111 1 122 1 172 1 183 1 190 1 204 1 256 1 265 1 11 1 30 1 36 1 61 1 67 1 69 1 71 1 74 1 92 1 99 1 103 1 113 1 118 1 134 1 170 1 176 1 212 1 214 1 227 1 238 1 267 1 277 1 296 1 319 1 332 1 379 1 403 1 414 1 418 1 440 1 467 1 485 1 486 1 499 1 505 1 506 1 511 1 513 1 515 1 524 1 554 1 558 1 563 1 564 1 570 2 607 1 616 1 624 1 627 1 632 1 643 1 670 1 683 1 719 1 734 1 775 1 793 2 796 1 824 1 825 1 897 1 901 1 958 1 980 1 983 1 285 1 290 1 292 1 313 1 328 1 335 1 351 1 390 1 391 1 401 1 427 1 450 1 465 1 471 1 478 1 481 1 482 1 488 1 490 1 493 1 503 1 521 1 525 1 546 1 547 1 559 1 561 1 569 1 615 1 623 1 654 1 684 1 699 1 708 1 741 1 813 1 838 1 859 1 860 1 864 1 874 1 898 1 914 1 916 1 970 1 978 1 988 1 1010 1 1019 1 
1 206 17 1 29 1 36 1 43 1 53 1 80 1 105 1 107 1 117 1 142 1 146 1 191 1 194 1 199 1 209 1 216 1 236 1 254 1 25 1 38 1 42 1 93 1 99 1 121 1 157 1 185 1 261 1 271 1 302 1 307 2 347 1 351 1 364 1 373 1 377 1 392 1 422 1 439 1 445 2 479 1 482 1 487 1 495 1 496 1 517 1 521 1 528 1 539 1 543 1 553 1 555 1 578 1 614 1 639 1 649 1 670 1 698 1 709 1 722 1 723 2 756 1 824 1 829 1 832 1 838 1 887 1 899 1 906 1 922 1 939 1 979 1 984 1 997 1 283 1 287 1 292 1 305 1 308 1 324 1 330 1 339 1 354 1 365 1 379 1 412 1 413 1 456 1 498 1 525 1 527 1 530 1 552 1 571 1 629 1 720 1 737 1 751 1 760 1 800 1 820 1 833 1 845 1 886 1 890 1 907 1 912 1 953 1 964 1 985 1 1000 1 1020 1 1024 1 
1 213 12 1 24 1 26 1 75 1 77 1 99 1 112 2 124 1 126 1 131 1 146 2 163 1 231 1 244 1 253 1 264 1 268 1 86 1 89 1 110 1 143 1 165 1 166 1 174 1 193 1 195 1 328 1 347 1 356 1 380 1 387 1 398 1 440 1 449 1 454 1 479 2 502 1 513 1 515 1 523 1 531 1 557 1 618 2 636 1 659 1 672 1 694 1 722 1 743 2 801 1 861 1 875 1 924 1 933 1 972 2 997 1 300 1 326 1 348 1 378 1 384 1 388 1 391 1 412 1 420 1 435 1 460 1 462 1 485 1 488 1 497 1 501 1 507 1 514 1 561 1 593 1 601 1 606 1 621 1 633 1 647 1 650 1 667 1 721 1 750 1 788 1 791 1 809 1 847 1 863 1 873 1 883 1 951 1 971 1 975 1 992 1 996 1 999 1 1004 1 1013 1 1021 1 1025 1 1027 1 
1 208 3 1 29 1 31 1 34 1 42 2 50 1 68 1 74 2 76 1 106 1 122 1 123 1 158 1 165 2 167 1 195 1 229 1 232 1 266 1 22 1 30 1 52 1 57 1 73 1 77 1 79 1 107 1 124 1 193 1 207 1 214 1 220 1 240 1 263 1 267 1 299 1 300 1 319 1 399 1 407 1 412 2 421 1 437 1 440 1 492 2 501 1 504 1 518 1 525 1 532 1 536 1 544 1 547 1 563 1 574 1 581 1 606 1 613 1 639 1 691 1 706 1 755 1 811 1 816 1 837 1 877 1 888 1 898 1 903 1 904 1 905 1 912 1 974 1 991 1 995 1 283 1 416 1 420 1 433 1 438 1 482 1 548 1 557 1 583 1 608 1 610 1 627 1 689 1 701 1 703 1 731 1 739 1 741 1 769 1 783 1 794 1 799 1 812 1 825 1 834 1 858 1 872 1 917 1 922 1 928 1 933 1 965 1 1009 1 1010 1 1011 1 1019 1 1023 1 
1 208 16 1 20 1 43 1 46 1 62 1 88 1 128 1 143 1 151 1 161 1 169 1 171 1 180 1 199 1 212 1 244 1 245 1 270 1 7 1 53 1 55 1 57 1 67 1 73 1 87 1 91 1 113 1 130 1 147 1 178 1 183 1 186 1 192 1 202 1 211 1 235 1 238 1 252 1 269 1 280 1 282 1 285 1 286 1 292 1 334 1 335 1 337 1 371 1 409 1 420 1 449 1 502 1 512 1 550 1 555 1 559 1 566 1 596 1 602 1 608 1 618 1 630 1 652 1 668 1 676 1 679 1 696 1 713 1 725 1 739 1 760 1 772 1 816 1 823 1 830 1 843 1 860 1 871 1 882 1 909 1 913 1 923 1 926 1 948 1 953 1 963 1 964 1 966 1 983 1 996 1 287 1 333 1 345 1 347 1 349 1 360 1 367 1 380 1 386 1 448 1 456 1 494 1 498 1 499 1 510 1 520 1 563 1 579 1 584 1 587 1 599 1 604 1 623 1 632 1 640 1 660 1 672 1 684 1 784 1 822 1 831 1 834 1 893 1 973 1 984 1 1001 1 1016 1 1019 1 1025 1 1026 1 
1 206 11 1 36 1 49 1 114 1 156 1 174 1 185 1 240 1 249 1 259 1 65 1 71 1 90 1 132 1 140 1 148 1 157 1 165 1 175 1 178 1 194 1 199 1 205 1 207 1 210 1 223 1 268 1 276 1 307 1 337 1 341 2 377 1 385 1 391 1 425 1 429 1 433 1 438 1 456 1 463 1 464 1 469 2 470 1 495 1 504 1 534 1 589 1 610 1 646 1 648 1 650 1 651 1 661 1 669 1 680 1 690 1 698 1 704 2 706 1 707 1 735 1 751 1 754 1 759 1 760 1 788 1 805 1 811 1 812 1 817 1 837 1 842 1 855 1 859 1 925 1 943 1 999 1 294 1 344 1 354 1 408 1 415 1 432 1 437 1 471 1 479 1 508 1 510 1 527 1 532 1 535 1 548 1 549 1 644 1 649 1 670 1 687 1 692 1 718 1 747 1 755 1 820 1 828 1 835 1 840 1 841 1 885 1 953 1 959 1 997 1 1000 1 1011 1 
1 211 1 1 49 2 67 1 68 2 86 2 89 1 94 1 105 1 118 1 155 1 159 1 160 1 165 1 196 1 232 1 239 1 257 1 266 1 275 1 283 1 12 1 21 1 113 1 150 1 156 1 166 1 170 1 183 1 186 1 191 1 195 1 210 1 221 1 242 1 244 1 247 1 256 1 269 1 279 1 302 2 317 1 382 1 397 1 433 1 460 1 469 1 473 1 513 1 514 1 521 1 539 1 552 1 553 1 561 1 591 1 656 1 701 1 707 2 715 1 758 1 759 1 796 1 801 1 818 1 827 1 838 1 841 1 869 1 875 1 877 1 884 1 909 1 933 1 948 1 952 1 965 1 976 1 991 1 307 1 328 1 336 1 367 1 399 1 415 1 436 1 451 1 454 1 458 1 462 1 504 1 515 1 546 1 670 1 711 1 731 1 738 1 740 1 747 1 782 1 788 1 814 1 820 1 836 1 839 1 847 1 856 1 858 1 874 1 925 1 940 1 966 1 969 1 990 1 1004 1 1005 1 
1 212 37 1 46 1 55 1 63 1 72 1 94 1 119 1 131 1 145 2 160 1 161 1 209 1 254 1 283 1 3 1 8 1 15 1 27 1 35 1 38 1 40 1 59 1 62 1 116 1 140 1 148 1 189 1 242 1 253 1 264 1 306 2 320 1 326 1 333 1 356 1 372 1 397 1 402 1 415 1 454 1 455 2 475 1 495 1 499 1 509 1 511 1 518 1 525 1 527 1 577 1 582 1 585 1 603 1 649 1 650 1 679 1 688 1 713 1 755 1 793 1 801 1 811 1 841 1 842 1 843 1 861 1 862 1 916 1 951 1 981 1 986 1 989 1 302 1 328 1 384 1 479 1 549 1 556 1 579 1 590 1 597 1 609 1 647 1 657 1 677 1 682 1 684 1 703 1 769 1 791 1 796 1 808 1 809 1 823 1 851 1 866 1 883 1 888 1 911 1 930 1 960 1 968 1 973 1 987 1 1007 1 1011 1 1013 1 
1 209 4 1 17 1 20 2 32 1 33 1 94 1 99 1 111 1 119 1 120 1 135 1 167 1 175 1 176 1 181 1 183 1 243 1 253 1 275 1 55 1 115 1 127 1 138 1 160 1 177 1 208 1 213 1 222 1 230 1 255 1 280 1 283 1 310 1 368 1 371 1 414 1 444 1 462 1 471 1 473 1 474 1 477 1 484 1 497 1 516 1 571 1 601 1 635 1 658 1 670 1 691 1 697 2 722 1 737 1 760 1 767 1 843 1 853 1 863 1 870 1 874 1 910 1 923 1 941 1 946 2 961 1 978 1 994 1 294 1 312 1 320 1 339 1 369 1 388 1 395 1 397 1 403 1 419 1 438 1 472 1 481 1 499 1 502 1 513 1 517 1 528 1 529 1 544 1 547 1 560 1 575 1 603 1 604 1 609 1 615 1 641 1 644 1 683 1 746 1 761 1 798 1 802 1 808 1 813 1 818 1 855 1 860 1 865 1 911 1 935 1 953 1 971 1 975 1 991 1 1003 1 1005 1 1027 1 
1 212 5 1 25 1 33 1 53 1 73 1 77 1 80 1 82 1 97 1 102 1 105 1 107 1 130 1 183 1 222 1 236 1 263 1 273 1 14 1 30 1 42 1 58 1 70 1 94 1 163 1 169 1 217 1 260 1 264 1 267 1 289 1 306 1 312 1 330 2 351 1 370 1 384 1 390 1 422 1 446 1 461 1 475 1 478 1 509 1 594 1 604 1 614 1 618 1 623 1 638 1 691 2 736 1 765 1 850 1 863 1 904 1 909 1 946 1 956 1 970 1 301 1 316 1 321 1 333 1 337 1 397 1 399 1 411 1 434 1 439 1 444 1 447 1 473 1 481 1 496 1 520 1 554 1 566 1 575 1 600 1 602 1 633 1 658 1 670 1 732 1 777 1 778 1 787 1 825 1 830 1 839 1 849 1 855 1 856 1 883 1 890 1 893 1 910 1 917 1 928 1 967 1 1002 1 1022 1 1025 1 
1 208 4 1 7 1 53 1 57 1 97 1 133 1 138 1 143 1 151 1 168 1 180 1 183 1 188 2 197 1 227 1 248 1 270 1 273 1 288 1 12 1 19 1 51 1 54 1 62 1 92 1 93 1 99 1 127 1 128 1 129 1 172 1 206 1 243 1 263 1 276 1 309 1 321 1 353 1 354 1 360 1 395 1 400 1 429 1 501 1 507 1 509 1 532 1 543 1 552 1 562 1 566 1 572 1 581 2 582 1 595 1 601 1 608 1 665 2 675 1 749 1 752 1 757 1 773 1 783 1 792 1 803 1 826 2 830 2 862 1 879 1 884 1 887 1 903 1 907 1 931 1 937 1 980 1 981 2 993 1 294 1 308 1 311 1 320 1 341 1 379 1 409 1 466 1 469 1 475 1 482 1 489 1 504 1 515 1 587 1 597 1 635 1 636 1 647 1 697 1 707 1 714 1 720 1 728 1 753 1 780 1 853 1 897 1 909 1 924 1 928 1 938 1 965 1 986 1 988 1 996 1 1000 1 1022 1 1023 1 
1 211 1 1 67 1 79 1 100 1 108 1 117 1 145 1 159 1 169 1 171 1 181 1 183 1 228 1 229 1 252 1 264 1 270 1 273 1 277 1 9 1 27 1 69 1 85 1 93 1 114 1 130 1 146 1 160 1 215 1 227 1 249 1 262 1 279 1 301 1 318 1 333 1 341 1 353 2 362 1 390 1 427 1 453 1 461 1 473 1 507 1 525 1 538 1 559 1 573 1 580 1 595 1 655 1 688 1 701 1 743 1 757 1 768 1 845 1 850 2 852 1 873 1 884 1 895 1 903 1 915 1 924 1 948 1 963 1 975 1 993 1 994 1 291 1 296 1 322 1 337 1 364 1 399 1 440 1 441 1 445 1 466 1 478 1 480 1 517 1 518 1 548 1 551 1 558 1 582 1 590 1 597 1 604 1 628 1 631 1 640 1 660 1 679 1 680 1 687 1 698 1 709 1 712 1 740 1 754 1 784 1 843 1 861 1 874 1 881 1 896 1 910 1 951 1 983 1 1003 1 1008 1 1015 1 1020 1 1025 1 
1 213 41 2 44 1 47 1 67 1 75 1 78 1 85 1 120 1 126 1 150 1 166 1 179 1 188 1 212 1 234 1 251 1 275 1 12 1 19 1 21 1 37 1 49 1 90 1 100 1 119 1 141 1 170 1 187 1 189 1 205 1 206 1 235 1 240 1 273 1 290 1 304 1 307 1 313 2 320 1 329 1 339 1 340 1 347 2 375 1 399 1 415 1 439 1 447 1 480 1 493 2 499 1 542 1 550 1 581 1 608 1 622 1 632 1 633 1 634 1 663 1 667 1 686 1 691 1 695 2 698 1 707 1 715 1 787 1 788 1 791 1 795 1 801 1 839 1 873 1 874 1 893 1 912 1 932 1 939 1 947 1 950 1 969 1 975 1 976 1 293 1 300 1 308 1 324 1 325 1 333 1 345 1 350 1 351 1 382 1 419 1 435 1 494 1 511 1 518 1 523 1 525 1 539 1 590 1 597 1 613 1 629 1 665 1 675 1 680 1 711 1 726 1 744 1 753 1 834 1 871 1 883 1 905 1 906 1 911 1 913 1 935 1 1005 1 1018 1 1025 1 1027 1 
1 210 22 1 23 1 27 2 44 1 88 1 91 1 106 1 124 1 204 1 208 1 257 1 264 1 283 1 21 1 37 1 52 1 60 1 85 1 135 1 142 1 165 1 169 1 188 1 241 1 256 1 273 1 276 1 279 1 280 1 311 1 316 1 318 1 348 1 358 1 456 1 457 1 481 1 486 1 488 1 496 1 511 1 514 1 516 1 528 1 583 1 605 1 638 1 670 1 678 1 686 1 738 1 747 1 757 1 773 1 798 1 803 1 815 1 823 1 835 1 855 1 862 1 914 1 916 1 917 1 918 1 925 1 940 1 953 1 958 2 976 1 980 1 992 1 297 1 323 1 351 1 356 1 360 1 364 1 398 1 414 1 425 1 434 1 463 1 467 1 479 1 483 1 484 1 503 1 515 1 523 1 541 1 546 1 563 1 582 1 598 1 651 1 663 1 673 1 681 1 703 1 729 1 733 1 736 1 745 1 759 1 820 1 822 1 836 1 846 1 866 1 873 1 894 1 911 1 938 1 950 1 954 1 967 1 991 1 1000 1 1020 1 
1 213 7 1 10 1 38 1 49 1 51 2 53 1 84 1 116 1 120 1 147 1 180 1 189 1 197 1 227 1 245 1 270 1 3 1 5 1 23 1 79 1 89 1 95 1 107 1 110 1 115 1 124 1 149 1 168 1 238 1 253 1 273 1 291 1 304 1 318 1 336 1 369 1 383 1 385 1 400 1 414 2 439 1 448 1 467 1 486 1 516 1 528 1 529 1 541 1 566 1 570 1 575 1 585 1 609 1 623 1 626 1 645 1 661 1 663 1 664 1 673 1 699 1 803 1 807 1 839 1 846 1 855 1 862 1 868 1 886 1 894 1 919 1 930 1 948 2 949 1 971 1 975 1 986 1 295 1 298 1 356 1 367 1 381 1 422 1 440 1 459 1 478 1 483 1 521 1 538 1 548 1 578 1 600 1 606 1 649 1 671 1 674 1 691 1 695 1 706 1 742 1 748 1 752 1 774 1 795 1 802 1 832 1 853 1 895 1 917 1 925 1 980 1 982 1 984 1 994 1 1001 1 1027 1 
1 211 32 1 38 1 87 1 98 1 104 1 112 1 117 1 118 1 126 1 158 1 172 2 210 1 229 1 260 1 263 1 269 1 31 1 59 1 73 1 100 1 140 1 145 1 185 1 196 1 223 1 225 1 232 1 246 1 270 1 284 1 287 1 289 1 303 1 336 1 358 1 372 1 388 1 424 1 428 1 453 1 458 1 469 1 480 1 515 1 525 1 546 1 556 1 561 1 576 1 621 1 649 1 654 1 664 1 671 1 681 1 713 1 720 1 737 1 806 1 810 1 835 1 857 1 887 1 899 1 912 1 970 1 978 1 982 1 337 1 339 1 374 1 381 1 382 1 389 1 396 1 413 1 416 1 427 1 455 1 459 1 463 1 467 1 471 1 506 1 513 1 530 1 565 1 606 1 610 1 701 1 703 1 730 1 731 1 736 1 739 1 787 1 830 1 850 1 895 1 896 1 918 1 926 1 992 1 1003 1 1017 1 1023 1 
1 209 30 1 42 1 44 1 51 1 61 1 64 1 155 1 168 1 175 1 194 1 224 1 233 1 250 1 256 1 259 1 263 1 274 1 275 1 15 1 28 1 35 1 37 1 45 1 59 1 110 1 115 1 157 1 174 1 218 1 221 1 246 1 293 1 296 1 309 1 314 1 321 1 332 1 336 1 340 2 343 1 371 1 385 1 404 1 429 1 439 1 448 1 464 1 477 1 483 1 507 1 512 2 513 1 533 1 536 1 544 1 595 1 612 1 667 2 704 1 705 1 707 1 717 1 737 1 808 1 842 1 847 1 858 1 861 1 871 1 883 1 893 1 922 1 925 1 927 1 944 1 959 1 997 1 297 1 328 1 352 1 381 1 431 1 496 1 498 1 509 1 516 1 547 1 558 1 566 1 598 1 624 1 639 1 657 1 665 1 670 1 721 1 725 1 770 1 786 1 794 1 807 1 816 1 817 1 840 1 877 1 888 1 949 1 958 1 968 1 987 1 989 1 996 1 1010 1 
1 211 25 1 33 1 46 1 49 1 52 2 53 1 80 1 95 1 96 1 111 1 128 1 137 1 160 1 169 1 171 1 177 1 205 1 206 1 224 1 246 1 279 1 295 1 4 1 15 1 40 1 47 1 50 1 76 1 85 1 87 1 98 1 104 1 125 1 131 1 161 1 163 1 172 1 181 1 209 1 219 1 248 1 252 1 266 1 267 1 290 1 320 1 340 1 342 1 345 1 385 1 389 1 421 1 442 1 443 1 471 1 489 1 499 1 528 1 532 1 534 1 541 1 568 1 603 1 621 1 629 1 632 1 680 1 687 1 716 1 727 1 729 1 753 2 769 1 780 1 795 1 819 1 843 1 846 1 849 1 864 1 891 1 909 1 931 1 946 1 998 1 374 1 375 1 402 1 410 1 448 1 452 1 458 1 482 1 513 1 537 1 624 1 637 1 656 1 674 1 695 1 773 1 817 1 826 1 828 1 829 1 837 1 874 1 881 1 892 1 903 1 913 1 928 1 932 1 945 1 947 1 992 1 1004 1 1022 1 1026 1 
1 213 3 1 6 1 44 1 77 1 106 1 110 2 114 1 127 1 129 1 132 1 137 1 185 1 188 1 191 1 216 1 242 1 247 1 256 1 5 1 46 1 52 1 109 1 118 1 155 1 182 1 292 1 295 1 303 1 323 2 335 2 336 1 342 1 344 1 355 1 368 1 418 1 426 1 439 1 443 1 496 1 499 1 529 1 563 1 566 1 592 1 600 2 606 1 611 2 627 1 647 1 684 1 703 2 750 1 782 1 811 1 821 1 855 2 866 1 882 1 895 1 904 1 939 1 956 1 979 1 991 1 305 1 321 1 322 1 347 1 350 1 361 1 365 1 369 1 456 1 493 1 503 1 515 1 516 1 534 1 536 1 568 1 609 1 610 1 614 1 618 1 665 1 702 1 725 1 726 1 742 1 744 1 781 1 789 1 822 1 833 1 850 1 858 1 860 1 872 1 896 1 899 1 909 1 938 1 973 1 982 1 987 1 1003 1 1010 1 1016 1 1018 1 1019 1 1021 1 
1 212 20 1 27 1 28 1 31 1 39 1 41 1 82 1 125 1 134 1 136 1 146 1 150 1 167 1 224 1 230 1 262 1 14 1 15 1 30 1 38 1 64 1 78 1 81 1 108 1 129 1 151 1 155 1 157 1 160 1 162 1 261 1 267 1 293 1 312 1 322 1 328 2 331 1 354 1 358 1 359 1 373 1 401 1 429 1 432 1 433 1 440 1 458 1 496 1 505 1 524 1 550 1 560 1 561 1 592 1 597 1 599 1 667 1 668 1 673 1 703 1 714 1 729 1 742 1 816 1 833 1 855 1 860 1 883 1 894 1 900 1 916 1 918 1 927 1 933 1 966 1 980 1 982 1 996 1 300 1 303 1 381 1 391 1 398 1 414 1 418 1 431 1 434 1 456 1 459 1 469 1 470 1 481 1 581 1 687 1 691 1 712 1 724 1 733 1 755 1 757 1 771 1 772 1 838 1 841 1 907 1 928 1 930 1 950 1 951 1 978 1 1008 1 1022 1 1023 1 
1 208 6 1 15 1 19 1 21 1 22 1 26 1 38 1 42 1 57 1 71 1 106 1 125 1 127 1 132 1 141 1 160 1 177 1 247 1 250 1 261 1 282 1 23 1 28 1 35 1 59 1 104 1 111 1 129 1 143 1 145 1 158 1 170 1 194 1 203 1 306 1 330 1 338 1 360 1 366 1 369 1 382 1 418 1 465 1 472 1 481 1 507 1 528 1 530 1 548 1 561 1 578 1 592 1 602 1 635 1 637 1 688 2 692 1 715 2 719 2 739 1 771 1 799 1 803 1 813 1 815 2 822 1 914 1 918 1 927 1 932 1 943 1 986 1 304 1 315 1 320 1 324 1 327 1 345 1 355 1 362 1 370 1 402 1 422 1 427 1 432 1 489 1 495 1 506 1 545 1 598 1 613 1 625 1 648 1 668 1 672 1 676 1 703 1 745 1 778 1 797 1 806 1 819 1 821 1 852 1 855 1 866 1 877 1 949 1 950 1 984 1 995 1 1001 1 1010 1 
1 217 6 1 8 2 10 1 22 1 24 1 57 1 62 1 70 1 113 1 127 1 148 1 157 1 164 1 183 1 215 1 218 1 232 1 238 1 239 1 247 1 282 1 9 1 45 1 46 1 85 1 138 1 199 1 221 1 235 1 241 1 281 1 291 1 298 1 313 1 327 1 333 1 335 1 337 1 347 1 358 1 371 1 375 1 444 1 451 1 462 1 477 1 503 1 512 1 514 1 520 1 539 1 550 1 555 2 557 1 588 1 612 1 648 1 661 1 679 1 750 1 759 2 771 1 775 1 813 1 820 1 840 1 848 1 849 2 874 1 896 1 916 1 918 1 949 1 957 1 976 1 984 1 992 1 1000 1 317 1 345 1 357 1 368 1 379 1 390 1 402 1 437 1 463 1 573 1 583 1 587 1 619 1 670 1 734 1 772 1 789 1 798 1 823 1 831 1 846 1 866 1 936 1 946 1 1003 1 1006 1 1014 1 1015 1 1016 1 1017 1 
1 211 3 1 4 1 7 1 12 1 14 1 52 1 65 1 91 1 141 1 161 1 163 1 164 1 204 1 207 1 229 1 236 1 240 1 246 1 247 1 290 1 8 1 22 1 28 1 44 1 60 1 120 1 165 1 180 1 194 1 198 1 200 1 230 1 276 1 288 1 309 1 321 1 345 1 350 1 364 1 388 1 395 1 400 1 412 1 414 1 435 1 475 1 585 1 590 1 607 1 631 1 671 1 677 1 692 1 696 2 724 1 754 1 788 1 810 1 822 1 847 1 861 1 864 1 884 1 893 1 905 1 963 1 972 1 984 1 999 1 319 1 343 1 389 1 420 1 467 1 470 1 480 1 481 1 485 1 534 1 563 1 569 1 597 1 616 1 621 1 627 1 660 1 661 1 701 1 704 1 720 1 747 1 784 1 787 1 790 1 801 1 805 1 806 1 816 1 858 1 880 1 886 1 908 1 909 1 918 1 924 1 959 1 970 1 997 1 1005 1 1011 1 1021 1 
1 209 5 1 8 1 65 1 67 1 70 1 75 2 84 1 144 1 181 1 182 1 202 1 247 1 259 1 280 1 285 2 34 1 38 1 41 1 43 1 48 1 51 1 118 1 141 1 148 1 189 1 196 1 219 1 228 1 286 1 311 1 313 1 319 1 331 1 364 1 383 1 401 1 423 1 512 1 521 1 525 1 554 1 566 1 629 1 651 1 661 2 664 1 669 1 675 1 680 1 681 2 722 2 744 1 774 1 791 1 795 1 805 1 863 1 870 1 916 1 933 2 938 1 948 1 964 1 992 1 1001 1 323 1 337 1 388 1 394 1 463 1 464 1 468 1 469 1 473 1 516 1 550 1 565 1 577 1 593 1 605 1 610 1 614 1 640 1 676 1 677 1 684 1 694 1 695 1 729 1 731 1 732 1 776 1 777 1 789 1 821 1 853 1 874 1 883 1 908 1 931 1 959 1 963 1 969 1 976 1 978 1 998 1 1026 1 
1 209 12 1 18 1 102 1 116 1 120 1 137 1 166 1 190 2 203 1 212 1 218 1 226 1 245 1 260 1 273 1 294 1 297 1 1 1 8 1 15 1 30 1 52 1 66 1 68 1 95 1 144 1 181 1 183 1 202 1 206 1 214 1 223 1 235 1 247 1 271 1 274 1 298 1 306 1 342 1 345 1 355 1 382 1 396 1 400 1 404 1 416 2 432 1 471 1 493 1 494 1 562 1 564 1 573 1 607 1 624 1 627 1 678 1 690 2 708 1 712 1 719 1 764 1 767 2 772 1 778 1 787 1 801 2 805 1 814 1 819 1 838 1 845 1 885 1 899 1 909 1 914 1 918 1 921 1 951 1 957 1 310 1 314 1 324 1 336 1 354 1 359 1 376 1 393 1 403 1 430 1 434 1 449 1 507 1 540 1 542 1 566 1 609 1 615 1 626 1 633 1 638 1 654 1 673 1 681 1 737 1 752 1 754 1 825 1 828 1 852 1 898 1 901 1 919 1 947 1 1002 1 1004 1 1023 1 
1 208 5 1 54 1 57 1 95 1 137 1 144 1 147 1 167 1 177 1 193 1 198 1 205 1 244 1 252 1 291 1 293 1 25 1 62 1 116 1 126 1 133 1 145 1 157 1 185 1 189 1 194 1 213 1 223 1 233 1 246 1 255 1 258 1 261 1 299 1 307 1 330 1 342 2 347 1 352 1 369 1 385 1 392 1 446 1 450 1 465 1 480 1 498 1 500 1 526 2 572 1 587 1 610 1 616 1 672 1 679 1 689 1 705 1 715 1 740 1 741 1 755 1 765 2 773 1 785 1 789 1 790 1 798 1 845 1 854 1 861 1 887 1 904 1 912 1 926 1 928 2 931 2 936 2 963 1 972 1 982 1 985 1 988 1 996 1 329 1 332 1 334 1 355 1 362 1 412 1 414 1 447 1 481 1 493 1 548 1 549 1 555 1 584 1 624 1 637 1 664 1 675 1 693 1 736 1 750 1 788 1 812 1 817 1 846 1 917 1 973 1 989 1 1004 1 1012 1 1019 1 1026 1 1027 1 
1 215 2 1 95 1 107 1 111 1 126 1 173 1 174 1 175 2 227 1 240 1 271 1 278 1 14 1 15 1 64 1 78 1 97 1 112 1 166 1 178 1 189 1 197 1 206 1 212 1 229 1 237 1 238 1 274 1 280 1 297 1 311 1 312 1 352 1 366 1 381 1 452 1 467 1 485 2 507 1 525 1 528 1 565 1 575 1 607 1 620 1 647 1 666 2 687 1 695 1 728 1 743 1 754 1 766 1 767 1 774 1 789 1 825 1 866 1 868 1 883 1 888 1 890 1 337 1 343 1 398 1 427 1 435 1 451 1 464 1 468 1 505 1 512 1 542 1 550 1 571 1 580 1 583 1 594 1 603 1 637 1 643 1 656 1 659 1 690 1 710 1 724 1 726 1 734 1 736 1 756 1 759 1 765 1 771 1 780 1 794 1 809 1 814 1 828 1 830 1 839 1 863 1 869 1 879 1 920 1 922 1 923 1 956 1 964 1 970 1 979 1 991 1 1002 1 1005 1 1008 1 1021 1 1023 1 
1 211 15 1 26 1 47 1 67 1 75 1 78 1 118 1 131 1 135 1 143 1 174 1 177 1 179 1 198 1 230 1 237 1 245 1 253 1 286 2 288 1 299 1 303 1 36 1 41 1 69 1 70 1 79 1 154 1 163 1 168 1 211 1 218 1 244 1 255 1 327 1 332 1 345 1 380 1 387 1 400 1 421 1 441 1 442 1 459 1 467 1 503 1 524 1 528 2 536 1 538 1 547 1 549 1 618 1 629 1 646 1 650 1 662 1 673 1 678 1 706 1 747 1 775 1 790 1 802 1 803 1 804 1 842 1 863 1 865 1 870 1 871 1 876 1 880 1 909 1 918 1 940 1 952 1 966 1 974 1 987 1 329 1 330 1 344 1 358 1 363 1 390 1 398 1 416 1 431 1 438 1 443 1 477 1 488 1 490 1 500 1 513 1 540 1 553 1 608 1 628 1 644 1 674 1 692 1 693 1 715 1 732 1 740 1 760 1 776 1 781 1 809 1 823 1 850 1 893 1 963 1 981 1 990 1 1007 1 1011 1 
1 212 64 1 68 1 72 1 81 1 102 1 108 1 119 1 136 1 150 1 207 1 212 1 215 1 228 1 238 1 253 1 270 1 280 2 284 1 291 1 304 1 8 1 31 1 57 1 61 1 97 1 135 1 138 1 193 1 205 1 210 1 285 1 335 1 349 1 380 1 388 1 426 2 489 1 497 1 517 1 522 1 534 1 540 1 543 1 546 1 558 1 569 1 572 1 585 1 600 1 604 1 634 1 641 1 670 1 679 1 704 1 707 1 718 1 797 1 798 1 812 1 835 1 869 1 903 1 923 1 934 1 953 1 983 1 986 1 996 1 999 1 318 1 341 1 350 1 359 1 360 1 361 1 367 1 389 1 396 1 400 1 429 1 455 1 461 1 464 1 474 1 487 1 490 1 508 1 521 1 536 1 611 1 644 1 664 1 666 1 671 1 730 1 738 1 742 1 749 1 754 1 761 1 781 1 848 1 870 1 871 1 877 1 879 1 900 1 920 1 950 1 960 1 971 1 973 1 1025 1 1027 1 
1 205 8 1 21 1 55 2 60 1 79 1 84 1 106 1 150 1 166 1 179 1 198 1 211 1 233 1 245 1 269 1 14 1 16 1 38 1 59 1 111 1 138 1 168 1 196 1 223 1 225 1 231 1 249 1 261 1 272 1 280 1 289 1 291 1 318 1 342 1 434 2 439 1 474 1 488 1 506 1 525 1 562 1 580 1 591 1 595 1 625 1 636 1 646 1 660 1 667 1 711 1 739 2 759 1 774 1 777 1 788 1 791 1 805 1 819 1 864 1 870 1 874 1 883 1 910 2 932 1 934 1 945 1 948 2 998 1 311 1 324 1 353 1 361 1 374 1 401 1 421 1 427 1 431 1 452 1 456 1 470 1 482 1 483 1 518 1 536 1 544 1 552 1 558 1 560 1 573 1 581 1 615 1 663 1 677 1 681 1 683 1 696 1 717 1 728 1 733 1 738 1 752 1 767 1 798 1 802 1 806 1 838 1 841 1 842 1 861 1 862 1 869 1 885 1 892 1 937 1 974 1 1012 1 1017 1 1021 1 
1 211 3 1 39 1 40 1 51 1 76 1 81 2 100 1 130 1 133 2 146 1 214 1 221 1 235 1 239 1 277 1 289 1 295 1 301 1 12 1 15 1 19 1 25 1 29 1 45 1 56 1 79 1 86 1 118 1 185 1 252 1 259 1 313 1 315 1 341 1 352 1 361 1 376 1 403 2 405 1 428 1 448 1 455 1 465 1 477 2 483 1 491 1 550 1 551 2 583 1 585 1 590 1 635 1 654 1 658 1 668 1 677 1 707 1 744 1 748 1 854 1 890 1 903 1 906 1 938 1 952 1 971 1 978 1 991 1 344 1 349 1 363 1 370 1 373 1 390 1 391 1 444 1 446 1 461 1 476 1 479 1 486 1 539 1 544 1 558 1 561 1 576 1 591 1 606 1 611 1 624 1 637 1 640 1 645 1 708 1 727 1 761 1 768 1 777 1 786 1 805 1 819 1 831 1 834 1 843 1 859 1 863 1 868 1 873 1 874 1 886 1 940 1 945 1 948 1 954 1 956 1 1011 1 1015 1 1016 1 1022 1 1025 1 
1 212 27 1 42 1 45 1 54 1 79 1 82 1 89 1 95 1 98 1 100 1 103 1 121 1 126 1 129 1 140 1 150 1 154 1 177 1 184 1 226 1 227 1 241 1 245 1 254 1 287 1 21 1 37 1 65 1 80 1 99 1 127 1 134 1 145 1 162 1 183 1 207 1 211 1 234 1 238 1 251 1 257 1 258 1 303 1 330 1 367 1 389 1 410 2 438 1 467 1 522 1 545 1 574 1 590 1 596 1 616 1 621 1 647 1 650 1 661 1 689 1 690 1 717 1 739 1 761 1 764 1 766 1 814 1 858 1 868 1 884 1 935 1 936 1 963 1 983 1 990 1 994 1 373 1 418 1 424 1 440 1 447 1 466 1 498 1 506 1 508 1 513 1 525 1 536 1 538 1 549 1 567 1 570 1 601 1 604 1 614 1 626 1 636 1 638 1 701 1 723 1 748 1 750 1 755 1 773 1 775 1 795 1 801 1 818 1 833 1 850 1 856 1 886 1 891 1 909 1 920 1 924 1 926 1 945 1 948 1 951 1 979 1 985 1 1001 1 1010 1 1026 1 1027 1 
1 218 28 1 47 1 48 1 59 1 103 1 108 1 118 1 131 1 227 1 255 1 262 1 265 1 292 1 302 1 305 1 26 1 38 1 41 1 64 1 77 1 89 1 129 1 149 1 156 1 193 1 226 1 233 1 264 1 267 1 289 1 308 1 335 1 351 1 364 1 375 1 404 1 416 1 452 1 453 1 459 1 469 1 471 1 505 1 529 1 536 1 560 1 581 1 591 1 593 1 594 1 633 1 650 1 664 1 708 1 712 1 732 1 743 1 745 1 748 1 754 2 755 1 761 1 774 1 820 1 853 1 900 1 931 1 975 1 985 1 991 1 997 1 318 1 355 1 373 1 391 1 431 1 438 1 454 1 484 1 488 1 489 1 559 1 604 1 607 1 610 1 617 1 621 1 624 1 686 1 749 1 790 1 810 1 832 1 865 1 875 1 902 1 907 1 948 1 989 1 1002 1 1005 1 1007 1 1010 1 1013 1 1014 1 1021 1 1025 1 1026 1 
1 204 2 1 11 1 24 2 32 1 50 1 76 1 95 1 123 1 135 1 202 1 211 1 288 1 298 1 305 1 31 1 39 1 57 1 103 1 107 1 111 1 113 1 134 1 137 1 144 1 160 1 187 1 231 1 234 1 235 1 237 1 263 1 265 1 268 1 287 1 316 1 339 1 344 1 352 1 359 1 362 1 363 1 364 1 365 1 384 1 390 1 399 1 409 1 442 1 446 1 477 1 490 1 545 1 546 2 600 1 617 1 693 1 705 1 715 1 719 1 731 1 741 1 746 1 755 1 768 1 775 1 804 1 805 1 813 1 834 1 844 1 906 1 921 1 922 1 928 1 932 1 937 1 977 1 998 1 335 1 357 1 361 1 398 1 401 1 418 1 436 1 437 1 479 1 499 1 509 1 515 1 560 1 569 1 571 1 589 1 595 1 606 1 613 1 618 1 626 1 639 1 678 1 690 1 691 1 744 1 793 1 806 1 836 1 864 1 866 1 868 1 881 1 893 1 943 1 965 1 981 1 990 1 1003 1 
1 209 25 2 87 1 95 1 100 1 106 1 111 1 152 1 182 1 223 1 230 1 260 1 269 1 291 2 300 1 302 1 309 1 4 1 54 1 63 1 89 1 99 1 139 1 151 1 161 1 185 1 187 1 203 1 212 1 216 1 242 1 246 1 247 1 256 1 279 1 313 1 313 1 319 1 321 1 324 1 329 1 387 1 395 1 412 1 428 1 475 1 478 1 488 1 540 1 599 1 614 1 629 1 651 1 668 1 685 1 688 1 698 1 732 1 753 1 757 1 789 1 801 1 843 1 866 1 894 2 903 1 904 1 905 1 951 1 989 1 994 1 315 1 348 1 370 1 376 1 409 1 424 1 431 1 438 1 477 1 493 1 503 1 525 1 547 1 567 1 603 1 604 1 643 1 644 1 653 1 725 1 728 1 764 1 826 1 830 1 847 1 853 1 863 1 880 1 886 1 887 1 897 1 911 1 914 1 918 1 931 1 957 1 1009 1 1014 1 
1 211 2 1 9 1 49 1 66 1 72 1 91 1 94 1 101 1 120 2 121 1 145 1 147 1 166 1 174 1 175 1 220 1 232 1 235 2 236 1 245 1 295 1 25 1 32 1 78 1 90 1 113 1 124 1 129 1 141 1 169 1 190 1 212 1 248 1 252 1 264 1 272 1 303 1 385 1 386 1 426 1 437 1 459 1 477 1 523 1 544 1 565 1 567 1 575 1 586 1 589 1 598 1 612 1 641 1 647 1 648 1 655 1 693 1 717 1 725 1 727 1 728 1 736 1 752 2 756 1 782 1 905 1 946 1 955 1 971 1 992 1 993 1 335 1 343 1 348 1 360 1 367 1 372 1 376 1 412 1 414 1 424 1 431 1 479 1 500 1 513 1 515 1 520 1 534 1 537 1 590 1 592 1 604 1 618 1 621 1 650 1 652 1 658 1 685 1 708 1 740 1 744 1 770 1 786 1 787 1 788 1 807 1 809 1 833 1 837 1 841 1 849 1 855 1 863 1 875 1 876 1 958 1 972 1 1007 1 1010 1 1022 1 
1 210 3 1 48 1 54 1 62 1 82 1 83 1 102 1 132 1 142 1 156 1 186 1 229 1 237 1 262 1 275 1 309 1 7 1 33 1 57 1 58 1 84 1 89 1 98 1 117 1 155 1 171 1 177 1 180 1 184 1 202 1 204 1 213 1 219 1 227 1 242 1 255 1 299 1 313 1 315 1 315 1 317 1 345 1 351 1 372 1 386 1 394 1 415 1 433 1 489 1 499 1 574 1 581 1 606 2 614 1 622 1 643 1 655 1 681 1 704 1 764 1 771 1 780 1 781 1 792 2 802 1 854 1 881 1 895 2 905 1 911 1 938 1 971 1 1000 1 340 1 347 1 358 1 364 1 374 1 391 1 396 1 397 1 409 1 417 1 480 1 502 1 534 1 540 1 546 1 547 1 554 1 561 1 565 1 587 1 594 1 623 1 653 1 666 1 690 1 729 1 762 1 776 1 800 1 801 1 842 1 864 1 896 1 903 1 912 1 946 1 975 1 979 1 984 1 1013 1 1014 1 1017 1 1019 1 1023 1 
1 212 13 1 24 1 28 1 62 1 81 1 103 1 125 1 136 1 150 1 151 1 156 1 207 1 216 1 225 1 260 1 263 1 292 1 312 1 9 1 20 1 38 1 48 1 61 1 66 1 76 1 99 1 112 1 132 1 133 1 149 1 153 1 182 1 188 1 196 1 203 1 208 1 215 1 250 1 269 1 270 1 274 1 288 1 330 1 355 1 379 1 450 1 459 1 471 1 479 1 503 1 509 1 517 1 518 2 533 1 538 1 553 1 573 1 575 1 582 1 585 1 609 1 615 1 617 1 629 1 654 1 667 1 703 1 725 1 741 1 752 1 759 1 762 1 765 1 796 1 810 1 841 1 842 2 864 1 871 1 912 1 944 1 945 1 951 1 966 2 976 1 982 1 991 1 995 2 371 1 405 1 481 1 497 1 508 1 527 1 566 1 571 1 578 1 588 1 619 1 634 1 636 1 642 1 704 1 716 1 779 1 781 1 799 1 821 1 831 1 836 1 846 1 883 1 925 1 943 1 971 1 998 1 1008 1 1013 1 1015 1 1024 1 
1 210 6 1 29 1 53 1 62 1 69 2 114 1 122 1 129 2 139 1 216 1 220 1 241 2 259 1 263 1 270 1 285 1 315 1 9 1 72 1 91 1 149 1 184 1 202 1 213 1 300 1 363 1 366 1 385 1 392 1 394 2 416 1 436 1 453 1 455 1 458 1 463 1 466 1 486 1 491 1 557 1 597 1 604 1 617 2 621 1 625 1 643 1 651 1 654 1 662 1 665 1 668 1 699 2 710 2 731 1 746 1 747 1 755 1 774 1 789 1 792 1 807 1 852 1 861 1 875 1 880 1 883 1 950 1 975 1 997 1 319 1 335 1 344 1 352 1 362 1 389 1 411 1 414 1 421 1 422 1 432 1 437 1 493 1 502 1 505 1 516 1 523 1 527 1 543 1 582 1 595 1 609 1 684 1 689 1 711 1 713 1 715 1 718 1 724 1 728 1 740 1 742 1 817 1 824 1 840 1 863 1 864 1 897 1 902 1 911 1 931 1 935 1 963 1 965 1 977 1 983 1 985 1 987 1 1005 1 1006 1 1008 1 1019 1 
1 213 10 1 44 1 50 1 56 1 72 2 84 1 86 1 163 1 177 1 193 1 204 1 226 1 228 1 231 1 235 1 260 1 261 1 263 2 290 1 292 1 293 1 308 1 4 1 6 1 28 1 30 1 41 1 80 1 92 1 190 1 217 1 219 1 221 1 229 1 237 1 249 1 255 1 258 1 275 1 307 1 311 1 328 1 334 1 370 1 374 1 375 1 377 1 378 1 380 1 386 1 406 1 408 1 428 1 457 1 470 1 471 1 484 1 518 1 519 1 541 1 549 1 570 1 590 2 598 1 620 1 623 1 646 1 679 1 744 1 752 1 754 1 763 1 784 1 788 1 800 1 808 1 820 1 846 1 849 1 860 1 861 1 866 1 891 1 907 1 921 1 925 1 930 1 938 1 945 1 972 1 984 1 992 1 996 2 999 1 1001 1 331 1 415 1 429 1 444 1 446 1 458 1 463 1 514 1 530 1 543 1 552 1 559 1 571 1 650 1 653 1 695 1 723 1 726 1 782 1 787 1 794 1 795 1 809 1 855 1 857 1 881 1 886 1 909 1 916 1 935 1 942 1 958 1 960 1 966 1 980 1 982 1 990 1 1002 1 1009 1 
1 215 21 1 33 1 37 1 42 1 51 1 54 1 61 1 70 1 72 1 148 1 151 1 166 2 183 1 224 1 232 1 234 1 237 1 240 1 241 1 266 1 279 1 282 1 302 1 313 1 59 1 84 1 105 1 108 1 126 1 127 1 128 1 131 1 140 1 144 1 153 1 169 1 209 1 220 1 225 1 229 1 235 1 267 1 301 1 317 1 324 1 325 1 398 1 406 1 426 1 431 1 436 1 444 1 459 1 463 1 514 1 529 1 531 1 542 1 543 1 551 1 555 1 576 1 605 1 609 1 668 1 750 1 756 1 801 1 815 1 831 1 833 1 845 1 897 1 915 1 916 1 917 1 948 1 958 1 965 2 975 1 338 1 340 1 346 1 347 1 394 1 430 1 440 1 461 1 465 1 467 1 473 1 506 1 541 1 545 1 547 1 554 1 637 1 638 1 659 1 681 1 687 1 695 1 723 1 727 1 753 1 759 1 826 1 827 1 828 1 865 1 912 1 921 1 964 1 984 1 990 1 1009 1 1014 1 1025 1 
1 211 3 1 50 1 51 1 64 1 65 1 87 1 98 1 102 1 109 1 123 1 144 1 146 1 159 1 162 1 182 1 202 1 235 1 264 1 286 1 291 1 296 1 1 1 41 1 53 1 55 1 58 1 75 1 85 1 113 1 121 1 135 1 142 1 147 1 194 1 209 1 214 1 218 1 220 1 239 1 262 1 287 1 289 1 299 1 320 1 320 1 356 1 358 1 393 1 419 1 426 1 441 1 443 1 444 1 450 1 461 1 486 1 522 1 528 1 539 1 601 1 620 1 632 1 652 1 677 1 683 1 687 1 732 1 755 1 760 1 770 1 819 1 824 1 827 1 832 1 838 1 847 1 853 1 913 1 935 1 978 1 980 1 995 2 1000 1 331 1 332 1 340 1 354 1 369 1 387 1 405 1 449 1 456 1 462 1 463 1 497 1 517 1 530 1 549 1 586 1 592 1 606 1 615 1 641 1 646 1 682 1 739 1 748 1 786 1 811 1 841 1 851 1 879 1 896 1 912 1 948 1 970 1 1009 1 1013 1 1025 1 
1 208 9 1 20 2 26 1 28 2 31 1 40 1 115 2 125 1 136 1 140 1 183 1 218 1 228 1 230 1 233 1 254 1 289 1 295 1 301 1 313 1 5 1 44 1 48 1 54 1 70 1 76 1 90 1 124 1 133 1 137 1 148 1 166 1 184 1 202 1 207 1 221 1 223 1 226 1 250 1 275 1 288 1 297 1 327 1 384 1 392 1 400 1 401 1 405 1 413 2 419 1 427 1 430 1 436 1 456 2 469 1 474 1 487 1 510 1 527 1 548 1 562 1 581 1 586 1 595 1 599 1 628 1 644 1 651 1 667 1 683 1 697 1 707 1 717 1 731 1 761 1 769 1 772 1 811 1 830 1 844 1 875 1 883 1 897 1 921 1 928 1 934 1 947 1 962 1 976 1 348 1 375 1 383 1 391 1 440 1 446 1 449 1 489 1 537 1 543 1 568 1 569 1 611 1 640 1 643 1 656 1 680 1 712 1 719 1 726 1 727 1 771 1 778 1 814 1 818 1 831 1 840 1 847 1 851 1 871 1 872 1 877 1 930 1 932 1 955 1 956 1 959 1 965 1 994 1 1000 1 1013 1 1022 1 1024 1 
1 213 1 1 32 1 61 2 149 1 168 1 199 1 223 1 244 1 250 1 270 1 298 1 10 1 49 1 58 1 68 1 77 1 97 1 103 1 147 1 162 1 164 1 188 1 197 1 210 1 222 1 241 1 265 1 290 1 297 1 326 1 351 1 353 1 363 1 378 1 384 1 385 1 390 1 400 1 421 1 425 1 439 2 447 1 459 1 482 1 507 1 512 1 513 1 516 1 568 1 606 1 608 1 612 1 614 1 616 1 622 1 638 1 658 2 671 1 673 1 675 1 682 1 701 2 709 1 719 1 729 1 744 1 745 1 820 2 822 1 876 2 885 1 888 1 915 1 924 1 961 1 968 2 995 1 356 1 404 1 408 1 444 1 457 1 475 1 526 1 553 1 570 1 591 1 645 1 653 1 655 1 665 1 717 1 772 1 782 1 791 1 803 1 807 1 815 1 854 1 860 1 863 1 865 1 887 1 914 1 928 1 964 1 988 1 989 1 1008 1 1015 1 1017 1 1026 1 
1 212 11 1 16 2 17 1 30 1 43 1 45 1 47 1 51 1 60 1 67 1 72 1 78 1 113 1 114 1 121 1 125 1 126 1 152 1 155 1 173 1 192 1 226 1 254 1 266 1 297 2 34 1 44 1 48 1 61 1 88 1 90 1 100 1 117 1 130 1 165 1 175 1 181 1 235 1 236 1 263 1 292 1 302 1 327 1 330 1 364 1 389 1 393 1 395 1 433 1 436 1 562 1 565 1 594 2 625 1 635 1 638 1 663 1 704 1 718 2 745 1 748 1 756 1 768 1 820 1 827 1 838 1 851 1 852 1 856 1 872 1 890 1 893 1 907 1 909 1 936 2 937 1 942 1 943 1 947 1 967 1 968 1 969 1 972 1 979 1 988 1 334 1 359 1 399 1 400 1 435 1 439 1 475 1 484 1 506 1 510 1 513 1 520 1 524 1 547 1 574 1 604 1 617 1 637 1 649 1 676 1 677 1 682 1 697 1 703 1 708 1 728 1 739 1 749 1 798 1 819 1 857 1 860 1 869 1 870 1 883 1 899 1 928 1 929 1 965 1 993 1 1002 1 1003 1 1013 1 1014 1 1018 1 1022 1 
1 211 7 1 39 1 68 1 73 1 133 1 136 1 158 1 168 1 195 1 209 1 211 2 216 1 273 1 313 1 319 1 15 1 25 1 27 1 37 1 53 1 62 1 96 1 97 1 124 1 154 1 268 1 280 1 291 1 299 1 303 1 308 1 324 1 324 1 329 1 362 1 366 1 367 1 389 1 418 1 440 1 467 1 515 1 518 1 531 1 537 1 548 2 566 1 578 1 587 1 608 1 631 1 638 1 644 1 684 1 693 1 695 1 709 1 745 1 792 1 832 1 836 1 881 1 883 1 887 1 905 1 920 1 923 1 927 2 952 1 962 2 966 1 979 1 986 1 996 1 331 1 360 1 375 1 376 1 377 1 409 1 420 1 423 1 428 1 435 1 437 1 441 1 489 1 492 1 493 1 497 1 499 1 560 1 564 1 569 1 589 1 609 1 615 1 617 1 619 1 630 1 678 1 680 1 681 1 704 1 708 1 713 1 726 1 771 1 790 1 822 1 833 1 844 1 880 1 882 1 908 1 930 1 936 1 948 1 972 1 1021 1 1023 1 1025 1 1026 1 
1 208 24 1 29 1 44 1 57 1 66 1 102 1 116 2 122 1 164 1 185 1 186 1 226 1 241 1 264 1 266 1 273 1 277 2 319 1 4 1 8 1 47 1 52 1 71 1 98 1 121 1 141 1 155 1 181 1 197 1 238 1 270 1 291 1 336 1 350 1 359 1 367 1 438 1 447 1 449 1 459 1 468 1 500 1 502 1 516 1 573 1 619 1 622 1 635 1 686 1 689 1 693 1 698 1 706 1 717 1 740 1 741 1 744 1 746 1 748 1 755 2 765 1 809 1 817 1 835 1 842 1 865 1 882 1 905 1 912 1 939 1 958 1 974 1 985 1 988 1 990 1 354 1 355 1 366 1 392 1 394 1 401 1 405 1 406 1 435 1 451 1 465 1 466 1 494 1 524 1 532 1 600 1 605 1 644 1 695 1 713 1 719 1 720 1 722 1 723 1 739 1 781 1 830 1 845 1 850 1 861 1 897 1 922 1 945 1 949 1 968 1 1009 1 1011 1 1020 1 1022 1 
1 202 5 1 6 1 8 1 9 1 10 1 15 1 88 1 129 1 161 1 166 1 178 1 186 2 188 1 253 1 255 1 276 1 286 1 322 1 17 1 19 1 39 1 72 1 130 1 144 1 157 1 167 1 172 1 173 1 182 1 204 1 213 1 224 1 244 1 246 1 265 1 268 1 281 1 330 1 332 2 352 1 382 1 386 1 404 1 411 1 449 1 459 1 462 1 478 1 514 1 515 1 553 1 584 1 589 1 616 1 671 1 675 1 699 1 702 1 721 1 791 2 798 1 833 1 843 1 867 1 868 1 874 1 886 1 897 1 912 1 916 1 922 1 923 1 927 1 945 1 952 1 954 1 328 1 329 1 354 1 395 1 413 1 431 1 492 1 493 1 500 1 508 1 540 1 582 1 583 1 607 1 646 1 653 1 657 1 666 1 695 1 735 1 758 1 771 1 783 1 829 1 844 1 849 1 863 1 893 1 906 1 937 1 982 1 989 1 1001 1 
1 208 3 1 19 2 43 1 55 1 56 2 72 1 97 1 113 1 114 1 128 1 132 1 190 1 203 1 206 1 209 2 239 1 300 1 306 1 321 1 323 1 21 1 51 1 58 1 74 1 81 1 103 1 123 1 152 1 157 1 230 1 244 1 255 1 264 1 271 1 299 1 351 1 366 1 372 1 384 1 389 1 404 1 411 1 444 1 448 1 468 1 497 1 499 1 526 1 540 1 563 1 604 1 606 1 632 1 692 1 700 1 735 1 744 1 755 1 757 1 778 1 782 1 785 1 809 1 814 1 824 1 827 1 857 1 897 1 901 1 916 1 929 2 951 1 958 1 988 1 328 1 352 1 373 1 409 1 419 1 426 1 459 1 461 1 466 1 490 1 575 1 582 1 583 1 636 1 644 1 648 1 667 1 724 1 739 1 758 1 773 1 787 1 811 1 822 1 825 1 828 1 830 1 839 1 841 1 850 1 902 1 919 1 955 1 974 1 985 1 
1 208 38 1 93 1 117 1 121 1 136 1 143 1 145 1 161 1 163 1 173 1 206 2 239 1 244 1 258 1 275 1 281 1 298 2 318 1 18 1 20 1 26 1 48 1 77 1 79 1 91 1 138 1 154 1 176 1 187 1 189 1 205 1 223 1 227 1 273 1 279 1 285 1 286 1 295 1 326 1 327 1 339 1 354 1 415 1 442 1 464 1 473 2 517 1 520 1 523 1 535 1 551 1 567 1 571 1 578 1 598 1 633 1 646 1 693 1 718 1 723 2 741 1 766 1 774 1 799 1 822 2 854 1 863 1 899 1 902 1 906 1 937 1 939 1 951 1 958 1 979 1 982 1 985 1 1001 1 352 1 386 1 400 1 407 1 432 1 436 1 447 1 458 1 477 1 484 1 492 1 497 1 509 1 510 1 519 1 561 1 593 1 608 1 626 1 653 1 655 1 661 1 665 1 680 1 692 1 717 1 729 1 781 1 789 1 810 1 860 1 862 1 867 1 871 1 944 1 964 1 971 1 991 1 992 1 1012 1 1019 1 1026 1 
1 210 2 1 29 1 44 1 47 2 58 1 72 1 87 1 94 1 100 1 121 1 145 1 147 1 158 1 165 1 188 1 218 1 222 1 228 1 242 1 262 1 291 1 313 1 324 1 17 1 18 1 54 1 68 1 84 1 95 1 102 1 132 1 138 1 157 1 169 1 190 1 221 1 235 1 265 1 304 1 306 1 326 1 360 1 387 1 443 1 493 1 520 1 580 1 603 1 607 1 616 1 629 1 634 1 646 1 675 1 688 1 715 1 741 1 772 1 801 1 803 1 826 1 836 2 865 1 873 1 971 1 978 1 988 1 344 1 345 1 370 1 371 1 372 1 418 1 426 1 451 1 452 1 508 1 539 1 551 1 561 1 584 1 590 1 635 1 654 1 696 1 703 1 708 1 712 1 716 1 719 1 735 1 748 1 750 1 774 1 777 1 800 1 806 1 817 1 830 1 839 1 850 1 908 1 915 1 917 1 923 1 925 1 943 1 947 1 949 1 969 1 973 1 982 1 999 1 
1 208 172 1 183 1 187 1 219 1 235 1 259 1 274 1 275 1 288 2 299 1 304 1 310 1 316 1 323 1 326 1 20 1 29 1 30 1 43 1 45 1 65 1 89 1 105 1 109 1 115 1 123 1 127 1 153 1 182 1 215 1 216 1 217 1 232 1 237 1 254 1 280 1 306 1 351 1 375 1 383 1 402 1 435 1 441 1 446 1 466 1 468 1 483 1 486 1 501 1 514 1 531 2 537 1 548 1 579 1 605 1 628 1 684 1 704 1 732 2 734 1 736 1 757 1 786 1 790 2 802 1 821 1 877 1 882 1 902 1 909 1 967 1 970 1 995 2 1001 1 358 1 361 1 372 1 419 1 420 1 430 1 457 1 460 1 461 1 474 1 482 1 485 1 512 1 549 1 564 1 566 1 569 1 603 1 612 1 613 1 644 1 651 1 662 1 697 1 748 1 775 1 793 1 807 1 844 1 907 1 908 1 920 1 939 1 957 1 958 1 969 1 974 1 982 1 983 1 986 1 1006 1 
1 211 29 1 46 1 48 1 50 1 66 1 70 1 75 2 106 1 119 1 128 1 146 1 150 1 153 1 169 1 180 1 207 1 214 1 231 1 235 1 298 1 302 1 3 1 7 1 18 1 74 1 83 1 91 1 95 1 108 1 116 1 152 1 188 1 194 1 198 1 216 1 233 1 274 1 276 1 318 1 320 1 324 1 350 1 359 1 361 1 402 2 403 1 419 1 434 1 466 1 469 2 515 1 517 1 518 2 535 1 536 1 650 1 651 1 654 1 658 1 671 1 674 1 681 1 682 1 686 1 697 1 706 1 715 1 754 2 759 1 778 2 782 1 791 2 812 2 818 1 820 1 872 1 889 1 890 1 936 1 950 1 349 1 358 1 366 1 378 1 387 1 432 1 446 1 456 1 462 1 502 1 512 1 516 1 522 1 546 1 548 1 549 1 567 1 602 1 624 1 625 1 668 1 669 1 679 1 687 1 710 1 745 1 746 1 749 1 768 1 779 1 789 1 814 1 815 1 856 1 869 1 874 1 883 1 886 1 911 1 944 1 954 1 982 1 1002 1 1008 1 1014 1 1019 1 1024 1 
1 217 34 2 38 1 47 1 57 1 96 1 127 1 131 1 152 1 155 1 193 1 205 1 206 1 212 1 225 1 231 1 249 1 264 1 279 1 295 1 306 1 326 2 3 1 28 1 67 1 79 1 82 1 100 1 102 1 112 1 115 1 132 1 140 1 183 1 215 1 238 1 251 1 252 1 255 1 270 1 304 1 320 1 343 1 368 1 383 1 401 1 467 1 486 1 519 1 536 1 542 1 565 1 567 2 610 1 635 1 739 1 741 1 745 1 753 1 763 1 815 1 819 1 850 1 865 1 880 1 890 1 909 1 940 1 941 1 947 1 953 1 962 2 974 2 985 1 1000 1 358 1 365 1 376 1 378 1 388 1 392 1 398 1 410 1 420 1 488 1 506 1 510 1 523 1 526 1 546 1 555 1 558 1 605 1 648 1 671 1 686 1 693 1 697 1 718 1 719 1 737 1 749 1 801 1 814 1 823 1 825 1 835 1 848 1 879 1 885 1 926 1 987 1 994 1 1004 1 1006 1 1009 1 1010 1 1019 1 
1 209 7 1 48 1 66 2 104 1 108 1 130 1 134 1 146 1 147 1 148 1 149 1 157 1 173 1 179 1 181 1 203 1 234 1 245 1 253 1 255 1 260 1 275 1 286 1 290 1 300 1 8 1 13 1 24 1 26 1 53 1 64 1 67 1 72 1 112 1 204 1 224 1 232 1 238 1 283 1 288 1 291 1 339 1 353 1 358 1 389 1 411 1 455 1 466 1 488 1 489 1 507 1 509 1 522 1 529 1 536 1 561 1 572 1 628 1 672 1 695 1 704 1 723 1 739 1 753 1 771 1 803 1 832 1 838 1 874 1 880 1 890 1 929 2 959 1 965 1 973 1 975 1 977 1 360 1 380 1 387 1 403 1 437 1 504 1 505 1 506 1 510 1 524 1 533 1 546 1 570 1 576 1 591 1 592 1 602 1 656 1 667 1 699 1 737 1 738 1 780 1 794 1 833 1 841 1 843 1 866 1 916 1 934 1 950 1 961 1 970 1 989 1 990 1 997 1 1002 1 1022 1 
1 205 6 1 21 1 58 1 74 1 93 1 103 1 109 1 112 2 121 1 135 1 187 1 205 1 232 1 263 1 273 1 276 1 283 1 318 1 11 1 14 1 26 1 83 1 92 1 100 1 115 1 146 1 161 1 163 1 165 1 200 1 238 1 250 1 261 1 278 1 304 1 323 1 339 1 359 1 360 1 373 1 377 1 426 1 457 1 465 2 477 1 484 1 492 1 499 1 503 1 505 1 530 1 540 1 543 1 559 1 585 1 599 2 625 1 633 2 642 1 655 1 656 1 657 1 694 1 713 1 725 1 727 1 737 1 750 1 752 1 771 1 784 1 833 1 841 1 858 1 875 1 914 1 915 1 919 1 931 1 936 1 970 1 986 1 989 2 335 1 340 1 385 1 390 1 399 1 410 1 428 1 438 1 446 1 462 1 487 1 489 1 522 1 525 1 537 1 554 1 557 1 566 1 574 1 627 1 679 1 699 1 730 1 756 1 766 1 789 1 803 1 892 1 893 1 897 1 916 1 917 1 946 1 990 1 1007 1 1024 1 
1 210 81 1 85 1 97 1 102 1 118 1 121 1 131 1 145 1 146 1 159 1 183 1 184 1 185 1 218 1 231 1 245 2 267 1 283 1 297 2 300 1 307 1 311 1 30 1 32 1 74 1 86 1 93 1 119 1 209 1 221 1 227 1 235 1 256 1 279 1 312 1 314 1 317 1 334 1 335 1 335 1 343 1 348 1 355 1 366 1 391 1 415 1 450 1 460 1 465 1 496 1 542 1 543 1 551 1 577 1 595 1 596 1 617 1 626 1 632 1 645 1 665 1 671 1 683 1 694 1 727 1 737 1 779 1 799 1 833 1 867 1 896 1 897 1 911 1 916 1 946 1 949 1 950 1 974 1 977 1 983 1 357 1 417 1 428 1 444 1 478 1 504 1 505 1 539 1 605 1 607 1 612 1 660 1 666 1 677 1 697 1 699 1 700 1 717 1 722 1 730 1 749 1 765 1 802 1 809 1 832 1 843 1 891 1 933 1 965 1 976 1 985 1 1012 1 1019 1 1020 1 
1 208 15 1 19 1 24 1 59 1 104 1 128 1 136 1 164 1 172 1 215 1 221 1 231 1 266 1 293 1 294 1 295 1 297 1 325 1 35 1 109 1 119 1 151 1 155 1 180 1 184 1 200 1 203 1 211 1 252 1 285 1 303 1 347 2 393 1 396 1 411 1 443 1 444 1 475 1 505 1 507 1 528 1 549 1 551 1 581 2 615 1 623 1 638 1 679 1 687 1 692 1 780 1 786 1 791 1 869 1 887 1 890 1 910 1 929 1 942 1 978 1 983 1 1000 1 338 1 354 1 369 1 394 1 403 1 407 1 423 1 452 1 459 1 464 1 473 1 481 1 498 1 501 1 504 1 506 1 512 1 518 1 535 1 610 1 621 1 626 1 635 1 637 1 711 1 720 1 724 1 772 1 797 1 799 1 813 1 817 1 836 1 840 1 841 1 860 1 865 1 872 1 876 1 902 1 941 1 966 1 968 1 984 1 985 1 991 1 1014 1 1015 1 
1 214 4 1 8 1 23 1 27 1 61 1 66 1 71 1 100 1 111 1 140 1 154 1 175 1 177 1 188 1 195 1 208 1 224 1 247 1 283 1 284 1 300 1 49 1 75 1 92 1 94 1 99 1 102 1 130 1 132 1 139 1 180 1 206 1 241 1 263 1 269 1 272 1 288 1 290 1 294 1 302 1 305 1 357 1 367 1 388 1 390 1 417 1 421 1 444 1 449 1 473 1 503 1 511 1 522 1 565 1 585 1 589 1 597 1 613 1 617 1 619 1 624 1 638 2 673 1 675 1 714 1 778 1 779 1 791 1 792 1 812 1 817 1 831 1 832 1 838 1 852 1 855 1 881 1 894 1 899 1 915 1 930 1 940 1 949 2 950 1 962 1 970 1 340 1 342 1 347 1 361 1 373 1 396 1 401 1 426 1 451 1 458 1 483 1 489 1 497 1 502 1 508 1 533 1 539 1 557 1 558 1 580 1 591 1 592 1 623 1 633 1 648 1 681 1 711 1 738 1 773 1 781 1 784 1 806 1 836 1 890 1 903 1 921 1 924 1 926 1 928 1 1005 1 1026 1 
1 211 39 1 41 1 59 1 64 1 93 1 117 1 147 1 154 1 163 1 180 1 204 1 272 1 299 1 32 1 38 1 95 1 96 1 98 1 108 1 110 1 126 1 136 1 139 1 161 1 162 1 171 1 172 1 175 1 189 1 192 1 203 1 215 1 229 1 239 1 240 1 275 1 319 1 336 1 361 1 372 1 374 1 381 1 385 1 393 1 396 2 416 1 431 1 434 1 449 1 469 1 534 1 564 1 602 1 604 1 618 1 625 1 628 1 630 1 684 1 697 1 722 1 755 1 768 1 780 1 784 1 797 1 829 1 839 1 915 1 931 1 938 1 978 1 989 1 342 1 365 1 378 1 390 1 419 1 423 1 456 1 459 1 463 1 474 1 505 1 515 1 535 1 539 1 544 1 588 1 613 1 626 1 633 1 647 1 664 1 680 1 685 1 696 1 700 1 704 1 706 1 729 1 763 1 764 1 778 1 782 1 792 1 832 1 855 1 866 1 928 1 933 1 939 1 941 1 951 1 957 1 960 1 973 1 1003 1 1018 1 1024 1 1027 1 
1 208 27 1 43 1 79 1 98 1 104 1 106 1 110 1 118 1 122 1 161 1 179 1 183 1 186 1 193 2 202 1 233 1 243 1 253 2 291 1 312 1 328 1 333 1 334 1 11 1 37 1 44 1 54 1 81 1 86 1 92 1 113 1 125 1 130 1 175 1 199 1 213 1 245 1 278 1 280 1 287 1 294 1 387 1 402 1 435 1 438 1 486 1 493 1 511 1 514 1 528 1 548 1 612 1 646 1 656 1 669 2 704 1 733 1 776 1 785 1 787 2 792 1 842 1 867 1 876 1 889 1 890 1 894 1 898 1 901 1 910 1 952 1 967 1 983 1 363 1 374 1 378 1 394 1 401 1 405 1 419 1 436 1 452 1 461 1 471 1 507 1 525 1 605 1 616 1 625 1 668 1 673 1 685 1 697 1 698 1 699 1 758 1 768 1 786 1 802 1 804 1 813 1 821 1 832 1 875 1 941 1 942 1 946 1 990 1 994 1 996 1 1021 1 1026 1 
1 211 51 1 52 1 76 1 82 1 83 1 106 1 108 1 157 1 194 1 213 1 239 1 262 1 276 1 291 1 295 2 296 1 8 1 13 1 14 1 19 1 43 1 49 1 56 1 57 1 62 1 75 1 93 1 122 1 133 1 166 1 171 1 188 1 205 1 210 1 247 1 263 1 267 1 315 1 319 1 320 1 334 1 337 1 356 1 357 1 373 1 408 2 415 1 427 1 451 1 545 1 596 1 617 1 641 1 657 1 664 1 668 2 676 1 705 1 724 1 752 1 798 1 831 1 855 1 856 1 866 2 880 1 882 1 932 1 947 1 354 1 368 1 371 1 391 1 440 1 469 1 499 1 501 1 503 1 509 1 525 1 527 1 529 1 561 1 573 1 574 1 577 1 583 1 597 1 603 1 608 1 620 1 653 1 673 1 733 1 740 1 748 1 759 1 772 1 806 1 823 1 826 1 852 1 865 1 875 1 896 1 902 1 904 1 912 1 928 1 959 1 961 1 1004 1 1010 1 1012 1 1014 1 1017 1 
1 211 1 1 9 1 11 1 14 1 19 1 38 1 55 1 63 1 74 1 98 1 101 1 107 1 116 1 121 1 141 1 153 1 197 1 214 1 257 2 284 2 290 1 309 1 5 1 40 1 43 1 61 1 73 1 81 1 90 1 105 1 139 1 142 1 145 1 152 1 166 1 185 1 205 1 225 1 231 1 233 1 265 1 272 1 289 1 307 1 343 1 366 1 410 1 433 1 465 1 501 1 528 1 570 1 575 1 600 1 619 1 625 1 641 1 665 1 666 1 683 1 686 1 697 1 752 1 770 1 773 1 775 1 786 1 789 1 792 1 796 1 809 1 818 1 819 1 823 1 846 1 849 1 851 1 854 1 876 1 889 1 907 1 929 1 959 1 965 1 968 1 347 1 367 1 393 1 479 1 509 1 531 1 550 1 554 1 562 1 591 1 592 1 617 1 620 1 632 1 682 1 684 1 692 1 712 1 730 1 734 1 748 1 769 1 774 1 790 1 795 1 803 1 821 1 825 1 836 1 841 1 857 1 868 1 869 1 909 1 916 1 934 1 945 1 966 1 994 1 996 1 1018 1 1024 1 
1 207 11 1 17 2 22 1 30 1 31 2 78 1 98 1 100 1 103 2 119 1 128 1 175 1 177 1 238 2 241 1 244 1 250 1 255 1 258 1 267 1 278 1 296 1 297 1 303 1 304 2 308 1 19 1 24 1 37 1 59 1 158 1 171 1 173 1 191 1 233 1 240 1 274 1 337 1 338 1 342 1 342 1 345 1 359 1 379 1 424 1 434 1 436 1 456 1 516 1 517 1 559 1 569 1 570 1 599 1 609 2 661 1 676 1 699 1 709 1 716 1 721 2 763 1 764 1 781 1 864 1 886 1 898 1 916 1 918 2 971 1 996 1 347 1 368 1 404 1 406 1 429 1 433 1 440 1 449 1 466 1 467 1 494 1 507 1 511 1 526 1 529 1 552 1 565 1 566 1 568 1 590 1 641 1 684 1 687 1 720 1 765 1 766 1 768 1 795 1 798 1 830 1 844 1 885 1 921 1 924 1 962 1 992 1 1004 1 1019 1 1020 1 
1 212 11 1 32 1 37 1 48 1 51 1 71 1 95 1 114 1 117 1 132 1 163 1 180 1 186 1 222 1 229 1 234 1 235 1 251 1 260 1 269 1 295 1 332 1 335 1 341 1 4 1 35 1 42 1 67 1 92 1 98 1 153 1 196 1 248 1 255 1 301 1 305 1 314 1 388 1 432 1 448 1 461 1 468 1 475 1 499 1 508 1 516 1 541 1 545 1 547 1 549 1 568 1 589 1 592 1 618 1 634 1 635 1 661 1 694 1 702 1 724 1 746 1 789 1 801 1 806 1 840 1 852 1 878 1 880 1 912 1 933 1 950 1 975 1 977 1 979 1 984 1 344 1 345 1 350 1 379 1 399 1 407 1 421 1 457 1 510 1 526 1 566 1 606 1 608 1 612 1 640 1 672 1 673 1 676 1 689 1 703 1 741 1 756 1 760 1 780 1 845 1 847 1 855 1 862 1 865 1 869 1 870 1 900 1 934 1 968 1 993 1 1003 1 1004 1 1006 1 1007 1 1008 1 1021 1 1022 1 
1 211 4 1 17 1 33 2 48 1 74 1 78 1 85 1 111 1 112 1 118 1 127 1 139 1 247 1 252 1 264 1 270 1 297 1 312 1 24 1 26 1 57 1 75 1 81 1 146 1 150 1 164 1 179 1 209 1 222 1 231 1 242 1 265 1 284 1 306 1 309 1 317 1 329 1 343 1 385 1 410 1 435 1 477 1 514 1 517 1 533 1 551 1 582 1 625 1 632 2 649 1 680 1 698 2 701 1 803 1 810 1 822 1 864 1 866 1 873 1 888 1 894 1 940 1 945 1 953 1 964 1 994 1 349 1 352 1 360 1 434 1 444 1 454 1 475 1 496 1 515 1 524 1 527 1 529 1 537 1 555 1 575 1 577 1 578 1 596 1 603 1 619 1 670 1 709 1 710 1 739 1 744 1 746 1 762 1 793 1 812 1 817 1 829 1 837 1 846 1 851 1 906 1 914 1 919 1 934 1 958 1 962 1 969 1 975 1 1020 1 1025 1 1026 1 
1 212 8 1 12 1 16 1 42 1 73 1 82 1 91 2 100 1 148 1 191 1 195 2 202 1 206 1 209 1 232 2 237 1 255 1 263 1 296 1 301 1 303 1 306 1 315 1 342 1 6 1 10 1 30 1 33 1 44 1 60 1 65 1 69 1 83 1 157 1 197 1 198 1 212 1 226 1 235 1 242 1 244 1 283 1 291 1 299 1 300 1 329 1 343 1 404 1 407 1 418 1 420 1 421 1 466 1 489 1 508 1 542 1 544 1 562 1 581 1 591 1 601 1 635 1 645 1 652 1 730 1 757 1 766 1 773 1 788 1 815 1 857 1 865 1 869 1 907 1 917 1 923 2 938 1 955 1 962 1 964 1 965 1 990 1 991 1 1000 1 348 1 351 1 371 1 394 1 410 1 416 1 426 1 430 1 456 1 478 1 502 1 507 1 514 1 535 1 551 1 552 1 563 1 613 1 700 1 717 1 734 1 735 1 743 1 753 1 782 1 828 1 830 1 871 1 895 1 913 1 943 1 946 1 967 1 975 1 1013 1 1019 1 1021 1 1022 1 1023 1 
1 205 35 1 56 1 60 1 86 1 102 1 129 1 141 1 156 1 168 1 184 1 198 1 204 1 215 1 225 1 250 1 264 1 272 1 273 1 6 1 8 1 14 1 24 1 29 1 50 1 92 1 101 1 116 1 121 1 126 1 133 1 139 1 149 1 170 1 234 1 240 1 248 1 319 1 369 1 372 1 380 1 392 1 407 1 424 1 447 1 455 1 513 1 542 1 548 1 551 1 577 1 581 1 583 1 601 1 762 1 772 1 782 1 808 1 815 1 829 1 830 1 868 1 880 1 892 1 934 1 973 1 981 1 983 1 985 1 992 1 993 1 353 1 426 1 431 1 440 1 441 1 522 1 529 1 544 1 568 1 574 1 580 1 611 1 621 1 678 1 680 1 698 1 713 1 746 1 792 1 803 1 810 1 827 1 870 1 881 1 884 1 887 1 898 1 901 1 906 1 942 1 951 1 1007 1 1011 1 
1 209 9 1 29 1 31 1 94 2 97 2 100 2 127 1 143 1 146 1 178 1 198 1 209 1 223 1 248 1 257 2 267 1 274 1 280 1 281 1 291 2 300 1 304 1 336 2 15 1 25 1 59 1 90 1 102 1 103 1 108 1 148 1 150 1 177 1 283 1 297 1 315 1 319 1 337 1 341 1 342 1 347 1 347 1 348 1 406 1 409 1 420 1 430 2 436 2 443 1 444 1 473 1 497 1 521 1 538 1 556 1 567 1 605 1 712 2 747 1 752 2 772 1 824 1 827 1 829 1 833 1 838 2 861 1 867 1 874 1 897 1 912 1 921 1 981 1 999 1 350 1 357 1 402 1 472 1 474 1 503 1 506 1 513 1 549 1 552 1 592 1 596 1 606 1 663 1 686 1 694 1 704 1 720 1 729 1 751 1 765 1 783 1 791 1 793 1 799 1 819 1 844 1 855 1 901 1 927 1 929 1 953 1 1005 1 1012 1 1018 1 1026 1 1027 1 
1 205 2 1 13 1 20 2 34 1 37 1 38 1 42 1 60 1 84 1 127 1 133 1 138 1 139 1 172 1 204 2 223 1 247 1 252 1 292 1 335 1 347 1 33 1 56 1 68 1 69 1 77 1 79 1 91 1 120 1 131 1 141 1 145 1 148 1 202 1 219 1 242 1 250 1 257 1 271 1 274 1 278 1 281 1 313 1 314 1 321 1 345 1 439 1 479 1 489 1 495 1 559 1 565 1 589 1 611 1 618 1 647 1 654 2 700 1 703 1 710 1 802 1 805 1 820 1 823 1 838 1 839 1 883 1 886 1 887 1 903 1 934 1 977 1 992 1 349 1 371 1 381 1 390 1 394 1 428 1 435 1 442 1 444 1 464 1 483 1 499 1 500 1 545 1 554 1 557 1 576 1 616 1 628 1 640 1 662 1 670 1 687 1 704 1 720 1 767 1 768 1 874 1 875 1 889 1 892 1 916 1 932 1 941 1 956 1 973 1 979 1 996 1 1000 1 
1 210 6 1 9 2 11 1 26 1 49 1 50 1 77 1 116 1 121 2 139 1 210 1 211 1 217 1 233 1 238 1 251 1 307 1 7 1 10 1 36 1 38 1 65 1 91 1 149 1 154 1 161 1 165 1 168 1 182 1 198 1 204 1 207 1 212 1 236 1 258 1 269 1 283 1 309 1 331 1 344 1 348 1 359 1 360 1 400 1 416 1 430 1 431 1 439 1 441 2 466 1 489 1 531 1 565 1 618 1 641 1 645 1 652 1 667 1 701 1 733 1 767 1 775 1 815 1 821 1 822 1 829 1 832 2 875 1 904 1 921 1 970 1 1000 1 351 1 357 1 362 1 368 1 381 1 387 1 437 1 450 1 473 1 507 1 517 1 523 1 627 1 642 1 646 1 658 1 666 1 690 1 713 1 722 1 732 1 759 1 766 1 791 1 801 1 806 1 816 1 823 1 833 1 869 1 926 1 932 1 942 1 963 1 988 1 989 1 1007 1 1012 1 1015 1 1022 1 1025 1 
1 211 11 1 12 1 29 1 46 1 56 1 75 1 84 1 97 1 107 1 113 1 121 1 122 1 133 1 165 1 189 1 198 1 218 1 251 1 301 1 325 1 331 1 53 1 55 1 63 1 151 1 160 1 190 1 214 1 225 1 231 1 246 1 256 1 258 1 275 1 276 1 291 1 297 1 307 1 343 1 347 1 387 1 388 1 391 1 393 1 396 1 398 1 424 1 434 1 444 1 474 1 521 1 530 1 555 1 570 1 572 1 574 1 591 1 624 1 662 1 669 1 691 1 712 1 715 1 741 1 744 1 763 1 769 1 785 1 792 1 795 1 817 1 821 1 831 1 834 1 848 1 860 1 861 1 864 1 867 1 874 1 914 1 943 1 952 1 960 1 972 1 981 1 352 1 358 1 436 1 445 1 465 1 467 1 502 1 512 1 536 1 544 1 560 1 561 1 613 1 633 1 651 1 692 1 729 1 753 1 783 1 797 1 811 1 813 1 827 1 840 1 862 1 879 1 922 1 948 1 974 1 975 1 1006 1 
1 211 12 1 21 1 28 1 30 2 33 1 35 1 43 1 90 1 91 1 104 1 114 1 135 1 154 1 156 1 180 1 192 1 196 2 208 1 217 1 218 1 235 1 280 1 288 1 311 1 315 1 322 1 327 1 330 1 16 1 18 1 44 1 53 1 59 1 64 1 94 1 99 1 105 1 110 1 117 1 131 1 151 1 210 1 253 1 279 1 291 1 292 1 345 1 349 1 364 1 367 1 397 1 407 1 424 1 440 1 442 1 463 1 502 1 506 1 513 1 529 1 537 1 581 1 594 1 600 1 607 1 622 1 653 1 674 1 679 1 691 1 731 1 735 1 742 1 749 1 768 1 777 1 783 1 803 1 810 1 814 1 850 1 854 1 859 1 869 1 889 1 906 1 909 1 929 1 952 1 958 1 970 1 360 1 383 1 387 1 391 1 427 1 470 1 472 1 488 1 500 1 521 1 522 1 528 1 541 1 567 1 619 1 625 1 632 1 635 1 659 1 663 1 671 1 688 1 725 1 748 1 757 1 794 1 817 1 818 1 834 1 848 1 888 1 912 1 923 1 937 1 942 1 943 1 948 1 954 1 989 1 1005 1 1012 1 1017 1 1019 1 1021 1 1026 1 
1 210 5 1 13 1 20 1 27 1 49 2 60 1 96 1 114 1 129 1 148 2 177 1 191 1 192 1 212 1 225 1 235 1 243 1 265 1 268 1 304 1 305 1 309 1 312 1 326 1 32 1 37 1 42 1 44 1 51 1 66 1 90 1 100 1 101 1 107 1 110 1 136 1 164 1 176 1 208 1 213 1 232 1 259 1 295 1 317 1 327 1 328 1 344 1 350 1 357 1 417 1 470 1 479 1 500 1 507 1 508 1 519 1 525 1 530 2 537 1 574 1 589 1 606 1 613 1 634 1 635 1 642 1 653 1 658 1 700 1 738 1 741 1 750 1 780 1 855 1 857 1 860 1 872 1 898 1 905 1 911 1 912 1 922 1 962 1 963 1 966 1 982 1 367 1 390 1 395 1 410 1 414 1 439 1 440 1 456 1 484 1 510 1 542 1 575 1 595 1 609 1 631 1 645 1 661 1 662 1 668 1 677 1 692 1 699 1 717 1 721 1 751 1 776 1 784 1 805 1 829 1 839 1 876 1 881 1 895 1 983 1 988 1 1003 1 1007 1 1020 1 
1 209 30 1 31 1 34 1 58 1 78 2 83 1 100 1 215 1 233 1 236 1 255 1 265 1 289 1 290 2 322 1 333 1 12 1 25 1 27 1 75 1 91 1 108 1 113 1 118 1 132 1 137 1 142 1 143 1 184 1 190 1 199 1 202 1 223 1 263 1 272 1 273 1 308 1 346 1 359 1 364 1 428 1 431 1 443 1 451 1 496 1 498 1 524 2 525 1 554 1 565 1 583 1 593 1 613 1 625 1 636 1 645 2 648 1 651 1 661 1 702 1 704 1 737 1 740 1 741 1 753 1 758 1 800 1 802 1 808 1 854 1 868 1 918 1 928 1 935 1 939 1 988 1 996 1 1000 1 369 1 382 1 401 1 412 1 437 1 458 1 478 1 488 1 531 1 561 1 575 1 577 1 587 1 595 1 685 1 693 1 722 1 725 1 726 1 727 1 730 1 768 1 776 1 793 1 839 1 847 1 855 1 861 1 866 1 872 1 881 1 892 1 922 1 955 1 957 1 969 1 1007 1 1008 1 1009 1 1023 1 
1 208 43 1 56 1 62 1 80 1 100 1 110 1 139 1 140 1 170 1 194 1 198 1 209 1 212 1 237 1 247 1 256 1 289 1 298 1 328 1 6 1 66 1 150 1 153 1 155 1 162 1 168 1 186 1 203 1 215 1 240 1 252 1 261 1 280 1 284 1 303 1 320 1 325 1 326 1 336 1 340 1 361 1 390 1 408 1 419 1 421 1 427 1 438 1 439 1 471 1 472 1 489 1 496 1 541 1 557 1 567 1 617 1 619 1 632 1 638 1 643 1 652 1 695 1 706 1 712 1 728 1 759 1 761 1 781 1 795 1 807 1 819 1 873 1 925 1 933 1 939 1 940 1 959 1 358 1 360 1 372 1 394 1 436 1 459 1 466 1 497 1 513 1 545 1 565 1 580 1 588 1 593 1 636 1 644 1 648 1 689 1 705 1 719 1 721 1 752 1 772 1 773 1 794 1 830 1 844 1 865 1 866 1 905 1 929 1 954 1 958 1 995 1 996 1 998 1 1002 1 1007 1 1009 1 1011 1 
1 212 2 1 53 1 69 1 80 1 111 1 124 1 131 1 138 1 163 1 171 1 197 1 214 1 217 1 231 1 238 1 247 1 257 1 297 1 303 1 316 1 335 1 28 1 47 1 120 1 139 1 146 1 189 1 195 1 198 1 199 1 204 1 205 1 224 1 236 1 244 1 252 1 269 1 299 1 304 1 311 1 325 1 361 1 432 1 473 1 506 1 507 1 557 1 602 1 627 1 631 1 685 1 703 2 745 1 776 1 821 1 823 1 841 1 844 1 847 2 848 1 858 1 889 1 900 1 907 1 921 2 923 1 930 1 968 1 976 1 997 1 366 1 383 1 415 1 430 1 457 1 491 1 494 1 500 1 511 1 516 1 522 1 543 1 556 1 569 1 586 1 608 1 653 1 668 1 672 1 673 1 684 1 695 1 705 1 711 1 728 1 741 1 742 1 780 1 788 1 798 1 810 1 824 1 829 1 837 1 850 1 866 1 890 1 894 1 957 1 959 1 1019 1 1026 1 
1 206 2 1 57 1 61 1 65 1 73 1 76 1 111 1 135 1 146 1 154 1 166 1 171 1 181 1 186 1 191 1 204 1 219 1 266 1 281 1 286 1 320 1 340 1 32 1 56 1 110 1 112 1 143 1 176 1 207 1 217 1 265 1 274 1 292 1 293 1 322 1 364 1 376 1 399 1 413 1 442 1 465 1 471 1 476 1 487 1 492 1 494 1 505 1 507 1 539 1 593 1 601 1 617 1 618 1 656 1 659 1 671 1 685 1 686 1 698 1 705 1 706 1 734 1 747 1 794 1 807 1 811 1 813 1 815 1 879 1 883 1 892 1 898 1 906 1 918 1 925 1 957 1 960 1 965 1 1001 1 382 1 383 1 431 1 495 1 502 1 547 1 558 1 565 1 573 1 580 1 611 1 623 1 652 1 662 1 687 1 715 1 752 1 781 1 799 1 814 1 826 1 827 1 832 1 851 1 853 1 862 1 911 1 917 1 927 1 930 1 966 1 978 1 
1 208 28 1 34 1 62 1 63 1 64 1 65 1 79 1 86 1 132 1 160 1 166 1 172 1 184 1 199 1 206 1 223 1 234 1 249 1 262 1 263 1 272 1 337 1 340 1 352 1 13 1 14 1 17 1 36 1 44 1 56 1 76 1 82 1 85 1 97 1 104 1 108 1 134 1 158 1 190 1 229 1 300 1 312 1 335 1 347 1 349 1 357 1 357 1 393 1 397 1 441 1 443 1 447 1 449 1 453 1 454 1 470 1 494 1 506 1 529 1 598 1 599 1 609 1 635 1 637 1 659 1 665 2 673 1 680 1 688 1 696 1 745 1 749 1 795 1 820 1 864 1 874 1 913 1 915 1 918 1 934 1 937 1 365 1 383 1 400 1 428 1 434 1 435 1 438 1 474 1 499 1 522 1 523 1 524 1 577 1 593 1 595 1 620 1 625 1 626 1 639 1 641 1 643 1 657 1 676 1 682 1 724 1 735 1 747 1 753 1 804 1 809 1 838 1 841 1 847 1 879 1 956 1 958 1 978 1 983 1 1001 1 1011 1 1016 1 1018 1 1021 1 1024 1 
1 215 2 1 18 1 20 1 31 1 36 2 74 1 120 1 146 1 158 1 170 1 173 1 233 2 242 1 251 1 263 1 267 1 273 1 292 1 294 1 298 1 300 1 320 1 333 1 37 1 66 1 85 1 104 1 125 1 131 1 138 1 156 1 207 1 223 1 225 1 278 1 306 1 315 1 330 1 331 1 332 1 350 1 354 1 364 1 385 1 395 1 409 1 454 1 477 1 491 1 492 1 522 1 537 1 551 1 555 1 560 1 575 1 577 1 579 1 603 1 622 1 628 1 679 1 699 1 700 1 779 1 788 1 797 1 804 1 848 1 867 1 878 1 952 1 957 1 1001 1 376 1 402 1 404 1 416 1 469 1 516 1 519 1 531 1 549 1 558 1 574 1 624 1 636 1 666 1 689 1 690 1 716 1 732 1 753 1 768 1 772 1 776 1 781 1 801 1 809 1 814 1 872 1 873 1 889 1 909 1 940 1 953 1 960 1 962 1 1024 1 
1 208 12 1 32 1 35 1 36 1 41 1 57 1 76 1 111 1 131 1 139 1 171 1 178 1 206 1 207 1 220 1 235 1 244 1 258 1 265 2 274 2 298 1 312 1 325 1 331 1 334 1 342 1 349 1 353 1 7 1 42 1 48 1 124 1 142 1 156 1 158 1 186 1 248 1 272 1 303 1 307 1 323 1 373 1 375 1 386 1 417 1 427 1 452 1 522 1 531 1 533 1 534 1 545 1 563 1 565 1 567 1 592 1 622 1 661 1 665 1 675 1 676 1 687 1 691 1 711 1 779 1 795 1 799 1 813 1 817 1 829 2 845 1 861 1 867 2 868 1 872 1 882 1 897 1 948 1 963 1 974 1 977 1 365 1 407 1 414 1 416 1 450 1 451 1 453 1 457 1 458 1 479 1 525 1 549 1 576 1 660 1 697 1 718 1 725 1 736 1 737 1 743 1 762 1 768 1 790 1 793 1 796 1 818 1 825 1 833 1 874 1 885 1 886 1 887 1 891 1 904 1 942 1 975 1 998 1 1015 1 
1 211 17 1 19 1 45 1 49 1 80 1 145 1 153 1 179 1 181 1 209 1 213 1 230 1 235 1 243 1 261 1 268 1 275 1 289 1 299 1 329 1 334 1 349 1 31 1 67 1 87 1 88 1 101 1 118 1 127 1 139 1 141 1 183 1 184 1 194 1 198 1 283 1 292 1 307 1 314 1 324 1 333 1 344 1 351 1 354 1 376 1 403 1 421 1 424 1 426 1 442 1 456 1 471 1 479 1 480 1 486 1 491 1 504 1 516 1 521 1 526 1 530 1 545 1 548 1 559 1 564 1 571 1 572 1 613 1 631 1 635 1 638 1 663 1 692 1 702 1 718 1 735 1 759 1 866 1 867 1 876 1 886 1 917 1 922 1 955 2 971 1 371 1 384 1 390 1 397 1 408 1 501 1 503 1 517 1 519 1 541 1 542 1 552 1 554 1 566 1 578 1 618 1 658 1 706 1 707 1 709 1 732 1 742 1 808 1 816 1 818 1 819 1 835 1 838 1 843 1 849 1 889 1 893 1 895 1 920 1 928 1 941 1 962 1 973 1 1014 1 1026 1 
1 215 5 1 16 1 22 1 26 1 40 1 77 1 112 1 125 1 150 1 154 1 155 1 159 1 166 1 198 2 201 1 209 1 220 1 234 1 239 1 265 1 309 1 331 1 338 1 354 1 355 1 8 1 14 1 17 1 30 1 52 1 56 1 58 1 72 1 74 1 86 1 89 1 98 1 132 1 147 1 160 1 161 1 199 1 200 1 203 1 222 1 297 1 307 1 308 1 312 1 330 1 337 1 378 1 390 1 393 1 394 1 400 2 406 2 435 1 439 1 468 1 472 1 491 1 514 1 526 1 560 1 599 1 651 1 652 1 654 1 664 1 675 1 685 1 702 1 703 1 716 1 761 1 792 1 797 1 801 1 855 1 867 1 885 1 903 2 914 1 922 1 924 1 929 1 946 1 956 1 983 1 997 1 410 1 416 1 436 1 437 1 454 1 459 1 461 1 495 1 505 1 543 1 548 1 561 1 612 1 635 1 640 1 647 1 678 1 680 1 743 1 753 1 771 1 791 1 841 1 849 1 866 1 877 1 884 1 923 1 928 1 933 1 969 1 984 1 1002 1 1008 1 
1 203 22 1 48 1 57 1 64 1 66 1 97 1 111 1 149 1 184 1 186 1 193 1 194 1 198 2 199 1 204 1 210 1 225 1 233 1 236 1 248 1 290 1 312 1 324 1 30 1 39 1 41 1 60 1 106 1 130 1 172 1 197 1 234 1 242 1 265 1 299 1 304 1 317 1 349 1 365 2 368 1 386 1 404 1 424 1 479 1 491 1 495 1 510 1 514 1 532 1 563 1 576 1 603 1 622 1 639 1 671 1 678 1 684 1 708 1 732 1 736 1 741 1 748 1 769 1 770 1 810 1 822 2 833 1 865 1 895 1 899 1 907 1 961 1 438 1 443 1 446 1 463 1 488 1 509 1 515 1 517 1 525 1 535 1 545 1 546 1 550 1 551 1 566 1 608 1 624 1 683 1 694 1 744 1 749 1 755 1 798 1 804 1 807 1 825 1 826 1 862 1 870 1 871 1 938 1 941 1 956 1 958 1 959 1 966 1 974 1 995 1 1025 1 
1 214 2 1 16 2 19 1 36 1 47 2 72 1 86 1 111 1 112 1 132 1 162 1 171 1 182 1 192 1 193 1 221 1 226 1 266 1 312 1 317 1 322 1 9 1 44 1 50 1 96 1 101 1 115 1 120 1 122 1 153 1 161 1 184 1 252 1 276 1 306 1 309 1 339 1 385 1 405 1 408 1 411 1 426 1 497 1 501 1 525 1 538 1 546 1 552 1 568 2 598 1 643 1 645 1 662 1 677 1 679 1 680 1 702 1 710 1 718 1 727 1 782 1 803 1 806 1 835 1 841 1 873 1 882 1 893 1 904 1 917 1 945 1 946 1 954 1 958 1 964 1 987 1 992 1 997 2 388 1 432 1 476 1 515 1 521 1 529 1 554 1 567 1 580 1 581 1 583 1 602 1 608 1 614 1 632 1 634 1 720 1 756 1 792 1 824 1 830 1 848 1 883 1 896 1 900 1 907 1 919 1 928 1 938 1 939 1 956 1 991 1 996 1 1003 1 1005 1 1009 1 
1 210 6 1 65 1 70 1 78 1 82 2 92 1 115 1 137 2 151 1 165 1 224 1 240 1 261 1 280 1 301 1 302 1 311 1 312 1 323 1 351 1 353 1 356 1 358 1 37 1 41 1 44 1 62 1 71 1 73 1 153 1 191 1 216 1 227 1 229 1 233 1 245 1 247 1 272 1 290 1 292 1 315 1 365 1 375 1 393 1 401 2 413 1 431 1 444 1 454 1 476 1 488 1 506 1 543 1 546 1 571 1 579 1 587 1 593 1 629 1 649 1 652 1 657 1 689 1 709 1 715 1 767 1 790 1 802 1 807 1 808 1 870 1 879 1 884 1 910 1 958 1 960 2 963 2 979 1 986 1 991 1 386 1 403 1 406 1 411 1 433 1 474 1 531 1 535 1 538 1 573 1 577 1 591 1 594 1 602 1 637 1 661 1 664 1 666 1 667 1 720 1 770 1 776 1 827 1 847 1 855 1 891 1 892 1 898 1 921 1 934 1 988 1 1015 1 1021 1 
1 207 33 1 71 1 85 1 148 1 152 1 155 1 198 1 223 1 240 1 245 1 248 1 260 1 264 2 312 1 362 2 364 1 5 1 6 1 32 1 39 1 72 1 140 1 196 1 235 1 238 1 251 1 268 1 280 1 297 1 332 1 338 1 357 1 359 1 376 1 379 1 385 1 418 1 424 1 428 1 444 1 459 1 463 1 466 1 517 1 544 1 619 1 638 1 657 1 677 1 704 1 738 1 740 1 743 1 758 1 792 1 804 1 814 1 816 1 843 1 872 1 889 1 930 1 937 1 951 1 967 1 977 1 366 1 368 1 392 1 403 1 405 1 413 1 488 1 491 1 502 1 508 1 510 1 548 1 558 1 581 1 617 1 646 1 675 1 683 1 692 1 724 1 728 1 733 1 735 1 736 1 742 1 760 1 786 1 794 1 858 1 898 1 932 1 958 1 962 1 1003 1 
1 212 31 1 57 1 92 1 108 1 110 1 137 1 147 1 172 1 202 1 203 1 206 1 213 1 234 1 256 1 265 1 299 1 305 1 317 1 324 1 327 1 335 1 341 1 3 1 9 1 11 1 21 1 28 1 45 1 67 1 69 1 118 1 119 1 129 1 132 1 148 1 179 1 183 1 198 1 248 1 252 1 259 1 271 1 276 1 325 1 331 1 355 1 365 1 371 1 376 1 385 1 406 1 418 1 471 1 490 1 546 1 560 1 566 1 569 1 575 1 579 1 586 1 626 1 637 1 672 1 694 1 701 1 708 1 715 1 750 1 760 1 772 1 780 1 782 1 793 1 829 1 836 1 837 1 859 1 867 1 871 1 909 1 932 1 977 1 987 1 405 1 409 1 413 1 423 1 448 1 458 1 473 1 504 1 531 1 543 1 553 1 554 1 556 1 563 1 588 1 596 1 612 1 613 1 631 1 639 1 663 1 665 1 666 1 676 1 703 1 726 1 742 1 753 1 774 1 815 1 885 1 888 1 892 1 893 1 924 1 934 1 984 1 1004 1 1007 1 1014 1 1015 1 1017 1 1018 1 1024 1 
1 208 5 1 16 1 29 1 32 1 57 1 61 1 66 1 67 1 93 1 106 1 122 1 141 1 168 1 206 1 216 1 220 1 244 1 259 1 277 1 310 1 324 1 325 1 337 1 351 1 22 1 51 1 84 1 127 1 130 1 132 1 160 1 163 1 165 1 173 1 179 1 210 1 219 1 228 1 236 1 260 1 283 1 285 1 293 1 307 1 314 1 341 1 352 1 385 2 434 1 440 1 457 1 465 1 477 1 480 1 502 1 530 1 548 1 560 1 589 1 612 1 700 1 701 1 704 1 718 1 723 1 740 1 765 1 770 1 784 1 851 2 852 1 866 1 955 1 959 1 978 1 980 1 985 1 397 1 422 1 430 1 437 1 455 1 483 1 492 1 493 1 498 1 509 1 563 1 604 1 615 1 651 1 678 1 681 1 691 1 746 1 764 1 816 1 821 1 839 1 874 1 896 1 937 1 981 1 992 1 1014 1 1027 1 
1 208 5 1 22 1 61 2 74 1 99 1 115 1 124 1 159 1 168 1 169 1 172 1 185 1 207 1 241 1 269 1 287 1 297 1 332 1 362 1 39 1 59 1 72 1 94 1 127 1 142 1 156 1 176 1 186 1 243 1 244 1 251 1 300 1 340 1 342 1 349 1 365 1 375 1 377 1 381 1 382 1 403 1 448 1 454 1 455 1 459 1 495 1 521 1 533 1 539 1 558 2 561 1 581 1 585 1 587 2 602 2 673 1 677 1 698 1 701 1 707 1 715 1 719 1 727 1 740 1 770 1 773 1 784 1 814 1 840 1 851 1 896 1 908 1 931 1 941 1 972 1 383 1 387 1 394 1 426 1 439 1 483 1 485 1 510 1 532 1 543 1 550 1 562 1 567 1 596 1 600 1 617 1 625 1 628 1 640 1 661 1 696 1 726 1 746 1 777 1 812 1 825 1 845 1 865 1 874 1 875 1 942 1 954 1 957 1 962 1 963 1 992 1 1011 1 1018 1 
1 211 52 1 56 1 63 1 77 1 112 1 113 1 116 1 130 1 159 1 182 1 217 1 221 1 226 1 264 1 293 1 299 1 304 1 346 1 1 1 2 1 8 1 32 1 65 1 69 1 72 1 91 1 237 1 240 1 244 1 246 1 287 1 297 1 320 1 336 1 353 1 391 2 396 1 413 1 455 1 491 1 492 1 494 1 571 1 580 1 584 2 588 1 604 1 612 1 615 1 617 1 633 1 661 1 680 1 687 1 697 1 711 1 716 1 729 1 744 1 748 1 751 1 780 1 793 2 799 1 810 1 823 1 848 2 865 1 880 1 988 1 998 1 384 1 404 1 449 1 456 1 459 1 469 1 486 1 553 1 582 1 639 1 648 1 663 1 690 1 721 1 730 1 757 1 761 1 768 1 779 1 786 1 789 1 870 1 872 1 873 1 881 1 904 1 980 1 987 1 1003 1 
1 220 25 1 27 1 59 1 61 1 69 1 73 1 77 1 109 1 113 1 120 1 136 1 174 1 182 1 206 1 219 1 242 1 245 1 252 1 256 1 265 1 288 1 318 1 28 1 39 1 40 1 88 1 126 1 176 1 180 1 201 1 264 1 278 1 299 1 309 1 313 1 329 1 382 1 390 1 403 1 405 1 423 1 444 1 458 1 462 1 467 1 485 1 527 1 545 1 562 1 570 1 590 1 597 1 603 1 624 1 680 1 682 1 683 2 687 1 705 1 739 1 745 1 753 1 883 1 886 1 906 1 911 1 924 1 927 1 931 1 951 1 964 1 976 1 375 1 482 1 487 1 496 1 511 1 513 1 531 1 571 1 576 1 605 1 641 1 643 1 648 1 651 1 698 1 716 1 738 1 744 1 746 1 758 1 787 1 834 1 850 1 855 1 858 1 873 1 891 1 935 1 957 1 970 1 998 1 999 1 1002 1 1009 1 1015 1 1020 1 
1 209 16 1 33 1 73 1 74 2 78 1 89 1 95 1 105 1 114 1 121 1 125 1 128 1 147 1 149 1 157 1 178 1 221 1 224 1 232 1 256 1 283 1 287 1 295 1 300 1 366 1 6 1 17 1 36 1 42 1 46 1 96 1 138 1 165 1 192 1 223 1 273 1 316 1 329 1 340 1 345 1 348 1 360 1 371 1 371 1 380 1 396 1 466 1 474 1 479 1 490 1 495 2 499 1 501 1 508 1 511 1 539 1 560 1 567 1 582 1 590 1 591 1 593 1 599 1 623 1 635 1 637 1 638 1 668 1 682 1 683 1 709 1 711 1 725 1 767 1 780 1 797 1 803 1 828 1 831 1 886 1 899 1 912 1 930 1 941 1 953 1 966 1 403 1 424 1 442 1 452 1 464 1 488 1 515 1 520 1 522 1 532 1 536 1 538 1 549 1 563 1 595 1 601 1 613 1 670 1 712 1 723 1 739 1 754 1 776 1 805 1 809 1 812 1 866 1 880 1 884 1 910 1 919 1 935 1 936 1 937 1 939 1 977 1 990 1 993 1 1014 1 1021 1 1026 1 
1 207 27 1 41 1 46 1 59 1 70 1 88 1 101 1 117 1 153 1 208 1 225 1 264 1 269 1 278 1 286 1 294 1 315 1 327 1 338 1 346 1 24 1 25 1 60 1 64 1 97 1 115 1 124 1 125 1 149 1 192 1 216 1 236 1 238 1 246 1 260 1 314 1 329 1 330 1 354 1 374 1 379 1 388 1 400 1 414 1 444 1 520 1 534 1 539 1 564 1 596 1 626 1 640 1 681 1 709 1 712 1 719 1 741 1 753 1 777 1 863 2 865 1 877 1 883 1 901 1 918 1 942 1 950 1 953 1 973 1 1000 1 393 1 415 1 421 1 486 1 495 1 521 1 543 1 567 1 582 1 605 1 631 1 641 1 646 1 684 1 704 1 718 1 742 1 755 1 775 1 786 1 789 1 792 1 808 1 885 1 905 1 931 1 944 1 957 1 1001 1 1005 1 1007 1 1010 1 1018 1 
1 211 7 1 19 1 20 1 24 2 58 1 65 1 71 1 78 1 100 1 102 1 105 1 128 1 152 1 167 1 169 1 196 1 198 1 219 1 225 1 257 1 280 1 298 1 334 1 340 1 359 1 2 1 3 1 4 1 28 1 30 1 34 1 47 1 49 1 53 1 61 1 82 1 87 1 91 1 97 1 141 1 142 1 146 1 181 1 184 1 220 1 231 1 268 1 309 1 310 1 311 1 327 1 337 1 375 1 376 1 380 1 427 1 439 1 451 1 456 2 502 1 503 1 524 1 547 1 548 1 572 1 600 1 601 1 628 1 643 1 650 1 660 1 661 1 679 1 688 1 699 1 722 1 736 2 749 1 761 1 764 1 777 1 787 1 816 1 828 1 831 1 833 1 855 1 863 1 865 1 875 1 896 1 905 1 923 1 942 1 954 1 999 1 374 1 383 1 403 1 405 1 449 1 478 1 520 1 579 1 599 1 603 1 614 1 622 1 648 1 652 1 657 1 665 1 695 1 759 1 823 1 885 1 907 1 909 1 924 1 928 1 932 1 937 1 944 1 960 1 975 1 1001 1 1002 1 1004 1 1009 1 1012 1 1014 1 
1 212 2 1 32 1 55 1 72 1 85 1 107 1 120 1 176 1 195 1 207 1 236 1 240 1 273 1 318 1 338 1 372 1 1 1 12 1 27 1 28 1 35 1 65 1 70 1 78 1 106 1 109 1 135 1 138 1 152 1 158 1 165 1 192 1 205 1 208 1 209 1 212 1 230 1 275 1 294 1 296 1 308 1 315 1 339 1 373 1 375 2 382 1 401 1 435 1 437 1 453 1 457 1 475 1 526 1 529 1 542 1 551 1 558 1 559 1 592 1 596 1 600 1 603 1 621 1 638 1 641 1 655 1 656 1 662 1 695 1 704 1 716 1 725 1 728 1 751 1 760 1 761 1 831 1 838 1 866 1 878 1 880 1 886 1 912 1 923 2 927 1 930 1 938 1 940 1 950 1 979 1 402 1 428 1 480 1 496 1 523 1 545 1 550 1 576 1 583 1 591 1 595 1 614 1 620 1 622 1 676 1 678 1 724 1 729 1 749 1 766 1 811 1 820 1 862 1 901 1 957 1 1003 1 1004 1 1012 1 1015 1 1019 1 
1 211 21 1 30 1 31 1 44 1 64 1 67 1 82 1 177 1 204 2 205 1 215 1 234 1 291 1 300 1 311 1 318 1 330 1 359 1 364 1 368 1 373 1 374 2 6 1 10 1 29 1 35 1 36 1 46 1 56 1 71 1 75 1 80 1 94 1 100 1 113 1 114 1 117 1 119 1 133 1 165 1 179 1 180 1 211 1 222 1 228 1 237 1 245 1 275 1 296 1 321 1 324 1 370 1 382 1 388 1 424 1 431 1 438 1 440 1 441 1 461 1 480 1 485 1 487 1 506 1 556 1 559 1 606 1 607 1 680 1 681 1 687 1 711 1 714 1 728 1 732 1 736 1 765 1 766 1 781 1 787 1 802 1 853 1 857 1 876 2 878 1 898 1 903 1 913 1 919 1 923 1 950 1 986 1 410 1 436 1 439 1 443 1 448 1 453 1 468 1 484 1 498 1 523 1 547 1 575 1 586 1 592 1 623 1 637 1 669 1 676 1 692 1 694 1 715 1 779 1 790 1 830 1 836 1 841 1 858 1 884 1 885 1 895 1 906 1 935 1 972 1 1000 1 1001 1 1011 1 1016 1 1024 1 1027 1 
1 208 45 1 60 1 68 2 81 1 101 1 175 1 183 1 186 1 187 1 255 1 309 1 356 1 360 1 365 1 366 1 373 1 17 1 32 1 43 1 56 1 58 1 104 1 107 1 143 1 154 1 157 1 197 1 202 1 210 1 220 1 234 1 251 1 270 1 303 1 313 1 314 1 324 1 332 1 358 1 380 1 392 1 396 1 423 1 454 1 464 1 467 1 472 1 475 2 484 1 526 1 530 1 542 1 550 1 563 1 569 1 584 1 593 1 599 2 610 1 618 1 665 1 689 2 724 1 743 1 746 1 758 1 770 1 795 1 817 1 824 1 838 1 862 1 896 1 906 1 933 1 936 2 946 1 950 1 965 1 968 2 976 1 984 1 998 1 999 1 377 1 385 1 397 1 420 1 455 1 459 1 471 1 505 1 514 1 565 1 571 1 684 1 691 1 714 1 726 1 730 1 762 1 767 1 789 1 798 1 907 1 916 1 919 1 926 1 932 1 972 1 983 1 1007 1 1009 1 1013 1 
1 201 28 1 32 1 42 1 45 1 86 1 141 1 149 1 163 1 198 1 267 1 280 1 284 1 318 1 334 1 368 1 49 1 58 1 72 1 73 1 74 1 110 1 119 1 165 1 191 1 205 1 212 1 213 1 234 1 274 1 324 1 376 1 382 1 396 1 399 1 415 1 430 1 442 1 459 1 479 1 483 1 487 1 490 1 493 1 501 1 514 1 520 1 530 1 563 1 572 1 584 1 629 1 650 1 652 1 664 1 698 1 719 1 746 1 754 1 773 1 776 1 782 1 811 1 814 1 817 2 821 2 857 1 858 1 860 2 872 1 882 1 938 1 940 1 965 1 967 1 972 1 973 1 975 1 995 1 383 1 411 1 414 1 424 1 431 1 533 1 546 1 558 1 570 1 622 1 680 1 686 1 693 1 696 1 704 1 705 1 706 1 731 1 733 1 749 1 796 1 802 1 833 1 842 1 849 1 850 1 863 1 894 1 913 1 920 1 945 1 950 1 964 1 990 1 993 1 
1 209 3 1 4 1 8 1 13 1 20 2 30 1 32 1 35 1 47 1 69 1 101 2 128 1 132 1 133 1 135 1 140 1 149 1 187 1 192 1 217 1 219 2 245 2 251 1 318 1 322 1 361 1 55 1 76 1 84 1 158 1 164 1 169 1 247 1 267 1 278 1 281 1 331 1 332 1 338 1 339 1 407 1 412 1 431 1 453 1 489 1 493 2 541 1 547 1 572 1 597 1 633 1 644 1 657 1 660 1 674 1 693 1 709 1 799 1 806 1 816 1 819 1 844 1 854 1 855 1 857 1 861 1 875 1 893 1 901 1 903 1 915 2 938 1 945 1 951 1 989 1 388 1 401 1 421 1 444 1 469 1 470 1 471 1 511 1 521 1 522 1 564 1 588 1 631 1 643 1 658 1 701 1 703 1 721 1 741 1 750 1 789 1 802 1 835 1 884 1 886 1 892 1 904 1 908 1 926 1 964 1 965 1 977 1 982 1 1002 1 1011 1 1013 1 1025 1 
1 208 1 1 30 1 43 1 91 1 93 1 110 2 112 1 136 1 151 1 190 1 203 1 206 1 208 1 214 1 215 1 235 1 236 1 244 1 261 1 263 1 267 1 279 1 316 1 342 1 365 1 372 1 23 1 25 1 57 1 66 1 72 1 130 1 135 1 143 1 155 1 157 1 161 1 188 1 195 1 226 1 242 1 280 1 289 1 300 1 343 1 411 1 439 1 544 1 546 2 580 1 587 1 592 1 637 1 700 1 716 1 728 1 740 1 762 1 766 1 814 1 829 1 834 1 839 1 845 1 849 1 857 1 860 1 862 1 888 1 911 1 924 1 934 1 947 1 990 1 381 1 388 1 404 1 413 1 417 1 424 1 435 1 436 1 457 1 478 1 482 1 518 1 522 1 553 1 561 1 597 1 606 1 608 1 612 1 620 1 638 1 639 1 640 1 660 1 692 1 706 1 736 1 741 1 763 1 765 1 768 1 785 1 865 1 907 1 908 1 946 1 961 1 1019 1 
1 207 15 1 56 1 64 1 73 1 90 1 126 1 127 1 146 1 164 2 165 1 201 1 226 1 232 1 265 1 281 1 306 1 307 1 318 1 346 1 371 1 373 1 376 1 2 1 31 1 49 1 83 1 101 1 103 1 104 1 105 1 107 1 113 1 130 1 131 1 134 1 145 1 149 1 152 1 188 1 208 1 211 1 245 1 262 1 283 1 333 1 380 1 380 1 382 1 398 1 407 1 408 1 422 1 436 1 480 1 490 1 494 1 526 1 539 1 559 1 560 1 604 1 606 1 611 2 614 2 619 1 621 1 668 1 672 1 676 1 678 1 709 1 731 1 767 1 783 1 816 1 829 1 856 1 857 2 858 1 869 1 894 1 946 2 958 1 964 1 971 1 980 1 991 1 388 1 443 1 462 1 468 1 481 1 482 1 516 1 523 1 535 1 541 1 572 1 593 1 629 1 633 1 637 1 639 1 657 1 680 1 725 1 775 1 779 1 787 1 832 1 838 1 906 1 929 1 931 1 955 1 961 1 973 1 978 1 994 1 996 1 1006 1 1012 1 
1 207 22 1 26 1 62 1 74 1 89 1 128 1 155 1 199 1 200 1 243 1 257 1 275 1 305 1 338 1 368 1 8 1 44 1 51 1 78 1 82 1 124 1 126 1 130 1 164 1 182 1 196 1 217 1 226 1 293 1 294 1 295 1 298 1 348 1 349 1 379 1 407 1 413 1 435 1 453 1 484 1 518 1 531 2 547 1 595 1 622 1 625 1 629 1 633 1 680 1 696 1 703 1 704 1 708 1 710 1 713 1 736 1 756 1 758 1 765 1 774 1 783 1 791 1 794 1 797 1 828 1 833 1 843 1 845 1 848 1 880 1 887 1 901 1 907 1 910 1 930 1 941 1 955 1 979 1 1000 1 410 1 417 1 420 1 431 1 436 1 438 1 470 1 481 1 482 1 485 1 494 1 507 1 532 1 541 1 544 1 549 1 562 1 571 1 588 1 613 1 626 1 685 1 691 1 725 1 734 1 749 1 754 1 766 1 772 1 810 1 813 1 822 1 844 1 865 1 885 1 891 1 893 1 903 1 919 1 934 1 936 1 942 1 951 1 992 1 1004 1 1015 1 1019 1 
1 208 108 1 109 1 113 1 169 1 172 2 176 1 188 1 219 1 221 1 234 1 246 1 253 1 260 2 266 2 285 1 299 1 303 1 326 1 368 1 370 1 374 1 375 1 377 1 380 1 10 1 18 1 35 1 38 1 57 1 60 1 76 1 114 1 125 1 130 1 229 1 249 1 255 1 257 1 274 1 291 1 294 1 353 1 356 1 449 1 471 1 474 1 481 2 527 1 540 1 541 1 548 1 573 1 576 1 593 1 624 2 659 1 670 1 681 1 709 2 741 1 745 1 772 1 825 1 844 1 853 1 856 1 893 1 944 1 390 1 394 1 399 1 416 1 420 1 422 1 433 1 489 1 490 1 511 1 530 1 537 1 559 1 586 1 597 1 606 1 607 1 611 1 618 1 660 1 673 1 677 1 680 1 693 1 715 1 718 1 731 1 774 1 836 1 859 1 860 1 882 1 915 1 923 1 936 1 947 1 993 1 1026 1 
1 208 25 1 42 1 43 1 47 1 75 2 139 1 172 1 183 1 192 1 194 1 198 2 201 1 244 1 264 1 272 1 293 1 302 1 330 1 332 1 17 1 21 1 22 1 45 1 78 1 89 1 134 1 135 1 140 1 161 1 226 1 275 1 321 1 351 1 355 1 356 1 357 1 368 1 373 1 377 1 385 1 421 2 442 1 448 1 459 1 466 1 494 1 514 1 519 1 546 1 548 1 550 1 560 1 564 1 579 1 593 1 609 1 619 1 633 1 679 1 686 1 707 1 709 2 720 1 729 1 782 1 794 1 800 1 830 1 831 1 840 1 849 1 855 1 877 1 886 1 897 1 900 2 904 1 908 1 927 1 951 1 956 1 958 1 965 1 978 1 983 1 994 1 416 1 423 1 424 1 425 1 437 1 471 1 477 1 492 1 541 1 552 1 554 1 558 1 570 1 585 1 635 1 643 1 660 1 700 1 703 1 753 1 756 1 759 1 765 1 776 1 785 1 797 1 802 1 842 1 844 1 845 1 853 1 872 1 873 1 893 1 902 1 909 1 922 1 967 1 980 1 1012 1 1022 1 
1 206 10 1 61 1 87 1 94 1 97 1 106 1 123 1 174 1 185 1 247 2 249 1 288 1 312 1 321 1 322 1 327 1 20 1 33 1 81 1 116 1 125 1 138 1 220 1 234 1 253 1 264 1 273 1 281 1 286 1 360 1 369 1 395 1 399 2 402 1 411 2 413 1 418 1 425 1 445 2 446 1 482 1 499 2 533 1 537 1 555 1 577 1 584 1 593 2 613 1 671 1 696 1 713 1 769 1 805 1 875 1 909 1 945 1 966 1 969 1 407 1 422 1 442 1 495 1 498 1 507 1 513 1 541 1 553 1 579 1 598 1 604 1 632 1 641 1 644 1 645 1 651 1 661 1 662 1 665 1 675 1 677 1 717 1 750 1 758 1 770 1 779 1 792 1 831 1 832 1 837 1 838 1 853 1 879 1 883 1 927 1 936 1 973 1 986 1 989 1 995 1 997 1 1006 1 
1 209 10 1 33 1 37 1 104 1 161 1 164 1 226 1 244 1 256 1 257 1 259 1 278 1 284 1 293 1 295 1 296 1 304 1 314 1 317 1 322 1 338 1 344 1 358 1 363 1 365 1 366 1 367 2 383 1 39 1 46 1 49 1 52 1 67 1 72 1 90 1 120 1 156 1 163 1 168 1 174 1 180 1 184 1 196 1 213 1 254 1 268 1 334 1 376 1 385 1 385 1 449 1 463 1 464 1 483 1 518 1 522 1 528 1 550 1 552 1 553 1 557 1 573 1 577 1 586 1 600 1 601 2 608 1 610 1 616 1 623 1 633 1 638 1 648 1 657 1 659 1 710 1 726 1 736 1 737 1 741 1 744 1 773 1 784 1 819 1 834 1 836 1 848 1 854 1 893 1 897 1 918 1 943 1 953 1 957 2 966 1 978 1 980 2 981 1 525 1 576 1 578 1 624 1 682 1 690 1 692 1 699 1 701 1 704 1 739 1 802 1 812 1 822 1 827 1 828 1 869 1 873 1 874 1 908 1 941 1 1008 1 1014 1 1016 1 1020 1 1024 1 
1 209 24 1 46 1 67 1 92 1 96 1 158 1 159 1 167 1 222 1 226 2 243 1 246 1 276 1 314 1 315 1 318 1 326 1 359 1 362 1 13 1 19 1 23 1 43 1 82 1 107 1 110 1 117 1 124 1 184 1 202 1 209 1 216 1 258 1 283 1 328 1 364 1 397 1 413 2 414 1 426 1 439 1 440 1 451 1 455 1 476 1 497 1 537 1 545 1 548 1 566 1 583 1 596 1 599 1 612 1 621 1 631 1 654 1 656 1 687 1 689 1 703 1 711 1 720 1 732 1 746 1 748 1 783 2 790 1 793 1 800 1 818 1 837 1 940 2 974 1 987 1 991 1 416 1 471 1 500 1 525 1 534 1 550 1 556 1 565 1 590 1 655 1 670 1 674 1 681 1 696 1 712 1 754 1 761 1 791 1 805 1 829 1 833 1 863 1 866 1 902 1 907 1 921 1 939 1 993 1 997 1 1006 1 1009 1 1024 1 1025 1 
1 209 4 1 15 1 32 1 67 1 71 1 73 1 80 1 86 1 92 1 101 1 106 1 146 1 151 1 156 1 184 1 204 1 227 1 240 1 281 1 306 1 313 1 329 1 339 1 350 1 11 1 50 1 70 1 111 1 157 1 162 1 200 1 216 1 249 1 253 1 255 1 267 1 320 1 331 1 333 1 349 1 351 1 368 1 392 1 396 1 398 1 406 2 425 1 449 1 461 1 490 1 491 1 529 1 538 2 539 2 549 1 558 1 573 1 586 1 589 1 611 1 621 1 637 1 687 1 702 1 730 1 748 1 756 1 760 1 761 1 770 1 801 1 822 1 824 1 829 1 856 1 860 1 894 1 900 1 902 1 903 1 926 1 939 1 963 1 972 1 990 2 419 1 500 1 516 1 519 1 566 1 584 1 619 1 647 1 649 1 653 1 692 1 751 1 806 1 817 1 832 1 846 1 854 1 901 1 916 1 945 1 965 1 989 1 998 1 1000 1 1005 1 1006 1 1007 1 1017 1 
1 211 8 1 50 1 55 1 64 1 91 2 94 1 95 1 103 1 106 1 143 1 153 1 164 1 168 1 173 1 174 1 177 1 181 1 182 1 202 1 203 1 240 1 269 1 274 1 294 1 301 1 307 1 337 1 343 1 350 1 372 1 375 1 33 1 54 1 70 1 93 1 99 1 120 1 132 1 160 1 163 1 179 1 184 1 207 1 233 1 262 1 281 1 287 1 302 1 332 1 363 1 378 1 379 1 380 1 394 1 407 1 426 1 435 1 437 1 478 1 495 1 505 1 516 1 555 1 569 1 573 1 578 1 599 2 623 1 633 1 662 1 717 1 728 1 731 1 746 1 764 1 774 1 818 2 839 1 879 1 889 1 899 1 908 1 929 1 943 1 946 1 953 1 967 1 977 1 978 1 994 1 415 1 430 1 465 1 468 1 501 1 510 1 515 1 562 1 567 1 586 1 648 1 654 1 657 1 682 1 744 1 745 1 781 1 802 1 837 1 846 1 849 1 851 1 880 1 882 1 891 1 897 1 920 1 925 1 965 1 968 1 1006 1 1017 1 
1 207 63 1 85 1 123 1 136 1 140 1 155 1 192 1 212 1 230 1 238 1 245 1 253 1 296 1 310 1 323 1 324 1 327 1 333 1 23 1 90 1 98 1 109 1 127 1 146 1 151 1 205 1 243 1 249 1 254 1 269 1 275 1 294 1 301 1 307 1 317 1 397 1 411 1 415 1 434 1 442 1 444 1 463 1 538 1 539 1 542 1 552 1 583 1 587 1 591 1 597 1 612 2 643 1 680 1 708 1 727 1 740 2 746 1 752 1 767 1 770 1 779 1 780 1 782 2 849 1 852 2 866 1 867 1 915 1 928 1 949 1 957 1 962 1 973 1 982 1 401 1 413 1 483 1 497 1 527 1 540 1 543 1 555 1 581 1 596 1 611 1 620 1 647 1 667 1 668 1 684 1 725 1 764 1 774 1 786 1 839 1 847 1 853 1 856 1 859 1 863 1 903 1 911 1 955 1 968 1 1007 1 1013 1 1017 1 
1 211 8 1 83 1 117 1 118 1 122 1 173 1 200 1 206 2 209 1 216 1 231 1 235 1 237 1 265 1 288 1 290 1 312 1 322 1 337 1 354 1 361 1 370 1 3 1 16 1 21 1 76 1 82 1 108 1 140 1 152 1 176 1 181 1 239 1 279 1 300 1 306 1 309 1 334 1 338 1 348 1 352 1 360 1 382 1 404 1 423 1 439 1 468 1 469 1 481 1 506 1 523 1 528 1 529 1 548 1 549 1 565 1 592 1 610 1 637 1 640 1 644 1 652 1 658 1 666 1 670 1 750 1 758 1 759 1 786 1 788 1 812 1 868 2 900 1 917 1 920 1 928 1 941 1 963 1 978 1 988 1 998 1 394 1 399 1 419 1 433 1 442 1 458 1 467 1 485 1 486 1 502 1 524 1 570 1 583 1 629 1 631 1 656 1 700 1 727 1 773 1 803 1 820 1 826 1 867 1 922 1 958 1 962 1 965 1 967 1 996 1 1001 1 1002 1 1003 1 1008 1 1019 1 
1 210 22 1 55 1 90 1 102 1 139 1 144 1 182 1 188 1 207 1 210 1 218 1 260 1 264 1 265 1 274 1 284 1 335 1 350 1 369 2 6 1 50 1 64 1 99 1 111 1 134 1 142 1 163 1 168 1 187 1 213 1 247 1 251 1 270 1 279 1 281 1 298 1 309 1 311 1 315 1 321 1 340 1 351 1 406 1 434 1 436 1 451 1 485 2 498 1 513 1 523 1 544 1 551 1 567 1 570 1 596 1 611 1 626 1 627 1 683 1 706 1 707 1 714 1 721 1 739 1 740 1 741 1 748 1 769 1 795 1 808 1 814 1 859 1 899 1 921 1 932 1 958 1 976 1 413 1 442 1 454 1 459 1 468 1 472 1 508 1 521 1 545 1 550 1 594 1 610 1 615 1 634 1 665 1 668 1 674 1 686 1 697 1 702 1 709 1 711 1 731 1 798 1 816 1 830 1 833 1 862 1 878 1 896 1 908 1 911 1 929 1 964 1 981 1 985 1 1005 1 1018 1 1022 1 
1 210 3 2 11 1 27 1 75 1 154 1 207 1 269 1 273 1 280 1 304 1 317 1 321 1 346 1 376 1 387 1 30 1 36 1 73 1 87 1 91 1 94 1 108 1 112 1 136 1 191 1 202 1 222 1 262 1 325 1 332 1 365 1 443 1 474 1 477 1 501 1 551 1 554 1 584 1 642 1 725 1 731 1 733 1 741 1 748 1 786 1 803 1 822 1 829 1 843 1 881 1 883 1 902 1 919 2 938 1 958 1 967 1 975 1 987 1 1001 1 419 1 422 1 437 1 438 1 442 1 444 1 478 1 487 1 493 1 496 1 511 1 520 1 527 1 565 1 574 1 581 1 583 1 585 1 596 1 597 1 609 1 636 1 667 1 668 1 671 1 679 1 694 1 715 1 723 1 735 1 742 1 769 1 776 1 781 1 791 1 808 1 851 1 856 1 911 1 917 1 928 1 941 1 970 1 1025 1 
1 205 9 1 11 1 37 1 42 1 53 1 66 2 111 2 136 1 186 1 194 1 212 1 230 1 259 1 320 1 323 1 336 1 338 1 350 1 357 1 361 1 364 1 38 1 48 1 49 1 93 1 98 1 106 1 140 1 144 1 156 1 177 1 178 1 184 1 223 1 252 1 265 1 267 1 271 1 303 1 341 1 372 1 396 1 409 1 414 1 424 1 450 1 528 1 596 1 600 2 641 1 656 1 676 1 708 1 728 1 753 2 758 1 760 1 770 1 797 1 844 1 846 1 902 1 907 1 920 1 950 1 954 1 955 1 982 1 983 1 989 2 419 1 466 1 475 1 477 1 481 1 507 1 539 1 561 1 604 1 607 1 645 1 679 1 704 1 720 1 725 1 735 1 747 1 785 1 788 1 795 1 808 1 830 1 848 1 854 1 863 1 876 1 893 1 898 1 900 1 911 1 919 1 934 1 961 1 999 1 1006 1 1012 1 1014 1 
1 212 24 1 28 1 35 1 46 1 89 1 106 1 116 1 126 1 156 1 178 1 184 1 186 2 194 1 201 1 235 2 257 1 315 1 317 2 361 1 388 1 31 1 38 1 86 1 133 1 143 1 172 1 206 1 207 1 215 1 241 1 265 1 268 1 273 1 274 1 302 1 319 1 325 1 336 1 339 1 345 1 348 1 354 1 368 1 382 1 390 1 404 1 407 1 416 1 435 1 438 1 442 2 464 1 471 1 483 1 499 1 557 1 561 1 562 1 574 1 603 1 611 1 650 1 675 1 678 1 684 1 718 1 720 1 750 1 751 1 761 1 764 1 812 1 919 1 928 1 956 1 401 1 402 1 412 1 418 1 424 1 426 1 443 1 446 1 487 1 500 1 508 1 516 1 520 1 522 1 532 1 559 1 584 1 606 1 614 1 653 1 659 1 668 1 677 1 680 1 695 1 724 1 815 1 818 1 835 1 843 1 847 1 850 1 852 1 857 1 886 1 945 1 968 1 977 1 979 1 995 1 1020 1 1022 1 1024 1 
1 210 24 1 34 1 39 1 42 2 46 1 59 1 62 1 68 1 69 1 78 1 82 2 83 1 84 1 85 1 91 1 127 1 142 1 190 1 196 1 201 1 225 1 289 1 301 1 313 1 323 1 358 1 384 1 17 1 37 1 43 1 48 1 74 1 81 1 95 1 96 1 103 1 110 1 113 1 124 1 132 1 154 1 189 1 240 1 248 1 261 1 263 1 287 1 326 1 352 1 396 1 450 1 455 1 498 1 524 1 538 1 554 1 566 1 614 1 636 1 693 1 696 1 698 1 708 1 709 1 719 1 722 1 742 1 745 1 764 1 765 1 776 1 782 1 786 1 805 1 885 1 899 1 901 1 906 1 911 1 914 1 926 1 966 1 978 1 988 1 999 1 432 1 504 1 507 1 514 1 563 1 576 1 582 1 590 1 639 1 710 1 772 1 773 1 775 1 791 1 818 1 830 1 843 1 849 1 858 1 859 1 865 1 881 1 891 1 921 1 922 1 939 1 967 1 971 1 992 1 993 1 1015 1 1016 1 1017 1 1019 1 
1 208 18 1 32 1 49 1 62 1 71 1 88 1 115 1 116 1 145 1 167 1 169 1 238 1 252 2 253 1 303 1 336 1 338 2 350 1 369 1 371 1 376 1 377 1 387 1 393 1 395 1 12 1 27 1 33 1 55 1 59 1 86 1 93 1 98 1 103 1 113 1 120 1 168 1 211 1 213 1 237 1 262 1 264 1 294 1 307 1 315 1 337 1 406 1 407 1 459 1 490 1 493 1 494 1 503 1 507 1 566 1 589 1 595 1 607 1 614 1 664 1 695 1 707 1 712 1 719 1 735 1 760 1 772 1 795 1 840 1 869 1 895 1 906 1 912 1 926 1 948 1 961 1 970 1 993 1 398 1 426 1 439 1 467 1 468 1 480 1 481 1 514 1 516 1 528 1 549 1 560 1 576 1 593 1 622 1 628 1 630 1 672 1 698 1 726 1 743 1 744 1 745 1 750 1 763 1 796 1 807 1 809 1 820 1 844 1 877 1 879 1 902 1 911 1 921 1 927 1 928 1 935 1 963 1 1011 1 1015 1 1018 1 1024 1 
1 214 23 1 46 1 68 1 108 1 111 1 112 1 113 1 125 1 165 1 181 1 201 1 204 1 211 1 244 1 247 1 248 1 251 1 260 1 270 1 278 1 285 1 286 1 351 1 357 1 386 1 389 1 38 1 61 1 76 1 77 1 88 1 102 1 106 1 136 1 152 1 160 1 206 1 238 1 262 1 287 1 288 1 315 1 360 1 367 1 376 1 398 1 400 1 408 1 427 1 462 1 468 1 475 1 493 1 500 1 523 1 536 1 540 1 572 1 586 1 603 1 635 1 661 1 691 1 705 1 725 1 784 1 817 1 845 1 846 1 847 1 856 1 858 1 871 1 883 1 888 1 895 1 923 1 930 1 410 1 442 1 446 1 450 1 512 1 529 1 562 1 566 1 580 1 587 1 598 1 604 1 622 1 640 1 641 1 663 1 708 1 714 1 735 1 736 1 751 1 756 1 772 1 776 1 804 1 815 1 843 1 849 1 881 1 890 1 891 1 906 1 915 1 992 1 1006 1 1008 1 1011 1 1012 1 1027 1 
1 208 17 1 22 1 48 1 56 1 62 1 66 1 67 1 74 2 89 1 147 1 163 1 165 1 172 1 181 1 200 1 218 1 234 1 247 1 268 1 281 1 319 1 350 1 380 1 387 1 397 1 10 1 19 1 85 1 111 1 118 1 137 1 142 1 188 1 203 1 206 1 210 1 216 1 221 1 237 1 263 1 292 1 298 1 305 1 306 1 312 1 332 1 396 1 402 1 409 1 448 1 479 1 480 1 487 1 496 2 518 1 535 1 537 1 538 1 586 1 603 1 629 2 648 1 649 1 654 2 667 1 705 1 716 1 725 1 729 1 735 1 741 1 771 1 886 1 893 1 912 1 915 2 918 2 924 1 929 1 955 1 958 1 977 1 399 1 408 1 422 1 430 1 449 1 492 1 522 1 544 1 557 1 581 1 588 1 594 1 618 1 636 1 647 1 650 1 662 1 681 1 683 1 695 1 728 1 730 1 732 1 769 1 779 1 799 1 816 1 862 1 884 1 892 1 931 1 936 1 944 1 963 1 971 1 987 1 1004 1 1025 1 
1 209 2 1 25 1 27 1 34 1 93 1 115 1 146 1 180 1 231 1 253 1 263 1 265 1 273 1 275 1 282 1 291 1 312 1 356 1 377 1 384 2 46 1 104 1 123 1 128 1 141 1 162 1 163 1 177 1 181 1 192 1 205 1 222 1 233 1 249 1 285 1 288 1 290 1 323 1 334 1 343 1 382 1 390 1 398 1 473 1 476 1 500 1 501 1 546 1 548 1 558 1 562 1 572 1 649 1 658 1 671 1 701 1 718 1 721 1 724 1 761 1 765 1 775 1 816 2 828 1 850 1 853 1 868 1 873 1 404 1 414 1 423 1 442 1 449 1 523 1 530 1 577 1 593 1 643 1 647 1 651 1 656 1 693 1 696 1 697 1 712 1 720 1 727 1 733 1 748 1 752 1 773 1 789 1 799 1 824 1 865 1 871 1 878 1 932 1 951 1 958 1 990 1 997 1 1005 1 1006 1 1011 1 1015 1 1018 1 
1 211 53 2 76 1 79 1 101 1 104 1 134 1 136 1 140 2 150 1 156 1 170 1 186 1 225 1 289 1 293 1 301 1 303 1 306 1 321 1 322 1 349 1 361 2 372 1 397 1 39 1 54 1 66 1 95 1 112 1 113 1 118 1 144 1 197 1 202 1 208 1 211 1 234 1 307 1 323 1 328 1 357 1 427 1 431 1 469 1 490 1 494 1 510 1 546 1 558 1 576 1 592 1 610 1 630 1 642 1 654 1 661 1 681 1 713 1 726 1 729 1 786 2 795 1 796 1 814 1 839 1 870 1 875 1 879 1 899 1 912 1 936 1 954 1 959 1 985 2 991 1 409 1 461 1 470 1 472 1 486 1 502 1 575 1 579 1 625 1 666 1 699 1 732 1 740 1 748 1 768 1 770 1 779 1 805 1 826 1 845 1 848 1 850 1 888 1 892 1 917 1 922 1 938 1 941 1 945 1 957 1 971 1 1000 1 1005 1 1019 1 1025 1 1027 1 
1 217 32 1 34 1 50 1 86 1 203 1 218 1 221 1 233 2 274 1 276 1 298 1 302 1 321 1 332 1 364 2 374 1 14 1 51 1 68 1 102 1 118 1 160 1 183 1 188 1 205 1 240 1 252 1 260 1 262 1 279 1 308 1 312 1 325 1 337 1 339 1 353 1 378 1 389 1 394 1 406 1 426 2 444 1 454 1 455 1 509 1 516 1 556 2 598 1 611 1 645 1 646 1 662 2 667 1 704 1 712 1 715 1 728 1 755 1 763 1 795 1 826 1 832 1 842 2 885 1 910 1 937 1 990 1 994 1 416 1 421 1 427 1 435 1 446 1 449 1 453 1 489 1 494 1 524 1 537 1 551 1 554 1 608 1 614 1 627 1 636 1 644 1 664 1 690 1 694 1 716 1 734 1 747 1 772 1 830 1 837 1 843 1 852 1 888 1 901 1 941 1 996 1 999 1 1000 1 1006 1 1011 1 1014 1 1018 1 1019 1 1022 1 
1 210 50 1 92 1 93 1 99 1 118 1 119 1 121 1 135 1 165 1 174 1 231 1 241 1 251 1 286 1 330 1 331 2 339 1 384 1 398 1 17 1 70 1 79 1 100 1 102 1 108 1 110 1 114 1 123 1 157 1 162 1 163 1 191 1 222 1 226 1 233 1 276 1 296 1 299 1 300 1 347 1 358 1 374 1 394 1 421 1 432 1 433 1 448 2 490 1 537 1 555 1 562 1 572 1 670 1 684 1 686 1 687 2 723 1 724 1 732 1 802 1 810 1 811 1 850 1 854 1 892 1 896 1 905 1 916 1 921 1 926 2 929 1 945 1 979 1 990 1 992 1 997 1 416 1 424 1 475 1 481 1 487 1 494 1 523 1 524 1 536 1 549 1 574 1 582 1 599 1 634 1 639 1 644 1 654 1 661 1 666 1 708 1 745 1 750 1 765 1 771 1 836 1 867 1 881 1 912 1 936 1 970 1 984 1 986 1 1006 1 1010 1 1022 1 1025 1 
1 208 5 1 20 1 50 1 56 1 103 1 110 1 124 1 136 1 145 1 146 1 190 1 201 1 203 2 224 1 231 1 253 1 262 1 279 1 309 2 331 1 360 1 368 1 370 1 12 1 21 1 36 1 55 1 75 1 97 1 112 1 118 1 140 1 154 1 162 1 191 1 195 1 199 1 216 1 238 1 248 1 278 1 287 1 303 1 333 1 336 1 364 1 365 1 371 1 373 1 411 1 423 1 427 1 441 1 449 1 456 1 485 2 486 1 496 1 505 1 534 1 546 1 553 1 578 1 588 1 591 1 638 1 656 1 658 1 664 1 678 1 686 2 693 1 703 1 734 1 761 2 769 1 782 1 793 1 804 1 825 1 833 1 846 1 864 1 909 2 985 1 990 1 994 1 433 1 434 1 463 1 475 1 529 1 543 1 556 1 577 1 584 1 601 1 607 1 681 1 685 1 698 1 719 1 738 1 749 1 795 1 806 1 820 1 823 1 848 1 854 1 862 1 871 1 878 1 910 1 917 1 920 1 926 1 959 1 976 1 980 1 
1 208 5 2 16 1 22 1 26 1 35 1 43 2 48 1 69 1 109 1 112 2 126 1 149 1 189 1 195 1 204 1 208 1 261 1 295 1 303 1 311 1 326 1 327 1 345 1 362 1 390 1 394 1 6 1 12 1 28 1 36 1 64 1 76 1 119 1 151 1 200 1 201 1 209 1 216 1 228 1 233 1 237 1 239 1 241 1 322 1 342 1 358 1 369 1 379 1 399 1 427 1 440 1 444 1 477 1 480 1 483 1 487 2 493 1 495 1 505 1 567 1 648 1 649 1 664 1 674 1 677 1 682 1 684 1 708 1 714 1 733 1 743 1 762 1 766 1 770 2 780 1 790 1 806 1 812 1 819 1 828 1 831 1 843 1 878 1 889 1 892 1 902 1 920 1 935 1 936 1 940 1 946 1 987 1 997 1 419 1 439 1 448 1 451 1 489 1 490 1 527 1 529 1 532 1 548 1 583 1 603 1 608 1 613 1 615 1 632 1 665 1 673 1 711 1 725 1 776 1 789 1 804 1 805 1 833 1 838 1 851 1 861 1 870 1 874 1 924 1 944 1 950 1 974 1 1018 1 1020 1 1024 1 1027 1 
1 212 22 2 45 1 58 1 110 2 139 1 147 2 171 1 195 1 230 1 252 1 269 1 274 1 278 1 309 1 321 1 363 1 370 1 47 1 59 1 65 1 69 1 71 1 98 1 172 1 174 1 181 1 186 1 197 1 212 1 258 1 262 1 275 1 316 1 320 1 325 1 339 1 365 1 366 1 373 1 410 1 416 1 418 1 441 1 444 1 474 1 551 1 572 1 582 1 614 1 616 1 630 1 635 1 638 1 714 1 762 1 763 1 781 1 789 1 800 1 825 1 832 1 871 1 881 1 890 1 899 1 900 2 949 1 951 1 965 1 971 1 985 1 988 1 989 1 422 1 439 1 502 1 514 1 520 1 561 1 565 1 566 1 571 1 612 1 627 1 647 1 667 1 674 1 685 1 710 1 720 1 734 1 758 1 824 1 843 1 854 1 874 1 877 1 892 1 901 1 919 1 938 1 984 1 993 1 1004 1 1007 1 1009 1 1011 1 1012 1 1013 1 
1 213 11 1 26 1 45 1 59 1 63 1 81 1 102 1 113 2 134 1 159 1 160 1 171 2 195 1 261 1 318 1 319 1 347 1 361 2 366 1 387 2 391 1 396 1 401 1 10 1 31 1 33 1 38 1 53 1 62 1 78 1 108 1 119 1 128 1 130 1 133 1 155 1 170 1 179 1 181 1 190 1 196 1 207 1 208 1 227 1 238 1 239 1 249 1 255 1 263 1 325 1 342 1 364 1 409 1 412 1 426 1 461 1 485 1 490 1 531 1 566 1 568 1 582 1 609 1 613 1 646 1 651 1 653 1 670 1 674 1 713 1 771 1 773 1 799 1 854 1 856 1 885 1 886 1 936 1 965 1 970 2 973 1 988 1 993 1 999 1 416 1 421 1 438 1 469 1 492 1 499 1 504 1 530 1 555 1 581 1 618 1 629 1 631 1 652 1 667 1 671 1 703 1 732 1 748 1 782 1 790 1 792 1 802 1 816 1 822 1 829 1 855 1 905 1 917 1 920 1 921 1 926 1 934 1 978 1 1005 1 1008 1 1014 1 1016 1 1022 1 
1 209 19 1 29 1 68 1 82 1 105 1 131 1 136 1 156 1 164 1 165 1 211 1 282 1 345 1 346 1 351 1 378 1 380 1 381 1 388 1 394 1 396 1 14 1 28 1 42 1 58 1 106 1 182 1 187 1 193 1 328 1 336 1 343 1 359 1 384 1 420 1 427 1 448 1 455 1 482 1 509 1 529 1 599 1 619 1 650 1 661 1 674 1 687 1 705 2 714 1 798 1 817 2 820 1 828 1 830 1 831 1 840 1 851 1 852 1 861 1 862 2 881 1 886 1 887 1 890 1 915 1 927 1 952 1 959 1 964 2 969 1 434 1 435 1 438 1 445 1 461 1 526 1 535 1 536 1 540 1 548 1 556 1 560 1 572 1 581 1 609 1 631 1 660 1 666 1 673 1 683 1 713 1 728 1 732 1 738 1 776 1 786 1 795 1 824 1 867 1 903 1 905 1 918 1 946 1 950 1 956 1 971 1 985 1 992 1 993 1 1019 1 1022 1 1023 1 1025 1 
1 209 7 1 21 1 62 1 74 1 82 1 84 1 85 1 108 1 155 1 171 1 177 1 178 1 187 1 189 1 203 1 213 1 217 1 229 1 238 1 277 1 318 1 340 2 354 1 363 1 380 1 397 1 9 1 29 1 43 1 76 1 136 1 138 1 143 1 144 1 161 1 166 1 205 1 214 1 221 1 267 1 284 1 322 1 360 1 398 1 413 1 456 1 476 1 510 1 516 1 537 1 574 1 589 1 627 1 633 1 693 1 699 1 711 1 723 1 734 1 740 1 741 1 743 1 756 1 759 1 761 1 773 1 819 1 826 1 858 1 934 1 954 2 426 1 436 1 484 1 529 1 534 1 561 1 568 1 584 1 607 1 614 1 628 1 632 1 652 1 665 1 689 1 708 1 712 1 721 1 769 1 778 1 787 1 792 1 793 1 830 1 834 1 865 1 907 1 968 1 990 1 991 1 1014 1 
1 210 22 1 69 1 84 1 128 1 143 1 180 1 186 1 200 1 225 1 236 1 241 1 263 1 269 1 283 1 312 1 347 1 358 1 393 1 398 1 406 1 12 1 38 1 49 1 73 1 91 1 101 1 134 1 135 1 191 1 235 1 278 1 289 1 313 1 315 1 324 1 327 1 366 1 400 1 500 1 510 1 518 1 566 1 581 1 593 1 594 1 605 1 616 1 622 1 646 1 669 1 683 1 688 1 703 2 726 1 733 1 751 1 766 1 797 1 811 1 820 1 836 1 845 1 885 1 907 1 942 1 960 2 965 1 969 1 980 1 989 1 993 1 414 1 453 1 457 1 507 1 539 1 549 1 550 1 551 1 590 1 602 1 639 1 650 1 690 1 708 1 725 1 738 1 740 1 769 1 784 1 799 1 801 1 807 1 826 1 847 1 850 1 851 1 853 1 863 1 865 1 870 1 880 1 888 1 925 1 934 1 954 1 973 1 981 1 982 1 1005 1 1008 1 1014 1 
1 210 20 2 38 1 43 1 48 1 68 1 70 2 71 1 77 1 101 1 112 1 132 1 161 1 214 1 230 1 275 1 310 2 341 1 344 1 405 1 3 1 8 1 16 1 40 1 63 1 85 1 86 1 88 1 89 1 125 1 139 1 184 1 197 1 204 1 224 1 296 1 332 1 334 1 345 1 352 1 361 1 375 1 381 1 397 1 412 1 435 1 444 1 474 1 481 2 494 1 499 1 549 1 560 1 562 1 640 1 648 1 655 1 670 1 680 1 690 1 713 1 716 1 717 2 719 2 762 1 775 1 777 1 802 1 825 1 839 1 888 1 897 1 925 1 926 1 932 2 936 1 443 1 449 1 536 1 557 1 564 1 572 1 578 1 592 1 596 1 598 1 606 1 636 1 661 1 666 1 688 1 700 1 712 1 728 1 742 1 778 1 783 1 807 1 830 1 836 1 848 1 878 1 886 1 982 1 996 1 1006 1 1007 1 1011 1 
1 205 36 1 57 2 58 1 73 1 84 1 89 1 104 1 117 1 126 1 138 1 153 1 156 1 164 1 167 1 187 1 232 1 240 1 270 1 326 1 327 1 333 1 336 1 363 1 379 1 384 2 389 1 403 1 19 1 33 1 43 1 74 1 90 1 99 1 110 1 123 1 142 1 175 1 196 1 231 1 251 1 288 1 317 1 364 1 377 1 413 1 452 1 482 1 494 1 535 1 539 1 564 1 582 1 587 1 605 1 614 1 627 1 629 1 682 1 720 1 729 1 766 1 779 1 797 1 821 1 831 1 912 1 932 1 960 1 961 1 982 1 1000 1 420 1 443 1 471 1 477 1 487 1 493 1 509 1 512 1 523 1 533 1 550 1 552 1 559 1 567 1 643 1 645 1 680 1 687 1 713 1 739 1 757 1 804 1 842 1 897 1 902 1 915 1 924 1 928 1 938 1 952 1 972 1 973 1 979 1 1001 1 1018 1 
1 205 11 1 43 1 61 1 75 1 93 1 103 1 107 2 111 1 140 1 159 1 192 1 200 1 209 1 215 1 216 1 225 1 282 2 301 1 313 1 378 1 406 1 410 1 40 1 44 1 98 1 112 1 161 1 168 1 185 1 256 1 265 1 280 1 281 1 304 1 314 1 353 1 394 1 412 1 412 1 418 1 440 1 482 1 518 1 531 1 540 1 579 1 621 1 622 1 630 1 633 1 665 1 666 1 667 1 697 1 807 1 822 1 823 1 836 1 851 1 852 1 857 1 862 1 882 1 901 1 912 1 929 1 936 1 963 1 972 1 434 1 474 1 483 1 484 1 485 1 490 1 494 1 498 1 516 1 568 1 572 1 583 1 586 1 612 1 623 1 624 1 635 1 644 1 704 1 707 1 708 1 719 1 727 1 730 1 739 1 740 1 744 1 756 1 767 1 773 1 808 1 830 1 834 1 835 1 860 1 866 1 884 1 895 1 897 1 914 1 940 1 982 1 987 1 1002 1 1015 1 
1 208 12 1 21 1 28 1 31 2 51 1 60 1 102 2 135 1 140 1 149 1 156 1 161 1 188 2 204 1 209 1 235 1 259 1 321 2 356 1 364 1 369 1 381 1 384 1 386 2 408 1 411 1 1 1 13 1 20 1 69 1 74 1 76 1 78 1 82 1 84 1 98 1 101 1 116 1 147 1 151 1 158 1 178 1 181 1 201 1 203 1 218 1 230 1 254 1 280 1 294 1 326 1 365 1 366 1 379 1 389 1 391 1 440 1 446 1 458 1 464 1 477 1 483 1 540 1 569 1 623 1 645 1 648 1 663 1 665 1 687 1 796 1 819 1 824 1 825 1 831 1 877 1 893 1 898 1 900 1 915 1 929 1 966 1 968 1 430 1 473 1 476 1 487 1 503 1 526 1 556 1 568 1 586 1 600 1 642 1 644 1 654 1 655 1 706 1 716 1 728 1 731 1 767 1 773 1 799 1 814 1 815 1 844 1 872 1 883 1 885 1 891 1 957 1 959 1 962 1 987 1 997 1 1003 1 1017 1 1021 1 
1 210 20 1 21 1 31 1 36 2 47 1 58 1 79 1 80 1 93 1 98 1 106 1 116 1 209 2 222 1 230 1 263 1 268 1 276 1 279 1 287 1 293 2 301 1 372 1 386 1 393 1 13 1 65 1 82 1 86 1 110 1 131 1 141 1 156 1 161 1 182 1 206 1 212 1 238 1 292 1 298 1 304 1 314 1 317 1 352 1 359 1 377 1 399 1 409 1 430 1 487 1 526 1 555 1 561 1 587 1 606 1 612 1 632 1 636 1 646 1 656 1 676 1 693 1 700 1 707 1 761 1 767 1 769 1 779 1 780 1 786 1 805 1 807 1 812 2 839 1 841 1 850 1 874 1 903 1 906 1 924 1 928 1 939 2 946 1 983 1 984 1 417 1 424 1 428 1 438 1 448 1 461 1 470 1 533 1 564 1 575 1 604 1 622 1 640 1 684 1 714 1 715 1 719 1 808 1 864 1 869 1 878 1 887 1 907 1 917 1 920 1 933 1 957 1 963 1 978 1 1006 1 1012 1 
1 210 10 1 14 1 15 1 20 1 24 1 81 1 90 1 99 1 130 2 174 1 184 1 266 1 286 1 291 1 315 1 328 1 335 1 340 1 377 1 389 1 26 1 36 1 68 1 93 1 95 1 107 1 125 1 150 1 153 1 161 1 167 1 172 1 206 1 218 1 232 1 234 1 238 1 246 1 284 1 285 1 318 1 355 1 372 1 388 1 437 2 445 1 450 1 453 1 454 1 459 1 470 1 481 1 516 1 519 1 548 1 549 1 562 1 573 1 601 1 603 1 630 1 651 1 653 1 662 1 678 1 701 1 729 1 741 1 752 1 793 1 815 1 966 1 978 1 420 1 457 1 462 1 500 1 506 1 513 1 521 1 534 1 542 1 578 1 600 1 605 1 610 1 612 1 623 1 629 1 640 1 646 1 652 1 655 1 666 1 676 1 677 1 694 1 697 1 744 1 747 1 763 1 774 1 787 1 790 1 836 1 844 1 870 1 872 1 934 1 937 1 949 1 974 1 976 1 995 1 1015 1 1020 1 
1 214 36 1 105 1 125 1 134 1 138 1 141 1 155 1 202 1 204 1 229 1 257 1 303 2 311 1 317 1 338 1 349 1 394 1 405 1 26 1 30 1 44 1 52 1 53 1 64 1 70 1 71 1 100 1 124 1 140 1 147 1 149 1 151 1 158 1 173 1 194 1 212 1 282 1 294 1 306 1 345 1 358 1 359 1 361 1 382 1 383 1 386 1 401 1 402 1 406 1 425 1 426 1 428 1 444 1 472 1 544 1 602 1 615 1 676 1 680 1 710 1 720 2 733 1 744 1 764 1 772 1 792 2 857 1 874 1 900 1 911 1 916 1 936 1 994 1 424 1 470 1 478 1 510 1 517 1 519 1 535 1 549 1 552 1 553 1 583 1 600 1 608 1 629 1 637 1 644 1 656 1 657 1 665 1 671 1 723 1 745 1 756 1 789 1 810 1 853 1 865 1 921 1 927 1 941 1 965 1 967 1 985 1 1000 1 1008 1 1013 1 1022 1 1026 1 
1 213 35 2 42 1 73 1 86 2 91 1 108 1 117 1 161 2 170 1 187 1 188 1 193 1 236 1 337 1 352 1 359 1 3 1 21 1 47 1 99 1 100 1 101 1 104 1 141 1 153 1 158 1 175 1 199 1 200 1 208 1 212 1 215 1 261 1 268 1 315 1 335 1 379 1 381 1 414 1 420 1 442 1 446 1 449 1 451 1 458 1 464 1 476 1 479 1 511 1 544 2 545 1 564 1 570 1 574 1 609 1 614 1 616 1 643 1 665 1 679 1 706 1 754 1 783 1 808 1 809 2 812 1 814 1 818 1 819 1 841 2 845 1 848 1 893 1 894 1 899 1 902 1 919 1 970 1 982 1 984 1 422 1 431 1 471 1 473 1 551 1 569 1 571 1 607 1 637 1 658 1 675 1 676 1 693 1 694 1 712 1 718 1 721 1 733 1 741 1 753 1 774 1 792 1 806 1 815 1 816 1 824 1 846 1 853 1 884 1 910 1 936 1 952 1 981 1 1002 1 1018 1 
1 209 33 1 42 1 47 1 74 1 96 1 101 1 106 1 107 1 148 1 151 1 189 1 212 1 249 1 252 2 266 1 279 1 297 1 299 1 324 1 345 1 365 1 366 1 384 1 405 1 412 1 6 1 13 1 24 1 32 1 71 1 77 1 90 1 102 1 133 1 158 1 167 1 187 1 209 1 248 1 265 1 268 1 276 1 298 1 310 1 312 1 329 1 394 1 419 1 434 1 442 1 449 1 463 1 464 1 466 1 488 1 500 1 531 1 533 1 541 1 567 1 571 1 587 1 589 1 601 1 612 1 617 1 626 1 633 1 654 1 666 1 689 1 780 1 791 1 816 1 819 1 868 1 870 1 891 1 916 1 927 1 946 1 969 1 422 1 437 1 459 1 474 1 482 1 489 1 513 1 536 1 549 1 569 1 575 1 628 1 658 1 679 1 697 1 698 1 731 1 737 1 760 1 781 1 794 1 821 1 822 1 825 1 832 1 837 1 847 1 912 1 936 1 944 1 960 1 988 1 1014 1 
1 207 8 1 25 1 27 1 59 1 77 1 95 1 118 1 123 1 126 1 147 1 164 1 174 1 185 1 189 1 206 1 224 1 225 1 229 2 243 1 271 1 320 1 321 1 331 1 354 1 418 1 24 1 30 1 35 1 47 1 65 1 90 1 170 1 192 1 195 1 204 1 209 1 227 1 237 1 242 1 287 1 291 1 327 1 330 1 338 1 339 1 387 1 390 1 392 1 393 1 404 1 429 1 439 1 453 1 470 1 484 1 491 1 512 1 524 1 582 1 627 1 630 1 656 1 668 1 692 1 708 1 732 1 769 1 772 1 783 1 812 1 833 1 840 1 908 1 912 1 941 1 946 1 953 1 436 1 437 1 455 1 507 1 514 1 558 1 585 1 587 1 591 1 592 1 598 1 667 1 671 1 701 1 729 1 761 1 764 1 768 1 780 1 781 1 805 1 826 1 846 1 850 1 869 1 878 1 892 1 902 1 910 1 973 1 979 1 1015 1 1020 1 
1 208 10 1 59 1 72 1 73 1 94 1 98 1 127 2 138 1 141 2 144 1 153 1 178 1 210 1 226 1 229 1 247 1 249 1 254 1 274 1 283 1 345 1 347 1 407 1 417 1 29 1 105 1 128 1 158 1 218 1 246 1 260 1 270 1 278 1 281 1 282 1 301 1 324 1 330 1 332 1 376 1 381 1 382 1 411 1 415 1 432 1 451 2 455 1 466 2 489 1 496 1 509 1 537 2 551 1 588 1 603 1 619 1 634 1 642 1 692 1 693 1 712 1 727 1 743 1 748 2 787 1 789 1 793 1 827 2 879 1 895 1 899 1 940 1 957 1 983 1 424 1 461 1 485 1 491 1 503 1 504 1 507 1 510 1 542 1 563 1 567 1 572 1 598 1 624 1 629 1 635 1 650 1 682 1 683 1 701 1 714 1 726 1 788 1 798 1 850 1 880 1 885 1 905 1 936 1 938 1 943 1 948 1 1002 1 1017 1 1018 1 
1 210 28 1 64 1 74 1 93 1 95 1 117 1 166 1 182 1 185 2 191 1 225 1 231 1 238 1 253 1 277 1 282 1 296 1 306 1 322 1 337 1 345 1 354 1 360 1 383 2 402 1 19 1 24 1 25 1 40 1 43 1 66 1 71 1 75 1 89 1 103 1 106 1 114 1 168 1 189 1 193 1 239 1 249 1 251 1 308 1 317 1 343 1 372 1 378 1 401 1 406 1 438 1 458 1 459 1 473 1 491 1 496 1 505 1 512 1 515 1 525 1 538 1 553 1 567 1 601 1 608 1 610 1 622 1 663 1 688 1 699 1 712 1 721 1 728 1 750 1 770 1 777 2 793 1 839 1 845 1 859 1 881 1 910 1 924 2 980 1 991 2 445 1 464 1 471 1 474 1 482 1 498 1 518 1 535 1 558 1 579 1 590 1 600 1 605 1 643 1 677 1 744 1 764 1 784 1 787 1 808 1 813 1 893 1 931 1 937 1 941 1 946 1 950 1 995 1 997 1 998 1 1020 1 1022 1 1025 1 
1 208 23 1 26 1 31 1 37 2 61 1 62 1 83 1 125 1 148 1 159 1 178 1 202 1 225 1 246 1 258 1 280 1 288 1 380 1 2 1 3 1 21 1 38 1 49 1 67 1 74 1 84 1 108 1 111 1 116 1 121 1 126 1 127 1 134 1 235 1 238 1 249 1 253 1 276 1 293 1 299 1 317 1 367 1 382 1 384 1 392 1 398 1 405 1 417 1 418 1 442 1 449 1 479 1 497 1 557 1 567 1 606 1 612 1 615 1 622 1 639 1 675 1 683 1 746 1 769 1 777 1 778 1 792 1 810 1 831 1 836 1 844 1 869 1 877 1 918 1 921 2 964 1 970 2 978 1 995 1 433 1 445 1 469 1 484 1 489 1 496 1 520 1 555 1 605 1 624 1 653 1 657 1 665 1 672 1 688 1 731 1 742 1 747 1 761 1 795 1 804 1 807 1 812 1 850 1 853 1 868 1 881 1 895 1 906 1 910 1 923 1 935 1 938 1 945 1 949 1 951 1 953 1 972 1 975 1 1002 1 1005 1 1011 1 
1 207 13 1 20 1 48 1 56 1 77 1 84 1 125 1 159 1 193 1 240 1 250 1 255 1 302 1 370 1 376 1 390 1 403 1 3 1 25 1 26 1 32 1 57 1 65 1 66 1 104 1 106 1 119 1 123 1 131 1 144 1 145 1 147 1 156 1 157 1 175 1 178 1 195 1 226 1 234 1 245 1 247 1 253 1 278 1 324 1 336 1 338 1 366 1 383 1 399 1 423 1 423 1 477 1 484 1 506 1 510 1 511 1 537 1 549 2 554 1 581 1 585 1 623 1 643 1 680 1 692 1 696 1 705 1 709 1 710 1 742 1 747 1 754 2 755 1 765 1 833 1 839 1 848 1 851 1 883 1 922 1 968 1 969 1 976 1 988 2 427 1 433 1 486 1 524 1 530 1 541 1 561 1 569 1 607 1 615 1 637 1 644 1 651 1 652 1 660 1 703 1 706 1 712 1 722 1 734 1 774 1 785 1 816 1 824 1 838 1 840 1 856 1 897 1 935 1 982 1 1012 1 
1 207 17 1 34 1 51 1 113 1 130 1 153 1 159 1 160 1 166 1 191 1 193 1 199 1 211 1 227 1 249 1 269 1 294 1 342 1 346 1 350 1 351 1 360 1 362 1 365 1 375 1 393 1 3 1 13 1 68 1 141 1 170 1 189 1 222 1 224 1 250 1 264 1 310 1 313 1 314 1 371 1 377 1 379 1 383 1 394 1 402 1 414 1 416 1 420 1 442 1 445 1 457 1 526 1 534 1 547 1 555 1 567 1 568 1 569 1 595 1 628 1 629 1 637 1 668 1 708 1 728 1 779 1 862 1 864 2 870 1 934 1 957 1 973 1 426 1 428 1 440 1 472 1 523 1 539 1 541 1 549 1 558 1 570 1 575 1 600 1 614 1 630 1 650 1 670 1 701 1 741 1 743 1 761 1 765 1 772 1 782 1 796 1 803 1 806 1 833 1 860 1 882 1 902 1 910 1 987 1 1005 1 1023 1 1024 1 1025 1 
1 205 51 1 70 1 95 1 109 1 141 1 159 1 197 1 216 1 232 2 240 1 257 1 265 1 273 1 284 1 322 1 384 1 387 1 416 1 7 1 14 1 18 1 105 1 123 1 136 1 179 1 219 1 226 1 253 1 256 1 259 1 276 1 292 1 383 1 437 1 453 1 471 1 500 1 508 1 519 1 532 1 546 1 561 1 565 1 585 1 620 1 633 1 658 1 677 1 685 1 690 1 700 1 703 1 718 1 725 1 726 1 734 1 736 1 739 1 752 1 774 1 779 1 832 1 865 1 866 1 876 1 879 2 889 1 890 1 958 1 966 1 427 1 450 1 457 1 494 1 506 1 513 1 520 1 528 1 531 1 534 1 555 1 579 1 580 1 589 1 646 1 647 1 655 1 665 1 669 1 682 1 687 1 706 1 714 1 765 1 766 1 794 1 814 1 830 1 834 1 853 1 856 1 875 1 941 1 951 1 965 1 974 1 990 1 1007 1 
1 216 16 1 28 1 42 1 45 1 51 1 71 1 90 1 92 1 108 1 110 1 149 1 151 1 162 1 164 1 183 1 194 1 199 1 204 1 207 1 219 1 244 1 269 1 270 2 277 1 297 1 307 2 314 1 319 1 320 1 334 1 360 1 363 1 386 1 388 1 401 2 406 1 416 1 24 1 27 1 48 1 50 1 69 1 78 1 116 1 177 1 189 1 196 1 205 1 220 1 237 1 327 1 329 1 337 1 345 1 346 1 368 1 394 1 396 1 408 1 424 1 434 1 463 2 468 2 494 1 523 1 556 1 571 1 582 1 587 1 596 1 604 1 607 1 616 1 647 1 676 1 695 1 697 1 719 1 724 1 753 1 756 1 797 1 819 1 824 1 827 1 869 2 891 1 905 1 913 1 922 1 947 2 948 1 969 1 986 1 432 1 446 1 453 1 456 1 488 1 495 1 505 1 549 1 564 1 618 1 622 1 630 1 640 1 664 1 691 1 716 1 743 1 749 1 767 1 771 1 802 1 807 1 820 1 829 1 854 1 865 1 916 1 923 1 959 1 994 1 999 1 1002 1 1008 1 1016 1 
1 216 15 1 19 1 25 1 28 1 49 1 73 1 76 1 78 1 92 1 97 1 162 1 185 1 210 1 225 1 230 1 258 1 290 1 321 1 340 1 354 1 359 1 373 1 397 1 400 1 403 1 404 1 407 1 3 1 9 1 39 1 51 1 172 1 174 1 211 1 238 1 251 1 262 1 279 1 294 1 299 1 305 1 308 1 351 1 401 1 423 1 425 1 436 1 457 1 458 1 463 1 473 1 502 1 569 1 572 1 576 1 583 1 591 1 599 1 636 1 682 1 686 1 693 1 738 1 777 1 779 1 791 1 797 1 814 1 839 1 842 1 852 1 853 1 873 1 885 1 888 1 898 1 913 2 916 1 930 1 931 1 965 1 989 1 474 1 504 1 529 1 532 1 564 1 584 1 607 1 640 1 644 1 646 1 657 1 662 1 668 1 685 1 698 1 720 1 730 1 783 1 802 1 816 1 824 1 857 1 871 1 881 1 882 1 892 1 908 1 915 1 920 1 923 1 932 1 939 1 968 1 1005 1 1012 1 
1 213 17 1 22 1 71 1 84 1 89 1 93 1 98 1 99 1 111 1 144 1 159 1 185 2 215 1 235 1 236 1 294 1 309 1 313 1 318 1 353 1 365 1 416 1 13 1 31 1 44 1 62 1 66 1 103 1 126 1 266 1 324 1 334 1 335 1 348 1 357 1 374 1 414 1 424 1 435 1 462 1 470 1 505 1 551 1 555 1 583 1 607 1 615 1 638 1 642 1 718 1 737 1 781 1 788 1 801 1 806 1 862 1 864 1 873 1 876 1 884 1 903 1 907 1 937 1 940 1 957 1 958 1 964 1 968 2 973 1 980 2 990 1 992 1 442 1 450 1 457 1 490 1 495 1 504 1 513 1 539 1 543 1 576 1 591 1 630 1 632 1 637 1 658 1 673 1 676 1 684 1 690 1 717 1 745 1 753 1 767 1 772 1 811 1 844 1 849 1 893 1 911 1 960 1 974 1 982 1 987 1 1002 1 1013 1 1016 1 1018 1 1021 1 
1 205 2 1 15 1 17 1 29 1 40 1 68 1 83 1 88 1 99 1 103 1 118 1 130 1 144 2 149 1 161 1 175 1 176 1 182 1 200 1 209 1 211 1 248 2 256 1 263 1 284 1 289 1 295 1 298 1 419 1 9 1 43 1 52 1 59 1 92 1 102 1 112 1 116 1 119 1 132 1 135 1 138 1 157 1 168 1 180 1 188 1 199 1 224 1 264 1 307 1 318 1 342 1 474 1 480 1 481 1 516 1 523 1 526 1 531 1 542 1 552 1 560 1 567 1 586 1 593 1 603 1 621 1 623 1 624 1 631 2 634 1 649 1 654 1 658 1 696 1 702 1 712 1 716 1 718 1 726 1 735 1 758 1 764 1 778 1 781 1 783 1 785 1 791 1 830 1 840 1 849 1 858 1 863 1 918 1 925 1 926 1 930 1 931 1 932 1 947 1 958 1 976 1 992 1 996 1 997 1 432 1 458 1 460 1 487 1 499 1 511 1 515 1 522 1 535 1 539 1 591 1 615 1 619 1 620 1 682 1 701 1 708 1 713 1 750 1 773 1 779 1 797 1 803 1 817 1 818 1 821 1 822 1 827 1 860 1 862 1 881 1 906 1 950 1 962 1 1005 1 
1 215 10 1 20 1 29 1 36 2 61 1 69 1 86 1 90 1 95 1 136 1 199 1 208 1 221 1 248 1 321 1 347 2 349 1 377 1 414 1 15 1 27 1 46 1 52 1 71 1 97 1 115 1 143 1 145 1 150 1 156 1 182 1 186 1 218 1 229 1 239 1 251 1 303 1 319 1 330 1 345 1 355 1 367 1 388 1 398 1 413 1 431 2 437 1 449 1 492 1 495 1 508 1 509 1 520 1 536 1 589 1 597 1 598 1 599 1 605 1 619 1 631 1 634 2 656 1 718 1 720 1 735 1 736 1 750 1 767 1 811 1 812 1 823 2 832 1 840 1 845 1 889 1 900 1 901 1 911 1 931 1 954 1 957 1 980 1 983 1 995 1 1001 1 455 1 463 1 505 1 514 1 571 1 611 1 617 1 620 1 623 1 653 1 672 1 676 1 706 1 719 1 743 1 745 1 746 1 751 1 760 1 765 1 787 1 870 1 890 1 926 1 936 1 959 1 993 1 1010 1 1017 1 1025 1 1026 1 
1 208 21 1 23 1 26 1 58 1 93 1 111 1 144 1 146 1 191 1 223 1 230 1 237 1 255 1 319 1 338 1 349 1 353 1 364 1 375 1 378 1 400 1 430 2 64 1 78 1 94 1 106 1 116 1 123 1 137 1 157 1 179 1 180 1 193 1 201 1 214 1 295 1 298 1 306 1 308 1 311 1 313 1 314 1 326 1 346 1 356 1 377 1 381 1 417 1 443 1 455 1 469 1 471 1 488 1 494 1 496 1 508 1 514 1 515 1 553 2 589 1 615 1 666 1 672 1 685 2 701 1 709 1 765 1 771 1 773 1 783 1 790 1 796 1 806 1 813 1 845 1 887 1 897 1 919 1 958 1 975 1 983 1 985 1 987 1 445 1 449 1 479 1 503 1 510 1 511 1 513 1 546 1 547 1 650 1 661 1 680 1 682 1 686 1 693 1 695 1 743 1 745 1 792 1 816 1 827 1 830 1 831 1 856 1 893 1 912 1 915 1 930 1 944 1 945 1 979 1 1000 1 1003 1 1007 1 
1 216 41 1 54 1 77 1 107 1 131 1 140 1 148 1 155 1 156 1 167 1 177 1 180 1 183 1 189 1 191 1 210 1 247 1 269 1 273 1 276 1 298 1 303 1 343 1 355 1 402 1 420 1 21 1 34 1 36 1 53 1 56 1 74 1 108 1 118 1 119 1 136 1 150 1 176 1 213 1 262 1 284 1 299 1 317 1 328 1 331 1 363 1 395 1 426 1 429 1 439 1 487 1 509 1 532 1 538 1 548 1 549 2 565 1 603 1 614 1 620 1 696 1 715 1 719 1 745 1 778 1 787 1 797 1 819 1 842 1 876 1 889 1 927 1 940 1 943 1 945 1 952 1 963 1 966 1 973 1 997 1 1001 1 459 1 472 1 475 1 484 1 506 1 534 1 561 1 576 1 583 1 610 1 628 1 631 1 647 1 661 1 669 1 685 1 694 1 703 1 707 1 743 1 782 1 793 1 814 1 826 1 833 1 834 1 844 1 856 1 865 1 888 1 896 1 900 1 901 1 903 1 909 1 929 1 953 1 974 1 977 1 991 1 1010 1 1012 1 1026 1 
1 213 35 1 59 1 68 1 105 1 117 1 120 1 139 1 148 1 160 1 165 2 202 1 207 1 214 1 239 1 268 1 284 1 285 1 298 1 315 1 323 1 341 1 402 1 37 1 72 1 123 1 131 1 145 1 162 1 181 1 186 1 201 1 204 1 211 1 219 1 252 1 260 1 261 1 282 1 342 1 364 1 382 1 390 1 403 1 422 1 423 1 477 1 502 1 523 1 573 1 622 1 666 1 678 1 684 1 685 1 731 1 732 1 745 1 750 1 766 1 773 1 791 1 806 1 810 1 813 1 867 1 874 1 876 1 910 1 955 1 969 1 986 1 455 1 471 1 511 1 516 1 533 1 536 1 540 1 541 1 555 1 557 1 576 1 579 1 590 1 597 1 606 1 649 1 686 1 689 1 709 1 716 1 718 1 725 1 763 1 771 1 779 1 800 1 807 1 811 1 814 1 819 1 825 1 843 1 845 1 859 1 863 1 882 1 913 1 933 1 938 1 981 1 1002 1 1013 1 1014 1 1015 1 1017 1 1020 1 
1 214 28 1 77 2 101 1 137 1 143 1 150 1 156 1 173 1 186 1 187 1 189 1 191 1 224 2 225 2 238 1 255 1 308 2 331 1 338 1 342 1 350 1 367 1 389 1 391 1 418 1 426 1 3 1 13 1 63 1 102 1 111 1 114 1 134 1 135 1 136 1 164 1 212 1 216 1 226 1 247 1 288 1 292 1 298 1 303 1 344 1 357 1 403 1 407 1 412 1 478 2 489 1 514 1 520 1 530 1 552 1 596 1 633 1 635 1 666 1 694 1 695 1 709 1 716 1 729 1 738 1 743 1 748 1 767 1 785 2 795 1 802 1 852 2 888 1 894 1 920 1 931 1 960 1 962 1 966 1 968 1 435 1 449 1 469 1 590 1 620 1 642 1 647 1 673 1 728 1 739 1 765 1 782 1 791 1 866 1 869 1 872 1 874 1 902 1 903 1 905 1 909 1 936 1 942 1 948 1 1005 1 1006 1 1010 1 1016 1 1026 1 
1 206 10 1 15 1 27 1 30 1 55 1 58 1 60 1 86 1 87 1 94 1 97 1 106 1 120 1 124 1 129 2 132 1 141 1 155 1 172 1 188 1 198 1 206 1 239 1 243 2 246 1 253 1 263 1 273 1 301 1 330 1 339 1 344 1 361 1 374 1 381 1 388 1 394 1 410 1 428 1 2 1 18 1 22 1 28 1 36 1 41 1 43 1 62 1 76 1 83 1 107 1 112 1 158 1 162 1 187 1 208 1 217 1 222 1 228 1 235 1 245 1 277 1 278 1 281 1 291 1 305 1 323 1 324 1 325 1 348 1 357 1 379 1 401 1 407 1 434 1 441 1 453 2 457 1 460 1 481 1 507 1 526 1 530 1 534 1 554 1 602 1 613 1 618 2 630 1 714 1 729 1 736 1 744 1 757 1 763 1 771 1 793 1 797 1 802 1 808 1 840 1 849 1 856 1 868 1 869 1 880 1 883 1 902 1 930 1 962 1 977 1 443 1 447 1 462 1 465 1 471 1 474 1 485 1 504 1 521 1 527 1 531 1 550 1 562 1 614 1 653 1 659 1 686 1 715 1 721 1 734 1 735 1 765 1 774 1 789 1 831 1 836 1 842 1 848 1 864 1 872 1 876 1 908 1 919 1 941 1 948 1 998 1 1018 1 1023 1 1024 1 
1 209 9 1 35 1 47 2 106 1 150 1 157 1 158 1 167 1 180 1 253 1 269 1 317 1 319 1 321 1 323 1 342 1 347 2 380 1 391 1 427 1 8 1 10 1 20 1 44 1 52 1 56 1 73 1 93 1 104 1 114 1 119 1 160 1 190 1 200 1 201 1 211 1 276 1 277 1 285 1 312 1 328 1 339 1 350 1 354 1 361 1 375 1 379 1 381 1 408 1 419 1 459 1 485 1 500 1 525 1 526 1 593 1 640 1 656 1 661 1 700 1 724 1 769 1 778 1 781 1 788 1 794 1 815 1 821 1 849 1 856 1 867 2 899 1 916 1 950 1 957 1 958 1 960 1 445 1 447 1 457 1 487 1 502 1 507 1 532 1 543 1 559 1 563 1 595 1 614 1 615 1 626 1 627 1 634 1 644 1 678 1 680 1 682 1 685 1 688 1 718 1 735 1 754 1 810 1 840 1 874 1 893 1 896 1 910 1 914 1 966 1 981 1 987 1 1004 1 1013 1 1027 1 
1 206 45 1 53 1 68 1 71 1 89 1 102 1 108 1 122 1 136 1 156 1 165 1 179 2 186 1 213 1 239 1 249 1 282 1 314 1 374 1 388 1 415 2 425 1 430 1 15 1 31 1 35 1 47 1 76 1 95 1 111 1 115 1 164 1 166 1 202 1 204 1 218 1 225 1 250 1 284 1 300 1 312 1 317 1 324 1 333 1 349 1 353 1 361 1 367 1 383 1 392 1 418 1 419 1 440 1 445 1 455 1 460 1 467 1 482 1 553 2 577 1 580 1 588 1 599 1 615 1 624 1 630 1 649 1 660 1 667 1 731 1 739 1 755 1 769 1 785 1 792 1 799 1 800 1 809 2 810 1 831 1 868 1 869 1 912 1 927 1 929 1 943 1 946 1 971 1 972 1 981 1 982 1 998 1 1001 1 478 1 500 1 505 1 507 1 533 1 544 1 566 1 572 1 585 1 593 1 598 1 603 1 654 1 662 1 682 1 684 1 686 1 702 1 765 1 796 1 846 1 871 1 890 1 894 1 904 1 936 1 961 1 1002 1 1026 1 
1 210 4 1 15 1 16 1 32 1 42 1 70 2 94 1 130 1 137 1 143 1 258 1 284 1 310 1 325 1 339 1 354 1 375 1 394 1 421 1 51 1 63 1 69 1 117 1 129 1 185 1 208 1 225 1 226 1 249 1 276 1 282 1 287 1 306 1 311 1 313 1 334 1 357 1 362 1 381 1 392 1 406 1 407 1 414 1 452 1 481 1 497 1 560 1 571 1 574 1 621 1 651 1 659 1 690 1 730 2 739 1 741 1 742 1 760 1 776 1 783 1 815 1 825 1 826 1 840 1 843 1 854 1 864 1 886 2 902 1 923 1 990 1 1001 2 449 1 471 1 493 1 549 1 555 1 567 1 569 1 588 1 603 1 607 1 609 1 632 1 642 1 655 1 671 1 688 1 694 1 696 1 735 1 744 1 758 1 761 1 766 1 805 1 851 1 872 1 891 1 939 1 980 1 994 1 995 1 997 1 1011 1 1017 1 1025 1 1026 1 
1 212 9 2 21 1 25 1 38 1 41 1 43 1 53 1 80 2 128 1 140 1 152 1 163 1 176 1 200 1 230 1 244 1 249 1 271 1 280 1 291 1 293 1 295 1 297 1 308 1 322 2 348 1 349 1 354 1 361 1 373 1 379 1 386 1 390 1 419 1 432 1 28 1 39 1 61 1 115 1 116 1 123 1 130 1 161 1 177 1 184 1 191 1 247 1 259 1 267 1 274 1 276 1 288 1 323 1 352 1 368 1 375 1 396 1 404 1 405 1 446 1 474 1 505 1 536 1 545 1 576 1 585 1 595 1 606 1 635 1 651 1 672 1 729 1 733 1 738 1 749 1 798 1 814 1 820 2 823 1 853 1 863 1 881 1 938 1 965 1 978 1 492 1 494 1 498 1 544 1 546 1 547 1 551 1 568 1 579 1 581 1 598 1 615 1 652 1 722 1 728 1 735 1 748 1 760 1 776 1 835 1 872 1 885 1 897 1 911 1 925 1 964 1 990 1 998 1 1003 1 1006 1 1008 1 1025 1 
1 211 5 1 8 1 15 1 45 1 52 1 66 1 88 1 108 1 122 1 139 1 140 1 147 1 163 1 165 1 233 1 237 1 257 1 274 1 279 1 281 1 282 1 298 1 324 1 351 1 367 1 375 1 386 1 404 1 412 1 413 1 437 1 61 1 62 1 65 1 73 1 79 1 97 1 105 1 131 1 167 1 204 1 207 1 218 1 246 1 270 1 290 1 293 1 310 1 319 1 321 1 340 1 342 1 346 1 352 1 424 1 440 1 440 1 471 1 492 1 557 1 560 1 565 1 589 1 592 1 606 1 621 1 631 1 645 1 664 1 672 1 693 1 694 1 715 1 730 1 752 1 759 1 819 1 827 1 845 1 849 1 861 1 882 1 886 1 894 1 910 1 913 1 926 1 929 1 965 1 972 1 444 1 446 1 474 1 488 1 491 1 507 1 528 1 558 1 603 1 639 1 650 1 657 1 677 1 700 1 705 1 721 1 739 1 768 1 775 1 790 1 794 1 832 1 837 1 838 1 846 1 852 1 906 1 914 1 944 1 962 1 964 1 969 1 996 1 997 1 1004 1 1006 1 
1 209 10 1 22 1 31 1 46 1 56 1 61 1 84 1 89 1 91 1 106 1 123 2 151 1 162 1 222 1 227 1 237 1 238 1 259 1 306 1 320 1 330 1 349 2 357 1 375 1 403 1 405 1 435 1 1 1 24 1 25 1 62 1 82 1 92 1 114 1 133 1 139 1 173 1 195 1 213 1 217 1 220 1 225 1 235 1 290 1 324 1 346 1 441 1 441 1 444 1 457 1 474 1 477 1 490 1 499 1 505 1 539 1 554 1 568 1 593 1 609 1 647 1 648 1 668 2 679 1 720 1 746 1 750 2 760 1 770 1 783 1 792 2 801 1 813 1 817 1 818 1 832 1 866 1 878 1 879 1 960 1 963 1 970 1 989 1 994 1 455 1 464 1 482 1 489 1 520 1 538 1 540 1 567 1 571 1 572 1 590 1 591 1 594 1 597 1 616 1 622 1 659 1 707 1 721 1 778 1 810 1 822 1 823 1 857 1 890 1 894 1 918 1 922 1 928 1 956 1 975 1 982 1 992 1 1006 1 1011 1 1017 1 
1 207 12 1 46 1 84 2 112 1 114 1 115 2 131 1 176 1 187 1 234 1 239 1 256 1 296 1 306 1 312 1 328 1 351 1 356 1 360 1 377 1 383 1 389 1 394 2 417 1 418 1 422 1 424 1 26 1 33 1 59 1 77 1 82 1 88 1 103 1 121 1 126 1 135 1 148 1 174 1 186 1 217 1 220 1 236 1 254 1 348 1 371 1 384 1 390 1 391 1 392 1 397 1 399 1 428 1 448 1 450 2 454 1 455 1 474 1 505 1 511 1 587 1 623 1 626 1 652 2 671 2 683 1 739 1 753 1 757 1 764 1 776 1 794 1 848 1 859 2 872 2 910 1 913 1 914 1 927 1 939 1 941 1 946 1 964 2 973 1 981 1 992 1 494 1 527 1 556 1 558 1 579 1 602 1 606 1 608 1 668 1 670 1 682 1 691 1 696 1 704 1 754 1 760 1 796 1 808 1 842 1 902 1 950 1 961 1 965 1 975 1 1017 1 1020 1 1021 1 1025 1 1026 1 
1 207 6 1 16 1 23 1 24 2 28 1 52 1 73 1 77 1 98 1 117 1 118 2 174 1 192 1 205 1 217 1 219 1 228 1 240 1 262 1 272 1 296 1 297 1 320 1 329 1 336 1 347 1 353 1 357 1 392 1 431 1 12 1 33 1 37 1 45 1 78 1 84 1 152 1 159 1 223 1 243 1 268 1 306 1 362 1 375 1 380 1 394 1 410 1 411 1 435 1 572 1 623 1 638 1 672 1 690 1 708 1 766 1 777 1 788 1 797 1 811 1 831 1 859 1 871 1 899 1 907 1 923 1 929 1 933 1 939 1 950 1 970 1 462 1 466 1 475 1 480 1 485 1 527 1 539 1 542 1 546 1 548 1 553 1 559 1 579 1 600 1 609 1 667 1 678 1 693 1 698 1 726 1 730 1 753 1 804 1 826 1 856 1 869 1 870 1 872 1 896 1 905 1 938 1 940 1 957 1 959 1 975 1 1007 1 1010 1 1022 1 1023 1 
1 213 16 1 23 1 62 1 65 1 93 1 97 1 101 1 122 1 150 1 230 1 249 1 269 1 287 1 300 1 319 1 320 1 327 1 336 1 337 1 347 1 350 1 364 1 365 1 370 1 372 1 389 1 401 1 404 1 405 1 410 1 416 1 441 1 6 1 7 1 14 1 64 1 71 1 100 1 104 1 121 1 132 1 179 1 240 1 242 1 260 1 262 1 288 1 309 1 318 1 322 1 335 1 344 1 348 1 378 1 392 1 440 1 488 1 493 1 499 1 500 1 511 1 515 1 526 1 528 1 532 1 543 1 548 1 549 1 553 1 556 1 601 1 622 1 624 1 640 1 656 1 675 1 687 1 741 1 748 1 756 1 766 1 772 1 773 1 784 1 828 1 831 1 875 2 877 1 891 1 945 1 974 1 976 1 453 1 471 1 496 1 538 1 592 1 604 1 614 1 630 1 665 1 672 1 683 1 688 1 698 1 707 1 717 1 737 1 765 1 798 1 812 1 880 1 898 1 901 1 907 1 910 1 913 1 915 1 947 1 965 1 1002 1 1004 1 1013 1 1020 1 
1 208 10 1 36 1 42 1 46 1 47 1 48 1 51 1 57 1 63 1 79 1 98 1 113 1 115 1 127 1 135 1 181 1 191 1 199 1 227 1 232 1 244 1 248 1 280 2 384 2 415 1 424 1 437 1 32 1 55 1 60 1 107 1 119 1 124 1 170 1 208 1 221 1 229 1 273 1 290 1 350 1 407 1 421 1 422 1 431 1 436 1 454 1 466 1 497 1 530 1 561 1 568 1 570 1 595 1 596 1 602 1 650 1 654 1 667 1 678 1 717 1 839 1 843 1 844 1 868 1 883 1 897 1 902 1 924 1 929 1 947 1 959 1 965 1 455 1 461 1 471 1 487 1 512 1 546 1 560 1 567 1 573 1 593 1 598 1 630 1 636 1 666 1 700 1 735 1 740 1 789 1 810 1 856 1 876 1 880 1 899 1 945 1 958 1 961 1 987 1 1004 1 1009 1 1012 1 
1 206 1 2 3 1 27 2 28 1 30 1 53 1 86 1 97 1 134 1 146 1 157 1 160 1 172 1 177 1 198 1 202 1 210 1 218 1 220 1 224 1 225 1 227 1 232 1 258 1 261 1 288 1 304 1 312 1 330 1 384 1 413 1 417 1 439 1 19 1 52 1 190 1 193 1 223 1 235 1 265 1 309 1 318 1 321 1 331 1 334 1 362 1 394 1 397 1 401 1 426 1 440 1 456 1 474 1 491 2 498 1 517 1 520 1 555 1 560 1 577 1 580 1 583 1 588 1 596 1 600 2 601 1 604 1 609 1 615 1 616 1 644 1 665 1 682 1 687 1 689 1 693 1 708 1 743 2 760 1 799 1 816 1 822 1 852 1 853 1 888 1 901 1 909 1 929 1 969 1 982 1 460 1 463 1 478 1 502 1 521 1 534 1 535 1 550 1 597 1 606 1 610 1 645 1 671 1 674 1 691 1 717 1 731 1 732 1 745 1 746 1 758 1 766 1 776 1 823 1 839 1 856 1 866 1 905 1 956 1 959 1 977 1 1006 1 1011 1 1016 1 
1 209 14 1 51 1 55 1 107 1 123 1 125 1 146 1 171 1 174 1 184 1 185 1 189 1 199 1 228 1 269 1 291 1 322 1 325 1 346 1 357 1 23 1 26 1 34 1 35 1 59 1 65 1 67 1 72 1 76 1 98 1 186 1 207 1 245 1 247 1 248 1 264 1 267 1 275 1 288 1 304 1 310 1 328 1 435 1 436 1 458 1 493 1 506 1 521 1 539 1 540 2 561 2 573 1 574 1 588 1 590 1 593 1 597 1 620 1 628 1 671 1 707 2 725 1 728 1 761 1 764 1 820 2 845 1 864 1 876 1 879 1 917 1 934 1 941 1 944 1 990 1 465 1 499 1 512 1 534 1 543 1 564 1 568 1 582 1 601 1 626 1 631 1 635 1 640 1 696 1 706 1 715 1 731 1 758 1 759 1 781 1 813 1 823 1 848 1 859 1 862 1 883 1 885 1 896 1 938 1 940 1 948 1 974 1 1015 1 1023 1 1027 1 
1 210 3 2 67 1 76 2 97 1 163 1 164 1 185 1 215 1 293 1 295 1 309 1 327 1 343 1 368 1 383 1 398 1 402 2 407 1 442 1 1 1 44 1 94 1 110 1 113 1 141 1 146 1 154 1 167 1 199 1 210 1 239 1 246 1 249 1 250 1 251 1 260 1 262 1 283 1 296 1 366 1 375 1 404 1 414 1 457 1 459 1 460 1 482 1 483 1 488 1 489 1 492 1 494 1 507 1 557 2 575 1 597 1 598 1 599 1 631 1 648 1 649 1 660 1 697 1 704 1 706 1 716 1 727 1 738 1 756 1 795 1 805 1 812 1 822 1 840 1 844 1 849 1 861 1 881 1 884 1 898 1 909 1 918 1 919 1 938 1 953 1 955 2 973 1 997 1 450 1 479 1 497 1 523 1 553 1 565 1 574 1 605 1 610 1 615 1 677 1 683 1 695 1 703 1 753 1 762 1 764 1 783 1 814 1 836 1 854 1 862 1 871 1 896 1 937 1 943 1 977 1 979 1 1002 1 1006 1 
1 208 9 1 11 1 16 1 35 1 53 1 67 1 111 1 135 1 145 1 165 1 167 1 201 1 212 1 238 1 244 1 277 1 281 1 283 1 325 1 326 1 337 1 338 1 357 1 382 1 385 1 387 1 403 1 417 1 418 1 422 1 430 1 29 1 59 1 81 1 100 1 139 1 158 1 166 1 174 1 185 1 187 1 273 1 278 1 303 1 320 1 321 1 342 1 369 1 373 1 398 1 399 1 401 1 410 1 431 1 434 1 438 1 457 1 458 1 464 1 494 1 499 1 502 1 515 1 539 1 567 2 589 1 591 1 630 1 649 1 668 1 681 1 701 1 744 1 780 1 782 1 805 1 812 1 837 1 862 1 870 1 876 1 922 1 939 1 960 1 988 1 998 1 460 1 473 1 488 1 496 1 572 1 576 1 617 1 626 1 636 1 656 1 670 1 686 1 723 1 724 1 735 1 756 1 767 1 775 1 937 1 962 1 973 1 995 1 1018 1 1022 1 
1 209 11 1 13 1 27 1 28 1 80 1 88 1 102 1 114 1 140 1 198 1 200 2 226 1 237 1 252 1 258 1 304 1 316 1 320 1 335 1 393 1 395 1 415 1 442 2 50 1 51 1 96 1 128 1 133 1 144 1 146 1 153 1 174 1 187 1 216 1 233 1 238 1 256 1 268 1 277 1 279 1 349 1 359 1 397 1 425 1 428 1 448 1 470 1 472 1 479 1 499 2 532 2 543 1 599 1 610 1 617 1 671 1 687 1 688 1 706 1 721 1 729 1 750 1 755 2 763 1 792 1 796 1 826 1 833 1 838 1 849 1 873 1 886 1 900 1 907 1 908 1 956 1 965 1 977 2 980 1 991 1 459 1 461 1 467 1 506 1 511 1 527 1 530 1 539 1 541 1 572 1 587 1 627 1 716 1 735 1 754 1 757 1 762 1 773 1 808 1 821 1 843 1 846 1 847 1 853 1 917 1 950 1 952 1 968 1 976 1 1020 1 
1 206 6 1 10 1 23 1 44 1 45 1 79 1 138 1 146 1 179 1 182 1 212 1 231 1 300 1 340 1 353 1 373 1 386 1 391 1 417 1 420 2 5 1 18 1 32 1 37 1 52 1 93 1 96 1 114 1 157 1 184 1 200 1 205 1 230 1 253 1 261 1 264 1 285 1 305 1 325 1 329 1 337 1 359 1 404 1 483 1 534 1 553 1 568 1 570 1 601 2 604 1 610 1 612 1 632 1 640 1 686 1 717 1 718 1 722 1 736 2 738 1 757 1 763 1 770 1 796 1 809 1 822 1 837 1 866 1 871 1 898 1 903 1 921 2 941 1 984 1 467 1 470 1 475 1 488 1 508 1 527 1 531 1 545 1 564 1 573 1 575 1 607 1 619 1 620 1 638 1 689 1 710 1 712 1 783 1 789 1 792 1 795 1 802 1 806 1 844 1 848 1 857 1 906 1 918 1 938 1 940 1 965 1 967 1 999 1 1001 1 1002 1 1007 1 1017 1 
1 211 29 1 46 1 50 1 75 1 85 1 86 1 92 1 121 1 168 1 171 1 176 1 187 1 207 2 227 1 240 1 244 1 250 1 277 1 305 1 311 1 359 1 411 1 438 1 26 1 55 1 62 1 78 1 80 1 91 1 97 1 107 1 113 1 137 1 145 1 155 1 157 1 164 1 188 1 213 1 214 1 234 1 239 1 296 1 308 1 329 1 336 1 339 1 371 1 460 1 464 1 472 1 495 1 504 1 507 1 515 1 542 1 570 1 575 2 603 1 618 1 654 1 661 1 689 1 693 1 696 2 705 1 710 1 735 1 744 1 758 1 773 1 781 1 799 1 801 1 807 1 810 1 817 1 838 1 848 1 852 1 862 1 914 1 924 1 938 1 947 1 949 1 954 1 966 2 989 1 999 1 477 1 506 1 528 1 540 1 544 1 592 1 593 1 636 1 639 1 668 1 687 1 738 1 749 1 754 1 783 1 889 1 901 1 917 1 953 1 974 1 984 1 1004 1 1010 1 1012 1 1020 1 
1 207 8 1 15 2 18 1 50 1 54 1 58 1 111 1 120 1 126 1 142 1 152 1 154 1 166 2 197 2 202 1 238 2 239 1 263 1 265 1 290 1 294 1 311 1 317 1 357 1 374 1 378 1 381 1 415 1 419 1 425 1 435 2 11 1 34 1 83 1 88 1 109 1 118 1 119 1 130 1 137 1 140 1 168 1 174 1 176 1 177 1 194 1 233 1 247 1 268 1 359 1 375 1 401 1 409 1 426 1 444 1 484 1 490 1 494 1 502 1 507 1 513 1 624 1 645 1 689 1 759 1 765 1 768 1 779 1 781 1 786 1 802 1 828 2 843 1 886 1 923 1 948 1 950 1 996 1 518 1 530 1 535 1 551 1 554 1 599 1 603 1 613 1 616 1 635 1 647 1 665 1 686 1 688 1 705 1 730 1 775 1 814 1 824 1 834 1 847 1 851 1 854 1 871 1 872 1 889 1 895 1 900 1 901 1 910 1 958 1 960 1 962 1 987 1 1007 1 1017 1 
1 209 9 1 10 1 13 1 76 1 95 1 110 1 117 1 151 1 161 1 181 1 193 1 209 1 224 1 225 1 228 1 242 1 263 1 281 1 286 1 357 1 358 1 364 1 368 1 376 1 401 1 415 1 442 1 445 1 20 1 32 1 74 1 94 1 128 1 142 1 158 1 162 1 164 1 167 1 175 1 179 1 191 1 208 1 272 1 285 1 311 1 344 1 361 1 391 1 457 1 459 1 460 1 462 1 464 1 493 1 527 1 530 1 531 1 549 1 553 1 572 1 587 1 588 1 610 1 613 1 629 1 646 1 651 1 667 1 680 1 686 1 732 1 747 1 749 1 753 1 797 1 883 1 895 1 898 1 908 1 909 1 939 1 948 1 952 1 954 1 976 1 981 1 456 1 470 1 485 1 499 1 521 1 542 1 559 1 570 1 582 1 593 1 603 1 608 1 625 1 626 1 633 1 670 1 703 1 772 1 803 1 848 1 869 1 891 1 899 1 987 1 988 1 1000 1 1012 1 1021 1 1023 1 
1 212 32 2 46 1 48 1 58 1 85 1 86 1 108 1 131 1 147 1 179 1 196 1 201 2 207 1 213 1 216 1 222 1 263 1 270 1 286 2 309 1 317 1 333 1 346 1 368 1 369 1 386 1 395 1 401 1 407 1 420 1 431 1 437 1 442 1 9 1 34 1 49 1 75 1 105 1 146 1 160 1 168 1 211 1 240 1 241 1 254 1 277 1 294 1 307 1 367 1 376 1 419 1 430 1 433 1 441 1 445 1 459 1 476 1 479 1 480 1 487 1 490 1 503 1 510 1 526 1 548 1 571 1 572 1 593 1 610 1 622 1 641 1 642 1 653 1 692 1 710 1 716 1 756 1 758 1 787 1 788 1 845 1 880 1 899 1 931 1 945 1 946 1 972 1 980 1 983 1 457 1 468 1 484 1 491 1 500 1 515 1 528 1 530 1 553 1 562 1 569 1 576 1 621 1 629 1 649 1 656 1 660 1 670 1 678 1 707 1 747 1 763 1 769 1 775 1 782 1 793 1 849 1 854 1 866 1 876 1 877 1 916 1 928 1 938 1 941 1 967 1 985 1 992 1 1015 1 1019 1 
1 206 27 1 30 1 36 1 72 1 75 1 84 1 85 1 102 1 111 1 113 1 144 2 147 2 158 1 165 1 172 1 179 2 184 1 198 1 201 1 249 1 266 1 284 1 292 1 321 2 342 1 360 1 373 2 403 1 408 1 446 1 26 1 73 1 103 1 117 1 122 1 230 1 252 1 265 1 280 1 283 1 297 1 298 1 308 1 320 1 331 1 338 1 345 1 352 1 369 1 426 1 454 1 482 1 495 1 509 1 523 1 575 1 591 1 608 1 618 1 628 1 662 2 676 1 697 1 777 1 790 1 806 1 820 1 828 1 845 1 846 1 847 1 869 1 891 1 905 1 920 1 934 1 952 2 991 1 993 1 464 1 466 1 475 1 513 1 522 1 540 1 549 1 556 1 570 1 596 1 622 1 654 1 725 1 730 1 748 1 750 1 799 1 815 1 835 1 850 1 870 1 872 1 898 1 899 1 989 1 1020 1 
1 209 44 1 49 1 51 1 56 1 107 1 118 1 132 1 137 1 146 1 154 1 215 1 226 1 248 1 276 2 292 1 318 1 334 1 367 1 374 1 424 1 427 1 435 1 441 1 448 1 449 1 454 1 4 1 29 1 30 1 62 1 97 1 111 1 117 1 144 1 157 1 176 1 184 1 200 1 213 1 216 1 217 1 245 1 322 1 330 1 343 1 355 1 359 1 379 1 409 1 415 1 425 1 428 1 436 1 455 1 463 1 489 1 500 2 527 1 536 1 560 1 581 1 582 1 606 1 607 1 613 1 614 1 650 1 658 2 677 1 684 1 691 1 703 1 708 1 715 1 718 1 724 1 732 2 862 1 872 2 879 1 894 2 896 1 901 2 911 1 949 1 951 1 971 1 986 2 459 1 483 1 492 1 513 1 522 1 558 1 577 1 585 1 616 1 622 1 624 1 626 1 654 1 661 1 693 1 710 1 824 1 852 1 875 1 884 1 904 1 910 1 939 1 966 1 995 1 1006 1 1009 1 1022 1 
1 210 27 1 30 1 31 1 46 1 66 1 125 1 126 1 132 1 182 1 198 2 225 1 294 1 298 1 317 1 370 1 413 1 417 1 421 1 427 1 447 1 449 1 2 1 50 1 68 1 86 1 89 1 96 1 99 1 112 1 113 1 122 1 192 1 200 1 218 1 229 1 248 1 250 1 269 1 285 1 296 1 318 1 328 1 337 1 353 1 359 1 366 1 390 1 429 1 461 1 477 1 515 1 541 1 549 1 558 1 560 1 594 1 598 1 643 1 646 2 664 1 682 1 760 1 778 1 790 1 804 1 809 1 823 1 859 1 867 1 898 1 911 1 913 2 918 1 921 1 922 1 941 1 971 1 470 1 476 1 495 1 522 1 547 1 576 1 587 1 599 1 629 1 636 1 669 1 712 1 720 1 724 1 735 1 752 1 755 1 783 1 808 1 822 1 862 1 876 1 882 1 885 1 889 1 969 1 978 1 992 1 995 1 1005 1 1011 1 1015 1 1017 1 1026 1 
1 208 1 1 31 1 44 1 79 1 104 1 129 1 130 2 156 1 164 1 188 1 189 1 193 1 211 1 259 1 264 1 306 1 311 1 314 1 316 1 319 1 322 1 325 1 326 1 365 1 368 1 377 1 383 1 396 1 415 1 421 1 436 1 448 1 454 1 455 1 5 1 12 1 37 1 43 1 45 1 93 1 102 1 112 1 141 1 221 1 235 1 238 1 253 1 293 1 294 1 298 1 327 1 336 1 338 1 354 1 361 1 369 1 376 1 391 1 418 1 432 1 450 1 457 1 466 1 489 1 494 1 505 2 509 1 536 1 546 1 559 1 580 1 635 1 664 1 666 1 675 1 708 1 715 1 717 1 738 1 740 1 753 1 782 1 798 1 811 1 826 1 828 1 866 2 879 1 885 1 889 1 897 2 898 1 901 1 903 1 929 1 951 1 477 1 484 1 506 1 525 1 529 1 544 1 582 1 590 1 593 1 600 1 638 1 660 1 668 1 678 1 714 1 724 1 766 1 787 1 839 1 845 1 949 1 954 1 995 1 1006 1 1009 1 1023 1 
1 210 36 1 44 1 62 1 72 1 108 1 118 1 159 1 214 1 236 1 238 1 240 1 268 1 271 1 277 1 285 1 335 1 435 1 437 1 448 1 452 1 454 1 11 1 18 1 52 1 58 1 89 1 102 1 142 1 164 1 179 1 186 1 224 1 229 1 251 1 262 1 265 1 281 1 330 1 429 1 446 1 449 1 462 1 466 1 469 1 501 1 522 1 531 1 540 1 541 1 553 1 563 1 578 1 585 1 598 1 643 1 659 1 661 1 663 1 664 1 692 1 729 1 731 1 734 1 739 2 750 1 768 2 770 1 786 1 799 1 856 2 874 1 890 1 920 1 931 1 946 1 990 1 991 1 1000 1 463 1 475 1 498 1 503 1 506 1 528 1 548 1 560 1 577 1 596 1 603 1 606 1 609 1 634 1 681 1 685 1 690 1 691 1 702 1 723 1 793 1 818 1 825 1 828 1 839 1 860 1 883 1 921 1 960 1 971 1 1013 1 1024 1 
1 215 31 2 32 1 91 1 104 1 111 1 113 1 120 1 149 1 168 1 178 1 184 1 193 1 195 1 198 1 211 1 214 1 238 1 247 1 288 1 290 1 320 1 343 1 375 1 387 1 406 1 458 1 23 1 51 1 71 1 76 1 99 1 114 1 117 1 123 1 137 1 170 1 191 1 197 1 204 1 261 1 277 1 307 1 309 1 319 1 327 1 330 1 339 1 361 1 400 1 407 1 414 1 420 1 445 1 450 1 466 1 470 1 507 1 513 1 522 1 524 1 532 1 584 1 614 1 650 1 651 1 660 1 689 1 710 1 720 1 722 1 724 1 726 1 730 1 732 2 733 1 745 1 748 1 755 1 775 1 786 2 790 1 841 1 874 1 877 1 926 1 937 1 938 1 940 1 469 1 484 1 486 1 488 1 496 1 542 1 620 1 641 1 666 1 681 1 686 1 764 1 776 1 782 1 791 1 803 1 806 1 814 1 815 1 819 1 822 1 835 1 851 1 862 1 883 1 889 1 908 1 945 1 952 1 967 1 974 1 977 1 983 1 1008 1 1015 1 1017 1 1020 1 1027 1 
1 207 12 1 20 1 46 1 110 1 133 1 142 1 160 1 174 2 196 1 225 1 246 1 269 1 287 1 300 1 326 1 370 1 397 1 428 1 454 1 460 1 2 1 11 1 49 1 57 1 58 1 69 1 118 1 120 1 154 1 157 1 168 1 187 1 205 1 223 1 226 1 234 1 237 1 239 1 273 1 275 1 281 1 285 1 320 1 331 1 334 1 380 1 415 1 435 1 443 1 472 1 559 1 573 1 575 1 631 1 632 1 648 2 679 1 691 1 704 1 759 1 786 1 799 1 808 1 810 1 812 1 840 1 868 1 904 1 989 1 466 1 487 1 503 1 528 1 529 1 539 1 547 1 548 1 566 1 569 1 579 1 655 1 709 1 721 1 763 1 769 1 774 1 798 1 836 1 847 1 856 1 857 1 879 1 883 1 888 1 902 1 911 1 934 1 945 1 983 1 999 1 1003 1 1013 1 1018 1 1021 1 
1 210 7 1 56 1 61 1 76 1 85 1 95 2 102 1 125 2 132 1 143 1 154 1 184 1 214 1 275 1 284 1 317 1 319 1 351 1 365 1 385 1 389 1 418 1 426 2 427 1 457 1 6 1 19 1 33 1 59 1 66 1 83 1 105 1 108 1 117 1 128 1 129 1 145 1 157 1 172 1 183 1 195 1 198 1 277 1 292 1 294 1 300 1 302 1 318 1 320 1 338 1 362 1 403 1 430 1 446 1 460 1 470 1 500 1 509 1 516 1 535 1 547 1 554 1 563 1 565 1 566 1 570 1 582 1 588 2 629 1 660 1 675 1 692 2 704 1 714 1 728 1 730 1 767 1 801 1 832 1 837 1 838 2 846 1 872 1 893 1 895 1 916 1 917 1 922 1 927 1 929 1 932 1 941 1 471 1 499 1 506 1 527 1 534 1 539 1 553 1 592 1 599 1 612 1 616 1 622 1 626 1 649 1 701 1 715 1 764 1 786 1 805 1 840 1 849 1 852 1 891 1 909 1 921 1 937 1 977 1 1001 1 1004 1 1014 1 1026 1 
1 210 18 1 27 1 39 1 47 1 54 1 81 1 87 1 90 1 111 1 117 1 122 1 138 1 141 1 171 1 215 1 216 1 217 1 232 1 236 1 262 1 274 1 284 1 295 1 328 1 376 1 385 1 394 1 413 1 417 1 418 1 449 1 452 1 454 1 33 1 34 1 45 1 97 1 152 1 174 1 183 1 201 1 202 1 213 1 239 1 245 1 302 1 305 1 307 1 336 1 348 1 371 1 421 1 441 1 456 1 468 2 494 1 513 1 520 2 527 1 535 1 541 1 551 1 584 1 619 1 665 1 676 2 684 1 688 1 700 1 713 1 714 1 718 1 736 1 746 1 755 1 757 1 769 1 794 2 847 1 850 1 863 1 864 1 865 1 869 1 889 1 908 1 938 1 971 1 485 1 500 1 518 1 537 1 600 1 602 1 606 1 610 1 654 1 717 1 743 1 744 1 772 1 823 1 831 1 833 1 878 1 886 1 888 1 904 1 912 1 918 1 953 1 959 1 976 1 1010 1 1027 1 
1 209 2 1 21 1 50 2 53 1 76 1 85 1 117 1 123 1 126 1 135 1 155 1 169 1 178 1 182 1 186 1 256 1 258 1 268 1 269 1 276 1 299 1 304 1 309 1 334 2 335 1 341 1 356 1 367 1 4 1 5 1 13 1 30 1 46 1 47 1 68 1 86 1 114 1 128 1 131 1 171 1 173 1 265 1 267 1 279 1 319 1 325 1 350 1 388 1 435 1 447 1 465 1 465 1 481 1 508 1 527 1 536 1 555 1 627 1 642 1 708 1 718 1 745 1 747 1 753 1 767 1 781 1 794 1 803 1 808 1 826 2 831 1 864 1 870 1 875 1 902 1 908 1 921 1 934 1 945 1 949 1 961 1 986 1 987 1 512 1 520 1 542 1 550 1 658 1 665 1 739 1 740 1 764 1 804 1 824 1 838 1 854 1 873 1 923 1 940 1 970 1 980 1 981 1 996 1 1002 1 1009 1 1020 1 1027 1 
1 215 12 1 36 1 42 1 44 1 59 1 66 1 72 1 87 1 102 1 110 1 127 1 148 1 150 1 173 1 209 1 223 1 229 1 255 1 266 1 276 1 277 1 317 1 330 1 331 1 333 1 345 1 349 1 365 1 371 1 383 1 418 1 420 2 445 1 459 1 460 1 461 1 1 1 2 1 8 1 9 1 20 1 27 1 41 1 71 1 107 1 112 1 118 1 140 1 154 1 160 1 161 1 165 1 172 1 181 1 186 1 211 1 246 1 289 1 290 1 310 1 325 1 327 1 342 1 354 1 393 1 443 1 456 1 462 1 488 1 503 1 508 1 518 1 530 1 547 1 556 1 563 1 571 1 616 1 618 1 631 1 635 1 638 1 716 1 727 1 732 1 808 1 850 1 896 1 897 1 908 1 944 1 971 1 994 1 481 1 483 1 513 1 524 1 534 1 540 1 550 1 557 1 564 1 597 1 602 1 611 1 623 1 645 1 651 1 711 1 728 1 749 1 754 1 775 1 795 1 809 1 821 1 851 1 855 1 862 1 866 1 876 1 884 1 894 1 925 1 950 1 955 1 956 1 960 1 972 1 1010 1 1019 1 1023 1 
1 213 6 1 14 1 22 1 43 1 48 1 61 1 69 1 92 1 101 1 112 1 118 1 142 1 159 1 168 1 173 1 181 1 184 1 191 1 220 1 222 1 230 1 235 1 236 1 260 1 278 1 279 1 293 1 305 1 306 1 310 1 324 1 332 1 370 1 376 1 437 1 1 1 13 1 27 1 78 1 102 1 137 1 150 1 162 1 179 1 180 1 205 1 240 1 252 1 292 1 294 1 301 1 319 1 342 1 350 1 390 1 396 1 450 1 451 1 472 1 477 1 487 1 490 1 498 1 499 1 502 1 526 1 534 1 539 1 561 1 569 1 602 1 625 2 626 1 630 1 644 1 705 1 722 1 770 1 826 1 847 1 892 1 941 1 957 1 960 1 968 1 468 1 481 1 482 1 486 1 491 1 506 1 509 1 511 1 585 1 591 1 598 1 600 1 603 1 606 1 614 1 662 1 667 1 670 1 704 1 713 1 747 1 757 1 764 1 771 1 786 1 806 1 820 1 884 1 895 1 915 1 921 1 924 1 931 1 955 1 956 1 966 1 1009 1 1025 1 1027 1 
1 211 7 1 133 1 176 1 190 1 192 1 201 1 204 1 209 1 231 1 247 1 266 2 267 1 274 1 325 1 327 1 330 1 343 1 361 1 390 1 397 1 426 2 464 2 19 1 33 1 34 1 39 1 83 1 105 1 108 1 137 1 147 1 149 1 158 1 189 1 196 1 221 1 242 1 257 1 261 1 268 1 302 1 305 1 375 1 380 1 388 1 391 1 396 1 455 1 467 1 483 1 499 1 504 1 553 1 592 1 607 1 615 1 637 1 644 1 649 1 651 1 658 1 666 1 672 1 678 1 679 1 697 1 708 1 710 1 714 1 718 1 729 1 735 1 776 1 797 1 801 1 807 1 822 1 847 1 850 1 878 1 889 1 903 1 904 1 905 1 916 1 963 1 985 1 990 1 482 1 488 1 516 1 558 1 597 1 600 1 602 1 618 1 623 1 628 1 664 1 711 1 712 1 744 1 749 1 754 1 780 1 788 1 789 1 819 1 825 1 826 1 844 1 876 1 888 1 910 1 922 1 933 1 955 1 965 1 1002 1 1004 1 1008 1 1010 1 1021 1 1024 1 
1 213 55 2 63 1 64 1 66 1 76 1 144 1 163 1 200 1 238 1 240 1 272 1 284 2 285 1 294 1 311 1 321 1 331 2 338 1 390 1 400 1 431 1 460 1 3 1 80 1 94 1 114 1 128 1 135 1 152 1 175 1 194 1 197 1 216 1 219 1 241 1 275 1 289 1 298 1 302 1 340 1 358 1 369 1 378 1 406 1 422 1 434 1 461 1 476 1 531 1 562 1 610 1 615 1 646 1 694 1 698 1 708 1 711 1 748 1 761 1 830 1 838 1 839 1 853 1 857 1 876 1 887 1 922 1 944 1 998 1 1001 1 483 1 485 1 501 1 518 1 528 1 532 1 535 1 547 1 551 1 593 1 600 1 609 1 623 1 627 1 629 1 644 1 661 1 667 1 679 1 743 1 751 1 773 1 778 1 787 1 846 1 848 1 850 1 868 1 881 1 902 1 908 1 920 1 923 1 937 1 945 1 961 1 969 1 971 1 978 1 989 1 1003 1 1014 1 1021 1 1027 1 
1 216 3 1 11 1 15 1 19 1 31 1 66 1 86 1 96 2 149 1 151 1 153 1 181 1 187 1 194 1 198 1 225 1 228 1 229 1 246 1 256 1 284 1 318 1 352 1 357 1 415 1 419 1 428 1 450 1 461 1 463 1 10 1 44 1 50 1 75 1 109 1 139 1 160 1 170 1 182 1 186 1 203 1 223 1 241 1 298 1 301 1 308 1 351 1 378 1 381 1 400 1 414 1 416 1 451 1 454 1 458 1 505 2 510 1 519 1 522 1 564 1 579 1 591 1 596 1 603 1 604 1 608 1 618 1 644 1 655 1 679 1 709 2 742 1 757 1 801 1 810 1 811 1 837 1 852 1 859 1 885 1 929 1 939 1 986 1 992 1 493 1 504 1 571 1 581 1 623 1 645 1 648 1 649 1 670 1 683 1 700 1 720 1 725 1 728 1 734 1 740 1 764 1 770 1 848 1 861 1 894 1 898 1 955 1 967 1 982 1 990 1 1014 1 1019 1 1021 1 1024 1 
1 207 15 1 16 1 20 1 23 1 124 1 128 1 138 1 160 2 161 1 190 1 201 1 213 1 241 1 287 1 296 1 303 1 311 1 316 1 318 1 354 1 356 1 360 1 366 1 382 1 394 1 425 1 431 1 440 1 19 1 56 1 79 1 83 1 96 1 120 1 126 1 149 1 154 1 173 1 181 1 208 1 219 1 259 1 262 1 269 1 274 1 279 1 284 1 294 1 339 1 376 1 378 1 383 1 386 1 411 1 417 1 421 1 433 1 435 1 438 1 444 1 445 1 463 1 473 1 484 1 488 1 495 1 497 1 499 1 504 1 506 1 526 1 540 1 565 1 574 1 604 1 610 1 629 1 632 1 667 1 683 1 684 1 689 1 693 1 717 1 754 1 779 1 784 2 825 1 832 1 840 1 850 1 853 1 872 1 881 1 890 1 894 1 916 2 933 1 944 1 951 1 953 2 958 1 967 1 968 1 509 1 514 1 521 1 563 1 567 1 608 1 613 1 616 1 637 1 658 1 659 1 663 1 703 1 740 1 750 1 766 1 783 1 795 1 814 1 822 1 875 1 880 1 882 1 883 1 885 1 913 1 917 1 969 1 984 1 1004 1 1006 1 1020 1 1024 1 1027 1 
1 210 5 1 24 1 27 1 34 1 84 1 96 1 116 1 121 2 131 1 136 1 165 1 175 2 179 1 205 1 239 1 254 1 299 1 354 1 361 1 376 1 416 1 450 1 452 1 462 1 467 1 9 1 87 1 184 1 209 1 241 1 263 1 268 1 272 1 287 1 347 1 351 1 391 1 400 1 424 1 432 1 517 1 521 1 530 1 540 1 555 1 590 1 595 2 610 1 617 1 659 1 672 1 673 2 683 1 684 1 688 1 693 1 701 1 707 1 719 1 750 1 758 1 779 1 783 1 798 1 802 1 838 1 850 1 855 1 865 1 913 1 919 1 924 1 936 1 975 1 987 1 988 1 502 1 527 1 551 1 556 1 591 1 618 1 657 1 661 1 663 1 675 1 676 1 685 1 730 1 753 1 769 1 780 1 781 1 789 1 804 1 818 1 874 1 892 1 903 1 933 1 947 1 948 1 964 1 982 1 991 1 1002 1 1011 1 1025 1 
1 210 34 1 45 2 67 1 69 1 103 1 105 1 175 1 182 1 195 1 228 1 251 1 258 1 275 1 285 1 287 1 290 1 328 2 337 1 347 1 355 1 399 1 421 1 427 1 471 1 5 1 13 1 30 1 47 1 98 1 118 1 131 1 142 1 148 1 154 1 193 1 259 1 288 1 302 1 319 1 336 1 349 1 366 1 413 1 417 1 449 1 499 1 518 1 522 1 527 1 528 1 559 1 572 1 582 1 588 1 593 1 606 1 611 1 632 1 633 1 660 1 672 1 683 1 688 1 701 1 702 2 704 1 720 1 723 1 750 1 753 1 783 1 801 1 804 2 842 1 845 1 855 1 859 1 862 1 868 2 911 1 950 1 972 1 477 1 478 1 483 1 503 1 504 1 505 1 517 1 543 1 571 1 574 1 653 1 661 1 727 1 743 1 745 1 754 1 758 1 760 1 772 1 773 1 797 1 876 1 880 1 907 1 940 1 980 1 1006 1 1015 1 
1 210 16 1 49 1 72 1 94 1 106 1 155 2 186 1 196 1 205 2 245 1 257 1 263 1 287 1 308 1 321 1 350 1 371 1 382 1 392 1 405 1 410 1 429 1 439 1 441 1 442 1 446 1 3 1 6 1 11 1 15 1 18 1 37 1 65 1 76 1 90 1 115 1 137 1 148 1 194 1 195 1 197 1 244 1 254 1 307 1 330 1 338 1 347 1 357 1 364 1 412 1 418 1 421 1 427 1 435 1 440 1 479 1 514 1 520 1 535 1 548 1 592 1 595 1 599 2 623 1 647 1 650 1 671 1 694 1 700 1 710 2 713 1 717 1 734 1 738 1 752 1 756 1 768 1 774 1 782 1 790 2 798 2 826 1 851 1 876 1 878 1 895 1 916 1 917 1 919 1 935 1 937 1 959 1 965 1 972 1 986 1 990 1 490 1 491 1 504 1 511 1 539 1 594 1 660 1 701 1 705 1 709 1 724 1 727 1 736 1 791 1 801 1 811 1 817 1 818 1 830 1 835 1 838 1 843 1 862 1 872 1 874 1 880 1 899 1 900 1 928 1 955 1 958 1 1011 1 1012 1 
1 212 29 1 31 1 87 1 90 1 100 2 109 2 135 1 136 1 144 2 186 1 193 1 215 1 257 1 272 1 286 1 288 1 301 1 313 1 336 1 343 1 374 1 376 2 397 1 12 1 71 1 78 1 83 1 85 1 93 1 104 1 125 1 143 1 146 1 170 1 171 1 248 1 265 1 274 1 275 1 289 1 322 1 323 1 344 1 393 1 402 1 403 1 432 1 443 1 451 1 456 1 460 1 491 1 511 1 524 1 537 1 554 1 578 1 627 1 675 1 689 1 693 2 703 1 705 1 719 2 777 1 783 1 794 1 795 1 800 1 801 1 836 1 859 1 864 1 865 1 872 1 878 1 913 1 919 1 941 1 958 1 987 1 998 1 496 1 515 1 536 1 551 1 552 1 555 1 560 1 566 1 580 1 622 1 637 1 639 1 701 1 713 1 727 1 760 1 802 1 805 1 807 1 813 1 819 1 827 1 849 1 852 1 857 1 884 1 886 1 912 1 939 1 1000 1 1005 1 1007 1 1018 1 1020 1 1021 1 
1 213 53 1 125 1 126 1 137 1 140 1 181 1 208 1 215 1 231 1 251 1 263 1 271 1 276 1 356 1 364 1 386 1 399 1 408 1 417 1 455 1 469 1 2 1 8 1 19 1 20 1 27 1 45 1 61 1 62 1 114 1 127 1 141 1 155 1 160 1 163 1 184 1 192 1 210 1 213 1 223 1 309 1 363 1 413 1 458 1 476 1 476 1 488 1 490 1 539 1 546 1 562 1 563 2 568 1 585 1 587 1 595 1 607 1 650 1 651 1 655 1 666 1 698 1 726 1 737 1 786 1 791 2 805 1 839 1 844 1 879 1 885 1 897 1 941 1 980 1 1000 1 497 1 505 1 537 1 551 1 584 1 589 1 600 1 642 1 684 1 699 1 707 1 711 1 715 1 738 1 753 1 754 1 760 1 771 1 773 1 774 1 795 1 815 1 828 1 838 1 843 1 857 1 878 1 891 1 902 1 945 1 971 1 1007 1 1016 1 1020 1 1027 1 
1 203 39 1 52 1 68 1 104 1 116 1 139 1 144 1 160 1 165 1 166 1 179 1 184 1 191 1 208 1 219 2 226 1 235 1 236 1 237 1 239 1 250 1 269 1 287 1 295 1 300 1 309 2 312 1 314 1 334 1 344 1 358 1 367 1 392 1 404 1 413 1 423 1 433 1 441 1 458 1 467 1 1 1 35 1 71 1 108 1 156 1 164 1 167 1 192 1 201 1 228 1 255 1 262 1 306 1 313 1 328 1 383 1 393 1 411 1 452 1 459 1 473 1 481 1 483 1 491 2 520 1 548 1 606 1 607 1 608 1 623 1 635 1 642 1 648 1 654 1 664 1 666 1 711 1 718 1 719 1 727 1 736 1 737 1 740 1 793 1 835 1 846 1 848 1 868 1 876 1 877 1 891 1 898 1 941 1 955 1 970 2 979 1 1000 1 512 1 536 1 561 1 565 1 588 1 609 1 630 1 640 1 652 1 674 1 676 1 686 1 691 1 706 1 715 1 746 1 761 1 767 1 772 1 786 1 833 1 847 1 849 1 852 1 871 1 893 1 910 1 940 1 947 1 995 1 997 1 
1 211 20 1 24 1 33 1 49 1 60 1 63 1 81 1 87 1 166 1 192 1 224 1 243 1 246 1 255 1 262 1 277 1 288 1 313 1 326 1 388 1 434 2 44 1 57 1 103 1 108 1 155 1 214 1 223 1 237 1 240 1 242 1 267 1 268 1 275 1 279 1 290 1 293 1 335 1 345 1 353 1 373 1 379 1 392 1 416 1 437 1 446 1 473 1 481 1 483 1 490 1 501 1 508 1 515 1 522 1 550 1 566 1 571 1 583 1 595 1 599 1 613 1 620 1 630 1 647 1 658 1 720 1 732 1 751 1 816 1 823 1 833 1 859 1 861 1 863 2 884 1 898 1 919 1 920 2 929 1 933 1 935 1 947 1 956 1 983 1 499 1 521 1 545 1 559 1 563 1 574 1 600 1 619 1 642 1 684 1 716 1 737 1 743 1 748 1 758 1 762 1 778 1 780 1 788 1 791 1 851 1 900 1 911 1 925 1 936 1 952 1 969 1 1000 1 1004 1 1009 1 1022 1 1026 1 
1 214 12 1 45 1 59 1 78 1 93 1 100 1 159 1 166 1 174 1 185 1 229 1 271 1 280 1 281 2 316 1 348 1 352 1 360 1 362 1 371 1 377 1 398 1 417 1 422 1 450 1 455 1 474 1 2 1 36 1 110 1 145 1 187 1 201 1 207 1 218 1 232 1 236 1 239 1 253 1 254 1 257 1 259 1 284 1 286 1 292 1 309 1 312 1 314 1 341 1 359 1 431 1 448 1 514 1 520 1 522 1 566 1 580 1 596 1 598 1 602 1 608 1 616 1 664 1 687 1 691 1 694 2 721 1 724 1 728 1 765 1 783 1 830 1 837 1 880 1 895 1 900 1 913 1 924 1 936 1 937 1 957 1 999 1 501 1 503 1 506 1 529 1 533 1 538 1 549 1 584 1 587 1 589 1 609 1 613 1 615 1 643 1 647 1 667 1 668 1 716 1 731 1 761 1 787 1 866 1 878 1 906 1 915 1 927 1 934 1 953 1 965 1 1002 1 1013 1 1015 1 
1 210 18 1 22 1 26 1 36 1 37 1 40 1 50 1 57 1 81 2 125 1 132 1 133 1 135 1 198 1 237 1 246 1 253 1 261 1 268 1 291 1 294 1 304 1 360 1 367 1 375 1 380 1 398 1 404 1 429 1 455 1 48 1 74 1 75 1 76 1 79 1 126 1 148 1 154 1 158 1 212 1 232 1 256 1 257 1 273 1 290 1 301 1 315 1 374 1 396 1 443 1 486 2 507 1 511 1 520 1 521 1 531 1 533 1 537 1 547 1 553 1 598 1 616 1 620 1 637 1 652 1 655 1 662 1 682 1 709 1 710 1 728 1 796 1 823 1 859 1 869 1 941 1 987 1 996 1 498 1 510 1 522 1 523 1 535 1 561 1 574 1 628 1 650 1 687 1 720 1 752 1 762 1 764 1 800 1 804 1 810 1 824 1 842 1 851 1 864 1 875 1 891 1 900 1 919 1 930 1 933 1 934 1 953 1 970 1 977 1 995 1 1019 1 1020 1 1021 1 
1 209 2 1 10 1 66 1 96 1 115 1 162 1 171 1 173 1 183 1 187 1 208 1 212 1 228 1 231 1 261 1 268 1 277 1 292 1 299 1 382 2 390 1 410 2 415 1 429 1 435 1 438 1 465 1 477 1 478 1 11 1 24 1 27 1 50 1 52 1 65 1 84 1 89 1 91 1 93 1 129 1 134 1 139 1 166 1 180 1 194 1 269 1 273 1 279 1 287 1 288 1 298 1 301 1 304 1 316 1 336 1 380 1 381 1 393 1 396 1 402 1 466 1 467 1 486 1 490 1 494 1 529 1 546 1 547 1 558 1 567 1 659 1 682 1 684 1 698 1 701 1 732 1 756 1 759 1 770 1 781 1 788 1 791 1 798 1 812 1 831 1 872 1 875 1 889 1 891 1 922 1 925 1 944 1 950 1 957 1 989 1 505 1 508 1 523 1 525 1 554 1 557 1 573 1 582 1 603 1 607 1 614 1 623 1 661 1 662 1 677 1 693 1 699 1 724 1 749 1 799 1 806 1 823 1 835 1 850 1 865 1 868 1 869 1 902 1 918 1 937 1 939 1 948 1 964 1 1002 1 1003 1 1011 1 1013 1 1018 1 1025 1 
1 209 54 1 75 1 76 1 108 1 111 2 112 1 152 2 160 1 161 1 163 1 187 1 200 1 220 1 239 1 256 1 259 1 280 1 322 1 384 1 407 1 411 1 412 1 437 1 448 1 456 1 2 1 24 1 74 1 96 1 102 1 138 1 173 1 177 1 201 1 225 1 227 1 235 1 238 1 254 1 264 1 279 1 282 1 289 1 296 1 308 1 330 1 370 1 379 1 380 1 381 1 418 1 421 1 441 1 467 1 468 1 494 1 516 2 589 1 592 1 593 2 594 1 616 1 627 1 645 1 680 1 687 1 710 1 754 1 799 1 816 1 873 1 884 1 885 1 896 1 950 1 951 1 969 1 984 1 999 1 520 1 523 1 535 1 540 1 543 1 563 1 571 1 581 1 659 1 661 1 707 1 715 1 730 1 735 1 749 1 752 1 791 1 815 1 822 1 858 1 861 1 870 1 908 1 920 1 939 1 946 1 947 1 976 1 983 1 1012 1 1016 1 
1 206 15 1 22 1 49 1 52 1 58 1 63 1 82 1 122 1 143 1 163 1 177 2 179 1 193 1 197 1 201 1 231 1 247 1 264 1 265 1 295 1 309 1 330 1 377 1 385 1 394 1 404 1 413 1 448 1 451 1 468 1 477 1 478 1 41 1 62 1 78 1 107 1 153 1 168 1 173 1 224 1 252 1 259 1 292 1 293 1 308 1 337 1 348 1 367 1 368 1 389 1 412 1 457 1 466 1 469 1 473 1 489 1 498 1 506 1 519 1 528 1 553 1 554 1 558 1 574 1 610 2 627 1 640 1 654 1 670 1 695 1 757 1 767 1 781 2 831 1 835 1 876 1 896 1 900 1 910 1 918 1 926 1 957 1 958 1 490 1 499 1 514 1 515 1 521 1 539 1 567 1 648 1 688 1 691 1 735 1 756 1 765 1 772 1 788 1 826 1 858 1 880 1 888 1 952 1 999 1 1008 1 1020 1 1023 1 
1 208 48 1 58 1 67 2 83 1 99 1 104 1 160 1 171 1 215 1 223 2 237 1 247 1 255 1 274 1 287 1 318 1 334 1 376 1 381 1 419 1 423 1 453 1 471 1 18 1 34 1 85 1 112 1 137 1 141 1 163 1 165 1 179 1 180 1 181 1 184 1 190 1 243 1 292 1 311 1 323 1 328 1 352 1 375 1 408 1 412 1 422 1 432 1 455 1 459 1 461 1 490 1 492 1 493 1 501 1 505 2 514 1 521 1 533 1 535 1 543 1 563 1 580 1 582 1 620 1 643 1 655 1 676 1 683 1 739 1 804 1 893 1 901 1 918 1 941 1 944 1 954 1 957 1 989 1 991 1 994 1 491 1 509 1 527 1 549 1 568 1 575 1 610 1 664 1 666 1 671 1 674 1 687 1 736 1 740 1 749 1 797 1 835 1 839 1 853 1 897 1 930 1 947 1 971 1 975 1 986 1 988 1 999 1 1005 1 
1 219 1 1 17 1 50 1 62 1 71 1 88 1 89 1 90 1 102 1 104 1 117 1 127 1 154 1 198 1 204 1 208 2 244 1 256 1 263 1 272 1 279 1 305 2 370 1 375 1 391 2 403 2 406 1 436 1 16 1 22 1 24 1 30 1 68 1 77 1 79 1 86 1 115 1 216 1 220 1 228 1 248 1 276 1 281 1 301 1 330 1 368 1 381 1 390 1 412 1 420 1 435 1 443 1 454 1 464 1 469 1 491 1 497 1 535 1 536 1 556 1 615 1 636 1 639 1 649 1 657 1 695 1 717 1 744 1 752 1 756 1 773 1 785 1 801 1 897 1 900 1 914 1 915 1 922 1 933 1 941 1 951 1 952 1 958 1 975 1 496 1 504 1 580 1 591 1 594 1 605 1 606 1 625 1 631 1 651 1 653 1 672 1 697 1 745 1 755 1 772 1 775 1 793 1 795 1 802 1 803 1 804 1 805 1 812 1 834 1 847 1 848 1 851 1 881 1 884 1 895 1 906 1 930 1 935 1 943 1 953 1 998 1 1005 1 1012 1 1013 1 1014 1 1024 1 1026 1 
1 207 48 1 52 1 56 1 57 1 70 1 96 1 104 1 113 1 114 1 129 1 158 1 176 1 177 1 212 1 218 1 253 1 255 1 257 1 279 1 292 1 293 1 317 1 320 1 330 1 332 1 339 1 360 1 403 1 480 2 481 1 12 1 13 1 20 1 28 1 49 1 63 1 87 1 89 1 103 1 147 1 174 1 197 1 202 1 227 1 233 1 251 1 256 1 264 1 309 1 369 1 372 1 390 1 400 1 423 1 461 1 467 1 496 1 533 1 563 1 580 1 581 2 619 1 627 1 632 1 652 1 671 1 684 1 689 1 702 1 713 1 726 1 729 1 733 1 746 1 805 1 811 1 813 1 815 1 827 1 863 1 903 1 926 1 960 1 963 1 965 1 970 1 988 1 515 1 532 1 584 1 592 1 618 1 645 1 669 1 686 1 722 1 727 1 743 1 745 1 757 1 782 1 800 1 816 1 848 1 855 1 864 1 885 1 894 1 898 1 924 1 936 1 940 1 977 1 1011 1 
1 206 12 1 16 1 51 1 80 1 95 2 108 1 109 1 120 1 122 1 149 1 152 2 153 1 181 1 211 1 222 2 254 1 276 1 280 1 321 1 356 1 375 1 377 1 398 1 404 2 414 1 432 1 455 1 467 1 1 1 15 1 29 1 61 1 62 1 85 1 219 1 278 1 307 1 334 1 370 1 392 1 394 1 402 1 411 1 413 1 429 1 436 1 445 1 462 1 510 1 535 1 538 1 544 1 546 1 602 1 638 1 651 1 665 1 679 1 699 1 711 1 721 1 728 1 733 1 765 1 766 1 801 1 816 1 875 1 878 1 916 1 940 2 952 1 973 1 520 1 545 1 570 1 577 1 578 1 583 1 586 1 624 1 657 1 670 1 671 1 718 1 723 1 748 1 753 1 755 1 773 1 784 1 797 1 802 1 812 1 833 1 899 1 901 1 926 1 929 1 949 1 953 1 977 1 982 1 1026 1 
1 209 38 1 48 1 83 2 90 1 105 1 134 1 149 1 162 1 190 1 193 1 245 1 267 1 292 1 308 1 313 1 333 1 364 1 418 1 431 1 444 1 448 1 466 1 471 1 476 1 14 1 16 1 44 1 55 1 57 1 59 1 71 1 88 1 96 1 109 1 110 1 135 1 157 1 186 1 197 1 218 1 231 1 242 1 276 1 279 1 281 1 306 1 311 1 332 1 351 1 353 1 362 1 365 1 371 1 426 1 440 1 449 1 451 1 461 1 468 1 492 1 527 1 541 1 567 1 573 1 580 1 613 1 628 1 645 1 675 1 719 1 722 1 747 1 762 1 768 1 810 1 842 1 877 1 884 1 899 1 903 1 905 1 906 1 915 1 925 1 949 1 962 1 965 1 974 1 977 1 510 1 524 1 550 1 572 1 583 1 607 1 616 1 625 1 637 1 644 1 654 1 659 1 688 1 694 1 697 1 704 1 710 1 733 1 735 1 749 1 793 1 801 1 836 1 876 1 896 1 911 1 975 1 981 1 985 1 995 1 999 1 1003 1 
1 206 39 1 47 1 89 1 103 2 128 1 141 1 161 1 165 1 170 1 178 1 182 1 187 1 199 1 204 1 205 1 218 1 230 1 275 1 296 1 307 1 315 1 333 1 345 1 348 1 349 1 354 1 378 1 420 1 434 1 448 1 457 1 459 1 483 1 1 1 23 1 60 1 67 1 87 1 102 1 123 1 127 1 147 1 151 1 173 1 175 1 185 1 192 1 202 1 213 1 215 1 227 1 289 1 299 1 311 1 321 1 324 1 334 1 337 1 382 1 401 1 404 1 418 1 422 1 441 1 515 1 530 2 588 1 595 1 609 1 633 1 648 2 671 1 708 1 721 1 735 1 759 1 771 1 772 1 795 1 817 1 843 1 847 1 855 1 883 1 890 1 907 1 925 1 936 1 956 1 964 1 972 1 980 1 991 1 992 1 994 1 522 1 554 1 556 1 558 1 572 1 591 1 644 1 677 1 691 1 694 1 698 1 706 1 720 1 748 1 768 1 783 1 803 1 810 1 884 1 942 1 979 1 1006 1 1009 1 1016 1 1026 1 
1 213 29 1 32 1 52 1 61 1 63 1 65 1 79 1 135 1 145 1 147 1 204 1 252 1 260 1 265 1 312 1 366 1 371 1 377 1 380 1 387 1 396 1 400 1 402 1 406 1 441 1 453 1 455 1 467 1 476 1 478 1 481 1 484 1 30 1 38 1 58 1 70 1 93 1 125 1 130 1 137 1 139 1 144 1 149 1 196 1 210 1 247 1 279 1 306 1 307 1 327 1 382 1 404 1 412 1 428 1 474 1 483 1 524 1 530 1 536 1 569 1 572 1 588 1 620 1 661 1 667 1 669 1 690 1 693 2 725 1 751 1 761 1 764 1 769 1 773 1 779 1 795 1 799 1 808 1 814 1 817 1 876 1 890 2 894 1 916 1 940 1 950 1 988 1 492 1 529 1 538 1 557 1 558 1 584 1 604 1 625 1 640 1 675 1 697 1 701 1 722 1 730 1 757 1 763 1 780 1 783 1 801 1 832 1 884 1 896 1 902 1 905 1 1003 1 1012 1 1017 1 1020 1 
1 208 37 1 51 1 94 1 114 1 120 1 121 1 126 1 138 1 148 1 160 1 170 2 174 1 178 1 221 1 223 1 230 1 253 1 309 1 317 1 358 1 360 1 361 1 362 1 369 1 387 1 419 1 421 1 446 2 475 1 477 2 485 1 1 1 14 1 53 1 60 1 61 1 76 1 84 1 164 1 209 1 226 1 235 1 240 1 243 1 263 1 355 1 365 1 420 1 440 1 455 1 467 1 474 1 484 1 494 1 499 1 513 1 514 1 521 1 610 1 622 1 633 1 649 2 691 1 692 1 712 2 727 1 771 1 800 1 850 1 876 1 947 1 951 1 953 1 960 1 961 1 965 1 976 1 1001 1 503 1 538 1 571 1 594 1 596 1 618 1 634 1 638 1 641 1 701 1 706 1 720 1 743 1 745 1 756 1 776 1 790 1 794 1 799 1 812 1 816 1 826 1 843 1 849 1 862 1 870 1 890 1 923 1 932 1 937 1 946 1 959 1 1008 1 
1 204 8 1 11 1 17 1 37 1 75 1 82 1 89 1 164 1 190 1 230 1 251 1 261 2 270 2 282 2 334 1 356 1 358 1 369 1 430 1 440 1 448 1 484 1 488 1 13 1 15 1 55 1 85 1 97 1 103 1 107 1 116 1 132 1 155 1 175 1 184 1 196 1 210 1 212 1 324 1 326 1 328 1 367 1 383 1 398 1 406 1 439 1 457 1 490 1 563 1 580 1 582 1 589 1 593 1 641 1 645 1 655 1 665 1 681 1 682 1 714 1 717 2 755 1 768 1 775 1 786 1 800 1 801 1 853 1 854 1 862 1 867 1 881 1 905 1 919 1 929 1 934 1 936 1 945 1 962 1 976 1 495 1 499 1 507 1 535 1 552 1 584 1 608 1 618 1 646 1 649 1 664 1 667 1 677 1 686 1 693 1 707 1 739 1 750 1 777 1 778 1 782 1 783 1 820 1 823 1 857 1 858 1 880 1 914 1 923 1 959 1 985 1 993 1 996 1 998 1 1019 1 
1 209 12 1 21 1 29 1 38 1 57 1 60 1 106 1 107 1 122 2 132 1 149 2 164 1 181 1 192 1 196 2 214 1 229 1 259 1 266 1 269 1 291 2 303 1 329 1 339 1 377 1 378 2 396 1 397 1 404 1 444 1 447 1 454 1 484 1 22 1 44 1 62 1 67 1 109 1 113 1 135 1 140 1 208 1 212 1 238 1 241 1 279 1 297 1 304 1 313 1 317 1 324 1 326 1 367 1 392 1 411 1 438 1 470 1 506 1 510 1 516 2 519 1 524 1 526 1 531 1 550 1 557 2 570 1 580 1 601 1 641 1 679 1 688 1 690 1 691 1 699 1 705 1 714 1 760 1 796 2 817 1 828 1 858 1 861 1 891 1 915 1 924 1 928 1 930 1 958 1 981 1 997 1 523 1 532 1 559 1 575 1 599 1 611 1 653 1 682 1 695 1 698 1 723 1 731 1 768 1 797 1 801 1 807 1 882 1 885 1 887 1 888 1 890 1 898 1 921 1 942 1 951 1 952 1 956 1 960 1 1001 1 1011 1 1013 1 1020 1 1021 1 
1 215 35 1 47 1 59 1 64 1 73 2 91 1 124 1 127 1 130 1 139 1 163 1 185 2 202 1 221 1 222 1 225 1 231 1 232 1 303 1 356 1 357 1 369 1 380 1 383 1 396 1 400 1 410 1 411 1 426 1 431 1 448 1 449 1 453 1 459 1 464 1 481 1 482 1 491 1 15 1 39 1 51 1 119 1 126 1 143 1 213 1 237 1 238 1 250 1 283 1 291 1 325 1 342 1 355 1 381 1 401 1 402 1 412 1 425 1 439 1 442 1 520 1 524 1 536 1 555 1 570 1 571 1 585 1 590 1 623 1 644 1 645 1 648 1 657 1 672 1 697 2 725 1 744 1 745 1 754 1 785 1 787 1 792 1 821 1 839 1 852 1 907 1 909 1 945 1 957 1 985 1 499 1 508 1 526 1 547 1 552 1 566 1 572 1 580 1 587 1 593 1 614 1 619 1 622 1 632 1 634 1 659 1 681 1 702 1 738 1 799 1 800 1 804 1 807 1 809 1 843 1 890 1 892 1 895 1 919 1 928 1 929 1 959 1 966 1 969 1 972 1 975 1 982 1 1008 1 1009 1 1018 1 1024 1 
1 209 61 1 107 2 111 1 123 1 130 2 154 1 155 1 188 1 205 1 207 2 237 1 248 2 251 1 261 1 271 1 280 1 284 1 286 1 348 1 362 1 368 1 371 2 388 1 404 1 430 1 452 1 456 1 471 1 1 1 29 1 33 1 90 1 94 1 125 1 136 1 152 1 156 1 166 1 192 1 231 1 243 1 268 1 269 1 275 1 299 1 356 1 361 1 372 1 384 1 426 1 428 1 458 1 492 1 518 1 526 1 550 1 556 1 583 1 588 1 599 1 601 1 620 1 641 1 685 1 710 1 729 1 730 1 735 1 752 1 765 1 784 1 796 1 806 1 826 1 832 1 883 1 889 1 900 1 922 2 929 1 933 1 1001 1 534 1 555 1 570 1 580 1 596 1 616 1 635 1 657 1 660 1 669 1 674 1 679 1 681 1 694 1 722 1 725 1 757 1 836 1 845 1 852 1 853 1 854 1 875 1 896 1 903 1 913 1 934 1 965 1 968 1 1002 1 1015 1 
1 209 5 1 33 1 34 1 38 1 112 1 119 1 144 2 163 1 164 1 171 2 180 1 192 1 202 1 204 1 221 1 225 1 245 1 249 1 263 1 280 1 292 1 297 1 298 1 335 1 353 1 354 1 398 2 403 1 420 1 421 1 431 1 486 1 3 1 9 1 45 1 95 1 131 1 134 1 172 1 181 1 182 1 183 1 185 1 208 1 214 1 222 1 236 1 253 1 254 1 288 1 295 1 344 1 370 1 374 1 392 1 422 1 444 1 449 1 461 1 475 1 485 1 508 1 519 1 522 1 535 1 541 1 571 1 687 1 693 1 709 1 713 1 733 1 747 1 806 1 808 1 865 1 866 1 890 1 891 1 924 2 962 1 979 2 980 1 500 1 504 1 510 1 550 1 562 1 592 1 593 1 610 1 633 1 726 1 763 1 794 1 817 1 823 1 835 1 838 1 854 1 858 1 860 1 872 1 911 1 939 1 942 1 973 1 989 1 991 1 1005 1 1023 1 
1 211 32 1 89 1 92 1 112 1 148 1 168 1 185 1 202 1 210 1 214 1 217 1 244 1 287 1 307 1 327 1 347 1 363 1 386 1 422 1 438 1 445 1 471 1 485 1 8 1 18 1 29 1 31 1 45 1 91 1 130 1 141 1 152 1 195 1 199 1 249 1 256 1 281 1 316 1 320 1 324 1 328 1 337 1 354 1 389 1 448 1 476 1 516 1 527 1 551 1 554 1 587 1 603 1 637 2 648 1 649 1 659 1 668 1 686 1 689 1 690 1 691 1 693 1 701 1 739 1 742 1 759 1 771 1 818 1 862 1 873 1 877 1 895 1 899 1 900 1 903 1 939 1 940 1 952 1 985 1 500 1 508 1 528 1 533 1 542 1 544 1 572 1 593 1 630 1 641 1 654 1 660 1 684 1 703 1 721 1 749 1 753 1 757 1 766 1 827 1 833 1 838 1 843 1 849 1 852 1 885 1 907 1 910 1 911 1 945 1 947 1 950 1 968 1 978 1 1008 1 1018 1 
1 206 22 1 24 1 61 1 63 1 87 1 101 1 105 1 116 1 117 1 145 1 190 1 196 1 201 1 209 1 212 1 217 1 237 1 254 1 272 1 304 1 353 1 391 1 395 1 446 1 467 1 483 1 10 1 32 1 41 1 120 1 141 1 175 1 186 1 204 1 210 1 230 1 242 1 255 1 280 1 283 1 295 1 310 1 336 1 367 1 375 1 384 1 412 1 421 1 439 1 460 1 480 1 502 1 503 1 549 1 594 1 635 1 636 1 672 1 685 1 689 1 695 1 757 1 774 1 790 1 807 1 890 1 898 1 901 1 903 1 909 1 915 1 922 1 942 1 946 1 539 1 551 1 588 1 591 1 610 1 619 1 624 1 641 1 645 1 648 1 650 1 651 1 661 1 664 1 692 1 704 1 710 1 712 1 715 1 721 1 740 1 768 1 779 1 791 1 819 1 821 1 826 1 827 1 839 1 844 1 847 1 938 1 944 1 970 1 980 1 987 1 1016 1 1022 1 
1 207 27 1 42 1 95 1 98 1 111 1 135 1 175 1 215 1 218 1 223 1 228 1 240 1 257 1 268 1 278 2 279 1 286 1 291 1 296 1 297 1 315 1 327 1 334 1 343 1 371 1 384 2 394 1 410 1 441 1 444 1 449 1 450 2 467 1 468 1 471 1 473 1 491 1 8 1 9 1 15 1 19 1 34 1 45 1 74 1 78 1 91 1 119 1 121 1 126 1 140 1 142 1 146 1 180 1 234 1 243 1 252 1 283 1 287 1 312 1 324 1 340 1 348 1 357 1 406 1 429 1 447 1 454 1 463 1 478 1 483 1 492 1 494 1 516 1 536 1 569 1 572 1 578 1 622 2 639 1 651 1 652 1 672 1 685 1 702 1 721 1 728 1 736 2 746 1 754 1 823 1 850 1 862 1 894 1 896 1 898 1 907 1 909 1 930 1 952 1 953 1 956 1 971 1 990 1 520 1 561 1 598 1 618 1 638 1 649 1 657 1 687 1 748 1 765 1 794 1 802 1 813 1 857 1 866 1 912 1 920 1 946 1 994 1 1005 1 1014 1 1015 1 1018 1 1019 1 
1 209 22 1 37 1 39 1 43 1 44 1 78 1 96 1 97 1 101 1 114 1 169 1 170 1 188 1 218 1 252 1 255 1 304 1 325 1 352 1 397 1 399 1 409 1 418 1 425 1 436 1 444 1 457 2 463 1 19 1 45 1 54 1 56 1 72 1 85 1 113 1 116 1 129 1 137 1 139 1 177 1 201 1 203 1 217 1 274 1 306 1 314 1 326 1 348 1 351 1 355 1 386 1 387 1 394 1 415 1 437 1 455 1 464 1 496 1 497 1 534 1 546 1 622 1 631 1 651 1 658 1 661 1 693 1 717 1 745 1 757 1 786 1 789 1 814 1 815 1 819 1 830 1 868 1 872 1 874 1 890 2 896 1 921 1 948 1 956 1 971 1 976 1 979 1 990 1 517 1 535 1 543 1 562 1 582 1 602 1 619 1 641 1 670 1 699 1 710 1 712 1 713 1 723 1 732 1 744 1 753 1 756 1 780 1 810 1 812 1 856 1 876 1 879 1 881 1 1019 1 
1 210 6 1 16 1 18 1 39 2 52 1 57 1 81 1 83 1 84 1 140 1 156 1 197 1 209 1 221 1 224 1 225 1 242 1 269 1 271 1 282 1 289 1 330 1 341 1 363 1 371 1 377 1 392 1 399 1 460 1 478 1 484 1 4 1 30 1 34 1 59 1 71 1 75 1 93 1 105 1 115 1 123 1 142 1 165 1 167 1 230 1 252 1 270 1 281 1 336 1 340 1 360 1 388 1 469 1 479 1 542 1 545 1 555 1 566 1 579 1 619 1 620 1 641 1 659 1 678 1 683 1 689 1 698 1 700 1 719 1 734 1 747 2 758 1 769 1 796 1 856 1 869 1 886 1 898 1 919 1 933 1 946 1 966 1 976 1 979 1 994 1 502 1 511 1 517 1 530 1 550 1 557 1 581 1 596 1 690 1 695 1 702 1 708 1 709 1 717 1 718 1 744 1 807 1 832 1 853 1 873 1 889 1 942 1 1013 1 1015 1 1021 1 1023 1 
1 207 24 1 54 1 98 1 107 1 111 1 130 1 182 1 183 1 192 1 194 1 224 1 281 1 283 1 325 1 351 1 367 1 373 1 427 1 433 1 449 1 453 1 467 1 498 1 18 1 32 1 62 1 127 1 128 1 139 1 151 1 166 1 167 1 175 1 185 1 202 1 229 1 236 1 256 1 272 1 287 1 315 1 317 1 331 1 337 1 345 1 350 1 356 1 365 1 390 1 400 1 405 1 436 1 446 1 472 1 501 1 508 1 509 1 519 1 545 1 562 1 580 1 581 1 582 1 609 1 618 1 670 1 687 1 715 1 722 1 734 2 759 1 797 1 813 2 823 1 831 1 838 1 840 1 852 1 856 1 858 1 863 1 880 1 882 1 884 1 898 1 902 1 908 1 930 2 936 1 954 1 522 1 531 1 535 1 551 1 570 1 575 1 608 1 645 1 649 1 673 1 675 1 752 1 793 1 800 1 807 1 814 1 818 1 829 1 842 1 846 1 872 1 885 1 909 1 941 1 967 1 988 1 1011 1 1014 1 1022 1 
1 211 4 1 10 1 26 1 29 1 50 1 54 1 65 1 68 1 95 1 146 1 153 1 174 1 226 1 234 1 278 2 300 1 306 1 316 1 334 1 337 1 373 1 396 1 455 1 466 1 498 1 16 1 21 1 79 1 87 1 124 1 137 1 186 1 196 1 204 1 213 1 222 1 241 1 265 1 279 1 292 1 297 1 313 1 340 1 347 1 360 1 413 1 420 1 431 1 460 1 462 1 473 1 479 1 491 1 514 1 539 1 557 2 563 1 564 1 573 1 616 1 636 1 637 1 663 1 664 1 674 1 688 1 692 1 694 1 707 2 723 1 745 1 751 2 754 1 774 1 796 1 818 1 819 1 820 1 835 1 859 1 873 1 885 1 887 1 904 1 910 1 920 1 930 1 949 1 960 1 977 1 983 1 984 1 996 1 505 1 512 1 531 1 536 1 540 1 541 1 543 1 590 1 601 1 603 1 618 1 624 1 654 1 673 1 689 1 713 1 744 1 811 1 816 1 829 1 833 1 860 1 870 1 872 1 880 1 884 1 891 1 900 1 909 1 914 1 922 1 933 1 951 1 1006 1 1017 1 1021 1 1024 1 
1 207 4 1 19 1 28 1 35 1 46 1 53 1 60 1 81 1 127 1 134 1 143 1 146 1 195 1 218 1 220 1 229 1 232 1 237 1 251 1 252 1 282 1 284 1 360 1 452 1 468 1 471 1 18 1 29 1 36 1 42 1 65 1 70 1 75 1 82 1 113 1 148 1 161 1 182 1 194 1 197 1 207 1 209 1 211 1 219 1 235 1 276 1 277 1 285 1 289 1 333 1 335 1 336 1 366 1 395 1 406 1 420 1 427 1 428 1 435 1 470 1 473 1 474 1 485 1 496 1 505 1 533 1 543 1 577 1 579 1 587 1 595 1 596 1 597 1 634 1 649 1 688 1 710 1 712 1 733 1 745 1 761 1 764 1 807 1 808 1 821 1 837 1 856 1 861 1 883 1 887 1 889 1 904 1 935 1 537 1 538 1 552 1 574 1 578 1 588 1 625 1 629 1 630 1 631 1 637 1 642 1 645 1 656 1 700 1 724 1 735 1 770 1 783 1 787 1 816 1 846 1 853 1 858 1 859 1 868 1 869 1 931 1 941 1 992 1 996 1 1009 1 
1 211 31 1 33 1 61 1 68 1 72 1 79 1 90 1 107 1 112 1 128 1 144 1 195 1 200 1 218 1 250 1 279 1 298 1 311 1 334 1 336 1 356 1 388 1 403 1 404 1 421 1 428 1 439 1 441 1 442 1 459 2 470 2 484 2 504 1 41 1 58 1 59 1 67 1 76 1 91 1 126 1 178 1 210 1 269 1 273 1 305 1 317 1 333 1 335 1 338 1 361 1 376 1 426 1 430 1 437 1 473 1 476 1 481 1 503 1 520 1 556 1 579 1 597 1 614 1 640 1 696 1 703 1 730 1 740 1 762 1 763 1 764 1 809 1 819 1 821 1 850 1 870 2 894 1 929 1 933 1 984 1 554 1 564 1 609 1 617 1 647 1 656 1 660 1 689 1 701 1 712 1 777 1 778 1 779 1 784 1 800 1 801 1 813 1 848 1 879 1 880 1 907 1 912 1 918 1 939 1 958 1 965 1 988 1 1014 1 1020 1 1021 1 1027 1 
1 208 4 1 22 1 55 1 56 1 126 1 157 1 159 1 180 1 191 1 193 1 203 1 227 1 244 1 249 1 253 1 271 1 279 1 308 1 351 1 355 1 357 1 364 1 375 1 390 1 423 1 447 1 471 1 483 1 493 1 25 1 32 1 36 1 44 1 48 1 93 1 136 1 148 1 152 1 156 1 167 1 229 1 254 1 294 1 299 1 310 1 319 1 323 1 332 1 333 1 336 1 347 1 415 1 425 1 432 1 450 1 452 1 459 1 460 1 463 1 467 1 479 1 508 1 524 1 573 1 583 1 587 1 596 1 607 1 623 1 635 1 662 1 697 1 699 1 705 1 737 1 789 1 795 1 805 1 829 1 860 2 876 1 899 1 906 1 910 1 925 1 931 1 966 1 971 1 995 1 541 1 551 1 564 1 565 1 572 1 578 1 579 1 608 1 611 1 628 1 630 1 700 1 713 1 728 1 754 1 770 1 771 1 820 1 831 1 850 1 871 1 894 1 907 1 911 1 945 1 970 1 974 1 990 1 991 1 996 1 1003 1 1026 1 
1 210 7 1 11 1 37 1 69 1 100 1 107 1 112 1 138 1 174 1 237 1 249 2 277 1 289 1 290 1 295 1 299 1 305 1 322 1 333 1 336 1 352 1 355 1 356 1 396 1 435 1 448 1 452 1 453 1 461 1 480 1 3 1 4 1 34 1 122 1 147 1 158 1 162 1 180 1 192 1 212 1 234 1 238 1 271 1 281 1 303 1 339 1 342 1 345 1 349 1 381 1 384 1 393 1 395 1 409 1 419 1 420 1 436 1 437 1 440 1 492 1 531 2 543 1 548 1 567 1 621 1 656 1 669 1 717 1 733 1 749 1 753 1 769 1 774 1 785 1 797 1 839 1 846 1 867 1 879 1 889 2 903 1 910 1 921 1 934 1 943 1 958 1 964 1 965 1 982 1 989 1 996 1 1001 1 516 1 524 1 540 1 571 1 594 1 602 1 626 1 627 1 643 1 660 1 700 1 701 1 709 1 721 1 728 1 758 1 802 1 805 1 845 1 864 1 896 1 957 1 974 1 987 1 993 1 1003 1 1019 1 1022 1 1026 1 1027 1 
1 215 43 1 52 1 87 1 117 1 120 1 142 1 158 1 162 1 164 2 189 1 196 1 203 2 219 1 232 1 235 1 244 1 265 1 276 1 343 1 345 1 352 1 371 1 425 1 430 1 431 1 465 1 466 1 478 1 496 1 502 1 506 1 16 1 18 1 78 1 101 1 109 1 111 1 115 1 127 1 130 1 143 1 146 1 161 1 208 1 224 1 233 1 246 1 249 1 278 1 284 1 307 1 310 1 316 1 326 1 329 1 337 1 365 1 391 1 394 1 451 1 481 1 494 1 497 1 542 1 580 1 602 1 625 1 637 1 644 1 690 1 694 1 703 1 717 2 734 1 735 1 746 1 748 1 764 1 775 1 784 1 808 1 827 1 837 1 875 1 904 1 908 1 926 1 999 1 512 1 547 1 560 1 595 1 613 1 646 1 718 1 726 1 759 1 763 1 767 1 788 1 801 1 815 1 828 1 890 1 892 1 915 1 918 1 930 1 962 1 986 1 990 1 1004 1 1005 1 1007 1 1013 1 1018 1 
1 209 20 1 70 1 91 1 96 1 103 1 104 1 119 1 136 1 156 1 162 1 166 1 182 1 184 1 187 1 199 1 223 1 248 1 270 1 277 1 286 1 288 1 289 1 316 1 333 1 401 1 407 1 420 1 430 1 432 1 456 1 459 1 463 1 502 1 9 1 10 1 55 1 105 1 112 1 125 1 127 1 155 1 173 1 202 1 237 1 241 1 254 1 295 1 312 1 328 1 340 1 341 1 362 1 367 1 411 1 467 1 471 1 484 1 512 1 519 1 520 1 521 1 538 1 562 1 635 1 643 1 702 1 711 1 716 1 764 1 792 1 809 1 820 2 883 1 895 1 909 1 915 1 952 1 987 1 1000 1 513 1 526 1 529 1 550 1 554 1 558 1 606 1 627 1 631 1 640 1 710 1 718 1 743 1 744 1 761 1 768 1 772 1 773 1 817 1 830 1 849 1 855 1 870 1 875 1 884 1 929 1 951 1 962 1 976 1 977 1 991 1 1019 1 1027 1 
1 209 9 1 11 1 42 1 63 1 72 1 76 1 78 1 94 1 99 1 118 1 147 1 159 1 169 1 269 1 321 1 362 1 400 1 408 1 409 1 423 1 455 1 470 1 487 1 493 1 27 1 36 1 54 1 62 1 69 1 134 1 152 1 190 1 212 1 214 1 275 1 283 1 284 1 323 1 328 1 332 1 333 1 343 1 352 1 365 1 368 1 388 1 416 1 420 1 431 1 480 1 488 1 496 1 513 1 524 1 539 1 552 1 553 1 580 1 585 1 588 2 649 1 650 1 653 1 677 1 678 1 685 2 704 1 733 2 734 1 760 1 775 1 777 1 786 1 790 1 833 1 834 1 863 2 902 1 936 1 955 1 963 1 966 2 973 1 974 1 992 1 512 1 515 1 542 1 603 1 607 1 640 1 659 1 794 1 804 1 824 1 844 1 846 1 870 1 889 1 908 1 920 1 951 1 990 1 999 1 1003 1 1010 1 1013 1 
1 218 2 1 11 1 35 1 55 1 58 1 79 1 93 1 115 1 120 1 132 1 133 1 134 2 146 1 171 1 189 1 210 1 229 1 234 1 261 1 273 2 279 1 286 1 292 1 337 1 339 1 371 1 417 1 423 1 442 1 444 1 475 1 480 1 4 1 23 1 42 1 56 1 60 1 67 1 73 1 106 1 110 1 151 1 193 1 238 1 242 1 249 1 250 1 291 1 342 1 355 1 370 1 378 1 382 1 392 1 429 1 431 1 433 1 450 1 467 1 474 1 501 1 532 1 555 1 589 1 595 1 601 1 623 1 634 1 690 1 694 1 707 1 713 1 775 1 788 1 810 1 829 1 844 1 858 1 875 1 882 1 883 1 886 1 888 2 908 1 918 1 930 1 934 1 938 2 941 1 945 1 950 1 994 1 535 1 538 1 572 1 575 1 592 1 596 1 606 1 621 1 649 1 660 1 678 1 688 1 717 1 757 1 773 1 777 1 793 1 795 1 797 1 811 1 909 1 942 1 953 1 975 1 979 1 981 1 993 1 1008 1 1012 1 1013 1 1014 1 1019 1 1020 1 1021 1 1023 1 
1 211 4 1 6 1 23 2 25 1 34 1 37 1 44 1 47 1 51 1 60 1 76 1 82 1 94 1 95 2 122 2 141 1 145 2 146 1 230 1 257 1 261 1 283 1 295 2 300 1 302 1 322 1 419 1 421 1 509 1 31 1 32 1 46 1 48 1 75 1 80 1 131 1 132 1 139 1 173 1 178 1 188 1 192 1 198 1 204 1 220 1 225 1 227 1 255 1 263 1 271 1 305 1 330 1 331 1 336 1 350 1 397 1 411 1 445 1 447 1 465 1 477 1 503 1 508 1 510 1 512 1 512 1 523 1 534 1 552 1 553 1 554 1 570 1 600 1 617 1 632 1 639 1 644 1 649 1 690 1 709 1 719 1 721 2 747 1 748 1 756 1 811 1 827 1 830 1 836 1 841 1 850 1 853 2 890 1 895 1 904 1 930 1 944 1 946 1 952 1 957 1 960 1 971 1 522 1 525 1 526 1 636 1 673 1 706 1 720 1 727 1 735 1 740 1 757 1 766 1 780 1 787 1 788 1 809 1 826 1 921 1 926 1 931 1 956 1 968 1 994 1 1005 1 1008 1 1025 1 1026 1 
1 209 17 1 26 1 31 1 44 1 179 1 226 1 230 1 237 1 239 1 254 1 255 1 261 1 267 1 279 1 281 1 285 1 295 1 322 1 346 1 351 1 391 1 453 1 461 1 464 1 491 1 510 1 25 1 29 1 37 1 62 1 66 1 68 1 94 1 96 1 145 1 165 1 169 1 170 1 199 1 203 1 287 1 294 1 296 1 306 1 310 1 314 1 323 1 347 1 354 1 370 1 384 1 415 1 418 1 425 1 428 1 431 1 456 1 457 1 466 1 509 1 524 1 534 1 582 1 595 1 602 1 608 1 617 1 643 1 659 1 669 1 674 1 683 1 685 1 691 1 693 2 703 1 712 1 713 1 720 1 728 1 757 1 779 1 815 1 836 1 849 1 862 1 865 1 887 1 933 1 935 1 961 1 966 1 970 1 973 1 520 1 550 1 578 1 594 1 673 1 688 1 770 1 780 1 781 1 797 1 811 1 824 1 827 1 839 1 859 1 869 1 910 1 912 1 920 1 922 1 959 1 962 1 1008 1 1024 1 
1 211 25 1 47 1 76 1 84 1 90 1 101 1 105 1 107 1 138 1 183 1 193 1 210 2 242 1 251 1 254 1 260 1 285 1 292 1 300 1 319 1 326 1 330 1 339 1 344 1 361 1 362 1 377 1 383 1 431 1 434 1 474 1 479 1 484 1 491 1 503 1 12 1 36 1 37 1 67 1 89 1 110 1 113 1 117 1 124 1 167 1 169 1 199 1 213 1 236 1 243 1 275 1 278 1 281 1 318 1 345 1 376 1 395 1 396 1 405 1 419 1 430 1 471 1 483 1 525 1 541 1 548 1 557 1 578 1 582 1 587 1 591 1 634 1 635 2 660 1 702 1 730 1 746 1 760 1 796 1 817 1 832 1 838 1 845 1 869 1 871 1 881 1 882 1 926 1 953 1 960 1 963 1 978 1 581 1 583 1 596 1 604 1 605 1 647 1 650 1 668 1 669 1 750 1 752 1 757 1 762 1 767 1 779 1 791 1 859 1 861 1 884 1 913 1 918 1 919 1 990 1 998 1 1009 1 1017 1 
1 206 38 1 39 1 44 1 57 1 58 1 60 1 91 1 94 1 106 1 107 1 116 1 153 1 159 1 180 1 213 1 237 1 249 1 268 1 279 1 281 1 294 1 324 1 326 1 331 1 421 1 431 1 444 1 449 1 452 1 458 1 478 1 489 1 15 1 21 1 31 1 35 1 51 1 62 1 76 1 77 1 83 1 100 1 110 1 144 1 171 1 215 1 220 1 225 1 229 1 232 1 254 1 270 1 285 1 289 1 292 1 297 1 312 1 314 1 338 1 344 1 362 1 363 1 371 1 388 1 429 1 455 1 475 1 483 1 486 1 510 1 516 1 518 1 554 1 561 1 578 1 580 1 646 1 653 1 655 1 762 1 769 1 771 1 779 1 799 1 815 1 834 1 839 1 930 1 934 1 938 1 945 1 947 1 969 1 972 1 533 1 537 1 625 1 629 1 680 1 718 1 763 1 801 1 808 1 810 1 816 1 844 1 879 1 906 1 957 1 958 1 964 1 968 1 975 1 981 1 1015 1 1016 1 
1 208 43 1 68 1 101 1 132 1 138 1 176 1 218 2 238 1 249 1 250 1 271 1 287 1 292 1 293 1 322 1 325 1 342 1 343 1 360 1 388 1 401 1 408 1 415 1 429 1 463 1 482 2 493 2 497 1 499 1 515 1 15 1 63 1 75 1 100 1 106 1 114 1 120 1 142 1 169 1 174 1 177 1 189 1 200 1 230 1 276 1 277 1 295 1 297 1 302 1 317 1 331 1 355 1 358 1 380 1 387 1 394 1 396 1 412 1 433 1 468 1 507 1 533 1 550 1 589 1 594 1 603 1 623 1 633 1 639 1 643 1 647 1 680 1 686 1 709 1 711 1 731 1 750 1 788 1 789 1 803 1 857 1 870 1 876 1 920 1 948 1 950 1 973 1 981 2 985 1 990 1 532 1 539 1 579 1 587 1 598 1 600 1 626 1 634 1 683 1 734 1 756 1 823 1 856 1 901 1 914 1 918 1 933 1 934 1 976 1 996 1 997 1 1007 1 1012 1 1021 1 1024 1 
1 208 8 1 25 1 28 1 53 1 97 1 101 1 108 1 114 1 124 1 131 1 133 1 141 1 153 1 169 1 254 1 280 1 307 1 316 1 328 1 331 1 342 1 344 1 365 1 446 1 472 1 3 1 45 1 105 1 107 1 152 1 154 1 160 1 192 1 194 1 218 1 228 1 231 1 255 1 260 1 272 1 287 1 290 1 320 1 349 1 360 1 362 1 416 1 473 1 500 1 501 1 523 1 524 1 533 1 539 1 562 1 563 1 576 1 639 1 678 1 699 1 712 1 716 1 753 1 766 1 777 1 789 1 800 1 803 1 827 1 832 1 844 1 856 1 865 1 870 1 893 1 895 1 906 1 917 2 928 2 937 1 941 1 962 1 968 1 987 1 992 1 535 1 553 1 557 1 559 1 564 1 582 1 635 1 636 1 650 1 721 1 726 1 734 1 761 1 843 1 869 1 885 1 890 1 900 1 952 1 967 1 981 1 985 1 1002 1 1013 1 1015 1 1018 1 1019 1 
1 210 20 1 22 1 26 1 33 1 47 1 57 1 87 1 93 1 99 1 107 1 147 1 186 1 191 1 193 1 204 1 237 1 252 1 263 1 282 1 286 1 316 2 318 1 324 1 331 2 381 1 385 1 398 1 409 1 412 1 466 1 473 1 495 1 515 1 28 1 43 1 52 1 62 1 72 1 75 1 95 1 109 1 128 1 157 1 175 1 195 1 267 1 271 1 290 1 291 1 308 1 336 1 379 1 421 1 453 1 464 1 469 1 530 1 534 1 560 1 562 1 587 1 608 2 629 1 642 1 649 1 650 1 652 2 662 1 663 1 667 1 669 1 716 1 758 1 771 1 774 1 786 1 800 1 811 1 821 1 840 1 863 2 935 1 937 1 971 1 1001 2 531 1 533 1 540 1 553 1 554 1 557 1 573 1 580 1 594 1 672 1 673 1 702 1 707 1 733 1 755 1 778 1 787 1 835 1 860 1 887 1 932 1 947 1 964 1 995 1 1013 1 1015 1 1017 1 1021 1 
1 209 6 1 13 1 18 1 25 1 52 1 102 1 111 1 136 1 146 1 152 1 154 1 166 1 192 1 227 1 234 1 245 1 247 1 274 1 318 1 332 1 352 1 383 1 415 1 425 1 470 1 483 1 493 1 496 1 502 1 509 1 2 1 10 1 55 1 116 1 130 1 159 1 183 1 197 1 232 1 238 1 242 1 243 1 259 1 262 1 328 1 358 1 360 1 387 1 416 1 549 1 555 1 584 1 597 1 611 1 634 1 648 1 665 1 696 1 716 1 723 2 728 1 753 2 765 1 776 1 778 1 784 1 792 1 809 1 815 1 824 1 831 1 840 1 841 1 845 1 890 1 893 1 928 1 945 1 967 1 1000 1 521 1 546 1 568 1 614 1 623 1 627 1 660 1 664 1 681 1 684 1 702 1 704 1 709 1 751 1 763 1 787 1 835 1 852 1 856 1 859 1 870 1 884 1 910 1 933 1 952 1 955 1 963 1 977 1 979 1 980 1 996 1 1007 1 1008 1 
1 212 2 2 3 1 6 1 31 1 58 1 66 1 82 1 84 1 101 1 126 1 129 1 131 1 201 1 213 1 244 1 269 1 300 1 328 1 329 1 372 1 377 1 430 1 434 1 446 1 464 2 474 1 477 1 479 1 480 1 494 1 505 1 509 1 23 1 57 1 73 1 90 1 96 1 112 1 169 1 178 1 196 1 224 1 231 1 271 1 283 1 288 1 314 1 323 1 371 1 373 1 392 1 394 1 405 1 422 1 425 1 441 1 465 1 482 1 487 1 499 1 513 1 526 1 590 1 625 1 642 1 645 1 665 1 677 1 697 1 700 1 713 1 715 2 749 1 751 1 758 1 795 1 808 1 830 1 844 1 868 1 877 1 886 1 890 1 921 2 967 1 971 1 973 1 583 1 598 1 608 1 616 1 663 1 681 1 694 1 717 1 726 1 730 1 747 1 769 1 801 1 810 1 812 1 834 1 845 1 849 1 933 1 939 1 942 1 978 1 980 1 1011 1 1013 1 1016 1 1019 1 1026 1 
1 210 30 1 33 1 39 1 44 1 104 1 136 1 157 1 158 1 159 1 170 1 186 1 191 1 195 1 240 1 264 1 265 1 280 1 285 1 302 1 347 1 350 1 360 1 368 1 447 1 472 1 480 1 484 1 491 1 509 1 22 1 24 1 36 1 55 1 61 1 72 1 101 1 121 1 142 1 162 1 167 1 236 1 242 1 271 1 279 1 293 1 307 1 351 1 363 1 372 1 378 1 391 1 415 1 435 1 446 1 454 1 471 1 478 1 483 1 519 1 532 1 549 1 551 1 558 1 568 1 580 1 583 1 589 2 606 1 610 1 656 1 675 1 687 1 703 1 706 1 727 1 763 1 765 1 783 1 799 1 812 1 842 1 846 1 850 1 871 1 902 1 991 1 523 1 540 1 545 1 574 1 617 1 623 1 661 1 665 1 737 1 755 1 774 1 804 1 805 1 808 1 841 1 843 1 865 1 867 1 868 1 903 1 939 1 951 1 980 1 982 1 998 1 1004 1 1026 1 
1 207 15 1 51 1 69 1 97 1 117 1 130 1 132 1 167 1 172 1 173 1 199 1 210 1 219 1 231 1 251 1 259 1 261 2 277 1 307 1 310 1 320 1 333 1 337 1 358 1 359 1 385 1 460 1 461 1 470 1 473 1 478 1 479 1 496 1 17 1 55 1 86 1 92 1 109 1 192 1 208 1 244 1 249 1 272 1 331 1 334 1 346 1 351 1 355 1 357 1 371 1 378 1 379 1 394 1 398 1 429 1 456 1 457 1 458 1 480 1 489 1 502 1 512 1 542 1 546 1 547 1 577 1 586 1 592 1 594 1 615 2 642 1 645 1 656 1 666 1 670 1 682 1 740 1 769 1 807 1 816 2 859 1 894 1 899 1 900 1 902 2 931 1 972 1 987 1 988 2 526 1 528 1 560 1 572 1 599 1 603 1 662 1 673 1 698 1 703 1 712 1 717 1 724 1 730 1 794 1 822 1 839 1 889 1 895 1 896 1 910 1 928 1 947 1 968 1 995 1 1002 1 1009 1 1023 1 
1 212 3 1 30 1 42 1 147 1 183 1 188 1 193 1 196 1 234 1 247 1 281 1 314 1 328 1 390 1 391 1 397 1 426 1 429 1 433 1 456 1 512 1 517 1 6 1 52 1 107 1 109 1 124 1 133 1 143 1 150 1 176 1 182 1 197 1 222 1 244 1 263 1 265 1 276 1 291 1 292 1 317 1 332 1 349 1 357 1 374 1 375 1 380 1 399 1 402 1 411 1 424 1 448 1 480 1 481 1 482 1 493 1 521 1 542 1 565 1 574 1 577 1 602 1 609 1 611 1 615 1 628 1 636 2 656 1 681 2 692 1 694 1 695 1 712 1 752 1 774 1 785 2 793 1 823 1 825 1 836 1 865 1 901 1 911 1 929 1 932 1 941 1 946 1 961 1 535 1 547 1 552 1 556 1 591 1 599 1 604 1 608 1 617 1 642 1 657 1 663 1 701 1 725 1 791 1 827 1 842 1 891 1 925 1 936 1 991 1 996 1 1000 1 1019 1 1020 1 1025 1 1027 1 
1 213 8 1 34 1 41 1 47 1 57 1 85 1 99 1 113 1 143 1 145 1 189 1 211 1 215 1 245 1 258 1 267 1 279 1 298 1 306 1 353 2 373 1 395 1 419 1 461 1 475 1 490 1 493 1 494 1 506 1 510 1 513 1 517 1 7 1 15 1 60 1 103 1 107 1 133 1 136 1 173 1 183 1 206 1 219 1 231 1 249 1 251 1 272 1 323 1 325 1 333 1 344 1 357 1 390 1 401 1 402 1 423 1 466 1 488 1 507 1 525 1 527 1 531 1 542 1 543 1 553 1 605 1 635 2 644 1 657 2 664 1 679 1 681 1 689 1 703 1 708 1 712 1 728 1 733 1 742 1 760 1 776 1 827 1 929 1 943 1 944 1 958 1 960 2 970 1 1001 2 534 1 537 1 545 1 557 1 562 1 581 1 593 1 604 1 607 1 615 1 619 1 655 1 656 1 660 1 667 1 675 1 716 1 718 1 753 1 823 1 834 1 849 1 861 1 866 1 906 1 937 1 955 1 1007 1 1014 1 1015 1 1025 1 
1 204 11 1 17 1 34 1 66 1 72 1 80 1 97 1 103 1 136 1 146 1 155 1 160 1 162 1 199 1 201 1 209 1 217 2 222 1 226 1 232 1 251 1 253 1 254 1 282 1 286 1 290 1 294 1 302 1 305 1 308 1 352 1 353 1 363 1 421 1 436 1 514 1 524 1 8 1 13 1 16 1 49 1 56 1 67 1 84 1 95 1 111 1 124 1 130 1 135 1 145 1 157 1 181 1 195 1 231 1 234 1 279 1 280 1 291 1 310 1 313 1 334 1 339 1 340 1 359 1 362 1 385 1 386 1 459 1 481 1 512 1 540 1 559 1 658 1 677 1 687 1 715 1 759 1 764 1 776 1 777 1 800 1 810 1 818 1 824 1 826 1 858 1 869 1 892 1 919 1 934 1 949 1 954 1 528 1 591 1 620 1 633 1 642 1 685 1 707 1 711 1 744 1 753 1 757 1 779 1 806 1 821 1 846 1 860 1 871 1 876 1 942 1 958 1 1005 1 
1 206 2 1 33 1 40 1 61 1 108 1 116 1 143 1 181 1 199 1 259 1 304 2 327 1 360 1 361 1 374 1 376 1 380 1 414 1 424 1 429 1 435 1 436 1 444 1 455 1 467 1 471 1 493 1 495 1 520 1 9 1 25 1 71 1 92 1 136 1 147 1 150 1 151 1 158 1 175 1 177 1 179 1 189 1 206 1 220 1 251 1 277 1 278 1 322 1 332 1 342 1 343 1 407 1 413 1 494 1 509 1 512 1 522 1 529 1 531 2 564 1 586 1 593 1 599 1 603 1 645 1 675 1 688 1 757 1 758 1 772 1 773 1 809 1 833 1 836 1 875 1 884 1 886 2 890 1 891 1 911 1 931 1 941 1 943 1 951 1 959 1 971 1 1000 1 534 1 559 1 562 1 581 1 585 1 591 1 595 1 604 1 636 1 655 1 704 1 711 1 722 1 725 1 730 1 753 1 768 1 794 1 811 1 838 1 858 1 859 1 860 1 864 1 867 1 917 1 935 1 1020 1 1026 1 
1 210 4 1 10 1 80 2 85 1 94 1 147 1 154 1 211 1 217 1 224 1 242 2 245 1 251 2 255 1 265 1 286 1 321 1 370 1 382 1 454 1 457 1 464 1 465 1 473 1 488 1 497 1 524 1 15 1 26 1 33 1 45 1 65 1 103 1 105 1 109 1 114 1 126 1 131 1 133 1 163 1 173 1 178 1 280 1 284 1 316 1 317 1 340 1 344 1 389 1 392 1 404 1 435 1 442 1 443 1 450 1 451 1 463 1 472 1 484 1 540 1 542 1 552 2 566 1 582 1 584 1 617 1 635 1 643 1 650 2 670 1 707 1 714 1 718 1 726 1 728 1 729 1 738 1 765 1 776 1 790 1 800 1 832 1 834 1 854 1 883 1 887 1 954 1 964 1 970 1 975 1 983 1 996 1 528 1 543 1 547 1 564 1 578 1 607 1 655 1 682 1 684 1 693 1 696 1 736 1 759 1 764 1 768 1 774 1 787 1 810 1 865 1 869 1 911 1 913 1 941 1 943 1 956 1 958 1 967 1 985 1 1006 1 1013 1 
1 208 39 1 47 1 53 1 91 1 139 1 223 1 237 1 250 1 253 1 260 1 274 1 280 1 292 1 293 1 296 1 299 1 305 1 306 2 320 1 336 1 339 1 341 1 385 1 390 1 393 1 444 1 473 1 483 1 1 1 2 1 7 1 25 1 37 1 42 1 58 1 68 1 79 1 132 1 155 1 175 1 210 1 212 1 246 1 261 1 268 1 287 1 351 1 396 1 425 1 440 1 452 1 455 1 460 1 462 1 469 1 497 1 522 1 525 1 527 1 535 1 538 1 546 1 560 1 561 1 589 1 637 1 679 1 687 1 703 1 714 1 736 1 753 1 767 2 786 1 793 1 802 1 815 1 852 1 904 1 911 1 924 1 931 1 999 1 545 1 554 1 562 1 567 1 568 1 602 1 631 1 636 1 658 1 666 1 681 1 685 1 709 1 738 1 771 1 778 1 781 1 794 1 797 1 840 1 895 1 907 1 930 1 934 1 943 1 958 1 962 1 984 1 1005 1 1009 1 
1 203 1 1 14 1 19 1 56 1 63 1 72 1 77 1 88 1 96 1 128 1 140 1 175 1 206 1 252 1 260 1 267 1 268 1 293 1 297 1 311 1 319 1 333 1 351 1 357 1 374 1 387 1 390 1 407 1 481 1 526 1 20 1 24 1 27 1 30 1 36 1 62 1 98 1 106 1 151 1 165 1 192 1 199 1 209 1 234 1 261 1 265 1 273 1 287 1 340 1 342 1 344 1 346 1 363 1 397 1 403 1 404 1 408 1 427 1 459 1 462 1 479 1 490 1 509 1 534 1 570 1 587 1 601 1 628 1 632 1 636 1 661 1 675 1 699 1 702 1 703 2 766 1 779 1 797 1 816 1 830 1 844 1 866 1 896 1 932 1 940 1 970 1 985 1 995 1 535 1 538 1 542 1 543 1 568 1 595 1 605 1 616 1 635 1 641 1 651 1 659 1 671 1 683 1 689 1 720 1 730 1 740 1 742 1 761 1 778 1 789 1 793 1 796 1 811 1 829 1 840 1 889 1 895 1 903 1 916 1 941 1 960 1 962 1 964 1 980 1 996 1 1013 1 1017 1 
1 213 5 1 19 1 23 1 84 1 102 2 112 1 117 1 155 1 196 1 240 1 299 1 334 1 350 1 352 2 360 1 367 1 376 1 377 1 434 1 435 1 445 1 454 1 466 1 472 1 489 2 490 1 518 1 8 1 10 1 13 1 14 1 17 1 171 1 182 1 250 1 277 1 280 1 294 1 318 1 320 1 382 1 399 1 406 1 423 1 450 1 453 1 455 1 501 1 543 1 558 1 559 1 578 1 588 1 601 1 610 1 613 1 639 1 649 2 656 1 660 1 671 1 707 1 727 1 777 1 787 1 795 1 814 1 824 1 831 1 878 1 879 1 925 1 927 1 939 1 966 1 1001 1 546 1 557 1 584 1 596 1 606 1 622 1 633 1 635 1 645 1 673 1 677 1 729 1 767 1 781 1 807 1 825 1 869 1 873 1 876 1 887 1 942 1 954 1 960 1 982 1 1008 1 1015 1 1020 1 
1 216 14 1 23 1 28 1 67 1 117 1 122 1 135 1 142 1 205 1 212 1 233 2 259 1 271 1 281 1 319 1 324 1 330 2 349 1 359 1 381 2 406 1 412 1 418 1 429 1 454 1 460 1 469 1 480 1 493 1 507 2 524 1 526 2 36 1 76 1 99 1 110 1 114 1 119 1 128 1 141 1 154 1 155 1 207 1 224 1 226 1 251 1 341 1 353 1 358 1 364 1 366 1 370 1 425 1 435 1 451 1 502 1 503 1 518 1 552 1 556 1 577 1 595 1 604 1 644 1 676 1 680 1 702 1 743 1 760 1 765 1 770 1 780 1 783 1 825 1 837 1 871 2 880 1 893 2 926 2 932 1 941 1 948 1 965 1 563 1 565 1 586 1 596 1 601 1 603 1 605 1 689 1 699 1 744 1 787 1 789 1 858 1 865 1 884 1 908 1 918 1 936 1 938 1 956 1 993 1 1002 1 1005 1 1008 1 1026 1 
1 208 5 1 75 1 102 1 111 1 124 1 135 1 158 1 163 1 174 1 196 1 209 1 251 1 272 1 282 1 289 1 296 1 362 1 425 1 432 1 444 1 450 2 461 1 511 1 521 1 6 1 15 1 55 1 87 1 88 1 115 1 151 1 201 1 214 1 238 1 275 1 284 1 325 1 368 1 371 1 381 1 394 1 404 1 427 1 436 1 469 1 486 1 493 1 516 1 547 1 552 1 559 1 577 1 620 1 621 1 634 1 668 1 674 1 682 1 700 1 706 1 726 1 748 1 788 2 809 1 816 1 820 1 824 1 826 1 829 1 833 1 838 1 855 1 895 1 903 1 912 1 938 1 943 1 951 1 956 1 968 1 974 1 979 1 560 1 562 1 569 1 570 1 576 1 578 1 579 1 584 1 614 1 648 1 655 1 721 1 732 1 735 1 744 1 745 1 797 1 811 1 839 1 843 1 847 1 864 1 871 1 887 1 941 1 982 1 988 1 1003 1 1010 1 1013 1 1015 1 
1 208 12 1 18 1 92 1 104 1 131 1 144 1 150 1 155 1 172 1 190 1 204 1 230 2 272 1 295 1 316 1 344 1 359 1 368 1 384 1 418 1 480 1 484 1 486 1 504 1 516 1 517 1 3 1 14 1 15 1 30 1 33 1 51 1 60 1 62 1 66 1 96 1 97 1 107 1 111 1 113 1 141 1 142 1 193 1 211 1 212 1 221 1 333 1 337 1 377 1 411 1 414 1 433 1 437 1 479 1 497 1 515 1 518 1 568 1 585 1 599 1 630 1 642 1 650 2 651 1 653 1 661 1 676 1 711 1 725 2 734 1 762 1 766 1 793 1 820 1 823 1 824 1 827 1 835 1 836 2 854 1 887 1 937 1 959 1 974 1 977 1 980 1 596 1 658 1 678 1 702 1 715 1 716 1 724 1 737 1 755 1 784 1 790 1 799 1 834 1 880 1 914 1 925 1 928 1 970 1 973 1 986 1 1012 1 
1 206 39 1 41 1 60 1 76 1 92 1 166 2 170 1 215 1 233 1 249 1 252 1 259 1 284 1 296 1 307 1 338 1 359 1 372 1 403 1 424 1 435 1 451 1 467 1 500 1 512 1 513 1 518 1 529 1 4 1 12 1 20 1 52 1 67 1 84 1 88 1 103 1 118 1 128 1 134 1 159 1 168 1 192 1 194 1 225 1 237 1 253 1 297 1 301 1 314 1 315 1 386 1 408 1 415 1 425 1 432 1 446 1 447 1 463 1 466 1 495 1 524 1 526 1 567 1 584 1 654 1 661 1 738 1 758 1 777 1 782 1 786 1 790 1 802 1 807 1 810 1 812 1 833 1 858 1 869 1 878 1 880 1 886 1 889 1 912 1 926 1 943 1 947 1 950 1 954 1 955 1 977 1 544 1 556 1 569 1 582 1 583 1 594 1 597 1 605 1 609 1 616 1 619 1 626 1 635 1 641 1 664 1 680 1 694 1 706 1 707 1 723 1 737 1 764 1 817 1 837 1 847 1 876 1 940 1 960 1 975 1 986 1 1012 1 
1 210 1 1 4 1 17 1 21 1 24 1 26 1 53 1 60 1 64 1 75 1 110 1 201 2 205 1 224 1 237 1 328 1 331 1 398 1 411 1 463 1 464 1 474 1 484 1 485 1 487 1 496 1 528 1 13 1 29 1 45 1 49 1 50 1 55 1 59 1 72 1 93 1 101 1 113 1 130 1 137 1 169 1 175 1 182 1 188 1 218 1 221 1 227 1 232 1 239 1 243 1 284 1 336 1 338 1 345 1 362 1 364 1 380 1 407 1 416 1 421 1 429 1 446 1 453 1 469 1 480 1 482 1 492 1 500 1 502 1 511 1 517 1 523 1 529 1 554 1 618 1 619 1 643 1 662 1 665 1 670 1 687 1 708 1 718 1 720 1 728 1 784 1 786 1 830 1 832 1 843 1 844 1 864 1 878 1 953 1 965 1 974 1 983 1 988 1 996 1 562 1 594 1 630 1 635 1 653 1 685 1 699 1 715 1 726 1 734 1 738 1 762 1 799 1 805 1 807 1 831 1 842 1 890 1 894 1 906 1 925 1 934 1 943 1 951 1 1006 1 1007 1 1011 1 1014 1 1017 1 
1 210 4 1 13 2 56 1 78 1 97 2 105 1 107 1 108 1 119 1 131 1 166 1 174 1 182 1 193 1 196 1 219 1 240 1 282 1 295 1 306 1 311 1 331 1 332 1 333 1 397 1 430 1 439 1 457 1 459 1 465 1 485 1 490 1 494 1 499 1 17 1 20 1 30 1 58 1 61 1 65 1 81 1 91 1 106 1 118 1 123 1 130 1 147 1 165 1 179 1 192 1 194 1 198 1 212 1 213 1 216 1 217 1 233 1 249 1 251 1 266 1 271 1 297 1 307 1 308 1 310 1 350 1 371 1 402 1 407 1 410 1 418 1 433 1 475 1 477 1 503 1 540 1 567 1 598 1 602 1 627 1 678 1 684 1 686 1 698 1 733 1 810 1 818 1 830 1 857 1 878 1 893 1 897 1 932 1 952 1 956 1 977 1 991 1 537 1 551 1 557 1 561 1 608 1 614 1 638 1 648 1 652 1 682 1 716 1 734 1 737 1 751 1 776 1 779 1 786 1 843 1 873 1 875 1 877 1 919 1 992 1 1003 1 1006 1 1012 1 1013 1 1015 1 
1 211 12 1 56 1 62 1 91 2 99 1 109 1 123 1 177 1 196 1 198 1 200 1 203 1 205 1 209 1 221 1 232 1 233 2 271 1 278 1 324 1 330 1 351 1 352 1 358 1 384 1 386 1 398 1 402 1 408 1 420 2 423 1 475 1 480 1 59 1 96 1 98 1 112 1 121 1 134 1 148 1 185 1 212 1 239 1 248 1 296 1 314 1 321 1 334 1 344 1 382 1 401 1 464 1 476 1 504 1 515 1 524 1 536 1 543 1 583 2 605 1 618 1 619 1 622 1 647 1 663 1 713 1 727 1 731 1 740 1 759 1 770 1 795 1 815 1 819 1 829 1 831 1 834 1 847 1 872 1 881 1 889 1 905 1 962 1 539 1 560 1 568 1 581 1 602 1 610 1 654 1 656 1 658 1 661 1 662 1 673 1 678 1 696 1 711 1 739 1 741 1 775 1 779 1 794 1 821 1 824 1 857 1 898 1 909 1 930 1 966 1 985 1 1002 1 1005 1 1007 1 1017 1 
1 209 1 1 34 1 50 1 80 1 82 1 98 1 100 1 125 1 126 1 138 1 141 1 147 1 185 1 191 2 225 1 235 1 247 1 255 1 261 1 290 1 306 1 316 1 347 1 363 1 387 2 389 1 395 1 398 1 421 1 432 1 487 1 509 1 528 1 11 1 118 1 120 1 128 1 148 1 152 1 159 1 208 1 214 1 276 1 293 1 310 1 364 1 371 1 441 1 444 1 479 1 490 1 491 1 504 1 511 1 529 1 565 1 614 1 635 1 687 1 698 1 706 1 709 1 715 1 724 1 735 1 784 1 846 1 911 1 914 1 926 1 945 1 948 1 949 1 967 1 987 1 546 1 553 1 558 1 574 1 630 1 686 1 704 1 731 1 742 1 743 1 771 1 777 1 779 1 830 1 874 1 875 1 923 1 943 1 947 1 968 1 976 1 998 1 1007 1 1010 1 1020 1 1022 1 
1 209 13 1 19 1 21 1 36 1 66 1 69 1 77 1 100 1 103 1 130 1 142 1 187 1 206 1 225 1 236 2 258 1 267 1 273 1 280 1 285 1 300 1 320 1 356 1 368 1 371 1 372 1 380 1 387 2 389 1 411 1 441 1 447 1 449 1 467 1 476 1 503 1 510 1 517 1 15 1 35 1 56 1 87 1 112 1 145 1 153 1 158 1 176 1 181 1 211 1 234 1 246 1 291 1 309 1 329 1 335 1 337 1 338 1 393 1 409 1 424 1 428 1 429 1 443 1 450 1 462 1 463 1 474 1 483 1 498 1 516 1 537 1 540 1 569 1 579 1 595 1 652 2 654 1 788 1 802 1 851 1 864 1 866 1 893 1 910 1 933 1 942 1 967 1 553 1 581 1 596 1 623 1 631 1 655 1 659 1 673 1 674 1 685 1 691 1 693 1 694 1 715 1 751 1 758 1 776 1 800 1 820 1 829 1 833 1 850 1 856 1 858 1 911 1 921 1 952 1 1003 1 1008 1 1023 1 1024 1 
1 212 1 1 15 1 32 1 40 1 59 1 65 1 66 1 68 1 88 1 115 1 125 1 135 1 152 1 154 2 157 1 163 1 245 2 250 1 307 1 313 1 327 1 334 1 382 1 397 1 412 1 413 1 447 2 460 1 471 1 472 1 525 1 527 1 536 1 539 1 4 1 47 1 76 1 82 1 140 1 141 1 145 1 176 1 221 1 228 1 234 1 246 1 251 1 303 1 306 1 315 1 326 1 389 1 407 1 433 1 441 1 452 1 456 1 466 1 482 1 503 1 507 1 518 1 521 1 544 1 547 1 549 1 554 1 606 1 614 1 637 2 638 1 681 1 691 1 729 1 732 1 758 1 768 2 774 1 789 1 800 1 821 1 910 1 940 1 941 1 970 1 988 1 568 1 591 1 603 1 658 1 672 1 695 1 724 1 740 1 762 1 772 1 781 1 816 1 835 1 845 1 865 1 880 1 933 1 954 1 994 1 1002 1 1010 1 1014 1 1026 1 
1 209 23 1 28 1 47 1 107 1 122 1 187 1 203 1 219 1 235 1 240 1 246 1 259 1 266 1 293 1 296 1 318 1 343 1 354 1 378 1 382 1 418 1 458 1 460 1 464 1 488 1 496 1 514 1 1 1 11 1 51 1 59 1 64 1 78 1 100 1 105 1 114 1 131 1 136 1 139 1 227 1 236 1 257 1 261 1 292 1 319 1 351 1 360 1 380 1 381 1 383 1 384 1 423 1 424 1 433 1 450 1 503 1 506 1 550 1 606 1 647 1 668 1 671 1 679 1 708 1 719 1 730 1 734 1 750 1 770 1 781 1 784 1 803 1 806 1 823 1 828 1 899 1 931 1 938 1 957 1 969 2 972 1 542 1 548 1 600 1 619 1 654 1 684 1 690 1 701 1 707 1 713 1 755 1 765 1 794 1 800 1 802 1 807 1 821 1 843 1 852 1 859 1 874 1 882 1 917 1 948 1 952 1 955 1 999 1 1017 1 1018 1 1024 1 1025 1 
1 212 4 1 9 1 17 1 30 1 80 1 105 1 145 1 156 1 190 1 197 1 210 1 220 1 240 1 291 1 319 1 332 1 335 1 345 1 346 1 374 1 376 1 389 1 429 1 452 1 501 1 508 1 522 1 523 1 524 1 527 1 3 1 22 1 43 1 50 1 62 1 63 1 66 1 146 1 147 1 245 1 303 1 305 1 352 1 360 1 415 1 420 1 443 1 454 1 461 1 465 1 497 1 510 1 529 1 541 1 544 1 545 1 553 1 567 2 575 1 584 1 600 1 603 1 608 1 612 1 617 1 661 1 682 1 689 2 708 1 709 1 727 1 728 1 735 1 737 1 783 1 803 1 820 1 827 2 838 1 841 1 861 1 882 1 887 1 907 1 908 1 915 1 921 1 938 1 952 1 957 1 999 1 548 1 576 1 592 1 594 1 596 1 620 1 626 1 629 1 641 1 644 1 672 1 692 1 711 1 717 1 760 1 776 1 796 1 829 1 866 1 867 1 883 1 886 1 900 1 916 1 943 1 949 1 966 1 975 1 997 1 1011 1 1016 1 1017 1 
1 211 4 1 15 1 21 1 53 1 88 1 93 1 140 1 176 1 192 1 200 1 232 1 235 1 262 1 268 1 280 1 289 1 307 1 319 1 334 1 335 1 364 1 444 1 450 1 484 1 504 1 507 1 524 1 530 1 537 1 3 1 8 1 54 1 59 1 77 1 185 1 206 1 211 1 216 1 241 1 243 1 258 1 317 1 318 1 321 1 355 1 361 1 366 1 368 1 372 1 389 1 403 1 428 1 436 1 447 1 473 1 482 1 500 1 503 1 527 1 529 1 549 1 561 1 574 1 579 1 584 1 589 1 591 1 597 1 617 1 618 1 655 1 673 1 677 1 695 1 719 1 755 1 775 1 810 1 815 1 829 1 833 1 841 1 846 1 855 1 892 1 900 1 902 1 903 1 979 1 993 2 995 1 551 1 689 1 692 1 731 1 743 1 744 1 759 1 782 1 783 1 821 1 836 1 838 1 882 1 886 1 894 1 910 1 934 1 937 1 938 1 940 1 983 1 
1 207 6 1 39 1 49 1 52 1 56 1 57 1 59 1 90 1 106 1 107 1 137 1 143 1 161 1 183 1 190 1 205 1 232 1 238 1 246 2 275 1 282 1 295 1 314 1 345 1 365 1 379 1 391 1 416 1 417 2 487 1 540 1 542 1 1 1 11 1 18 1 65 1 67 1 122 1 157 1 201 1 287 1 308 1 309 1 338 1 346 1 350 1 381 1 398 1 437 1 439 1 452 1 459 1 497 1 534 1 555 2 559 1 564 1 566 1 588 1 594 1 630 1 638 1 649 1 725 1 763 1 773 1 776 1 791 2 813 1 824 1 829 1 851 1 852 1 860 2 874 1 886 2 914 1 944 1 948 1 995 1 548 1 587 1 615 1 639 1 645 1 651 1 663 1 665 1 687 1 690 1 726 1 755 1 764 1 767 1 856 1 887 1 888 1 900 1 925 1 935 1 953 1 954 1 972 1 999 1 1018 1 1022 1 
1 205 26 1 34 1 39 1 40 2 50 1 78 1 95 1 96 1 112 1 113 1 115 1 159 1 164 1 184 2 185 1 205 2 216 1 219 1 220 1 222 1 237 1 253 1 264 1 310 1 312 1 340 1 343 1 359 1 360 1 370 1 386 1 417 1 439 1 501 1 502 1 542 1 1 1 12 1 13 1 45 1 47 1 68 1 76 1 100 1 102 1 137 1 156 1 191 1 207 1 209 1 231 1 251 1 262 1 299 1 319 1 348 1 354 1 362 1 374 1 391 1 451 1 478 1 487 1 521 1 524 1 528 1 568 1 574 1 580 1 630 1 635 1 640 2 686 1 688 1 691 1 718 2 720 1 824 1 838 1 843 1 863 1 871 1 887 1 897 1 913 1 938 1 944 1 952 1 962 1 970 1 973 1 589 1 615 1 716 1 735 1 750 1 751 1 773 1 797 1 810 1 812 1 815 1 830 1 842 1 851 1 853 1 875 1 911 1 930 1 966 1 975 1 994 1 1016 1 1020 1 
1 208 1 1 20 1 22 1 28 1 43 2 46 1 49 1 56 1 57 1 77 1 83 1 86 1 104 1 194 1 201 1 272 1 294 1 307 1 312 2 363 1 364 1 366 1 379 2 383 1 399 1 400 1 403 1 425 1 459 1 476 1 481 1 487 1 500 1 522 1 528 1 14 1 26 1 32 1 62 1 63 1 69 1 85 1 112 1 113 1 133 1 134 1 135 1 142 1 144 1 147 1 172 1 175 1 209 1 243 1 279 1 285 1 292 1 315 1 331 1 332 1 333 1 362 1 377 1 431 1 439 1 443 1 445 1 519 1 530 1 538 1 554 1 555 1 600 1 610 1 614 1 627 1 631 1 675 1 689 1 697 1 698 1 705 1 742 1 744 1 782 1 809 1 836 1 847 1 893 1 905 1 959 1 960 1 984 1 550 1 582 1 602 1 616 1 632 1 638 1 654 1 656 1 663 1 719 1 725 1 752 1 766 1 773 1 787 1 794 1 811 1 863 1 871 1 885 1 907 1 918 1 932 1 933 1 949 1 953 1 992 1 999 1 1005 1 
1 212 13 1 20 1 28 2 59 1 90 1 104 1 111 1 127 1 159 1 185 1 196 1 198 1 203 1 208 1 231 2 238 1 255 1 260 1 282 1 306 1 343 1 373 1 378 1 381 1 424 1 463 1 466 1 480 1 481 1 522 1 532 1 540 1 8 1 15 1 17 1 27 1 37 1 62 1 65 1 84 1 94 1 114 1 133 1 145 1 153 1 177 1 191 1 213 1 273 1 279 1 287 1 295 1 313 1 315 1 319 1 323 1 356 1 375 1 431 1 439 1 458 1 462 1 469 1 494 1 508 1 523 1 527 1 551 1 555 1 561 1 579 1 585 1 595 1 601 1 619 1 646 1 666 1 678 1 685 1 701 1 757 1 777 1 792 1 871 1 874 1 876 1 899 1 901 1 910 1 915 1 924 1 966 2 971 1 973 1 983 1 986 1 990 1 596 1 597 1 649 1 664 1 705 1 709 1 747 1 748 1 774 1 779 1 789 1 794 1 799 1 808 1 811 1 826 1 908 1 914 1 919 1 922 1 927 1 939 1 941 1 945 1 950 1 961 1 1004 1 1011 1 1021 1 1025 1 1026 1 
1 208 4 1 13 1 29 1 33 1 42 1 77 1 118 1 150 1 154 1 174 1 189 1 299 1 321 1 324 2 330 1 339 1 346 1 360 1 367 1 373 1 382 1 383 1 386 1 390 1 399 1 415 1 432 1 444 1 455 1 474 1 477 1 507 1 514 1 21 1 22 1 25 1 30 1 34 1 43 1 44 1 48 1 52 1 80 1 85 1 103 1 111 1 193 1 198 1 224 1 236 1 274 1 282 1 284 1 290 1 293 1 304 1 331 1 361 1 365 1 404 1 407 1 443 1 460 1 462 1 541 1 542 1 544 1 658 1 758 1 762 1 763 1 780 1 781 1 785 1 793 2 807 2 816 1 843 1 860 1 863 1 877 1 881 1 887 1 903 1 905 1 917 1 937 1 989 1 995 1 997 1 562 1 566 1 665 1 704 1 706 1 720 1 743 1 786 1 802 1 812 1 827 1 882 1 907 1 918 1 933 1 935 1 941 1 982 1 1004 1 1005 1 1011 1 1017 1 1027 1 
1 211 12 1 62 1 81 1 155 1 205 1 206 1 213 1 219 1 229 1 231 1 234 1 243 1 277 1 306 1 318 1 336 1 343 1 387 1 390 1 410 1 415 1 423 2 432 2 444 1 454 1 458 1 498 1 519 1 521 1 540 1 543 1 2 1 17 1 43 1 75 1 106 1 107 1 110 1 134 1 170 1 177 1 216 1 221 1 222 1 247 1 267 1 284 1 286 1 304 1 310 1 320 1 330 1 331 1 347 1 358 1 359 1 371 1 381 1 396 1 402 1 409 1 416 1 418 1 424 1 426 1 438 1 456 1 479 1 484 1 560 1 578 1 633 1 637 1 647 1 673 1 674 1 676 2 678 1 683 1 720 1 725 1 728 1 773 1 774 1 780 1 788 2 796 1 813 1 819 1 835 1 844 1 850 2 909 1 931 1 950 1 954 1 955 2 957 1 962 1 971 1 972 2 979 1 613 1 642 1 655 1 660 1 665 1 700 1 759 1 831 1 832 1 851 1 853 1 878 1 883 1 892 1 901 1 908 1 982 1 987 1 1009 1 1011 1 
1 207 14 1 43 1 47 1 53 1 70 1 79 2 88 1 111 2 139 1 154 1 175 1 225 1 229 2 233 1 247 1 258 1 278 1 283 1 291 1 298 1 300 1 309 1 376 1 383 1 385 1 478 1 493 1 495 1 516 1 541 1 9 1 77 1 84 1 109 1 150 1 155 1 167 1 174 1 204 1 206 1 277 1 302 1 305 1 341 1 362 1 368 1 374 1 386 1 391 1 409 1 411 1 435 1 446 1 465 1 466 1 488 1 496 1 501 1 509 1 513 1 546 1 553 1 595 1 614 1 615 1 617 1 624 1 626 1 632 2 674 1 696 1 719 1 728 1 759 1 762 1 770 1 802 1 806 1 827 1 861 1 880 1 914 1 917 1 935 1 949 1 967 1 982 1 618 1 619 1 627 1 633 1 638 1 639 1 644 1 646 1 647 1 648 1 672 1 673 1 682 1 718 1 725 1 742 1 780 1 804 1 866 1 876 1 882 1 884 1 887 1 900 1 915 1 916 1 939 1 955 1 989 1 998 1 1018 1 1019 1 
1 211 19 1 55 1 72 1 76 1 112 1 129 1 134 1 141 1 146 1 161 1 170 1 185 1 189 1 196 1 197 1 202 1 207 2 236 1 241 1 251 2 260 1 309 2 319 1 328 1 335 1 336 1 344 1 346 1 358 1 374 1 391 1 392 1 405 1 420 1 428 1 464 1 497 1 521 1 547 1 27 1 59 1 60 1 65 1 73 1 77 1 98 1 122 1 133 1 149 1 163 1 167 1 177 1 191 1 210 1 214 1 246 1 254 1 270 1 290 1 329 1 345 1 362 1 401 1 409 1 417 1 439 1 453 1 469 1 472 1 475 1 476 1 498 1 502 1 506 1 536 1 543 1 558 1 582 1 595 1 612 1 640 1 653 1 667 1 673 1 690 1 700 1 707 1 708 1 753 1 760 1 803 2 830 1 832 1 847 1 867 1 876 1 878 1 892 1 911 1 936 1 953 1 954 1 963 1 563 1 572 1 583 1 654 1 671 1 687 1 725 1 767 1 785 1 861 1 882 1 903 1 907 1 909 1 916 1 945 1 957 1 964 1 989 1 1003 1 1010 1 1014 1 
1 207 55 1 69 1 88 1 90 2 96 1 99 1 103 1 124 1 127 1 143 1 145 1 169 2 179 1 185 1 197 1 200 2 223 1 245 1 248 1 251 1 285 1 289 1 363 1 385 1 389 1 429 1 434 1 510 1 512 1 527 2 531 1 532 1 11 1 52 1 77 1 82 1 92 1 116 1 120 1 132 1 135 1 154 1 192 1 233 1 236 1 280 1 308 1 318 1 342 1 345 1 347 1 360 1 383 1 411 1 416 1 475 1 492 1 494 1 504 1 523 1 568 1 603 1 605 1 608 1 624 1 658 1 663 1 708 1 710 1 741 1 747 1 751 2 798 1 805 1 822 1 824 1 837 2 852 1 889 1 900 1 924 1 940 1 958 1 963 1 991 1 992 1 998 1 567 1 581 1 593 1 646 1 661 1 673 1 684 1 742 1 749 1 780 1 782 1 789 1 808 1 809 1 841 1 843 1 877 1 902 1 922 1 923 1 942 1 982 1 1018 1 1022 1 
1 216 6 1 78 1 106 1 170 1 173 1 182 1 195 2 223 1 247 1 276 1 280 1 285 1 316 1 326 1 385 1 403 1 421 1 431 2 437 2 444 1 451 1 454 1 460 1 468 1 480 1 483 1 510 1 512 1 524 1 542 1 550 1 2 1 28 1 30 1 60 1 61 1 67 1 132 1 166 1 175 1 181 1 197 1 213 1 231 1 237 1 240 1 248 1 306 1 322 1 366 1 369 1 379 1 384 1 416 1 443 1 448 1 455 1 463 1 517 1 518 1 538 1 539 1 554 1 609 1 620 1 643 2 657 1 669 1 681 1 691 1 694 1 722 1 752 1 810 1 816 1 864 1 882 2 884 1 891 1 916 1 924 1 943 1 979 1 992 2 608 1 636 1 647 1 693 1 772 1 791 1 798 1 803 1 818 1 825 1 843 1 876 1 887 1 901 1 910 1 913 1 920 1 930 1 948 1 997 1 1008 1 1020 1 1021 1 1027 1 
1 215 18 1 20 1 47 1 49 1 61 1 88 1 100 1 120 1 129 1 141 1 157 1 163 1 178 1 182 1 233 1 255 1 265 1 279 1 302 1 353 1 392 1 395 1 423 1 435 1 441 1 463 1 475 1 483 1 497 1 512 1 515 1 535 1 540 1 546 1 553 1 13 1 26 1 38 1 42 1 65 1 75 1 86 1 148 1 154 1 185 1 226 1 237 1 249 1 256 1 288 1 315 1 319 1 334 1 341 1 348 1 360 1 363 1 366 1 383 1 401 1 453 1 481 1 489 1 505 1 509 1 518 1 528 1 571 1 573 1 617 1 637 1 650 1 659 1 679 2 699 2 702 1 734 1 764 1 771 1 773 1 788 1 816 1 822 1 839 1 860 2 862 1 894 1 898 1 900 1 903 2 908 1 948 1 977 1 998 1 587 1 609 1 616 1 629 1 651 1 656 1 657 1 663 1 669 1 704 1 718 1 722 1 729 1 740 1 752 1 775 1 854 1 882 1 896 1 919 1 935 1 982 1 995 1 1006 1 1009 1 1010 1 1014 1 
1 210 19 1 41 1 43 1 48 1 53 1 72 1 79 1 85 1 87 1 139 1 154 1 163 1 192 1 210 1 224 1 233 1 268 2 274 1 280 1 283 1 300 2 319 1 350 1 358 1 384 1 388 1 402 1 414 1 424 1 428 1 446 1 465 1 472 1 494 1 501 1 511 1 519 1 544 2 546 1 547 1 14 1 18 1 21 1 25 1 49 1 75 1 86 1 105 1 113 1 122 1 127 1 179 1 225 1 230 1 231 1 245 1 270 1 304 1 332 1 344 1 389 1 406 1 422 1 425 1 433 1 438 1 475 1 495 1 559 1 575 1 589 1 596 2 599 1 604 1 612 1 628 1 643 1 647 1 708 1 710 1 714 1 739 1 766 1 785 1 806 1 810 1 812 1 841 2 858 2 888 1 909 1 932 1 940 2 944 1 962 1 971 2 974 2 985 1 989 1 994 1 580 1 608 1 610 1 630 1 639 1 724 1 746 1 765 1 767 1 775 1 795 1 802 1 830 1 871 1 873 1 918 1 957 1 966 1 967 1 1010 1 1019 1 1023 1 
1 211 38 1 45 1 114 1 121 1 143 1 144 1 152 1 157 1 166 1 168 1 176 1 230 1 236 1 270 1 294 1 347 1 375 1 401 2 426 1 444 1 466 1 485 1 495 1 505 1 531 1 65 1 79 1 81 1 97 1 105 1 125 1 132 1 149 1 186 1 198 1 210 1 211 1 218 1 247 1 266 1 267 1 278 1 286 1 355 1 366 1 386 1 403 1 407 1 413 1 442 1 456 1 472 1 489 1 523 1 534 1 560 2 603 1 604 1 608 1 633 1 640 1 663 1 666 1 670 1 674 1 695 1 698 1 700 2 705 1 738 2 739 1 757 1 762 1 774 1 777 1 784 1 803 1 838 1 852 1 856 1 881 2 889 1 895 2 903 1 904 1 958 1 557 1 559 1 569 1 592 1 598 1 602 1 621 1 628 1 644 1 649 1 654 1 655 1 657 1 659 1 689 1 692 1 713 1 735 1 773 1 793 1 795 1 808 1 809 1 827 1 828 1 866 1 907 1 922 1 927 1 955 1 956 1 976 1 995 1 1001 1 1006 1 1008 1 
1 209 22 1 35 1 38 1 90 1 106 1 114 1 118 1 139 1 154 1 155 1 163 1 178 1 185 1 262 1 277 1 281 1 300 1 317 1 354 1 355 1 385 1 394 1 422 1 440 1 448 2 493 2 503 2 514 1 1 1 3 1 20 1 39 1 44 1 51 1 75 1 77 1 89 1 205 1 209 1 214 1 240 1 254 1 256 1 258 1 282 1 334 1 337 1 348 1 398 1 410 1 433 1 466 1 481 1 490 1 501 1 517 1 518 1 524 1 530 1 536 1 556 1 563 1 572 1 605 1 615 1 621 1 630 1 643 1 647 1 695 1 717 1 745 1 777 1 787 1 815 1 840 1 862 1 867 1 884 1 885 1 889 1 919 1 943 1 952 1 959 1 593 1 595 1 611 1 624 1 642 1 648 1 670 1 671 1 700 1 706 1 733 1 740 1 750 1 766 1 863 1 903 1 905 1 906 1 918 1 940 1 968 1 990 1 1012 1 1016 1 1017 1 1026 1 
1 215 34 1 39 1 71 1 84 1 105 1 107 1 114 1 148 1 157 1 159 1 160 1 169 1 182 1 184 1 188 1 193 1 223 1 236 1 250 1 252 1 279 1 307 1 368 2 374 1 387 1 399 1 400 1 458 1 481 1 483 1 521 1 530 1 551 1 93 1 96 1 121 1 127 1 128 1 140 1 155 1 174 1 225 1 234 1 290 1 295 1 308 1 309 1 332 1 337 1 356 1 358 1 365 1 377 1 383 1 419 1 421 1 424 1 440 1 442 1 457 1 468 1 489 1 490 1 509 1 538 1 592 1 599 1 614 1 636 1 642 1 663 1 689 1 728 2 739 1 760 1 769 1 785 1 804 1 815 1 829 1 839 1 848 1 851 1 875 1 897 1 902 1 913 1 924 1 931 1 938 1 958 2 963 1 966 1 627 1 638 1 675 1 682 1 699 1 710 1 765 1 790 1 823 1 884 1 911 1 950 1 982 1 990 1 1006 1 1007 1 1009 1 1012 1 1019 1 1020 1 1026 1 
1 210 10 1 39 1 98 1 99 1 111 1 120 1 128 1 140 1 144 1 213 1 214 1 237 1 239 1 283 1 290 1 334 1 342 1 348 1 360 1 374 1 375 1 380 1 459 1 462 1 473 1 525 1 530 1 532 1 544 1 555 1 20 1 54 1 61 1 85 1 89 1 101 1 121 1 125 1 133 1 136 1 147 1 160 1 225 1 279 1 311 1 318 1 382 1 394 1 411 1 436 1 443 1 454 1 478 1 493 1 517 1 526 1 556 1 562 1 582 1 588 1 611 1 619 1 628 1 666 1 671 1 675 1 733 1 745 1 749 1 796 1 798 1 815 1 822 1 829 2 833 2 841 1 863 1 874 1 879 1 886 1 908 1 911 1 917 1 925 1 945 1 967 1 571 1 608 1 630 1 637 1 648 1 650 1 682 1 685 1 707 1 720 1 738 1 742 1 750 1 772 1 793 1 805 1 813 1 828 1 877 1 893 1 924 1 946 1 963 1 983 1 1006 1 1010 1 1026 1 
1 207 1 1 5 1 22 1 29 1 63 2 68 1 96 1 103 1 160 1 162 1 219 1 254 1 298 1 311 1 358 1 361 1 366 1 367 1 371 1 380 1 383 1 410 1 429 1 438 1 440 1 446 1 457 1 458 1 518 1 528 1 549 1 556 2 25 1 72 1 78 1 82 1 84 1 115 1 125 1 137 1 172 1 183 1 187 1 206 1 212 1 253 1 287 1 308 1 312 1 324 1 350 1 396 1 407 1 445 1 460 1 475 1 508 1 522 1 532 1 537 1 565 1 578 1 599 1 658 1 739 1 751 1 790 1 821 1 849 1 855 1 896 1 903 1 904 1 907 1 944 1 958 1 968 1 971 2 999 1 564 1 569 1 574 1 607 1 615 1 622 1 629 1 638 1 649 1 659 1 685 1 689 1 702 1 713 1 735 1 741 1 761 1 772 1 783 1 784 1 823 1 832 1 858 1 877 1 889 1 901 1 910 1 936 1 972 1 978 1 989 1 991 1 1005 1 1008 1 1012 1 1024 1 
1 212 26 1 31 1 43 1 51 1 65 2 73 1 108 1 121 1 145 2 155 1 166 1 170 1 182 1 200 1 228 1 233 1 237 1 264 1 285 1 294 1 298 1 299 1 333 1 368 1 394 1 414 1 425 1 445 1 447 2 467 1 515 1 528 1 543 1 547 1 6 1 8 1 10 1 19 1 92 1 99 1 132 1 135 1 140 1 219 1 249 1 274 1 279 1 281 1 309 1 315 1 328 1 329 1 340 1 350 1 353 1 361 1 379 1 393 1 405 1 408 1 423 1 432 1 477 1 480 1 499 1 536 1 591 1 596 1 632 1 647 1 651 1 739 1 740 2 753 1 795 1 824 1 830 1 837 1 860 1 866 1 873 1 875 1 881 1 888 1 925 1 933 1 966 1 970 1 972 2 565 1 598 1 606 1 612 1 631 1 633 1 640 1 694 1 709 1 767 1 801 1 820 1 880 1 890 1 897 1 904 1 905 1 910 1 915 1 950 1 991 1 999 1 1000 1 1004 1 1019 1 1027 1 
1 207 20 1 35 1 64 1 65 1 119 1 127 1 204 2 206 1 215 1 219 1 222 1 245 1 265 1 268 2 269 1 289 1 303 1 308 1 321 1 323 1 345 1 370 1 394 1 399 1 402 1 410 1 415 1 469 1 476 1 502 1 509 1 517 1 518 1 559 1 23 1 25 1 40 1 97 1 112 1 128 1 131 1 132 1 138 1 142 1 197 1 223 1 237 1 239 1 275 1 341 1 368 1 381 1 388 1 397 1 435 1 455 1 496 1 500 1 524 1 526 1 528 1 532 1 535 1 548 1 572 1 582 1 594 1 606 1 626 1 639 1 702 1 708 1 710 1 767 1 772 1 798 1 800 1 867 1 880 1 896 1 916 1 926 1 954 1 967 1 974 1 986 1 998 1 583 1 585 1 597 1 607 1 652 1 696 1 703 1 714 1 716 1 754 1 768 1 769 1 796 1 826 1 839 1 851 1 852 1 863 1 921 1 1000 1 1009 1 1010 1 
1 212 18 1 26 1 35 1 49 1 60 1 62 1 63 1 71 1 78 1 103 1 107 1 143 1 160 1 186 1 215 1 221 1 233 1 234 1 239 1 241 1 255 1 274 1 279 1 282 1 297 1 327 1 359 1 362 1 376 1 377 1 460 1 463 1 466 1 476 2 484 1 486 1 492 1 503 1 517 1 557 1 13 1 38 1 41 1 75 1 93 1 112 1 117 1 202 1 209 1 260 1 271 1 283 1 292 1 301 1 345 1 366 1 367 1 371 1 395 1 420 1 436 1 471 1 478 1 482 1 531 1 551 1 571 1 583 1 604 1 612 1 617 2 632 1 635 1 636 1 642 1 668 1 671 1 679 1 695 1 752 1 760 1 774 1 784 1 819 1 835 2 850 1 860 1 878 1 885 1 952 1 973 1 979 1 981 1 988 1 993 2 998 1 570 1 599 1 606 1 618 1 625 1 630 1 638 1 656 1 658 1 717 1 743 1 751 1 793 1 818 1 820 1 881 1 892 1 921 1 946 1 969 1 1010 1 1017 1 1018 1 1023 1 1027 1 
1 212 54 1 64 1 66 1 70 1 87 1 90 1 182 1 233 1 245 1 246 1 264 1 273 1 279 1 303 1 338 1 360 1 372 1 383 1 411 1 417 1 470 1 503 1 526 1 544 1 7 1 10 1 36 1 48 1 109 1 136 1 139 1 144 1 148 1 168 1 169 1 172 1 174 1 200 1 204 1 215 1 249 1 324 1 330 1 378 1 410 1 414 1 426 1 427 1 447 1 451 1 466 1 505 1 506 1 517 1 527 1 560 1 565 1 579 1 612 1 622 1 680 1 699 1 713 1 722 1 726 1 732 1 751 1 757 1 767 1 769 1 781 2 802 1 855 2 866 1 888 1 926 1 947 1 951 1 582 1 607 1 631 1 633 1 661 1 665 1 708 1 727 1 740 1 743 1 777 1 798 1 800 1 807 1 828 1 893 1 908 1 921 1 924 1 929 1 935 1 957 1 973 1 981 1 982 1 1003 1 1006 1 1017 1 
1 207 19 1 25 1 35 1 41 1 46 1 67 1 82 1 100 1 114 1 131 2 132 1 189 1 200 1 203 1 215 1 224 1 230 1 273 1 274 1 305 1 314 1 323 1 332 1 337 1 348 1 349 1 353 1 359 1 390 1 425 1 432 1 440 1 463 1 471 1 523 1 538 1 560 1 564 1 9 1 73 1 74 1 78 1 80 1 115 1 191 1 217 1 221 1 294 1 302 1 315 1 342 1 354 1 356 1 376 1 386 1 392 1 405 1 448 1 477 1 506 1 531 1 561 1 567 1 589 1 619 1 623 1 631 1 647 1 653 1 662 1 676 1 685 1 689 1 699 1 789 1 799 1 801 1 852 2 856 2 858 1 875 1 886 1 947 1 962 1 963 1 996 1 583 1 596 1 598 1 602 1 624 1 672 1 692 1 694 1 726 1 731 1 760 1 810 1 829 1 871 1 879 1 915 1 919 1 922 1 923 1 928 1 932 1 958 1 964 1 984 1 1018 1 1023 1 1024 1 
1 211 14 1 15 1 16 1 19 1 32 1 38 1 39 1 54 1 73 1 99 1 103 1 123 1 139 1 159 1 170 1 172 1 189 1 211 1 271 1 283 1 289 1 293 1 297 1 302 1 324 1 366 1 386 1 395 1 396 1 406 1 409 1 463 1 478 1 479 1 501 1 527 1 544 1 13 1 37 1 42 1 88 1 117 1 166 1 188 1 197 1 217 1 218 1 219 1 249 1 259 1 288 1 295 1 303 1 316 1 330 1 334 1 342 1 343 1 360 1 362 1 387 1 397 1 405 1 437 1 462 1 475 1 494 1 548 1 571 1 593 1 606 1 608 1 631 2 665 1 701 1 709 1 714 1 766 1 793 1 827 1 828 1 830 1 851 1 859 1 876 1 951 1 966 1 968 1 977 1 984 1 1000 1 613 1 616 1 633 1 686 1 689 1 711 1 720 1 747 1 748 1 795 1 858 1 880 1 886 1 924 1 930 1 965 1 972 1 974 1 982 1 995 1 997 1 1007 1 1012 1 1013 1 1016 1 
1 209 24 1 28 1 42 1 43 1 52 1 66 1 118 1 126 1 127 1 129 1 176 1 198 1 205 1 211 1 221 1 233 1 241 1 271 1 314 1 328 1 332 2 347 1 354 1 359 1 371 1 391 1 404 1 418 1 421 1 422 1 424 1 429 1 449 2 481 1 488 1 507 1 534 1 536 1 542 2 565 1 13 1 30 1 35 1 54 1 68 1 93 1 97 1 122 1 151 1 208 1 252 1 310 1 313 1 331 1 351 1 363 1 368 1 372 1 388 1 411 1 420 1 438 1 441 1 445 1 471 1 483 1 528 1 552 1 578 1 598 1 600 1 604 1 623 1 626 1 669 1 672 1 678 2 720 1 727 1 751 1 753 1 767 1 788 2 802 1 824 1 827 1 836 1 847 1 849 1 860 1 940 1 966 1 972 1 984 1 995 1 574 1 611 1 614 1 628 1 630 1 680 1 694 1 699 1 700 1 721 1 739 1 832 1 838 1 874 1 879 1 890 1 898 1 916 1 919 1 956 1 968 1 1002 1 1011 1 1026 1 
1 209 20 1 22 1 44 1 48 1 61 1 70 1 112 1 122 1 127 1 131 1 136 1 140 1 142 1 173 1 258 1 296 1 322 1 343 1 363 2 406 1 424 1 441 1 445 1 451 1 476 1 521 1 533 1 545 1 552 1 19 1 35 1 76 1 91 1 106 1 116 1 123 1 139 1 165 1 176 1 178 1 186 1 190 1 210 1 247 1 264 1 267 1 274 1 297 1 321 1 342 1 346 1 408 1 412 1 413 1 439 1 447 1 484 1 519 1 528 1 529 1 537 1 540 1 594 1 605 1 631 1 643 1 644 1 652 1 685 1 710 1 718 1 746 1 752 1 755 1 809 1 824 2 826 1 830 1 840 1 869 1 872 1 888 1 894 1 915 1 920 1 927 1 939 1 943 1 945 1 962 2 974 1 988 1 990 1 571 1 578 1 609 1 623 1 654 1 659 1 697 1 715 1 719 1 720 1 737 1 744 1 745 1 767 1 786 1 787 1 827 1 834 1 868 1 874 1 883 1 887 1 938 1 953 1 957 1 960 1 961 1 966 1 1020 1 1021 1 
1 211 26 1 27 1 38 1 63 1 81 1 86 1 93 1 115 1 148 1 160 1 194 1 199 1 200 1 206 1 208 1 211 1 214 1 225 1 250 1 307 1 342 1 366 1 376 1 388 1 413 1 424 1 427 1 467 1 490 1 499 1 539 1 25 1 41 1 47 1 112 1 120 1 167 1 180 1 192 1 198 1 213 1 221 1 228 1 233 1 275 1 279 1 301 1 312 1 321 1 324 1 330 1 355 1 417 1 418 1 423 1 438 1 455 1 462 1 532 1 534 1 556 1 560 1 586 2 590 1 596 1 602 1 605 1 669 1 673 1 675 1 677 1 760 1 763 1 765 1 766 1 779 1 784 1 804 2 814 1 816 1 831 1 845 1 846 2 858 1 873 2 911 1 921 1 926 1 940 1 981 1 987 1 998 1 571 1 579 1 634 1 643 1 656 1 659 1 680 1 692 1 695 1 707 1 768 1 820 1 829 1 843 1 869 1 906 1 941 1 947 1 967 1 972 1 990 1 995 1 1012 1 1022 1 1025 1 
1 209 30 1 44 1 112 1 125 1 131 1 132 1 138 1 148 1 153 1 196 1 217 1 255 1 273 1 279 2 293 1 318 1 341 1 342 1 350 1 370 1 391 1 417 1 445 1 451 1 452 1 463 1 493 1 494 1 512 1 529 1 37 1 51 1 58 1 75 1 80 1 93 1 108 1 122 1 123 1 140 1 149 1 199 1 208 1 223 1 275 1 310 1 322 1 333 1 377 1 383 1 390 1 424 1 454 1 456 1 487 1 495 1 502 1 532 1 563 1 608 1 655 1 718 1 725 1 727 1 751 1 757 1 767 1 779 1 782 1 852 1 856 1 859 1 860 1 861 1 899 1 931 1 973 1 978 1 984 1 985 1 574 1 578 1 599 1 616 1 618 1 629 1 630 1 638 1 645 1 651 1 683 1 684 1 698 1 706 1 709 1 715 1 716 1 724 1 765 1 796 1 808 1 839 1 847 1 874 1 878 1 886 1 889 1 922 1 928 1 1002 1 1022 1 
1 210 10 2 23 1 85 1 94 1 99 1 125 1 132 1 151 1 175 1 204 1 216 1 219 1 226 1 254 1 258 1 287 1 328 1 360 1 364 1 369 1 418 1 426 1 438 1 455 1 466 1 478 1 494 1 496 1 554 1 563 1 566 1 41 1 59 1 89 1 102 1 117 1 120 1 124 1 148 1 149 1 150 1 152 1 166 1 178 1 187 1 209 1 234 1 255 1 263 1 277 1 278 1 280 1 305 1 312 1 316 1 318 1 370 1 376 1 381 1 405 1 417 1 430 1 441 1 470 1 473 1 482 1 491 1 507 1 559 1 568 1 569 1 593 2 639 1 645 1 693 1 701 1 732 1 775 1 782 1 791 1 823 1 833 1 844 1 846 1 849 1 868 1 887 1 888 1 895 1 906 1 933 1 977 1 605 1 631 1 632 1 648 1 651 1 678 1 707 1 729 1 734 1 757 1 761 1 793 1 803 1 815 1 840 1 853 1 863 1 870 1 915 1 930 1 982 1 987 1 1009 1 1013 1 1026 1 
1 212 3 1 12 1 27 1 44 1 51 1 55 1 61 1 103 1 121 1 142 1 146 1 167 1 180 1 181 1 188 1 192 2 208 1 220 1 248 1 289 1 304 1 307 1 333 1 350 1 360 1 373 1 377 1 378 1 397 1 399 1 402 1 405 1 427 1 443 1 454 1 455 1 473 1 490 1 499 1 557 1 562 1 1 1 2 1 31 1 38 1 83 1 117 1 125 1 159 1 185 1 194 1 199 1 206 1 227 1 231 1 265 1 380 1 407 1 410 1 412 1 420 1 437 1 441 1 449 1 450 1 488 1 489 1 494 1 497 1 506 1 511 1 522 1 551 1 598 1 602 1 608 1 614 2 617 1 650 1 662 1 669 1 675 1 710 1 711 1 726 1 771 2 783 1 786 1 813 1 831 1 857 1 866 1 868 1 872 1 897 1 901 1 909 1 951 1 991 1 999 1 600 1 620 1 627 1 637 1 691 1 696 1 719 1 739 1 762 1 782 1 800 1 843 1 853 1 886 1 908 1 924 1 950 1 994 1 996 1 1003 1 1007 1 1013 1 1019 1 1022 1 1027 1 
1 217 57 1 58 1 85 2 96 1 104 1 108 1 164 1 185 1 192 1 198 1 216 1 223 1 228 1 236 2 290 1 303 1 316 1 325 1 382 1 385 1 387 1 388 1 415 1 433 1 447 1 462 1 488 1 503 1 506 1 554 1 27 1 31 1 40 1 68 1 71 1 73 1 87 1 132 1 133 1 140 1 158 1 186 1 189 1 190 1 212 1 227 1 267 1 300 1 308 1 340 1 356 1 364 1 445 1 451 1 481 1 518 1 619 1 628 1 632 1 657 1 683 1 724 1 736 2 753 1 821 1 829 1 864 1 902 1 906 1 916 1 925 1 928 1 940 1 942 2 952 1 957 1 959 1 962 2 971 1 972 1 614 1 615 1 663 1 668 1 672 1 742 1 752 1 759 1 767 1 778 1 780 1 782 1 796 1 799 1 823 1 834 1 865 1 882 1 886 1 889 1 904 1 945 1 954 1 961 1 1004 1 1006 1 1014 1 1015 1 1017 1 1021 1 1026 1 
1 207 4 1 32 1 35 1 44 2 55 1 70 1 71 1 85 1 92 2 97 1 99 1 109 2 114 1 122 1 126 2 131 1 156 1 163 1 175 1 183 1 216 1 256 1 272 1 282 1 310 1 315 1 350 1 352 1 394 1 408 1 417 1 438 1 447 1 471 1 483 1 523 1 543 1 545 1 41 1 77 1 87 1 118 1 124 1 144 1 153 1 155 1 213 1 242 1 252 1 277 1 323 1 334 1 340 1 346 1 358 1 392 1 402 1 448 1 473 1 478 1 480 1 504 1 521 1 538 1 560 1 567 1 570 1 579 1 592 1 629 1 641 1 645 1 648 1 678 1 680 1 685 1 709 1 715 1 720 1 721 1 732 1 733 1 743 1 760 1 762 1 795 1 823 1 841 1 887 1 891 1 920 1 927 1 945 2 974 1 997 1 604 1 622 1 643 1 697 1 766 1 777 1 782 1 810 1 825 1 863 1 882 1 892 1 912 1 936 1 939 1 951 1 955 1 990 1 1014 1 
1 209 6 1 41 1 43 1 46 1 73 1 79 1 83 1 100 1 130 1 141 1 149 1 153 1 173 1 186 1 226 1 236 1 247 1 254 1 293 1 305 1 314 1 316 1 341 1 358 1 366 1 448 1 452 2 456 1 462 1 542 1 555 1 1 1 20 1 49 1 55 1 94 1 163 1 197 1 199 1 229 1 257 1 267 1 269 1 287 1 288 1 327 1 344 1 352 1 353 1 375 1 400 1 414 1 418 1 424 1 451 1 484 1 493 1 502 1 511 1 612 1 629 1 635 1 643 1 647 1 702 1 723 1 726 1 765 1 813 1 828 1 851 1 861 1 880 1 905 2 926 1 954 1 977 1 979 1 577 1 590 1 594 1 622 1 632 1 642 1 644 1 666 1 672 1 685 1 696 1 704 1 706 1 713 1 721 1 728 1 738 1 753 1 776 1 802 1 806 1 809 1 810 1 817 1 820 1 833 1 852 1 860 1 908 1 909 1 911 1 913 1 924 1 944 1 948 1 956 1 989 1 1009 1 1012 1 1019 1 1021 1 1024 1 1027 1 
1 206 5 1 20 1 48 1 80 1 91 1 92 1 108 1 135 1 178 2 194 1 229 1 237 1 243 1 250 1 260 1 268 2 294 1 319 1 362 1 382 1 400 1 427 1 439 1 517 1 29 1 49 1 54 1 58 1 67 1 116 1 125 1 127 1 128 1 148 1 162 1 166 1 170 1 171 1 179 1 181 1 184 1 190 1 193 1 215 1 266 1 271 1 309 1 333 1 348 1 359 1 370 1 374 1 385 1 395 1 396 1 428 1 432 1 433 1 449 1 455 1 458 1 532 1 542 1 589 1 598 1 601 1 612 1 633 1 646 1 653 1 658 1 701 1 711 1 728 1 772 1 823 1 832 1 858 2 859 1 874 1 910 1 916 1 923 2 943 1 950 2 951 1 958 1 968 2 991 1 997 1 1000 1 1001 1 605 1 644 1 679 1 688 1 718 1 733 1 752 1 764 1 766 1 768 1 771 1 773 1 776 1 783 1 785 1 788 1 809 1 831 1 836 1 840 1 873 1 901 1 909 1 914 1 919 1 945 1 987 1 992 1 1012 1 1025 1 
1 208 16 1 18 1 53 1 72 1 101 1 115 2 150 1 160 1 165 1 169 1 180 1 223 1 243 1 247 1 250 1 253 1 273 1 286 1 335 1 346 1 358 1 384 1 385 1 437 1 446 1 504 1 522 1 523 1 531 1 532 1 30 1 42 1 63 1 88 1 91 1 93 1 109 1 114 1 184 1 222 1 225 1 233 1 255 1 261 1 302 1 340 1 344 1 353 1 357 1 364 1 399 1 403 1 457 1 460 1 487 1 575 1 593 1 661 1 666 1 681 1 691 1 695 1 709 1 712 1 719 1 736 1 810 1 838 1 844 1 845 1 870 1 881 1 890 1 894 1 896 1 909 1 910 1 911 1 946 2 994 1 998 1 583 1 601 1 640 1 649 1 660 1 672 1 674 1 722 1 741 1 743 1 796 1 808 1 813 1 823 1 826 1 850 1 859 1 860 1 867 1 868 1 885 1 897 1 898 1 930 1 938 1 996 1 1023 1 
1 208 8 1 22 1 27 1 62 1 83 1 99 1 122 1 142 1 158 1 163 1 204 1 227 1 233 1 237 1 247 1 280 1 299 1 324 1 328 1 388 1 403 1 460 1 475 1 499 1 514 1 515 1 530 1 549 1 560 1 567 1 9 1 26 1 36 1 38 1 47 1 81 1 94 1 111 1 167 1 170 1 177 1 180 1 210 1 219 1 244 1 246 1 261 1 263 1 276 1 293 1 316 1 344 1 360 1 385 1 410 1 415 1 487 1 504 1 506 1 513 1 527 1 532 1 568 1 570 1 587 1 633 1 634 1 644 1 655 1 663 1 695 1 697 1 707 1 710 1 726 1 737 1 799 1 801 1 806 1 808 1 854 1 868 1 870 2 916 1 951 1 968 1 579 1 602 1 603 1 621 1 643 1 733 1 739 1 747 1 753 1 760 1 762 1 775 1 797 1 810 1 817 1 830 1 848 1 882 1 892 1 896 1 918 1 920 1 925 1 928 1 945 1 998 1 1006 1 1017 1 1026 1 
1 208 3 1 32 1 36 1 48 1 76 1 85 2 88 1 103 2 111 2 124 1 135 1 175 1 187 2 209 1 216 1 221 1 242 1 246 1 257 1 330 1 358 1 364 1 366 1 383 1 412 1 470 1 501 1 504 1 505 1 539 1 543 1 547 1 564 1 574 1 31 1 38 1 53 1 61 1 119 1 139 1 158 1 161 1 169 1 172 1 173 1 184 1 203 1 261 1 283 1 286 1 373 1 384 1 400 1 421 1 425 1 433 1 439 1 442 1 443 1 462 1 506 1 516 1 532 1 569 1 578 1 584 1 591 1 640 1 661 1 702 1 729 1 730 1 736 1 755 1 769 1 775 1 806 1 834 1 837 1 853 1 894 1 898 1 956 1 960 1 980 1 981 1 598 1 617 1 636 1 639 1 645 1 649 1 650 1 651 1 678 1 681 1 682 1 693 1 706 1 708 1 711 1 721 1 735 1 742 1 758 1 760 1 761 1 768 1 777 1 858 1 863 1 880 1 888 1 920 1 932 1 945 1 947 1 951 1 968 1 990 1 1019 1 
1 208 35 1 71 1 121 1 152 1 167 1 175 1 183 1 203 1 215 2 219 1 224 1 238 1 243 1 264 1 290 1 308 1 329 1 369 1 379 1 437 1 446 1 459 1 479 1 484 1 486 1 488 1 492 1 493 1 502 1 508 1 510 1 515 1 521 1 545 1 2 1 3 1 25 1 34 1 44 1 94 1 131 1 135 1 139 1 235 1 263 1 270 1 305 1 337 1 346 1 354 1 356 1 363 1 397 1 425 1 475 1 485 1 494 1 495 1 518 1 555 1 590 1 594 1 644 1 652 1 653 1 687 1 704 1 711 1 726 1 737 1 781 1 786 1 805 1 815 1 819 1 846 1 877 1 878 1 890 1 897 1 940 1 941 1 966 1 978 1 982 1 997 1 587 1 588 1 607 1 669 1 682 1 723 1 809 1 827 1 862 1 899 1 901 1 918 1 933 1 946 1 984 1 1010 1 1012 1 1013 1 1014 1 
1 214 18 1 61 1 86 1 87 1 97 1 113 1 128 1 138 2 175 1 202 2 218 1 225 1 247 1 250 1 270 1 282 1 289 2 291 1 311 1 315 1 321 1 336 2 345 1 346 1 351 1 368 1 409 1 423 1 457 1 486 2 502 1 19 1 36 1 52 1 69 1 75 1 77 1 89 1 94 1 108 1 114 1 115 1 127 1 141 1 154 1 162 1 253 1 273 1 298 1 308 1 363 1 365 1 389 1 392 1 398 1 406 1 407 1 439 1 470 1 482 1 501 1 514 1 524 1 526 1 537 1 539 1 552 1 601 1 625 1 628 1 640 1 641 1 643 1 645 1 646 1 662 1 707 1 720 1 729 1 734 1 743 1 816 1 821 1 884 1 893 1 913 1 926 1 937 1 975 1 992 1 1000 2 599 1 621 1 634 1 636 1 660 1 663 1 668 1 670 1 692 1 717 1 723 1 745 1 761 1 773 1 791 1 796 1 814 1 818 1 831 1 860 1 899 1 907 1 919 1 929 1 946 1 984 1 999 1 1004 1 1011 1 1013 1 1024 1 
1 208 14 1 32 1 49 1 50 1 126 1 145 1 162 1 207 1 223 1 224 2 225 2 286 1 289 1 316 1 344 1 371 1 405 1 406 1 411 1 419 1 426 1 457 1 463 1 473 1 484 1 492 1 502 1 513 1 514 1 527 1 551 1 559 1 562 1 4 1 28 1 73 1 77 1 82 1 96 1 97 1 129 1 141 1 149 1 156 1 170 1 186 1 210 1 233 1 234 1 266 1 273 1 290 1 292 1 317 1 326 1 327 1 369 1 372 1 395 1 402 1 447 1 454 1 459 1 481 1 500 1 517 1 534 1 546 1 564 1 582 1 582 1 588 2 594 1 596 1 604 1 605 1 623 1 625 1 630 1 632 1 663 1 706 1 711 1 718 1 733 1 742 1 751 1 758 1 763 1 768 1 772 1 806 1 817 1 834 2 855 1 870 1 894 1 895 1 921 1 943 1 966 1 969 1 992 2 595 1 674 1 680 1 696 1 719 1 728 1 750 1 843 1 859 1 919 1 933 1 940 1 953 1 979 1 981 1 983 1 1001 1 1014 1 
1 210 3 1 11 1 19 1 22 1 79 1 80 1 96 1 103 1 120 1 148 1 151 1 160 1 165 1 183 2 187 1 201 1 202 1 206 1 292 1 309 1 346 1 353 1 386 1 389 1 427 1 428 1 446 1 478 1 495 1 506 1 521 1 537 2 563 1 44 1 57 1 83 1 107 1 109 1 114 1 115 1 184 1 227 1 241 1 242 1 243 1 270 1 282 1 300 1 305 1 326 1 327 1 340 1 363 1 374 1 390 1 392 1 404 1 412 1 416 1 432 1 487 1 488 1 514 1 520 1 534 1 551 1 562 1 565 1 577 1 587 1 652 1 680 1 715 1 750 1 752 1 788 1 808 2 820 1 821 1 848 1 861 1 866 1 909 2 910 1 954 1 997 1 999 1 605 1 610 1 624 1 642 1 685 1 694 1 708 1 746 1 757 1 822 1 849 1 896 1 897 1 937 1 951 1 968 1 980 1 1001 1 1008 1 1009 1 1011 1 1013 1 1020 1 
1 210 9 1 21 1 40 2 48 1 75 1 93 1 102 1 125 1 138 1 159 1 170 1 182 1 205 1 211 1 223 1 246 1 254 1 326 1 369 2 376 1 377 1 384 1 392 1 461 1 464 1 519 1 527 1 534 1 542 1 543 1 579 1 4 1 23 1 27 1 87 1 90 1 94 1 112 1 133 1 147 1 148 1 208 1 264 1 266 1 283 1 304 1 329 1 387 1 394 1 403 1 408 1 427 1 476 1 479 1 486 1 490 1 492 1 530 1 532 1 604 1 609 1 629 1 630 1 632 1 635 1 644 1 671 1 680 1 685 1 689 1 706 1 725 1 731 1 740 1 756 1 780 1 781 1 785 1 793 1 833 1 842 1 895 1 939 1 942 1 956 1 610 1 612 1 619 1 621 1 622 1 627 1 674 1 675 1 682 1 683 1 684 1 702 1 750 1 788 1 810 1 836 1 838 1 862 1 871 1 918 1 919 1 951 1 963 1 982 1 1009 1 1010 1 1021 1 
1 211 9 1 91 1 99 1 106 1 111 2 114 1 128 1 142 1 144 1 155 1 172 1 182 1 195 1 202 1 221 1 225 1 286 1 293 1 301 1 307 1 309 1 316 1 334 1 337 1 368 1 423 1 425 1 439 1 460 1 476 1 494 1 510 1 533 1 547 1 69 1 76 1 81 1 148 1 149 1 154 1 180 1 196 1 203 1 228 1 234 1 245 1 247 1 252 1 263 1 269 1 383 1 392 1 419 1 437 1 457 1 467 1 526 1 562 1 588 1 591 1 592 2 598 1 600 1 615 1 617 1 628 2 638 1 642 1 668 1 677 1 690 1 725 1 759 1 763 1 782 1 786 1 787 1 813 1 864 1 865 1 896 1 923 1 967 1 971 1 974 1 996 1 590 1 607 1 661 1 665 1 670 1 671 1 727 1 744 1 777 1 823 1 835 1 868 1 871 1 876 1 918 1 919 1 950 1 957 1 982 1 988 1 992 1 993 1 1002 1 1025 1 1027 1 
1 207 1 1 20 1 27 1 28 1 54 1 59 1 63 1 75 1 94 1 98 1 124 1 134 1 150 1 181 1 225 1 238 1 251 1 252 1 260 2 314 1 321 1 366 1 385 1 387 1 397 1 398 1 429 1 522 1 526 1 569 2 19 1 40 1 44 1 71 1 107 1 125 1 144 1 151 1 156 1 161 1 205 1 262 1 277 1 278 1 320 1 355 1 375 1 382 1 388 1 412 1 413 1 487 1 531 1 592 1 598 1 607 1 631 2 643 1 649 1 651 2 659 1 665 1 692 1 713 1 744 1 752 1 791 1 810 1 817 2 820 1 827 2 867 1 874 1 880 1 900 1 928 1 985 1 989 1 999 1 606 1 616 1 618 1 619 1 669 1 689 1 698 1 706 1 745 1 749 1 754 1 766 1 795 1 811 1 813 1 832 1 836 1 838 1 841 1 858 1 871 1 890 1 895 1 914 1 926 1 962 1 979 1 981 1 1004 1 1007 1 
1 212 100 1 118 1 138 1 189 1 206 1 209 1 212 1 217 1 222 1 234 1 242 1 304 1 324 1 364 1 368 2 379 1 389 1 411 1 414 1 418 1 426 1 442 1 454 1 476 1 497 1 504 1 506 1 514 1 518 1 529 1 578 1 583 1 20 1 58 1 117 1 134 1 152 1 155 1 158 1 161 1 220 1 250 1 264 1 283 1 289 1 300 1 315 1 353 1 397 1 419 1 450 1 458 1 479 1 494 1 516 1 544 1 554 1 580 1 594 1 621 1 626 1 719 1 757 1 801 1 810 1 814 1 824 1 830 1 832 1 836 1 839 1 872 1 875 1 888 1 901 1 950 1 975 1 978 1 998 1 599 1 620 1 638 1 652 1 670 1 722 1 768 1 770 1 775 1 776 1 797 1 802 1 823 1 840 1 855 1 880 1 906 1 925 1 928 1 929 1 953 1 979 1 980 1 985 1 988 1 1003 1 1009 1 1024 1 1027 1 
1 213 21 1 25 1 52 1 53 1 84 1 85 1 87 1 92 1 95 1 103 1 119 1 147 2 176 2 186 1 201 1 225 2 240 1 257 1 300 1 369 1 403 1 420 1 437 1 446 1 447 1 454 1 463 2 473 1 489 1 490 1 495 1 510 2 530 1 544 1 559 1 582 2 585 1 19 1 36 1 224 1 251 1 255 1 262 1 316 1 338 1 354 1 366 1 378 1 381 1 398 1 438 1 477 1 498 1 504 1 580 1 604 1 606 1 617 1 645 1 651 1 658 1 660 1 671 1 694 1 708 1 714 1 723 1 737 1 750 1 781 1 786 1 791 1 795 1 838 1 841 1 877 1 891 1 908 1 955 1 979 1 998 1 610 1 624 1 639 1 642 1 665 1 700 1 815 1 843 1 886 1 919 1 933 1 934 1 947 1 949 1 953 1 954 1 984 1 986 1 990 1 1003 1 1007 1 1008 1 1009 1 1014 1 1025 1 
1 211 10 1 15 1 19 1 46 1 74 1 79 1 93 1 124 1 196 1 239 2 247 1 284 1 314 1 326 1 337 1 343 1 348 1 352 1 367 1 387 1 396 1 408 1 418 1 430 1 431 1 440 1 449 1 482 1 492 1 511 1 516 1 521 2 528 1 543 1 555 1 565 1 576 1 23 1 26 1 32 1 35 1 81 1 100 1 112 1 136 1 151 1 156 1 169 1 175 1 179 1 198 1 216 1 236 1 242 1 312 1 324 1 425 1 476 1 479 1 545 1 592 1 637 1 662 2 700 1 709 1 737 1 752 1 777 2 801 2 821 1 840 1 867 1 886 1 891 1 897 1 898 1 915 1 927 1 956 1 972 1 974 1 997 1 1000 1 612 1 644 1 681 1 704 1 722 1 729 1 766 1 785 1 813 1 841 1 869 1 878 1 881 1 899 1 930 1 939 1 942 1 962 1 966 1 990 1 991 1 998 1 1005 1 1026 1 
1 207 2 1 11 1 22 1 64 1 71 1 87 1 135 1 136 1 142 1 145 1 172 1 180 1 187 1 195 1 209 1 240 1 254 1 268 1 301 1 309 1 310 1 318 2 370 1 371 1 447 1 472 1 494 1 520 1 569 1 580 1 28 1 75 1 90 1 93 1 118 1 143 1 155 1 164 1 168 1 213 1 214 1 259 1 286 1 290 1 291 1 314 1 329 1 342 1 386 1 395 1 409 1 421 1 433 1 434 1 441 1 459 1 503 1 575 1 585 1 606 1 638 2 639 1 661 1 684 1 695 1 706 1 707 1 722 1 761 1 774 1 778 2 787 1 790 1 806 1 842 1 874 1 883 1 895 2 897 1 908 1 911 1 914 1 922 1 927 1 936 1 938 1 943 1 944 1 595 1 605 1 640 1 660 1 682 1 717 1 723 1 741 1 746 1 752 1 799 1 832 1 851 1 870 1 879 1 891 1 918 1 934 1 962 1 964 1 993 1 1013 1 1023 1 
1 216 21 1 29 1 42 1 47 1 64 1 72 1 78 1 102 1 104 1 163 1 179 1 183 1 217 1 233 1 274 1 275 1 285 1 308 1 311 1 345 1 350 1 371 1 389 1 403 1 427 1 449 1 456 1 470 1 514 1 543 1 561 1 579 1 585 1 14 1 45 1 127 1 141 1 166 1 177 1 211 1 236 1 255 1 272 1 309 1 322 1 333 1 337 1 341 1 364 1 374 1 419 1 428 1 429 1 441 1 467 1 472 1 485 1 489 1 498 1 523 1 525 1 526 1 540 1 595 1 640 1 650 1 667 1 696 1 700 1 726 1 784 1 814 1 820 1 830 1 841 1 851 1 890 1 913 1 923 1 933 1 943 1 944 1 953 1 955 1 982 2 628 1 649 1 669 1 687 1 690 1 734 1 743 1 758 1 781 1 792 1 811 1 813 1 815 1 822 1 829 1 833 1 849 1 915 1 917 1 941 1 962 1 981 1 983 1 995 1 1004 1 1005 1 1009 1 1017 1 1020 1 1024 1 1025 1 
1 207 11 1 31 1 37 1 63 2 82 1 90 1 97 1 102 1 138 1 139 1 168 1 209 1 224 1 264 1 267 1 269 1 271 1 297 1 298 1 299 1 343 1 359 1 374 1 379 1 390 1 400 1 440 1 468 1 474 1 482 1 522 1 558 1 574 1 585 2 586 1 589 1 7 1 34 1 46 1 69 1 109 1 121 1 154 1 158 1 177 1 218 1 237 1 246 1 252 1 314 1 320 1 333 1 337 1 341 1 347 1 375 1 410 1 419 1 444 1 452 1 463 1 486 1 496 1 511 1 542 1 556 1 615 1 636 1 681 1 696 1 722 1 788 1 796 1 801 1 805 1 827 1 832 1 840 1 843 1 853 1 875 1 894 1 905 1 611 1 656 1 678 1 682 1 685 1 690 1 731 1 754 1 762 1 767 1 800 1 862 1 873 1 878 1 886 1 889 1 912 1 941 1 948 1 955 1 965 1 973 1 984 1 990 1 1006 1 1010 1 
1 211 41 1 43 1 82 1 98 2 112 1 145 1 150 2 165 2 169 1 190 2 212 1 217 1 246 1 265 2 311 1 353 1 356 1 364 1 371 1 376 1 382 1 383 1 384 2 409 1 429 1 436 1 441 1 447 1 455 1 473 1 482 2 492 1 526 1 566 1 571 2 577 1 57 1 63 1 74 1 125 1 137 1 156 1 206 1 281 1 302 1 328 1 354 1 357 1 380 1 396 1 399 1 437 1 445 1 452 1 454 1 459 1 469 1 494 1 496 1 497 1 524 1 552 1 557 1 604 1 612 2 637 1 641 1 689 1 697 1 706 1 707 1 723 1 753 1 760 1 767 1 801 1 828 1 839 1 844 1 906 1 920 1 929 1 932 1 943 1 962 1 989 1 628 1 634 1 660 1 674 1 688 1 703 1 720 1 734 1 740 1 742 1 746 1 748 1 780 1 781 1 785 1 788 1 826 1 838 1 851 1 854 1 870 1 872 1 891 1 939 1 954 1 960 1 984 1 1007 1 1008 1 1010 1 1021 1 1022 1 1027 1 
1 204 4 1 42 1 60 2 97 1 119 1 130 1 152 1 165 1 178 1 208 1 209 1 222 1 234 1 249 1 254 1 288 1 311 1 323 2 351 1 409 1 458 1 482 1 498 1 516 1 522 1 544 1 562 1 568 1 580 1 582 1 587 1 8 1 15 1 52 1 70 1 81 1 93 1 100 1 112 1 135 1 138 1 191 1 207 1 212 1 226 1 267 1 305 1 315 1 364 1 391 1 398 1 441 1 474 1 485 1 491 1 507 1 513 1 518 1 534 1 535 1 542 1 575 1 598 1 636 1 647 1 671 1 672 1 680 1 685 1 715 1 723 1 727 1 730 1 735 1 741 1 792 1 800 1 844 1 885 1 896 1 910 1 919 1 920 1 933 1 935 1 937 1 967 1 968 1 989 1 996 1 600 1 611 1 701 1 772 1 789 1 794 1 811 1 816 1 853 1 857 1 865 1 875 1 878 1 889 1 931 1 953 1 954 1 974 1 991 1 1002 1 1016 1 
1 215 1 1 50 1 67 1 98 1 140 1 159 1 184 1 198 1 210 1 230 1 238 1 251 1 267 1 289 1 290 1 295 1 308 1 321 1 335 1 381 1 396 1 424 1 439 1 445 1 472 2 474 1 476 1 478 1 489 1 504 1 511 1 513 1 531 1 539 1 547 1 550 1 551 1 591 1 20 1 23 1 24 1 31 1 38 1 45 1 63 1 76 1 81 1 85 1 111 1 137 1 143 1 149 1 171 1 186 1 234 1 244 1 253 1 312 1 317 1 352 1 353 1 357 1 371 1 374 1 436 1 508 1 526 1 529 1 557 1 582 1 590 1 598 1 601 1 604 1 628 1 631 1 652 1 711 1 740 1 747 1 764 1 769 1 794 1 824 1 860 2 877 1 894 1 896 1 897 1 905 1 923 2 935 1 938 1 975 2 985 1 599 1 625 1 654 1 679 1 700 1 704 1 727 1 734 1 778 1 781 1 782 1 784 1 836 1 886 1 903 1 915 1 963 1 990 1 999 1 1006 1 1007 1 1025 1 
1 213 8 1 43 1 60 1 63 1 94 1 118 1 123 1 181 1 192 1 217 1 229 1 237 1 265 1 266 1 283 1 310 1 335 1 340 1 372 1 374 1 386 1 391 1 393 1 426 1 434 1 445 1 446 1 470 1 479 1 504 1 506 1 555 2 561 1 569 1 582 1 10 1 19 1 39 1 93 1 96 1 97 1 99 1 103 1 119 1 128 1 134 1 155 1 159 1 201 1 207 1 226 1 248 1 277 1 344 1 347 1 366 1 368 1 389 1 392 1 410 1 456 1 460 1 491 1 495 1 501 1 511 1 514 1 530 1 531 1 533 1 539 1 542 1 547 1 565 1 618 1 622 1 660 1 667 1 687 1 688 1 699 1 742 1 783 1 790 1 819 1 823 1 860 1 870 1 876 1 881 1 884 1 885 1 912 1 987 1 1001 1 607 1 644 1 652 1 685 1 691 1 717 1 725 1 733 1 757 1 761 1 789 1 802 1 806 1 827 1 828 1 839 1 842 1 893 1 894 1 902 1 909 1 943 1 966 1 981 1 1003 1 1020 1 1021 1 
1 217 25 1 107 1 109 1 110 1 113 1 114 1 128 1 142 1 146 1 164 1 167 1 175 2 189 1 192 1 197 1 202 1 235 1 252 1 255 2 258 1 298 1 317 1 337 1 370 1 378 1 389 1 430 1 447 1 448 1 504 1 505 1 519 1 543 1 6 1 9 1 13 1 54 1 77 1 88 1 89 1 127 1 157 1 161 1 169 1 198 1 200 1 243 1 259 1 286 1 289 1 290 1 291 1 301 1 340 1 379 1 382 1 392 1 433 1 441 1 446 1 466 1 468 1 534 1 547 1 562 1 616 1 630 1 655 1 681 1 686 1 697 1 699 1 740 1 751 2 755 1 778 1 785 1 796 1 800 1 812 1 814 1 835 1 854 1 867 1 871 1 905 1 915 1 920 2 923 1 948 1 958 1 993 2 609 1 626 1 646 1 656 1 657 1 707 1 711 1 750 1 760 1 770 1 771 1 801 1 831 1 852 1 904 1 936 1 941 1 955 1 960 1 967 1 994 1 1007 1 1009 1 1013 1 1014 1 1016 1 1018 1 1019 1 1026 1 1027 1 
1 210 10 1 43 1 46 1 69 2 83 1 104 1 105 1 118 1 123 1 127 1 151 1 157 1 169 1 170 1 190 1 204 1 212 1 233 1 258 1 274 1 277 1 314 1 318 1 328 1 357 1 363 1 401 1 430 1 448 1 458 1 460 1 479 1 480 1 536 1 567 1 572 1 576 1 585 1 586 1 594 1 595 1 19 1 20 1 23 1 39 1 52 1 97 1 113 1 173 1 189 1 191 1 194 1 226 1 232 1 243 1 292 1 295 1 299 1 384 1 397 1 410 1 419 1 420 1 437 1 439 1 445 1 467 1 499 1 516 1 520 1 556 1 561 1 565 1 579 1 618 1 626 1 634 1 641 1 650 1 668 1 671 1 678 1 683 1 699 1 743 1 758 1 767 1 783 1 799 1 804 1 820 1 840 1 858 1 859 1 866 1 899 1 911 1 912 2 926 1 939 1 962 1 994 1 997 1 619 1 620 1 636 1 637 1 640 1 666 1 688 1 706 1 759 1 824 1 838 1 842 1 860 1 868 1 873 1 875 1 876 1 881 1 893 1 906 1 913 1 930 1 969 1 982 1 1003 1 1005 1 1010 1 
1 208 33 1 38 2 43 1 56 2 138 1 154 1 162 2 166 1 171 1 175 1 185 1 216 1 238 1 298 1 313 1 321 1 334 2 342 1 357 1 361 1 371 1 376 2 386 1 388 2 407 1 427 1 430 1 437 1 448 1 450 1 474 2 478 1 495 1 526 1 533 1 555 1 558 1 560 1 9 1 16 1 53 1 69 1 73 1 85 1 117 1 125 1 135 1 161 1 165 1 168 1 174 1 186 1 198 1 253 1 263 1 283 1 373 1 402 1 453 1 458 1 463 1 493 1 522 1 523 1 563 1 570 1 581 1 587 1 595 1 628 1 639 1 651 1 679 1 692 1 720 1 726 1 743 1 761 1 791 1 798 1 808 1 809 1 820 1 848 1 881 1 891 1 905 1 918 1 920 1 926 1 951 1 961 1 983 1 602 1 612 1 669 1 694 1 732 1 734 1 741 1 745 1 750 1 759 1 796 1 829 1 843 1 857 1 863 1 899 1 914 1 925 1 930 1 936 1 953 1 954 1 968 1 976 1 989 1 1011 1 1021 1 1023 1 
1 208 15 1 45 1 46 1 66 1 84 1 86 1 97 1 124 1 131 1 227 1 230 1 236 1 243 1 249 1 252 1 297 2 307 1 312 1 341 1 351 1 373 1 374 1 385 1 393 2 446 2 512 1 542 1 546 1 567 1 585 1 5 1 10 1 24 1 31 1 35 1 47 1 54 1 57 1 83 1 116 1 122 1 132 1 137 1 167 1 185 1 188 1 212 1 220 1 231 1 262 1 275 1 288 1 293 1 325 1 368 1 413 1 415 1 416 1 421 1 424 1 443 1 459 1 464 1 467 1 468 1 469 1 476 1 478 1 516 1 541 1 572 1 594 1 605 1 606 1 654 1 661 1 665 1 671 1 677 1 681 1 689 1 704 1 726 2 734 1 753 1 765 1 786 1 800 1 809 1 854 1 866 1 881 1 890 1 926 2 940 1 948 1 957 1 986 1 618 1 655 1 706 1 714 1 725 1 737 1 750 1 810 1 824 1 830 1 847 1 916 1 921 1 960 1 973 1 974 1 1001 1 1009 1 1019 1 1026 1 
1 211 4 1 9 1 41 1 63 1 71 1 85 1 97 1 108 1 115 1 119 1 136 1 144 1 159 1 163 1 166 1 193 1 194 1 254 1 274 2 287 1 289 1 320 1 345 1 346 1 356 1 373 1 385 2 415 1 418 1 421 1 444 1 446 1 451 2 493 1 495 1 511 1 529 1 530 1 547 1 576 1 581 1 595 1 10 1 14 1 31 1 50 1 51 1 86 1 114 1 121 1 131 1 170 1 172 1 174 1 183 1 190 1 192 1 202 1 208 1 228 1 234 1 249 1 253 1 259 1 281 1 310 1 371 1 403 1 447 1 503 1 531 1 577 1 612 1 613 1 626 2 627 1 634 2 644 1 650 1 656 1 658 1 659 1 660 1 691 1 693 1 731 2 740 1 762 1 769 1 774 1 775 2 777 1 815 1 818 1 823 1 830 1 854 1 862 1 869 1 880 1 889 2 906 1 908 1 941 1 952 1 962 1 966 1 992 1 628 1 655 1 664 1 669 1 676 1 683 1 684 1 703 1 705 1 768 1 772 1 783 1 821 1 832 1 851 1 853 1 868 1 887 1 891 1 903 1 916 1 939 1 970 1 980 1 986 1 995 1 1005 1 1013 1 1027 1 
1 208 72 1 83 1 84 2 87 1 102 1 116 1 129 1 135 1 147 1 175 1 201 1 212 1 236 1 283 1 299 1 338 1 355 1 368 2 416 1 435 1 445 1 467 1 479 1 487 1 508 1 513 1 523 1 536 1 569 1 572 1 10 1 18 1 30 1 37 1 62 1 66 1 70 1 71 1 74 1 75 1 100 1 142 1 151 1 161 1 162 1 195 1 200 1 217 1 288 1 331 1 333 1 363 1 364 1 409 1 442 1 464 1 466 1 468 1 500 1 507 1 528 1 537 1 546 1 556 1 565 1 578 1 599 1 607 1 649 1 652 1 672 1 697 1 707 1 713 1 749 1 796 1 813 1 836 1 850 1 862 1 883 1 885 1 893 1 895 1 918 1 922 1 986 1 996 1 617 1 637 1 645 1 657 1 694 1 701 1 737 1 739 1 762 1 778 1 782 1 783 1 861 1 868 1 876 1 890 1 917 1 938 1 944 1 949 1 990 1 1017 1 1018 1 
1 208 39 1 52 1 62 1 65 1 70 1 98 1 120 1 123 1 140 1 147 1 155 1 171 1 174 1 177 2 200 1 213 1 215 1 262 1 269 2 278 1 286 1 296 1 329 1 358 1 362 1 370 1 374 1 394 1 397 1 398 1 415 1 420 1 429 1 432 1 452 1 470 1 497 1 516 1 526 1 542 1 552 1 556 1 10 1 12 1 26 1 67 1 85 1 107 1 124 1 141 1 150 1 153 1 178 1 219 1 224 1 253 1 287 1 305 1 313 1 330 1 340 1 344 1 373 1 404 1 437 1 438 1 440 1 453 1 454 1 460 1 467 1 481 1 503 1 510 1 522 1 531 1 540 1 578 1 625 1 626 1 631 1 642 1 648 1 658 1 663 1 668 1 672 1 697 1 703 1 715 1 737 1 751 1 762 1 776 1 786 1 787 1 831 1 838 1 843 1 847 1 859 1 865 2 878 1 879 1 900 1 901 1 924 1 926 1 943 1 960 1 615 1 632 1 637 1 675 1 714 1 744 1 747 1 753 1 870 1 895 1 903 1 907 1 909 1 913 1 963 1 992 1 1001 1 1007 1 1027 1 
1 205 10 1 42 1 109 1 147 1 187 1 206 1 211 1 248 1 277 1 288 1 307 1 317 1 327 1 338 1 369 1 380 1 426 1 446 1 451 1 470 1 471 1 531 1 555 1 556 1 563 1 567 1 582 1 584 1 588 1 593 1 595 1 1 1 7 1 21 1 47 1 65 1 71 1 72 1 73 1 82 1 96 1 111 1 154 1 158 1 163 1 186 1 199 1 225 1 228 1 234 1 283 1 287 1 290 1 310 1 311 1 313 1 314 1 323 1 367 1 384 1 393 1 397 1 414 1 444 1 490 1 514 1 523 1 524 1 526 1 574 1 613 1 629 1 666 1 700 1 794 1 866 1 904 1 942 1 948 2 956 1 957 1 616 1 622 1 623 1 625 1 640 1 642 1 643 1 678 1 686 1 692 1 701 1 727 1 731 1 753 1 755 1 784 1 788 1 791 1 803 1 823 1 859 1 870 1 873 1 892 1 909 1 927 1 952 1 955 1 995 1 
1 213 67 1 92 1 102 1 141 1 143 1 153 1 162 1 166 1 182 2 187 1 188 1 193 1 195 1 202 1 220 1 242 1 249 1 253 1 292 1 319 1 330 1 347 1 409 1 411 1 430 1 524 1 537 1 552 1 557 1 568 1 569 1 582 1 600 1 4 1 6 1 45 1 55 1 61 1 70 1 94 1 108 1 117 1 122 1 147 1 158 1 197 1 205 1 217 1 243 1 257 1 274 1 275 1 302 1 325 1 332 1 335 1 339 1 370 1 372 1 415 1 421 1 422 1 448 1 485 1 514 1 529 1 531 1 534 1 571 1 576 1 583 1 590 1 619 1 640 1 659 1 703 1 706 1 715 1 716 1 719 1 738 1 760 2 809 1 840 1 865 1 867 1 873 1 877 1 900 1 916 1 923 1 941 2 943 1 974 1 978 1 992 1 632 1 643 1 677 1 680 1 717 1 751 1 770 1 784 1 812 1 826 1 844 1 846 1 856 1 863 1 868 1 878 1 891 1 895 1 1003 1 1013 1 1015 1 1025 1 
1 209 3 1 14 1 57 1 75 1 86 1 126 1 144 1 174 1 180 2 206 1 225 1 249 1 282 1 297 1 315 2 322 1 327 1 352 1 375 1 380 1 414 1 422 1 439 1 440 1 457 1 473 1 477 1 521 1 540 1 541 1 562 1 566 1 588 1 590 1 600 1 13 1 19 1 47 1 88 1 91 1 96 1 112 1 121 1 135 1 143 1 175 1 223 1 244 1 281 1 293 1 294 1 309 1 312 1 320 1 343 1 347 1 379 1 382 1 394 1 410 1 433 1 442 1 446 1 460 1 464 1 467 1 485 1 509 1 511 1 530 1 561 1 563 1 586 1 606 1 606 1 618 1 655 1 658 1 660 1 664 1 666 1 667 1 668 1 674 1 695 1 700 1 705 1 711 1 788 1 795 1 805 1 827 1 839 2 856 1 857 1 866 1 870 1 895 2 929 1 940 1 950 1 964 1 971 1 975 1 977 1 626 1 686 1 696 1 699 1 759 1 772 1 773 1 778 1 790 1 825 1 830 1 853 1 858 1 903 1 916 1 927 1 939 1 958 1 997 1 1004 1 1011 1 1017 1 1022 1 
1 208 7 1 9 1 16 1 43 1 137 1 146 1 161 1 169 2 193 2 194 1 211 1 212 1 213 1 226 1 245 1 279 1 301 1 303 1 305 1 329 1 351 1 375 1 396 1 426 1 428 1 457 1 468 1 476 1 477 1 506 1 586 1 602 1 11 1 42 1 54 1 101 1 133 1 156 1 167 1 168 1 172 1 180 1 181 1 206 1 218 1 229 1 248 1 255 1 260 1 311 1 326 1 335 1 382 1 393 1 403 1 408 1 417 1 423 1 427 1 438 1 451 1 481 1 488 1 510 1 524 1 527 1 560 1 562 1 564 1 580 1 585 1 596 1 608 1 646 1 652 1 678 1 717 1 794 1 811 1 834 1 845 1 906 1 919 1 921 1 948 1 974 1 975 1 989 1 993 1 618 1 634 1 702 1 721 1 740 1 751 1 753 1 759 1 779 1 798 1 816 1 842 1 848 1 857 1 891 1 920 1 942 1 953 1 955 1 966 1 1009 1 1012 1 1013 1 1016 1 
1 214 8 1 10 1 27 1 47 1 90 2 95 1 111 1 120 1 122 1 157 1 189 1 212 1 239 1 242 1 283 1 289 1 291 1 322 1 324 1 385 1 421 1 456 1 470 1 477 1 479 1 513 1 518 2 542 1 552 1 556 1 566 1 570 1 572 1 607 1 13 1 18 1 28 1 31 1 33 1 37 1 57 1 65 1 75 1 84 1 85 1 103 1 129 1 141 1 150 1 163 1 195 1 208 1 210 1 213 1 223 1 227 1 228 1 240 1 247 1 252 1 255 1 259 1 282 1 306 1 328 1 340 1 343 1 355 1 362 1 363 1 379 1 401 1 404 1 416 1 442 1 454 1 471 1 492 1 502 1 506 1 520 1 523 1 536 1 553 1 555 1 559 1 611 1 619 1 625 1 644 1 660 2 678 1 688 1 694 1 719 1 746 1 757 1 761 1 769 1 787 1 796 1 869 2 890 1 896 1 942 1 970 1 972 1 987 2 995 1 637 1 654 1 718 1 762 1 858 1 919 1 938 1 940 1 955 1 978 1 988 1 1006 1 1011 1 1012 1 1016 1 1025 1 
1 208 3 1 6 1 13 2 18 2 30 1 36 1 50 1 55 1 56 1 70 1 80 1 85 1 92 1 113 1 140 1 143 1 181 1 188 1 223 1 239 1 250 1 261 1 267 1 293 1 316 1 319 1 342 2 357 1 383 1 406 1 417 1 441 1 446 1 489 1 502 1 523 1 553 1 584 1 5 1 21 1 37 1 45 1 81 1 128 1 134 1 174 1 177 1 189 1 194 1 228 1 230 1 265 1 266 1 271 1 286 1 287 1 297 1 303 1 317 1 324 1 352 1 392 1 407 1 438 1 443 1 460 1 469 1 477 1 479 1 505 1 534 1 554 1 568 1 597 1 611 1 621 1 643 1 778 1 791 1 855 1 864 1 892 1 914 1 957 1 961 1 980 1 625 1 638 1 650 1 667 1 684 1 688 1 702 1 719 1 720 1 747 1 750 1 769 1 774 1 789 1 795 1 803 1 808 1 815 1 817 1 824 1 831 1 834 1 865 1 875 1 878 1 882 1 915 1 917 1 959 1 981 1 986 1 990 1 1014 1 1020 1 1025 1 
1 205 1 1 19 1 41 1 46 1 57 1 68 2 76 1 86 1 113 1 139 1 171 1 197 1 202 1 203 1 204 1 232 1 246 1 284 1 304 1 332 1 376 1 385 1 390 1 400 1 421 1 450 1 451 1 454 1 455 1 469 1 471 1 472 1 483 2 491 1 521 1 530 1 546 1 2 1 8 1 11 1 38 1 51 1 53 1 59 1 96 1 118 1 132 1 141 1 142 1 148 1 154 1 181 1 193 1 214 1 225 1 245 1 275 1 282 1 294 1 297 1 302 1 311 1 336 1 391 1 415 1 432 1 446 1 448 1 464 1 484 1 496 1 498 1 537 1 555 1 583 1 584 1 588 1 643 1 646 1 682 1 688 1 717 1 719 2 740 1 747 1 748 2 753 1 759 1 760 1 781 1 783 1 812 1 820 1 879 1 910 1 918 1 939 1 952 1 961 1 965 1 985 1 991 1 998 1 616 1 619 1 649 1 666 1 679 1 684 1 728 1 743 1 785 1 805 1 809 1 821 1 824 1 828 1 874 1 882 1 890 1 901 1 906 1 944 1 953 1 1000 1 1005 1 1008 1 1015 1 
1 210 45 1 47 1 55 1 82 1 83 1 91 1 123 1 153 1 158 2 164 1 166 1 170 1 175 1 181 1 196 1 211 1 222 1 223 1 228 1 260 1 265 2 274 1 297 2 348 1 380 2 387 1 391 1 394 1 401 1 473 1 519 1 523 1 559 1 608 1 609 1 103 1 125 1 183 1 215 1 259 1 268 1 307 1 309 1 321 1 346 1 356 1 382 1 389 1 430 1 466 1 493 1 506 1 557 1 567 1 592 1 594 1 634 1 643 1 645 1 651 1 666 1 717 1 730 1 735 1 748 1 756 1 781 1 791 1 817 1 825 2 863 1 888 2 900 2 915 1 933 1 942 1 959 1 960 1 615 1 619 1 639 1 690 1 711 1 712 1 716 1 727 1 736 1 754 1 789 1 798 1 830 1 834 1 837 1 872 1 899 1 912 1 947 1 952 1 955 1 957 1 964 1 969 1 979 1 980 1 988 1 1009 1 1011 1 1013 1 
1 209 30 1 33 1 42 1 54 1 67 1 78 1 84 1 100 1 157 1 161 1 176 1 221 1 229 1 233 1 263 1 295 1 300 1 314 1 322 1 339 1 367 1 369 1 386 1 389 2 414 1 418 1 422 1 451 1 542 1 551 1 555 1 563 1 564 1 575 1 576 1 593 2 601 1 16 1 51 1 52 1 86 1 91 1 101 1 115 1 145 1 195 1 245 1 272 1 330 1 335 1 343 1 361 1 366 1 379 1 405 1 412 1 415 1 463 1 561 1 584 1 589 1 599 1 613 1 635 1 642 1 677 1 684 1 733 1 758 2 798 1 801 1 809 1 814 1 867 1 884 1 906 1 920 1 954 1 957 1 987 1 616 1 618 1 654 1 660 1 673 1 709 1 743 1 766 1 768 1 790 1 803 1 824 1 836 1 871 1 877 1 894 1 913 1 917 1 922 1 941 1 948 1 952 1 990 1 1017 1 1018 1 1025 1 
1 206 3 1 13 1 40 1 44 1 70 1 85 1 86 1 92 1 101 1 105 2 123 1 136 1 140 1 154 1 160 1 166 1 223 1 236 1 241 1 257 1 277 1 282 1 337 1 352 1 353 1 360 1 384 1 406 1 435 1 454 1 457 1 478 1 488 1 530 1 601 1 604 1 612 1 28 1 48 1 51 1 59 1 79 1 83 1 87 1 96 1 108 1 135 1 157 1 161 1 162 1 220 1 238 1 251 1 291 1 299 1 312 1 330 1 338 1 345 1 350 1 366 1 371 1 381 1 404 1 453 1 471 1 479 1 508 1 549 1 566 1 616 1 647 1 657 1 664 1 666 1 668 1 681 1 682 1 696 1 712 1 716 1 717 1 726 1 740 1 750 1 756 1 779 1 780 1 818 1 823 1 850 1 862 1 869 1 870 1 880 1 881 1 884 1 923 1 953 1 994 2 624 1 678 1 687 1 722 1 724 1 728 1 744 1 774 1 783 1 803 1 816 1 825 1 843 1 856 1 872 1 916 1 918 1 940 1 1012 1 
1 210 39 1 44 1 48 1 87 1 88 1 100 1 128 1 129 2 147 1 165 1 172 1 213 1 221 1 228 1 273 2 275 1 280 1 288 1 313 1 315 1 322 1 380 2 395 1 396 1 405 1 411 1 417 1 432 1 457 1 461 1 505 1 538 1 540 1 546 1 550 1 558 1 572 2 35 1 55 1 76 1 102 1 178 1 196 1 199 1 230 1 297 1 302 1 310 1 363 1 373 1 374 1 394 1 401 1 408 1 424 1 435 1 436 1 444 1 467 1 481 1 494 1 519 1 532 1 536 1 567 1 573 1 616 1 717 1 790 1 831 1 832 1 861 1 870 1 897 1 910 1 921 1 944 2 946 2 959 1 960 1 985 1 993 1 664 1 694 1 695 1 716 1 737 1 739 1 758 1 794 1 800 1 804 1 809 1 845 1 849 1 852 1 853 1 872 1 876 1 880 1 891 1 941 1 953 1 970 1 1002 1 1005 1 1014 1 1023 1 
1 203 10 1 19 1 30 1 34 1 72 1 82 1 88 1 95 1 96 1 129 1 148 1 151 1 157 1 226 1 231 1 257 2 316 1 336 1 369 1 416 1 422 1 428 1 431 1 437 1 446 1 468 1 469 1 485 1 522 2 523 1 550 1 557 1 585 1 592 1 16 1 37 1 55 1 78 1 97 1 106 1 171 1 175 1 204 1 248 1 250 1 279 1 287 1 303 1 308 1 320 1 324 1 367 1 391 1 404 1 423 1 429 1 436 1 439 1 448 1 479 1 524 1 544 1 545 1 560 1 573 1 603 1 611 1 619 1 631 1 640 1 658 1 659 1 699 1 700 1 704 1 713 1 743 1 757 1 765 1 808 1 820 1 843 1 868 1 869 1 933 1 634 1 636 1 648 1 674 1 677 1 731 1 735 1 747 1 770 1 772 1 787 1 850 1 866 1 881 1 885 1 891 1 931 1 936 1 959 1 963 1 981 1 990 1 997 1 1024 1 
1 215 91 1 92 1 117 1 129 1 131 1 152 1 154 1 171 1 189 2 191 1 216 1 218 1 231 1 279 1 304 1 310 1 322 1 326 1 329 1 385 1 405 1 409 1 417 1 426 1 446 1 466 1 479 1 480 1 482 1 503 1 597 1 613 1 614 1 11 1 14 1 18 1 23 1 26 1 33 1 35 1 51 1 79 1 81 1 137 1 177 1 192 1 208 1 210 1 212 1 224 1 233 1 238 1 264 1 301 1 339 1 348 1 441 1 453 1 457 1 463 1 471 1 488 1 495 1 520 1 529 1 534 1 546 1 554 1 566 1 570 1 586 1 604 1 610 1 612 1 681 1 687 1 707 1 728 1 739 1 764 1 765 1 792 1 863 1 934 1 953 1 954 1 996 1 646 1 651 1 712 1 720 1 737 1 786 1 808 1 818 1 830 1 844 1 846 1 866 1 900 1 904 1 941 1 971 1 1001 1 1005 1 1019 1 1021 1 1024 1 
1 211 15 1 24 2 30 1 33 1 39 2 53 2 117 1 133 1 164 1 179 1 202 1 206 1 226 1 241 1 312 1 316 1 317 2 335 1 337 1 340 1 354 1 356 1 369 1 418 1 450 1 472 1 512 1 513 1 527 1 542 1 543 1 550 1 554 1 563 2 572 1 585 1 588 1 41 1 43 1 61 1 69 1 70 1 73 1 79 1 83 1 85 1 87 1 91 1 99 1 151 1 152 1 195 1 240 1 242 1 311 1 323 1 324 1 341 1 365 1 368 1 430 1 449 1 505 1 521 1 523 1 579 1 602 1 621 1 627 1 633 1 646 1 661 1 679 1 748 2 813 1 848 1 864 1 907 1 916 1 925 1 928 1 943 1 971 2 980 1 995 1 1001 1 637 1 639 1 652 1 659 1 699 1 704 1 726 1 745 1 753 1 776 1 793 1 809 1 844 1 850 1 863 1 865 1 877 1 897 1 912 1 915 1 919 1 935 1 944 1 948 1 966 1 1010 1 
1 207 1 1 2 1 22 1 49 1 52 1 65 1 75 1 78 1 80 1 82 1 105 1 114 1 123 1 124 1 140 1 153 1 209 1 221 1 251 1 281 2 283 1 288 1 306 1 338 1 343 1 348 1 349 1 356 1 376 1 435 2 452 1 456 1 466 1 470 1 502 1 535 1 537 1 543 1 596 1 598 1 606 1 3 1 13 1 15 1 44 1 95 1 98 1 103 1 112 1 134 1 159 1 168 1 226 1 243 1 297 1 312 1 314 1 360 1 382 1 398 1 406 1 426 1 468 1 472 1 486 1 491 1 492 1 499 1 503 1 550 1 563 1 570 1 586 1 600 1 607 1 612 1 625 2 629 1 656 1 703 1 717 1 754 1 791 1 807 1 813 1 857 1 883 1 887 1 889 1 942 1 633 1 642 1 647 1 692 1 731 1 752 1 775 1 787 1 795 1 806 1 877 1 893 1 910 1 919 1 945 1 949 1 958 1 965 1 987 1 1004 1 1024 1 
1 207 5 1 59 1 74 1 75 1 80 1 111 1 135 1 191 1 238 1 239 1 260 1 325 1 337 1 341 1 354 1 365 1 380 1 383 1 407 1 420 1 430 1 464 1 486 1 501 1 535 1 537 1 547 1 559 1 565 1 573 1 605 1 608 1 615 1 21 1 65 1 83 1 92 1 98 1 105 1 117 1 122 1 141 1 146 1 151 1 183 1 187 1 188 1 190 1 211 1 237 1 300 1 316 1 324 1 344 1 351 1 387 1 429 1 451 1 478 1 494 1 498 1 500 1 524 1 534 1 541 1 550 1 584 1 586 1 598 1 610 1 611 1 649 1 697 1 711 1 731 1 733 1 734 1 761 1 777 1 778 1 789 1 792 1 824 1 836 1 861 1 888 1 891 1 901 1 952 1 989 1 990 1 630 1 639 1 658 1 719 1 740 1 742 1 743 1 744 1 749 1 788 1 791 1 797 1 807 1 813 1 862 1 882 1 885 1 892 1 896 1 903 1 912 1 922 1 943 1 947 1 1020 1 
1 212 7 1 36 1 42 1 76 1 86 1 98 1 119 1 134 2 137 1 152 2 163 1 171 1 195 1 201 1 211 1 227 2 235 1 238 1 245 1 305 1 318 1 320 1 425 1 432 1 447 1 478 1 480 1 484 1 490 1 495 1 501 1 532 1 553 1 8 1 30 1 52 1 78 1 104 1 109 1 110 1 128 1 129 1 142 1 151 1 154 1 180 1 184 1 271 1 340 1 341 1 357 1 374 1 379 1 389 1 429 1 430 1 434 1 451 1 461 1 525 1 542 1 572 1 587 1 598 1 629 1 630 1 647 1 666 2 692 1 699 2 701 1 779 1 797 1 853 1 883 1 886 1 905 1 917 1 930 1 941 1 949 1 974 1 989 2 993 2 627 1 641 1 665 1 704 1 705 1 728 1 733 1 761 1 819 1 828 1 832 1 845 1 880 1 888 1 895 1 898 1 899 1 904 1 924 1 935 1 954 1 957 1 980 1 997 1 1005 1 1026 1 
1 209 8 1 54 1 73 1 90 2 103 1 129 1 135 1 144 1 165 1 168 1 203 1 215 1 218 1 272 1 294 1 296 1 310 1 317 1 374 1 380 1 386 1 387 1 412 1 429 1 438 1 440 1 507 1 532 1 557 1 587 1 609 1 617 1 30 1 35 1 64 1 117 1 118 1 121 1 133 1 137 1 139 1 142 1 164 1 192 1 195 1 196 1 211 1 216 1 230 1 248 1 251 1 281 1 301 1 311 1 314 1 336 1 346 1 455 1 511 1 556 1 578 1 581 1 584 1 621 1 621 1 622 1 635 1 669 1 686 1 688 1 696 1 724 1 725 1 747 1 771 1 785 1 794 1 831 1 837 1 855 1 867 1 939 1 951 1 956 1 957 1 979 1 992 1 997 1 712 1 734 1 780 1 781 1 825 1 841 1 868 1 870 1 888 1 891 1 930 1 948 1 960 1 972 1 988 1 1002 1 1004 1 1025 1 
1 216 14 1 20 1 64 1 89 1 106 1 118 1 127 1 183 1 191 1 207 1 211 1 215 1 242 2 258 1 260 1 291 1 315 1 322 1 325 1 351 1 358 1 359 1 362 1 381 1 409 1 412 1 421 1 422 1 433 1 444 1 455 1 491 1 499 2 500 1 537 1 564 1 596 1 621 1 3 1 7 1 15 1 49 1 60 1 79 1 161 1 165 1 186 1 197 1 204 1 221 1 248 1 264 1 269 1 373 1 374 1 377 1 396 1 397 1 414 1 426 1 441 1 456 1 457 1 463 1 475 1 494 1 530 1 560 1 574 1 575 1 584 1 604 1 622 1 622 1 628 1 647 1 652 1 656 1 674 1 705 1 732 1 739 1 747 1 752 1 762 1 829 1 858 1 870 1 881 1 893 1 918 1 938 1 943 1 955 1 958 1 994 1 644 1 645 1 661 1 689 1 698 1 700 1 755 1 803 1 806 1 823 1 859 1 863 1 884 1 886 1 892 1 950 1 970 1 971 1 985 1 1002 1 1008 1 1023 1 
1 210 7 1 15 1 16 1 26 1 41 1 48 1 73 1 110 1 114 1 189 1 202 1 208 1 211 1 222 1 250 1 288 1 293 1 318 1 336 1 371 1 385 1 388 1 413 1 423 1 429 1 442 1 443 1 474 1 477 1 494 1 506 1 511 1 516 1 565 1 567 1 582 1 1 1 22 1 23 1 50 1 62 1 90 1 97 1 109 1 119 1 139 1 165 1 181 1 198 1 203 1 206 1 227 1 228 1 264 1 273 1 279 1 283 1 315 1 337 1 356 1 375 1 412 1 415 1 430 1 466 1 468 1 469 1 470 1 481 1 519 1 521 1 539 1 568 1 604 1 664 1 669 1 692 1 708 1 719 1 724 1 738 1 753 1 779 2 790 1 799 1 803 1 805 1 808 1 812 1 818 1 869 1 914 1 922 1 963 1 978 1 641 1 649 1 655 1 660 1 694 1 709 1 725 1 726 1 729 1 747 1 801 1 848 1 870 1 886 1 896 1 897 1 905 1 908 1 920 1 941 1 962 1 973 1 991 1 1002 1 1015 1 1024 1 1027 1 
1 209 5 2 13 1 73 1 78 1 85 1 97 1 111 1 140 1 143 1 178 1 193 1 196 1 197 1 200 1 203 1 207 1 208 1 211 1 233 1 241 1 250 1 279 1 303 1 337 1 350 1 370 1 382 2 429 1 437 1 444 1 453 1 550 1 552 1 6 1 9 1 47 1 55 1 95 1 108 1 117 1 170 1 173 1 186 1 276 1 278 1 295 1 296 1 304 1 309 1 311 1 331 1 358 1 362 1 385 1 412 1 420 1 422 1 457 1 487 1 498 1 503 1 557 1 565 1 583 1 588 1 613 1 642 1 645 1 657 1 688 1 701 1 722 1 732 1 771 1 817 1 824 1 846 1 852 1 889 1 911 1 975 1 634 1 635 1 664 1 704 1 723 1 731 1 733 1 742 1 753 1 762 1 792 1 811 1 818 1 855 1 885 1 893 1 894 1 908 1 909 1 917 1 952 1 958 1 963 1 965 1 977 1 995 1 1003 1 1005 1 1015 1 1016 1 1026 1 
1 211 3 1 16 1 17 1 38 1 45 1 52 1 57 1 73 1 88 1 91 1 119 1 126 1 132 1 218 1 234 1 254 1 308 1 317 1 323 1 334 1 338 1 341 1 344 1 353 1 381 1 467 2 508 1 520 1 581 1 582 1 603 1 608 1 618 2 13 1 19 1 24 1 26 1 27 1 28 1 60 1 68 1 77 1 84 1 93 1 107 1 130 1 147 1 193 1 194 1 205 1 213 1 246 1 299 1 331 1 339 1 351 1 357 1 368 1 400 1 454 1 485 1 488 1 490 1 504 1 515 1 563 1 595 1 604 1 609 1 628 1 652 1 669 2 717 1 719 1 732 1 738 1 749 1 779 1 796 1 802 1 815 1 822 1 858 1 881 1 920 1 923 1 929 1 633 1 655 1 671 1 687 1 701 1 723 1 726 1 758 1 775 1 825 1 846 1 862 1 879 1 906 1 907 1 910 1 927 1 958 1 964 1 980 1 993 1 1008 1 1012 1 1014 1 1023 1 
1 207 19 1 50 1 84 1 85 2 114 1 141 1 157 2 170 1 175 1 209 1 222 1 238 1 293 1 335 1 366 1 372 1 391 1 418 1 442 1 467 1 550 1 562 1 567 1 587 1 598 1 601 2 603 1 16 1 36 1 52 1 91 1 92 1 101 1 120 1 134 1 162 1 164 1 165 1 188 1 206 1 244 1 256 1 266 1 270 1 303 1 310 1 312 1 328 1 336 1 338 1 357 1 381 1 436 1 447 1 449 1 454 1 457 1 463 1 507 1 516 1 534 1 542 1 597 1 606 1 665 1 673 1 677 1 680 1 686 1 700 1 742 1 754 1 771 1 793 2 821 2 823 1 830 2 860 2 865 1 875 1 884 1 892 1 897 1 909 1 940 1 947 1 955 1 965 1 981 1 629 1 660 1 685 1 768 1 769 1 788 1 800 1 806 1 809 1 848 1 853 1 885 1 908 1 922 1 941 1 975 1 1000 1 1007 1 1015 1 1025 1 
1 207 23 1 26 1 32 2 35 1 58 1 62 1 68 1 73 1 88 1 90 1 91 1 136 1 139 1 140 1 154 1 165 1 194 1 202 1 209 1 232 1 234 1 241 2 247 1 272 1 279 1 297 1 303 1 355 1 391 1 408 1 411 1 419 1 465 1 475 1 482 1 483 1 486 1 536 1 546 1 601 1 617 1 10 1 38 1 46 1 86 1 87 1 103 1 158 1 162 1 172 1 175 1 181 1 182 1 208 1 222 1 265 1 271 1 282 1 301 1 334 1 349 1 401 1 405 1 436 1 450 1 469 1 507 1 509 1 519 1 550 1 558 1 572 1 584 1 620 1 627 1 627 1 636 1 639 1 646 1 709 2 754 1 776 1 783 1 798 1 804 1 819 1 827 1 863 1 929 1 947 1 959 1 983 1 647 1 654 1 655 1 683 1 686 1 694 1 695 1 702 1 729 1 760 1 805 1 818 1 832 1 838 1 850 1 895 1 896 1 906 1 932 1 946 1 
1 207 68 1 71 1 89 1 108 1 109 1 124 1 134 1 178 1 214 1 238 1 261 1 321 1 330 1 333 1 338 1 358 1 373 1 424 1 447 1 456 1 488 1 523 1 529 1 555 1 559 1 573 1 581 1 585 2 595 1 599 1 622 1 625 1 15 1 20 1 28 1 31 1 38 1 40 1 43 1 54 1 58 1 60 1 79 1 82 1 115 1 123 1 161 1 195 1 250 1 274 1 277 1 290 1 306 1 348 1 368 1 396 1 408 1 418 1 432 1 468 1 480 1 506 1 556 1 567 1 591 1 593 1 601 1 646 1 698 1 713 2 726 1 728 1 761 1 775 1 795 1 807 1 812 1 825 1 839 1 850 1 856 1 888 1 891 1 894 1 908 1 931 1 937 1 952 1 968 1 995 1 666 1 678 1 680 1 700 1 729 1 730 1 741 1 764 1 777 1 779 1 784 1 791 1 794 1 832 1 848 1 875 1 898 1 910 1 917 1 922 1 923 1 933 1 971 1 978 1 1012 1 1020 1 1026 1 
1 207 39 1 40 1 75 1 85 1 99 1 126 1 130 1 135 1 140 1 143 2 144 1 203 1 233 1 261 1 296 1 302 1 306 1 313 1 316 1 329 1 364 1 377 1 381 1 398 2 411 1 424 1 454 1 463 1 471 1 518 1 574 1 575 1 584 1 604 1 618 1 620 1 1 1 2 1 7 1 37 1 67 1 71 1 78 1 83 1 90 1 164 1 214 1 227 1 247 1 265 1 267 1 280 1 291 1 380 1 390 1 406 1 415 1 416 1 420 1 455 1 458 1 469 1 504 1 515 1 542 1 554 1 560 1 570 1 626 1 644 1 660 1 671 1 691 1 696 1 709 1 714 1 723 1 732 1 736 1 756 1 772 1 779 1 808 1 830 1 845 1 848 1 870 1 907 1 908 1 911 1 922 1 935 2 941 1 959 1 962 1 975 1 987 1 992 1 635 1 643 1 690 1 708 1 753 1 765 1 770 1 780 1 792 1 832 1 852 1 867 1 901 1 966 1 972 1 1025 1 
1 210 3 2 22 1 35 1 54 1 64 1 68 1 85 1 97 1 135 1 179 1 192 1 201 1 210 1 229 1 246 1 262 1 270 1 275 1 283 1 338 1 400 1 405 1 412 1 415 1 419 1 435 1 437 1 449 1 467 1 478 1 533 1 544 1 545 1 557 1 582 1 584 1 597 1 620 1 9 1 18 1 58 1 79 1 92 1 99 1 154 1 218 1 233 1 240 1 258 1 324 1 396 1 424 1 426 1 428 1 444 1 445 1 477 1 497 1 504 1 506 1 535 1 538 1 555 1 559 1 563 1 567 1 570 1 619 1 643 1 646 1 654 1 698 1 703 1 704 1 715 1 720 1 730 1 739 1 740 1 750 1 763 1 773 1 780 2 797 1 798 1 806 1 807 1 809 1 818 1 849 1 854 2 887 1 890 1 898 1 912 1 920 1 924 1 933 1 663 1 680 1 684 1 686 1 702 1 705 1 731 1 803 1 825 1 841 1 843 1 858 1 864 1 866 1 867 1 872 1 892 1 895 1 914 1 949 1 989 1 1019 1 1025 1 1027 1 
1 209 1 1 10 2 13 1 24 1 35 1 43 1 45 1 74 1 94 1 95 1 157 2 171 1 177 1 183 1 195 1 198 1 207 1 236 1 255 1 256 1 264 1 273 2 301 1 324 1 355 1 360 1 386 1 429 2 430 1 440 1 448 1 462 1 466 1 500 1 546 1 565 1 566 2 568 1 586 2 595 1 603 1 615 1 2 1 7 1 26 1 52 1 58 1 109 1 113 1 130 1 142 1 168 1 173 1 204 1 225 1 229 1 241 1 244 1 257 1 276 1 290 1 352 1 366 1 372 1 378 1 390 1 406 1 407 1 432 1 447 1 485 1 504 1 509 1 528 1 539 1 561 1 564 1 571 1 655 1 666 1 691 1 694 1 699 1 745 1 768 1 787 1 789 1 809 1 812 1 816 1 828 1 829 1 834 1 852 1 893 1 911 1 941 1 943 1 996 1 633 1 636 1 657 1 670 1 688 1 698 1 721 1 731 1 732 1 735 1 738 1 763 1 779 1 784 1 792 1 824 1 832 1 840 1 845 1 875 1 897 1 914 1 920 1 934 1 992 1 1000 1 1004 1 1016 1 
1 210 10 1 11 1 46 2 56 1 76 1 90 1 94 1 108 1 113 2 126 1 138 1 146 1 149 1 177 1 206 1 260 1 261 1 268 1 270 2 278 1 279 1 291 1 296 1 320 1 327 1 335 1 344 2 354 1 414 1 451 1 462 1 471 1 473 1 486 1 512 1 529 1 550 2 561 1 563 1 573 1 582 1 584 1 37 1 42 1 109 1 117 1 122 1 123 1 152 1 156 1 190 1 196 1 241 1 251 1 252 1 269 1 277 1 283 1 341 1 351 1 363 1 384 1 404 1 408 1 428 1 438 1 494 1 546 1 571 1 575 1 603 1 605 1 642 1 644 1 675 1 695 1 707 1 708 1 736 1 737 1 816 2 818 1 847 1 849 1 860 1 867 1 875 1 878 1 882 1 903 1 904 1 935 1 952 1 958 1 968 1 990 1 658 1 663 1 669 1 677 1 691 1 693 1 704 1 709 1 721 1 722 1 741 1 762 1 778 1 799 1 808 1 838 1 840 1 845 1 846 1 864 1 891 1 959 1 979 1 1009 1 
1 211 3 1 16 1 38 2 58 1 66 1 88 1 98 1 99 1 119 1 135 1 149 1 161 1 183 1 194 1 218 1 291 1 311 1 328 1 334 2 369 1 378 1 381 1 383 1 385 1 388 1 408 1 412 1 418 1 425 1 434 1 473 1 489 1 491 1 516 1 549 1 556 1 576 1 578 1 617 1 9 1 67 1 68 1 70 1 84 1 86 1 94 1 106 1 113 1 148 1 154 1 159 1 178 1 179 1 193 1 206 1 209 1 211 1 224 1 245 1 256 1 275 1 281 1 288 1 303 1 337 1 338 1 350 1 380 1 454 1 496 1 525 1 530 1 550 1 561 1 564 1 566 1 618 1 625 1 631 1 655 1 666 1 684 1 686 1 719 1 734 1 736 1 752 1 765 1 766 1 796 1 811 1 815 1 822 1 824 1 847 1 848 1 850 1 903 1 935 1 970 1 975 1 664 1 688 1 707 1 727 1 747 1 787 1 790 1 798 1 800 1 827 1 830 1 854 1 859 1 873 1 914 1 930 1 941 1 960 1 974 1 979 1 1006 1 1016 1 1017 1 1020 1 1023 1 
1 212 13 1 46 1 53 1 68 1 81 1 100 2 114 1 120 1 145 1 175 1 201 1 215 1 243 1 251 1 262 2 271 1 291 1 307 1 329 1 343 1 352 1 420 1 429 1 430 2 504 1 511 1 514 1 519 1 532 1 578 1 598 1 601 2 611 1 27 1 33 1 34 1 41 1 74 1 104 1 105 1 110 1 118 1 123 1 129 1 151 1 170 1 188 1 203 1 219 1 257 1 267 1 270 1 316 1 363 1 391 1 402 1 436 1 460 1 491 1 494 1 516 1 569 1 581 1 593 1 607 1 615 1 624 1 641 2 651 1 652 1 678 1 687 1 739 1 745 2 778 1 786 1 793 1 832 2 833 1 837 1 844 1 845 1 857 1 868 1 881 1 899 1 933 1 942 1 943 1 955 1 957 1 968 1 971 1 973 1 974 1 638 1 639 1 671 1 697 1 706 1 709 1 714 1 723 1 741 1 769 1 794 1 804 1 814 1 819 1 851 1 856 1 862 1 896 1 931 1 954 1 992 1 999 1 1006 1 1010 1 1025 1 1026 1 
1 210 7 1 10 1 30 1 46 1 84 2 95 1 97 2 132 1 139 1 153 1 157 1 164 1 180 1 203 1 238 1 239 1 242 1 268 1 270 1 287 1 299 1 309 1 323 1 325 1 332 1 343 1 345 1 352 1 357 1 360 1 371 1 397 1 405 1 434 1 439 1 459 1 466 1 477 1 498 1 506 1 509 1 514 2 524 2 527 1 538 1 545 1 563 1 575 1 584 1 612 1 621 1 25 1 26 1 53 1 75 1 89 1 158 1 196 1 197 1 210 1 212 1 215 1 220 1 228 1 229 1 235 1 246 1 289 1 329 1 336 1 351 1 361 1 383 1 412 1 420 1 447 1 453 1 495 1 517 1 529 1 530 1 534 1 535 1 624 1 629 1 709 1 715 1 719 1 722 1 723 1 734 1 737 1 740 1 825 1 862 1 885 1 913 1 644 1 661 1 663 1 689 1 725 1 764 1 786 1 796 1 826 1 834 1 866 1 894 1 915 1 917 1 924 1 950 1 982 1 989 1 1005 1 1019 1 1021 1 
1 207 6 2 18 1 51 2 77 1 106 1 142 1 209 1 220 1 222 1 223 1 261 1 270 1 281 1 308 1 353 1 395 1 414 1 427 1 485 1 498 1 503 1 523 2 529 1 558 1 563 1 592 1 594 1 627 1 17 1 36 1 47 1 48 1 53 1 57 1 179 1 239 1 252 1 255 1 278 1 289 1 310 1 316 1 327 1 354 1 358 1 392 1 398 1 401 1 410 1 445 1 449 1 452 1 458 1 512 1 517 1 526 1 528 1 553 1 579 1 581 1 598 1 615 1 631 1 639 1 665 1 668 1 669 1 682 1 691 1 720 1 771 1 776 1 816 1 833 1 881 1 913 1 917 1 933 1 938 1 949 1 977 1 660 1 671 1 677 1 705 1 713 1 718 1 746 1 777 1 795 1 805 1 848 1 889 1 900 1 903 1 918 1 932 1 939 1 963 1 966 1 1015 1 1016 1 
1 212 21 1 37 1 65 1 92 1 103 1 116 1 134 1 145 1 165 1 173 1 188 1 198 1 232 1 234 1 244 1 265 1 299 1 357 1 366 1 371 1 379 1 387 1 390 1 424 1 468 1 480 1 497 2 503 1 508 1 528 1 540 2 549 1 554 1 589 1 593 1 5 1 22 1 24 1 31 1 34 1 42 1 52 1 59 1 87 1 120 1 126 1 127 1 181 1 182 1 213 1 223 1 237 1 245 1 264 1 272 1 277 1 296 1 304 1 305 1 309 1 319 1 323 1 336 1 364 1 375 1 380 1 416 1 417 1 423 1 428 1 471 1 475 1 488 1 504 1 559 1 572 1 598 1 602 1 603 1 608 1 617 1 638 1 659 1 661 1 703 1 726 1 742 2 757 1 763 1 775 1 802 2 831 1 862 1 883 1 915 1 916 1 934 1 935 1 937 1 945 1 956 2 959 1 962 1 968 1 970 1 973 1 986 1 674 1 677 1 743 1 756 1 776 1 784 1 785 1 788 1 806 1 837 1 838 1 841 1 860 1 880 1 892 1 894 1 929 1 950 1 955 1 960 1 975 1 977 1 1010 1 
1 210 46 1 48 1 50 1 94 1 96 1 140 1 144 1 189 1 198 1 209 1 220 1 238 1 246 2 254 1 288 1 292 1 322 1 323 1 324 1 336 1 337 2 354 1 360 1 365 1 371 1 374 1 385 1 403 1 405 1 428 1 443 1 466 1 487 1 540 1 544 1 585 1 590 2 637 1 34 1 41 1 68 1 92 1 103 1 106 1 120 1 122 1 150 1 182 1 184 1 211 1 229 1 258 1 303 1 310 1 319 1 379 1 451 1 459 1 491 1 499 1 536 1 546 1 550 1 558 1 560 1 563 1 570 1 587 1 609 1 634 1 650 1 675 1 719 1 722 1 724 1 728 1 734 1 740 1 774 1 783 1 818 1 824 1 830 1 831 1 882 1 906 1 907 1 910 1 918 1 922 1 948 1 950 1 962 1 969 1 656 1 663 1 665 1 683 1 721 1 735 1 745 1 754 1 759 1 781 1 804 1 835 1 843 1 849 1 852 1 854 1 865 1 916 1 917 1 939 1 981 1 983 1 984 1 985 1 989 1 1016 1 1020 1 1026 1 
1 216 4 1 23 1 25 1 31 1 38 1 39 1 46 1 73 1 85 1 100 1 126 1 129 1 146 1 148 1 196 1 227 1 238 1 272 1 280 1 282 1 362 1 422 1 485 1 499 1 512 1 516 1 517 1 530 1 562 1 571 1 590 1 599 1 627 1 636 1 1 1 24 1 68 1 77 1 79 1 86 1 91 1 108 1 121 1 140 1 155 1 158 1 164 1 178 1 186 1 207 1 223 1 232 1 253 1 295 1 312 1 357 1 366 1 369 1 379 1 380 1 395 1 402 1 409 1 440 1 452 1 475 1 544 1 550 1 555 1 579 1 588 1 611 1 617 1 619 1 634 1 643 1 691 1 738 1 751 1 755 1 768 1 797 1 855 1 870 1 880 1 887 1 898 1 908 2 931 1 939 1 942 1 949 1 961 1 979 1 1001 1 649 1 658 1 687 1 698 1 716 1 724 1 778 1 780 1 787 1 805 1 824 1 825 1 856 1 878 1 882 1 892 1 922 1 938 1 984 1 1004 1 1009 1 1014 1 1017 1 1018 1 
1 213 30 1 56 1 58 1 60 1 72 1 74 1 79 1 80 1 84 1 99 1 122 1 126 1 130 1 143 1 154 1 156 1 206 1 216 1 228 2 372 1 390 1 410 1 436 1 444 1 451 1 483 1 505 1 545 2 551 1 556 1 579 1 581 1 591 1 605 1 615 1 3 1 22 1 24 1 26 1 46 1 68 1 75 1 81 1 101 1 117 1 197 1 205 1 229 1 233 1 255 1 260 1 266 1 283 1 290 1 302 1 309 1 321 1 343 1 348 1 361 1 368 1 379 1 397 1 414 1 415 1 426 1 427 1 447 1 477 1 490 1 509 1 510 1 561 1 577 1 590 1 598 1 604 1 645 1 655 1 673 2 676 1 690 2 710 1 728 1 746 1 747 1 801 1 828 1 864 1 886 1 949 1 950 1 959 1 969 1 974 1 675 1 677 1 686 1 712 1 718 1 759 1 768 1 784 1 794 1 798 1 823 1 834 1 843 1 850 1 883 1 885 1 889 1 902 1 918 1 924 1 981 1 984 1 987 1 1005 1 1010 1 1019 1 1027 1 
1 204 14 1 26 1 29 1 35 1 41 1 43 2 54 1 59 2 74 1 76 1 120 1 123 1 138 1 139 1 169 1 175 1 231 1 239 1 245 1 258 1 263 1 307 1 314 1 340 1 341 1 349 1 374 1 393 1 455 1 492 1 493 1 495 1 501 1 574 1 581 1 593 1 598 1 634 2 12 1 20 1 25 1 51 1 60 1 62 1 75 1 79 1 86 1 91 1 102 1 114 1 118 1 121 1 148 1 149 1 173 1 208 1 238 1 244 1 287 1 320 1 342 1 357 1 370 1 372 1 384 1 397 1 461 1 491 1 497 1 498 1 500 1 529 1 534 1 542 1 620 1 623 1 653 1 672 1 703 1 749 1 777 1 790 1 798 1 815 2 828 1 850 2 866 1 881 1 932 1 992 1 669 1 673 1 700 1 702 1 706 1 745 1 781 1 789 1 792 1 793 1 808 1 817 1 832 1 853 1 896 1 914 1 931 1 950 1 957 1 963 1 983 1 989 1 1005 1 
1 207 9 1 26 1 52 1 72 1 86 1 89 1 122 1 123 1 147 1 154 1 172 1 201 1 260 1 276 2 334 1 352 1 392 1 400 1 420 1 428 1 455 1 465 1 477 1 518 1 520 1 522 1 533 1 558 1 563 1 585 1 603 1 612 1 624 1 632 1 46 1 50 1 83 1 101 1 111 1 119 1 134 1 149 1 159 1 171 1 177 1 185 1 224 1 233 1 239 1 244 1 264 1 316 1 349 1 413 1 434 1 438 1 476 1 478 1 504 1 523 1 525 1 549 1 557 1 575 1 583 1 588 1 604 1 618 1 660 1 668 1 671 1 695 1 711 1 713 1 725 1 728 2 729 1 738 1 762 1 777 1 779 1 804 1 806 2 811 2 820 1 876 2 885 1 888 1 898 1 903 1 909 1 911 1 922 1 930 1 938 1 942 2 970 1 661 1 664 1 676 1 682 1 715 1 733 1 768 1 778 1 781 1 803 1 807 1 812 1 877 1 878 1 880 1 905 1 945 1 963 1 966 1 979 1 992 1 
1 207 31 1 71 1 82 1 95 1 103 1 137 1 176 1 192 1 215 1 221 1 232 1 238 1 279 1 315 1 317 1 354 1 363 1 373 1 389 1 417 1 423 1 458 1 460 1 484 1 509 1 513 1 516 1 527 1 535 1 553 2 555 1 557 1 568 1 575 1 581 1 586 1 609 1 610 1 611 1 630 1 639 1 6 1 11 1 12 1 25 1 26 1 36 1 40 1 69 1 70 1 77 1 81 1 108 1 117 1 120 1 131 1 147 1 152 1 153 1 179 1 183 1 193 1 197 1 229 1 239 1 245 1 305 1 313 1 321 1 357 1 370 1 378 1 383 1 399 1 411 1 421 1 479 1 507 1 569 1 574 1 578 1 604 1 605 1 629 1 722 1 747 1 751 1 765 1 769 1 770 1 795 1 796 1 812 1 830 1 836 1 884 2 891 1 892 1 942 1 960 1 967 1 677 1 685 1 738 1 761 1 801 1 832 1 839 1 883 1 890 1 895 1 898 1 911 1 930 1 989 1 1015 1 1023 1 1026 1 
1 209 21 1 55 1 73 1 94 1 187 1 189 1 221 1 230 1 231 2 250 1 254 1 259 1 260 1 268 1 278 1 321 1 324 1 378 1 390 1 446 1 467 1 468 1 470 1 494 1 508 1 512 1 524 1 531 1 568 1 578 1 580 1 584 1 601 1 608 1 629 1 632 1 12 1 27 1 61 1 95 1 153 1 170 1 171 1 241 1 245 1 253 1 284 1 287 1 306 1 307 1 313 1 325 1 327 1 330 1 354 1 384 1 401 1 402 1 412 1 413 1 416 1 423 1 427 1 436 1 469 1 488 1 489 1 542 1 550 1 556 1 575 1 576 1 589 1 596 1 622 1 635 1 647 1 664 1 671 1 713 1 726 1 737 1 738 1 799 1 822 1 859 1 878 1 891 1 893 1 896 1 903 2 904 1 910 1 913 1 959 1 963 1 991 1 995 1 655 1 686 1 722 1 766 1 778 1 789 1 886 1 905 1 915 1 922 1 946 1 957 1 964 1 984 1 1016 1 1017 1 
1 208 20 1 28 1 44 1 48 1 62 1 69 1 106 1 120 1 124 2 198 1 221 1 234 1 235 1 273 1 293 1 335 1 345 1 349 1 353 2 363 1 401 1 413 1 440 1 453 1 482 1 488 1 492 1 494 1 520 1 522 1 526 1 571 1 574 1 581 1 588 1 611 1 624 1 640 1 31 1 37 1 52 1 89 1 129 1 137 1 151 1 167 1 168 1 184 1 200 1 204 1 223 1 257 1 263 1 276 1 309 1 322 1 352 1 384 1 393 1 411 1 446 1 466 1 470 1 486 1 498 1 502 1 504 1 530 1 544 1 570 1 579 1 602 1 622 1 696 1 725 1 782 1 812 1 815 1 820 1 827 1 849 1 853 1 870 1 905 1 909 1 916 1 925 1 926 1 987 1 676 1 683 1 684 1 752 1 762 1 769 1 792 1 793 1 806 1 831 1 845 1 847 1 851 1 866 1 900 1 913 1 930 1 939 1 954 1 1018 1 1022 1 
1 210 4 1 12 1 49 1 53 2 99 1 104 1 177 1 214 1 223 1 224 1 262 1 272 1 284 1 306 1 308 1 318 1 328 1 329 1 339 1 401 1 406 1 409 1 414 1 454 1 458 2 469 1 515 1 547 1 576 1 581 1 607 1 610 1 617 1 627 1 628 1 630 1 21 1 32 1 42 1 44 1 51 1 98 1 137 1 155 1 160 1 185 1 207 1 227 1 263 1 320 1 326 1 349 1 365 1 372 1 415 1 425 1 427 1 492 1 508 1 550 1 552 1 597 1 616 1 650 1 657 1 660 1 664 1 680 1 735 1 801 1 809 1 812 1 822 1 840 1 877 1 894 1 900 1 917 1 926 1 945 1 962 2 965 2 983 1 649 1 653 1 676 1 688 1 692 1 714 1 776 1 785 1 799 1 802 1 833 1 837 1 850 1 873 1 882 1 896 1 913 1 920 1 932 1 954 1 1011 1 1015 1 1024 1 
1 206 10 1 21 1 58 1 75 1 87 1 127 1 147 1 207 1 208 1 215 1 252 1 257 1 297 1 305 1 310 1 314 1 348 1 426 1 441 1 474 1 478 1 516 1 537 1 541 1 549 1 555 1 557 1 561 1 565 1 575 1 594 1 613 1 620 1 622 1 644 1 37 1 44 1 48 1 67 1 74 1 101 1 109 1 125 1 129 1 173 1 190 1 202 1 211 1 241 1 268 1 275 1 278 1 281 1 286 1 289 1 338 1 361 1 387 1 389 1 398 1 399 1 405 1 425 1 432 1 434 1 453 1 479 1 505 1 514 1 550 1 553 1 618 1 627 1 691 1 720 1 752 1 765 1 768 1 804 1 807 1 826 1 841 1 850 1 851 1 874 1 877 1 919 1 939 1 947 1 988 1 1001 1 693 1 705 1 716 1 719 1 737 1 746 1 757 1 764 1 767 1 808 1 815 1 820 1 890 1 902 1 907 1 909 1 917 1 937 1 955 1 969 1 973 1 987 1 1015 1 1017 1 
1 213 3 1 11 1 33 1 49 1 61 1 71 1 74 1 89 1 104 1 112 1 158 1 175 1 182 1 193 1 223 1 262 1 284 1 300 1 314 1 353 1 385 1 398 1 404 1 410 1 413 1 441 1 448 1 462 2 477 1 489 2 494 1 497 1 519 1 574 1 603 1 30 1 82 1 94 1 97 1 101 1 114 1 119 1 133 1 164 1 174 1 208 1 214 1 240 1 256 1 299 1 327 1 332 1 337 1 354 1 369 1 370 1 373 1 388 1 470 1 483 1 498 1 532 1 536 1 550 1 557 1 559 1 571 1 615 1 654 1 661 1 668 1 675 2 676 1 689 1 700 1 736 1 785 1 808 2 911 1 913 1 914 1 928 1 945 1 949 1 959 1 960 1 968 1 649 1 680 1 685 1 698 1 703 1 719 1 723 1 727 1 729 1 740 1 747 1 816 1 840 1 849 1 869 1 870 1 875 1 876 1 906 1 923 1 989 1 991 1 1004 1 1017 1 1022 1 
1 209 1 1 14 1 33 1 51 1 100 1 104 1 110 1 141 1 166 1 180 1 185 1 220 1 229 1 231 1 249 1 265 1 278 1 280 1 286 1 294 1 344 1 364 1 398 1 399 1 404 1 429 1 437 1 448 1 449 1 468 1 485 1 491 2 497 1 504 1 510 1 512 1 518 1 530 2 544 1 586 1 602 1 619 1 19 1 93 1 112 1 123 1 136 1 184 1 187 1 216 1 239 1 241 1 250 1 271 1 284 1 293 1 323 1 387 1 433 1 455 1 463 1 470 1 492 1 499 1 502 1 511 1 547 1 556 1 560 1 577 1 579 1 591 1 610 1 623 1 639 1 646 1 648 1 672 1 694 1 708 1 724 1 754 2 763 1 792 1 828 1 855 1 859 1 864 1 868 1 897 1 903 2 904 1 914 2 956 1 657 1 666 1 687 1 716 1 717 1 721 1 762 1 771 1 774 1 777 1 787 1 794 1 801 1 822 1 831 1 836 1 850 1 851 1 874 1 890 1 901 1 911 1 936 1 985 1 1002 1 1027 1 
1 205 8 1 17 1 99 1 105 1 128 2 139 1 147 1 159 1 174 2 179 1 184 1 206 1 230 1 234 1 236 1 239 1 254 1 257 2 284 1 286 1 306 1 310 1 311 1 331 1 373 1 377 1 394 1 407 1 445 1 457 1 461 1 474 1 476 1 510 1 518 1 527 2 533 2 554 1 572 1 591 1 598 1 601 1 638 1 646 1 12 1 30 1 33 1 55 1 59 1 61 1 84 1 100 1 127 1 178 1 203 1 211 1 220 1 229 1 260 1 270 1 281 1 314 1 318 1 398 1 409 1 420 1 424 1 431 1 440 1 480 1 498 1 514 1 517 1 559 1 579 1 609 1 666 1 709 1 716 1 729 1 737 1 743 1 757 1 778 1 789 1 795 1 799 1 810 1 821 1 822 1 830 1 901 1 906 1 919 1 930 1 932 1 940 1 943 1 949 1 966 1 658 1 683 1 702 1 726 1 742 1 836 1 840 1 861 1 864 1 865 1 869 1 884 1 895 1 899 1 916 1 946 1 953 1 956 1 964 1 988 1 997 1 1015 1 1019 1 1023 1 1027 1 
1 210 2 1 50 1 68 1 92 1 117 1 153 2 159 1 160 1 209 1 213 1 233 1 251 1 266 1 284 1 302 1 313 1 317 1 321 1 331 1 353 1 361 1 406 1 415 1 438 1 439 1 454 1 461 1 468 1 476 1 487 1 499 1 500 1 533 1 561 1 586 2 588 1 599 1 611 1 634 1 8 1 22 1 26 1 35 1 70 1 77 1 79 1 99 1 121 1 129 1 130 1 167 1 178 1 184 1 197 1 203 1 214 1 216 1 219 1 227 1 242 1 261 1 292 1 330 1 350 1 367 1 370 1 384 1 399 1 423 1 466 1 485 1 498 1 529 1 544 1 554 1 570 1 571 1 579 1 616 1 682 1 720 1 748 1 780 1 818 1 822 1 825 2 829 1 832 1 841 2 846 1 873 2 892 1 909 1 915 1 920 1 927 1 980 1 985 1 686 1 699 1 712 1 718 1 726 1 733 1 746 1 753 1 798 1 804 1 810 1 828 1 845 1 878 1 910 1 917 1 931 1 934 1 981 1 983 1 1000 1 1006 1 1008 1 
1 211 58 1 94 2 106 1 110 1 132 1 133 1 144 1 170 1 173 1 176 2 183 1 187 1 204 1 256 1 259 1 269 1 283 1 320 1 345 1 349 1 354 1 361 1 364 1 377 1 390 1 442 2 480 1 486 1 499 1 518 2 539 2 568 1 580 1 583 1 595 1 602 1 607 1 622 1 625 1 634 1 13 1 40 1 51 1 69 1 76 1 85 1 95 1 99 1 126 1 130 1 134 1 161 1 181 1 200 1 239 1 250 1 260 1 266 1 272 1 276 1 314 1 356 1 373 1 406 1 408 1 415 1 423 1 439 1 477 1 536 1 562 1 587 1 596 1 617 1 653 2 704 1 712 1 758 1 776 1 777 1 779 1 789 1 793 1 842 1 849 1 873 1 898 1 988 1 673 1 681 1 761 1 764 1 766 1 783 1 790 1 794 1 806 1 810 1 833 1 894 1 902 1 927 1 932 1 942 1 956 1 971 1 979 1 985 1 990 1 1003 1 1004 1 1011 1 1027 1 
1 216 12 1 16 1 17 2 27 1 53 1 90 2 115 1 121 2 126 1 130 2 143 1 144 1 185 1 214 1 228 2 230 1 246 1 273 1 351 1 352 1 406 1 415 1 455 1 510 1 515 1 533 1 551 1 565 1 576 1 580 1 641 1 652 2 7 1 88 1 136 1 147 1 148 1 160 1 226 1 227 1 229 1 233 1 239 1 245 1 250 1 258 1 313 1 315 1 318 1 322 1 326 1 328 1 340 1 355 1 387 1 394 1 422 1 430 1 435 1 473 1 485 1 493 1 535 1 646 1 673 1 720 1 723 1 727 1 740 1 744 1 760 2 784 1 787 1 846 1 853 1 866 1 915 1 920 1 933 1 659 1 664 1 671 1 724 1 725 1 729 1 733 1 775 1 776 1 781 1 789 1 811 1 831 1 850 1 862 1 896 1 902 1 910 1 921 1 935 1 941 1 968 1 989 1 1004 1 1007 1 1008 1 1017 1 1019 1 1027 1 
1 215 2 1 20 1 53 1 77 1 81 1 100 1 117 1 137 1 153 1 164 1 167 1 218 2 224 1 228 1 241 1 249 1 275 1 276 1 277 1 294 1 309 1 316 1 317 1 331 1 348 2 361 1 386 1 398 2 400 1 418 1 429 1 445 1 452 1 477 1 483 1 534 1 539 1 600 1 630 1 648 1 23 1 25 1 44 1 45 1 65 1 92 1 93 1 116 1 128 1 136 1 150 1 155 1 226 1 239 1 279 1 303 1 329 1 388 1 402 1 413 1 437 1 456 1 457 1 464 1 488 1 497 1 503 1 537 1 541 1 546 1 551 1 556 1 568 1 595 1 608 1 612 1 627 1 665 1 681 1 683 1 690 2 812 1 813 2 867 2 914 1 943 1 963 2 967 1 976 2 658 1 688 1 699 1 709 1 770 1 772 1 790 1 805 1 828 1 846 1 871 1 878 1 890 1 908 1 925 1 930 1 937 1 1002 1 1006 1 1010 1 1025 1 1026 1 
1 213 7 1 14 1 57 1 63 1 73 1 101 1 115 1 118 1 139 1 146 1 177 1 186 1 243 1 247 1 261 1 267 1 278 1 290 1 314 1 315 1 334 1 374 1 410 1 470 1 476 1 480 1 484 1 492 1 515 1 543 1 570 1 578 1 597 1 606 1 631 1 633 1 640 1 47 1 54 1 59 1 64 1 103 1 106 1 113 1 137 1 191 1 200 1 218 1 229 1 257 1 322 1 328 1 386 1 413 1 415 1 425 1 438 1 462 1 524 1 526 1 527 1 532 1 539 1 549 1 556 1 600 1 601 1 623 1 625 1 627 1 644 1 666 2 672 1 679 1 692 1 722 1 729 1 743 1 751 1 755 1 810 1 831 1 845 1 859 1 916 1 920 1 932 1 951 1 953 1 984 1 703 1 705 1 718 1 774 1 804 1 824 1 830 1 853 1 878 1 883 1 900 1 922 1 964 1 975 1 986 1 996 1 1014 1 1015 1 1018 1 1025 1 
1 204 1 1 39 1 64 1 65 1 66 1 106 1 112 1 127 1 128 1 133 1 137 1 155 1 173 2 192 2 224 1 246 1 260 1 285 1 334 1 339 1 356 1 374 1 386 1 393 1 403 1 414 1 419 1 430 1 436 1 444 1 507 1 521 1 522 1 523 1 530 1 601 1 618 1 622 1 5 1 29 1 45 1 78 1 82 1 93 1 107 1 110 1 125 1 156 1 169 1 201 1 222 1 231 1 233 1 245 1 250 1 272 1 296 1 305 1 321 1 333 1 390 1 399 1 416 1 449 1 455 1 504 1 505 1 524 1 537 1 546 1 554 1 563 1 569 1 592 1 597 1 638 1 665 1 685 1 717 1 720 1 785 1 813 1 835 1 839 1 841 1 856 1 872 1 875 1 876 1 882 2 901 1 902 1 919 1 988 1 993 1 671 1 677 1 713 1 716 1 723 1 725 1 738 1 757 1 781 1 821 1 825 1 829 1 852 1 880 1 885 1 917 1 935 1 945 1 962 1 990 1 1003 1 
1 211 2 1 27 1 29 2 61 1 68 1 83 1 90 1 93 1 106 1 108 1 136 1 140 1 145 1 172 1 182 1 199 1 200 1 216 1 217 1 245 1 266 2 334 1 340 1 364 1 365 1 378 1 385 1 485 1 494 1 524 2 553 1 573 1 613 1 624 1 646 1 4 1 6 1 20 1 92 1 116 1 137 1 151 1 156 1 159 1 184 1 191 1 219 1 224 1 227 1 237 1 261 1 262 1 265 1 277 1 286 1 295 1 326 1 357 1 373 1 380 1 388 1 416 1 422 1 427 1 440 1 472 1 487 1 495 1 499 1 523 1 554 1 556 1 597 1 602 1 631 1 649 1 675 1 686 1 700 1 702 1 738 1 749 1 754 1 780 1 804 1 845 1 846 1 856 1 875 1 899 1 935 1 964 1 996 1 669 1 682 1 689 1 710 1 727 1 731 1 734 1 737 1 796 1 797 1 829 1 833 1 844 1 860 1 876 1 878 1 961 1 972 1 990 1 995 1 1003 1 1013 1 1015 1 1018 1 
1 207 3 1 48 1 52 1 61 1 62 1 69 1 89 1 158 1 171 1 172 1 182 1 188 2 190 1 232 1 239 1 287 1 309 1 322 2 331 1 352 1 390 1 399 1 403 1 425 1 429 1 457 2 468 1 478 1 500 1 525 1 548 1 552 1 560 1 576 1 588 1 601 1 603 1 606 1 615 1 35 1 101 1 111 1 112 1 179 1 181 1 186 1 195 1 225 1 262 1 288 1 314 1 349 1 360 1 378 1 417 1 418 1 428 1 465 1 471 1 528 1 533 1 537 1 540 1 563 1 619 1 632 1 639 1 650 1 654 1 673 1 692 1 710 1 714 1 717 1 723 1 733 1 736 1 739 1 749 1 779 1 819 1 824 1 841 1 843 1 846 1 861 1 882 1 886 1 892 1 897 1 907 1 909 1 910 1 911 1 923 1 925 1 936 1 940 1 951 1 984 1 998 1 670 1 702 1 735 1 774 1 785 1 797 1 799 1 816 1 838 1 844 1 855 1 857 1 873 1 905 1 917 1 928 1 957 1 994 1 1023 1 
1 206 22 1 34 1 36 1 41 1 52 1 57 1 68 1 82 1 88 1 93 2 121 1 124 2 140 1 147 1 154 1 159 1 187 1 189 1 194 1 216 1 218 1 226 1 263 1 281 1 356 1 357 1 382 1 385 1 438 1 460 1 472 1 481 1 497 1 501 1 513 1 554 1 586 1 601 1 605 1 615 1 637 1 16 1 23 1 86 1 94 1 117 1 136 1 146 1 165 1 179 1 185 1 193 1 227 1 232 1 240 1 262 1 267 1 305 1 319 1 351 1 394 1 435 1 441 1 471 1 482 1 488 1 494 1 510 1 529 1 539 1 556 1 560 1 568 1 569 1 617 1 653 1 682 1 684 1 691 1 702 1 732 1 744 2 752 1 753 2 758 1 765 1 777 1 782 1 786 1 803 1 804 1 841 1 858 1 882 1 887 1 889 1 897 1 898 1 908 2 918 1 932 1 934 1 937 1 943 1 967 1 985 1 991 1 999 1 739 1 749 1 772 1 773 1 776 1 787 1 810 1 855 1 859 1 912 1 913 1 931 1 946 1 948 1 971 1 989 1 996 1 1012 1 1013 1 
1 209 17 1 24 1 54 1 59 1 86 2 118 1 163 1 195 1 197 1 203 1 219 1 226 1 231 1 251 2 256 1 268 1 308 1 373 1 378 1 437 1 448 1 461 1 463 1 473 1 514 1 530 1 588 1 596 1 601 1 606 1 608 2 629 1 642 1 646 1 31 1 35 1 61 1 107 1 138 1 152 1 186 1 220 1 221 1 240 1 242 1 271 1 283 1 290 1 301 1 335 1 359 1 379 1 382 1 383 1 407 1 423 1 455 1 459 1 474 1 495 1 497 1 505 1 507 1 511 1 519 1 524 1 549 1 577 1 581 1 590 1 593 1 612 1 623 1 626 1 636 1 660 1 660 1 665 1 673 1 680 1 712 1 721 1 724 1 749 1 750 1 773 1 776 1 781 1 784 1 788 1 857 1 858 1 868 1 882 2 888 1 911 1 919 1 931 1 970 1 983 1 988 1 668 1 696 1 701 1 705 1 707 1 711 1 716 1 768 1 798 1 804 1 807 1 815 1 859 1 897 1 928 1 960 1 995 1 1017 1 1024 1 1025 1 
1 212 51 1 57 1 90 1 128 1 157 1 181 1 183 1 211 1 241 1 256 1 260 1 261 1 262 1 273 1 274 1 284 1 293 1 300 1 302 2 310 1 342 1 343 1 353 1 359 1 369 1 373 1 397 1 400 1 407 1 436 1 452 1 460 1 490 1 500 1 529 1 533 1 534 1 542 1 577 1 579 1 590 1 600 1 617 1 637 1 648 1 25 1 70 1 107 1 111 1 140 1 151 1 169 1 202 1 216 1 228 1 229 1 239 1 249 1 266 1 301 1 328 1 352 1 364 1 368 1 384 1 402 1 410 1 431 1 432 1 457 1 469 1 472 1 473 1 481 1 482 1 498 1 521 1 537 1 552 1 564 1 585 1 622 1 635 1 642 1 663 1 669 1 695 1 718 1 729 1 736 1 753 1 771 1 775 1 782 1 791 1 792 1 806 1 813 1 820 1 826 1 859 1 879 2 881 1 923 1 948 1 969 1 970 1 992 1 994 1 664 1 668 1 692 1 709 1 722 1 746 1 756 1 764 1 770 1 776 1 785 1 822 1 829 1 833 1 845 1 868 1 870 1 878 1 882 1 935 1 967 1 1008 1 1012 1 1013 1 1016 1 1020 1 1024 1 
1 210 4 1 41 1 57 1 116 2 132 1 136 1 137 1 154 1 156 1 160 1 166 1 215 2 226 1 236 1 245 1 278 1 306 1 317 1 350 1 363 1 374 1 388 1 401 2 415 1 456 2 480 1 506 1 518 1 535 1 565 1 572 1 581 1 589 2 17 1 28 1 39 1 75 1 92 1 107 1 159 1 173 1 202 1 207 1 228 1 230 1 238 1 240 1 255 1 330 1 348 1 352 1 356 1 384 1 398 1 427 1 437 1 467 1 481 1 522 1 537 1 676 1 740 1 752 1 756 1 772 2 789 1 806 1 828 1 879 1 900 1 901 1 943 1 951 1 987 1 666 1 674 1 675 1 677 1 708 1 712 1 742 1 775 1 778 1 788 1 810 1 811 1 843 1 857 1 867 1 876 1 889 1 904 1 923 1 926 1 935 1 939 1 962 1 968 1 975 1 998 1 1011 1 
1 205 25 2 39 1 60 1 67 1 73 2 79 1 80 1 119 1 120 1 123 1 131 1 132 1 144 1 166 1 170 1 175 1 194 1 196 1 234 1 238 1 244 1 252 1 262 1 265 1 270 1 291 1 293 1 323 1 360 1 413 1 421 1 460 1 503 1 518 1 537 1 552 1 556 1 558 1 578 1 582 1 603 1 661 1 28 1 126 1 163 1 192 1 211 1 226 1 256 1 292 1 308 1 347 1 351 1 366 1 369 1 397 1 471 1 472 1 520 1 523 1 544 1 546 1 554 1 573 1 581 1 630 1 632 1 635 1 638 1 698 1 702 1 707 1 714 1 725 1 727 1 732 1 748 1 749 1 798 1 803 1 819 1 874 1 903 1 913 1 927 2 937 1 953 1 959 2 974 1 978 1 667 1 703 1 765 1 766 1 824 1 841 1 851 1 882 1 898 1 904 1 929 1 940 1 952 1 964 1 1010 1 1020 1 
1 213 27 1 29 1 30 1 37 1 84 1 119 1 150 1 158 2 193 1 214 1 293 1 294 1 302 1 311 1 340 1 361 1 377 1 396 1 403 1 404 1 440 1 458 1 459 1 460 1 477 1 479 1 503 1 524 1 606 1 613 1 623 1 644 1 646 1 17 1 47 1 55 1 69 1 73 1 95 1 120 1 176 1 189 1 233 1 251 1 256 1 258 1 265 1 271 1 273 1 304 1 307 1 338 1 364 1 401 1 426 1 468 1 484 1 492 1 498 1 519 1 534 1 547 1 601 1 614 1 624 1 633 1 642 1 653 1 661 1 687 1 689 2 698 1 708 1 728 1 750 1 755 1 761 1 763 1 783 1 787 1 790 1 799 1 841 1 842 2 850 1 878 1 899 1 904 1 926 1 949 1 956 1 991 1 682 1 769 1 800 1 840 1 845 1 856 1 863 1 907 1 914 1 930 1 953 1 973 1 1009 1 1012 1 1013 1 1020 1 1021 1 1026 1 
1 209 2 1 26 1 29 1 66 1 87 1 103 1 137 1 159 1 168 1 197 1 210 1 214 1 223 1 243 1 261 1 263 1 266 2 278 1 289 2 317 1 335 1 341 1 357 2 359 1 376 1 412 1 413 1 417 1 446 1 464 1 487 1 492 1 519 1 520 1 535 1 566 1 586 1 600 1 626 1 636 1 654 1 656 1 660 1 18 1 30 1 38 1 72 1 73 1 85 1 89 1 101 1 106 1 139 1 143 1 152 1 176 1 219 1 221 1 222 1 252 1 255 1 291 1 295 1 297 1 322 1 328 1 366 1 373 1 384 1 391 1 404 1 408 1 416 1 422 1 425 1 444 1 453 1 465 1 521 1 544 1 548 1 549 1 564 1 585 1 588 1 620 1 638 1 690 1 723 1 732 1 742 1 745 1 751 1 755 1 768 1 783 1 802 1 829 1 846 1 878 1 894 1 937 1 954 1 963 1 981 1 982 1 983 1 667 1 705 1 708 1 756 1 759 1 782 1 784 1 787 1 831 1 836 1 848 1 855 1 865 1 905 1 913 1 950 1 973 1 
1 216 23 2 29 1 41 1 72 1 81 1 84 1 86 1 94 1 112 1 121 1 122 1 160 1 161 1 168 1 175 1 184 1 186 1 226 1 229 1 230 1 233 1 254 1 257 1 305 2 341 1 390 1 412 1 418 1 431 1 433 1 434 1 459 1 468 1 476 1 477 1 522 1 547 1 556 1 559 1 577 1 604 1 606 1 611 1 613 1 620 2 631 1 633 1 650 1 655 2 27 1 28 1 77 1 107 1 155 1 177 1 217 1 263 1 307 1 315 1 326 1 335 1 349 1 358 1 364 1 366 1 400 1 402 1 407 1 410 1 415 1 445 1 461 1 484 1 528 1 575 1 598 1 610 1 628 1 649 1 662 1 706 1 753 1 755 1 759 1 760 1 764 1 766 1 787 1 835 1 861 1 867 1 886 1 932 1 938 1 953 1 679 1 741 1 772 1 791 1 799 1 817 1 826 1 837 1 840 1 850 1 853 1 882 1 903 1 913 1 914 1 920 1 973 1 978 1 981 1 984 1 1003 1 1008 1 1012 1 1022 1 
1 210 3 1 71 1 85 1 105 1 133 1 152 1 162 1 163 1 199 1 206 1 208 1 235 1 240 1 256 2 291 1 295 2 298 1 308 1 316 1 321 1 349 1 398 1 401 1 412 1 437 1 445 1 454 1 471 1 490 1 518 1 551 1 591 1 596 1 606 1 19 1 26 1 27 1 59 1 79 1 97 1 98 1 102 1 118 1 128 1 129 1 150 1 166 1 181 1 192 1 224 1 229 1 238 1 251 1 259 1 265 1 281 1 327 1 333 1 364 1 389 1 392 1 405 1 406 1 419 1 443 1 467 1 469 1 479 1 492 1 524 1 609 1 663 1 665 1 700 1 726 1 727 1 731 1 741 1 755 1 771 1 792 1 793 1 822 1 840 1 841 1 894 1 895 1 905 1 942 1 715 1 729 1 736 1 740 1 768 1 794 1 800 1 830 1 842 1 846 1 869 1 884 1 913 1 918 1 923 1 928 1 951 1 956 1 958 1 994 1 997 1 1013 1 1027 1 
1 209 25 1 37 2 45 1 73 1 83 1 106 1 120 1 128 1 130 1 174 2 198 1 200 1 233 1 252 1 255 1 272 1 275 1 283 1 298 1 309 1 313 1 317 1 319 1 340 2 371 1 380 1 419 1 424 1 441 2 449 1 497 1 532 1 541 1 563 1 585 1 598 1 603 1 606 1 613 1 636 1 642 1 648 1 31 1 32 1 35 1 48 1 57 1 84 1 99 1 112 1 114 1 137 1 141 1 176 1 223 1 237 1 241 1 259 1 299 1 331 1 339 1 352 1 355 1 389 1 391 1 392 1 394 1 427 1 442 1 452 1 459 1 479 1 514 1 573 1 581 1 660 1 661 1 678 1 700 1 706 1 775 2 782 1 784 1 807 1 812 1 823 1 847 1 859 1 861 1 870 1 885 1 888 1 889 1 901 1 923 1 942 1 679 1 680 1 688 1 699 1 741 1 747 1 748 1 762 1 765 1 771 1 776 1 777 1 796 1 811 1 850 1 872 1 873 1 904 1 913 1 917 1 918 1 920 1 974 1 980 1 986 1 994 1 1004 1 1021 1 1024 1 
1 215 26 1 33 1 59 1 65 1 73 1 103 1 123 1 124 1 140 2 141 1 143 1 150 1 159 1 175 1 184 1 189 1 202 1 209 1 224 1 250 1 251 1 252 1 263 1 273 1 284 1 302 1 339 2 350 1 409 1 490 1 507 1 513 1 518 1 553 1 567 1 569 1 572 1 621 1 623 1 625 2 636 1 661 1 51 1 57 1 74 1 80 1 84 1 118 1 131 1 153 1 156 1 172 1 177 1 198 1 221 1 226 1 235 1 244 1 254 1 266 1 267 1 331 1 375 1 425 1 432 1 458 1 486 1 495 1 514 1 554 1 580 1 586 1 591 1 599 1 601 1 632 1 641 1 657 1 675 1 678 1 691 1 693 1 698 1 762 1 768 1 776 1 790 1 791 1 812 1 821 1 823 1 826 1 836 1 886 1 888 1 891 1 976 1 985 1 997 1 681 1 688 1 716 1 724 1 741 1 758 1 785 1 793 1 829 1 835 1 845 1 863 1 910 1 927 1 951 1 967 1 984 1 1011 1 1012 1 1026 1 
1 204 9 1 10 1 16 1 21 1 24 1 106 1 116 1 136 1 155 1 173 1 177 1 210 1 218 1 221 1 229 1 232 1 247 2 250 1 254 1 279 1 280 1 287 1 292 1 307 1 382 1 390 1 402 1 406 1 410 1 483 1 502 1 522 1 527 1 535 1 556 1 4 1 29 1 46 1 52 1 98 1 104 1 148 1 192 1 193 1 238 1 249 1 264 1 268 1 271 1 284 1 285 1 288 1 295 1 300 1 344 1 348 1 371 1 386 1 424 1 442 1 449 1 454 1 455 1 467 1 470 1 487 1 500 1 557 1 581 1 585 1 587 1 631 1 658 1 681 1 713 1 727 2 730 2 752 1 755 1 777 1 779 1 784 1 793 1 798 1 849 1 850 1 861 1 866 1 882 1 890 1 896 1 914 1 918 1 971 1 979 1 985 1 696 1 707 1 743 1 760 1 766 1 809 1 819 1 829 1 831 1 933 1 946 1 968 1 1002 1 1010 1 1021 1 1027 1 
1 211 9 1 13 1 33 1 64 1 83 1 105 1 127 1 144 1 147 1 161 1 201 1 203 2 219 1 235 1 240 1 263 1 265 1 268 1 294 1 301 1 322 1 326 1 331 1 335 1 356 1 362 1 384 1 399 1 442 2 447 1 450 1 474 1 486 1 489 1 530 1 541 1 559 1 563 1 584 1 588 1 594 1 598 1 600 1 629 1 642 1 644 1 95 1 97 1 98 1 123 1 128 1 131 1 169 1 171 1 176 1 180 1 182 1 184 1 189 1 217 1 237 1 244 1 247 1 293 1 307 1 332 1 351 1 392 1 406 1 416 1 419 1 438 1 446 1 484 1 487 1 529 1 551 1 557 1 585 1 625 1 634 1 636 1 653 1 656 1 694 1 695 1 697 1 742 1 755 1 758 1 798 1 815 1 835 1 881 1 916 1 942 1 680 1 707 1 714 1 762 1 769 1 778 1 804 1 820 1 873 1 885 1 894 1 898 1 900 1 902 1 914 1 945 1 947 1 952 1 978 1 990 1 993 1 1014 1 1015 1 
1 205 59 1 67 1 86 1 94 1 114 1 144 1 152 1 173 1 189 1 190 1 207 1 224 1 248 1 249 1 259 1 263 1 281 1 304 1 333 1 366 1 380 1 431 1 439 1 440 1 443 1 468 1 472 1 473 1 494 1 498 1 499 1 567 1 594 1 602 1 603 1 641 1 649 1 655 1 7 1 17 1 24 1 46 1 49 1 57 1 84 1 132 1 146 1 158 1 176 1 177 1 180 1 225 1 239 1 283 1 299 1 343 1 355 1 396 1 422 1 430 1 444 1 485 1 518 1 540 1 542 1 550 1 565 1 573 1 575 1 577 1 674 1 686 1 731 2 798 2 806 1 824 1 828 1 831 1 853 1 867 1 899 1 900 1 906 1 912 2 913 1 938 1 979 1 675 1 724 1 727 1 746 1 767 1 814 1 866 1 874 1 875 1 901 1 918 1 957 1 959 1 975 1 982 1 1023 1 
1 210 29 1 30 1 33 1 41 1 42 1 54 1 58 1 63 1 95 1 100 1 138 1 154 1 164 1 173 1 178 1 197 1 237 1 255 1 293 1 298 1 306 1 322 1 337 1 357 1 368 1 472 2 543 1 549 1 551 1 569 1 626 1 640 2 653 1 658 1 660 1 18 1 26 1 48 1 71 1 120 1 129 1 131 1 156 1 163 1 190 1 220 1 256 1 258 1 259 1 292 1 303 1 339 1 340 1 343 1 355 1 382 1 404 1 407 1 428 1 434 1 502 1 503 1 512 1 513 1 518 1 522 1 530 1 537 1 539 1 550 1 552 1 612 1 641 1 652 1 678 1 686 1 698 1 703 1 719 1 740 1 742 1 743 1 768 1 798 1 841 1 844 2 852 1 889 1 890 1 899 1 950 1 988 1 994 1 1001 1 697 1 712 1 732 1 750 1 784 1 790 1 800 1 813 1 820 1 834 1 846 1 847 1 858 1 864 1 892 1 948 1 949 1 951 1 955 1 977 1 1010 1 1025 1 
1 213 9 1 34 1 48 2 64 2 69 1 88 1 99 1 165 1 173 1 188 1 190 2 194 1 217 1 237 1 245 1 264 1 267 1 331 1 351 1 378 1 404 1 406 1 407 1 503 1 513 1 532 1 549 1 550 1 556 1 606 1 622 1 672 1 2 1 11 1 42 1 59 1 109 1 176 1 187 1 204 1 255 1 293 1 296 1 306 1 386 1 391 1 405 1 446 1 477 1 484 1 495 1 539 1 577 1 582 1 584 1 593 1 615 1 637 1 662 1 678 1 685 1 689 1 711 1 731 1 740 1 763 1 767 1 768 1 777 1 795 1 806 1 816 1 818 1 846 1 853 1 877 2 888 1 896 1 899 1 902 1 975 1 986 1 988 1 989 1 990 1 1000 2 683 1 696 1 720 1 733 1 737 1 738 1 749 1 782 1 784 1 800 1 808 1 827 1 832 1 844 1 866 1 895 1 910 1 928 1 944 1 949 1 983 1 984 1 1006 1 1014 1 1018 1 
1 212 11 1 39 1 66 1 76 1 134 1 137 1 159 2 161 1 168 1 177 1 178 1 192 1 197 1 221 1 234 1 249 1 254 1 289 1 302 1 322 1 326 1 329 1 337 1 359 1 361 1 394 1 422 1 444 1 459 1 463 1 475 1 488 1 521 1 526 1 529 1 546 1 559 1 569 1 572 1 632 1 638 1 648 2 657 1 669 1 26 1 59 1 60 1 85 1 87 1 151 1 166 1 291 1 304 1 365 1 384 1 417 1 472 1 490 1 502 1 524 1 558 1 584 1 603 1 640 1 662 1 672 1 679 1 685 1 705 1 709 1 718 1 719 1 728 1 762 1 800 2 838 1 856 1 859 1 892 2 900 1 926 1 936 1 939 1 987 1 678 1 701 1 723 1 733 1 742 1 747 1 748 1 753 1 780 1 790 1 818 1 886 1 906 1 917 1 962 1 971 1 985 1 997 1 1014 1 1019 1 1023 1 1026 1 
1 207 37 1 82 1 86 1 117 1 118 1 129 1 130 1 137 2 152 1 173 1 177 1 178 1 191 1 218 1 235 2 243 1 246 1 254 1 273 1 283 1 340 1 342 1 359 1 380 1 393 1 414 1 416 1 426 1 456 1 464 2 484 1 531 1 533 1 549 2 565 1 640 1 648 1 662 1 11 1 14 1 22 1 64 1 128 1 154 1 160 1 205 1 209 1 217 1 225 1 237 1 239 1 266 1 274 1 299 1 302 1 323 1 343 1 357 1 366 1 374 1 375 1 415 1 417 1 428 1 430 1 472 1 477 1 601 1 642 1 645 1 646 1 686 1 694 1 695 1 716 2 764 1 776 1 787 2 816 2 850 1 858 1 878 1 903 1 916 1 960 1 961 1 985 1 992 1 996 1 681 1 692 1 754 1 771 1 783 1 814 1 833 1 847 1 871 1 890 1 905 1 919 1 928 1 943 1 986 1 1010 1 
1 205 3 1 9 1 32 1 68 1 76 2 100 1 199 1 228 2 301 1 309 1 320 1 363 1 365 1 368 1 404 1 425 1 457 1 510 1 520 1 525 1 543 1 569 1 585 1 600 1 612 1 626 1 34 1 41 1 55 1 119 1 139 1 157 1 181 1 206 1 229 1 250 1 251 1 259 1 261 1 264 1 274 1 286 1 302 1 308 1 323 1 335 1 352 1 382 1 384 1 394 1 415 1 421 1 440 1 448 1 481 1 489 1 492 1 530 1 605 1 615 1 632 1 636 1 637 1 640 1 643 1 656 1 662 1 682 1 698 1 711 1 721 1 729 1 737 1 742 1 748 1 792 1 804 1 826 1 854 1 856 1 861 1 881 1 892 1 895 1 928 1 943 1 970 1 982 1 684 1 691 1 697 1 699 1 706 1 708 1 734 1 773 1 812 1 840 1 887 1 901 1 930 1 935 1 944 1 972 1 980 1 997 1 1001 1 1023 1 
1 212 22 1 35 2 69 1 76 1 77 2 79 2 82 1 89 1 105 1 106 1 123 1 178 1 206 1 209 1 217 1 228 1 237 1 250 1 276 1 278 1 292 1 303 1 306 1 362 1 380 1 394 1 403 1 415 1 433 1 445 1 468 1 501 1 510 1 517 1 536 1 547 1 549 1 567 2 574 1 598 1 607 1 608 1 634 1 668 1 669 1 673 1 674 1 10 1 16 1 38 1 46 1 52 1 56 1 64 1 74 1 78 1 94 1 101 1 115 1 143 1 172 1 219 1 225 1 254 1 268 1 312 1 324 1 346 1 361 1 367 1 374 1 436 1 443 1 455 1 459 1 511 1 533 1 537 1 571 1 579 1 592 1 604 1 613 1 628 1 675 1 714 1 719 1 721 1 723 2 734 1 747 1 767 1 789 1 803 1 810 1 846 1 857 1 864 1 873 2 879 1 900 1 904 1 909 1 917 1 945 1 686 1 693 1 706 1 742 1 752 1 759 1 769 1 773 1 774 1 812 1 828 1 829 1 848 1 853 1 867 1 870 1 937 1 969 1 1014 1 1021 1 1023 1 1024 1 
1 212 21 1 28 1 46 1 83 1 88 1 114 1 137 1 145 1 147 1 166 1 239 2 246 1 267 1 283 1 286 1 300 1 304 1 307 1 318 1 336 1 351 1 358 1 363 1 373 1 383 1 417 1 441 1 462 1 468 1 470 1 487 1 493 1 524 1 528 1 541 1 554 2 563 1 599 1 617 1 655 1 675 1 17 1 35 1 38 1 44 1 56 1 64 1 79 1 95 1 97 1 117 1 124 1 132 1 148 1 150 1 206 1 228 1 240 1 243 1 250 1 259 1 266 1 290 1 331 1 334 1 392 1 393 1 418 1 469 1 495 1 576 1 595 1 610 1 666 1 668 1 695 1 727 1 752 1 762 1 775 1 802 1 828 1 842 1 887 1 888 1 892 1 914 2 918 1 928 1 975 1 986 1 991 1 692 1 697 1 716 1 717 1 738 1 745 1 766 1 772 1 780 1 825 1 832 1 836 1 837 1 951 1 962 1 967 1 1002 1 1005 1 1018 1 1020 1 1021 1 
1 210 1 1 5 1 16 1 21 1 31 1 44 1 90 1 100 1 125 1 131 1 156 1 190 1 191 1 228 1 252 1 255 1 284 1 296 1 302 1 344 1 357 1 363 1 369 1 370 1 375 1 381 1 389 1 410 1 416 1 423 1 454 1 482 1 516 1 531 1 564 1 574 1 583 1 584 1 594 1 626 1 646 1 660 1 11 1 49 1 52 1 80 1 82 1 117 1 134 1 147 1 153 1 175 1 178 1 180 1 186 1 199 1 242 1 257 1 258 1 290 1 291 1 321 1 324 1 328 1 338 1 346 1 361 1 377 1 380 1 382 1 394 1 411 1 431 1 436 1 515 1 534 1 567 1 569 1 582 1 605 1 628 1 630 1 648 1 668 1 671 1 690 1 703 1 720 2 728 1 734 1 770 1 796 2 810 1 853 1 879 1 914 1 917 1 944 1 972 1 973 1 979 1 1001 1 681 1 714 1 725 1 735 1 755 1 778 1 795 1 800 1 819 1 823 1 825 1 861 1 865 1 994 1 1006 1 1015 1 1019 1 
1 216 12 1 21 1 30 1 68 1 79 1 87 1 89 1 110 1 135 1 137 1 139 1 144 1 163 1 185 1 186 1 188 1 226 1 229 1 230 1 294 1 302 2 315 1 331 1 372 1 375 1 382 1 400 1 449 1 492 1 523 2 524 1 540 1 553 1 577 1 592 1 597 1 600 1 613 1 616 1 654 1 670 1 15 1 31 1 41 1 51 1 92 1 95 1 96 1 124 1 143 1 151 1 156 1 174 1 187 1 205 1 206 1 209 1 211 1 221 1 253 1 292 1 303 1 308 1 319 1 324 1 337 1 367 1 386 1 398 1 403 1 460 1 461 1 494 1 495 1 519 1 520 1 528 1 579 1 589 1 652 1 669 1 676 1 680 1 700 1 766 1 780 1 793 1 797 1 816 1 840 1 849 1 898 1 906 1 937 1 958 1 716 1 735 1 741 1 750 1 768 1 770 1 773 1 794 1 808 1 834 1 842 1 868 1 891 1 928 1 961 1 965 1 1003 1 1007 1 1009 1 1011 1 1012 1 1016 1 1025 1 
1 211 7 1 16 1 18 1 21 1 23 1 26 1 33 1 35 2 80 1 113 1 118 1 138 1 140 1 149 2 204 1 232 1 246 1 260 1 262 1 263 1 278 1 322 1 331 1 370 1 371 1 404 1 411 1 427 1 446 1 458 1 480 1 481 1 492 1 522 1 532 1 542 1 610 1 613 1 636 1 651 1 659 1 677 1 37 1 54 1 60 1 81 1 85 1 146 1 162 1 166 1 200 1 250 1 253 1 255 1 269 1 286 1 320 1 323 1 341 1 357 1 385 1 388 1 420 1 425 1 429 1 431 1 436 1 437 1 442 1 493 1 527 1 536 1 550 1 558 1 559 1 579 1 580 1 584 1 590 1 592 1 642 1 657 1 664 1 697 1 720 1 769 1 775 1 790 1 797 1 800 1 802 1 817 1 820 1 825 1 846 1 897 1 908 1 929 1 938 1 964 1 984 1 992 1 996 1 726 1 762 1 767 1 811 1 815 1 870 1 899 1 916 1 918 1 924 1 981 1 1019 1 1022 1 1023 1 
1 208 7 1 13 1 22 1 30 2 37 1 43 1 67 1 68 1 127 1 128 1 135 1 141 1 145 1 157 2 159 1 162 1 166 1 175 1 194 1 222 1 224 1 232 1 240 1 268 1 279 1 320 1 321 1 335 1 341 1 370 2 371 1 391 1 409 1 422 1 442 1 471 1 472 1 473 1 484 1 501 1 513 1 549 1 573 1 598 1 654 1 35 1 38 1 71 1 73 1 79 1 85 1 132 1 140 1 171 1 174 1 180 1 236 1 243 1 255 1 256 1 262 1 287 1 308 1 362 1 365 1 398 1 407 1 420 1 444 1 448 1 470 1 516 1 529 1 570 1 584 1 601 1 627 1 638 1 645 1 650 1 674 1 702 1 706 2 723 1 736 1 751 1 775 1 797 1 806 1 822 1 931 1 935 1 942 1 953 1 980 1 981 1 992 1 995 1 713 1 720 1 721 1 735 1 749 1 756 1 763 1 782 1 789 1 812 1 826 1 835 1 874 1 904 1 916 1 928 1 961 1 966 1 1008 1 1017 1 1020 1 
1 208 5 1 7 1 19 1 46 1 49 1 51 1 67 1 76 1 84 1 87 1 88 1 127 1 131 1 146 1 148 1 153 1 164 1 177 1 196 2 210 1 237 1 297 1 324 1 330 1 338 1 362 1 394 1 402 1 404 1 433 1 457 1 464 1 471 1 472 1 481 1 486 1 536 1 590 1 612 1 633 1 659 1 27 1 31 1 59 1 62 1 105 1 134 1 141 1 168 1 172 1 187 1 191 1 245 1 276 1 278 1 279 1 283 1 286 1 302 1 317 1 341 1 342 1 355 1 372 1 376 1 389 1 414 1 428 1 437 1 476 1 478 1 497 1 519 1 527 1 541 1 552 1 570 1 584 1 601 1 609 1 610 1 630 1 645 1 677 1 686 1 698 1 703 1 766 1 781 1 787 1 791 1 798 1 803 1 820 1 828 1 860 2 868 1 869 1 899 1 943 2 953 2 973 1 986 1 687 1 725 1 761 1 774 1 785 1 788 1 792 1 807 1 810 1 811 1 814 1 823 1 835 1 836 1 840 1 872 1 898 1 902 1 918 1 968 1 971 1 972 1 1002 1 
1 208 25 1 26 1 73 1 83 1 88 2 96 1 101 1 118 2 119 1 123 1 198 2 207 1 221 2 237 1 241 1 313 1 355 1 356 1 361 1 425 1 431 2 433 1 495 1 498 1 499 1 510 2 513 1 547 1 565 1 568 1 574 1 584 1 594 1 656 1 674 1 675 1 5 1 14 1 38 1 52 1 55 1 67 1 68 1 81 1 121 1 143 1 150 1 168 1 213 1 217 1 218 1 231 1 236 1 276 1 314 1 338 1 339 1 353 1 381 1 403 1 405 1 427 1 432 1 436 1 460 1 472 1 525 1 528 1 535 1 539 1 559 1 560 1 575 1 583 1 592 1 596 1 626 1 643 1 648 1 691 1 698 1 731 1 747 1 772 1 815 1 842 1 892 1 909 1 925 1 949 1 967 1 974 1 993 1 994 1 687 1 690 1 740 1 754 1 756 1 760 1 782 1 789 1 795 1 797 1 832 1 834 1 837 1 927 1 935 1 968 1 990 1 1002 1 1004 1 1012 1 1023 1 
1 209 22 1 23 1 24 1 58 1 95 1 100 1 103 1 104 1 110 1 133 1 153 1 167 1 197 1 200 1 221 1 239 1 243 1 261 1 267 1 269 1 291 1 292 1 325 1 331 1 341 1 356 1 383 1 402 1 403 2 427 1 451 1 454 1 497 1 516 1 536 1 545 1 597 1 621 1 626 1 633 1 657 1 672 1 673 1 676 1 684 1 84 1 111 1 125 1 169 1 180 1 188 1 189 1 199 1 212 1 224 1 258 1 263 1 274 1 311 1 332 1 347 1 377 1 391 1 431 1 433 1 435 1 437 1 449 1 453 1 461 1 477 1 486 1 492 1 538 1 566 1 604 1 606 1 627 1 630 1 640 1 644 1 651 1 678 1 703 1 742 1 763 1 800 1 829 1 863 1 871 1 886 1 910 1 913 1 922 1 936 1 945 2 953 1 988 1 698 1 700 1 701 1 788 1 792 1 808 1 816 1 820 1 827 1 833 1 885 1 924 1 940 1 941 1 947 1 950 1 969 1 973 1 974 1 978 1 1004 1 1019 1 
1 210 32 1 36 1 42 1 47 1 48 1 56 1 68 1 75 1 88 1 90 1 102 1 155 1 209 1 211 1 216 1 220 1 230 1 244 1 248 1 258 1 265 1 296 1 305 1 320 1 336 1 359 1 369 1 370 1 375 1 386 1 387 1 402 2 407 1 413 1 444 1 446 1 450 1 479 1 482 1 496 1 502 1 521 1 525 1 528 1 535 1 538 1 580 1 596 1 616 1 634 1 664 1 33 1 55 1 58 1 82 1 126 1 132 1 175 1 177 1 179 1 181 1 193 1 194 1 200 1 202 1 210 1 227 1 250 1 259 1 270 1 284 1 290 1 298 1 319 1 331 1 342 1 348 1 356 1 411 1 425 1 452 1 480 1 484 1 499 1 544 1 551 1 591 1 613 1 625 1 639 1 649 1 684 1 685 1 687 1 687 1 726 1 737 1 746 1 780 1 822 1 827 1 842 1 849 1 884 1 899 1 903 1 908 1 920 1 936 1 940 1 968 1 977 1 995 2 998 1 713 1 766 1 769 1 782 1 793 1 839 1 860 1 863 1 888 1 914 1 937 1 975 1 1014 1 1017 1 1025 1 
1 212 4 1 24 1 38 1 39 1 65 1 82 1 120 1 127 1 131 1 137 1 164 1 218 2 242 2 245 1 253 1 266 1 273 2 278 1 286 1 290 1 299 2 313 1 329 1 357 1 373 1 409 1 421 1 450 1 464 1 472 1 473 1 493 1 503 1 504 1 526 1 545 1 596 1 608 1 610 1 621 1 624 1 40 1 92 1 98 1 113 1 125 1 132 1 174 1 176 1 203 1 207 1 222 1 229 1 258 1 269 1 274 1 351 1 410 1 422 1 436 1 438 1 444 1 453 1 483 1 488 1 511 1 513 1 576 1 593 1 598 1 609 1 631 1 633 1 646 1 654 1 668 1 669 1 688 1 688 1 697 2 702 2 710 1 720 1 734 1 743 1 761 1 788 1 795 1 797 1 840 1 877 1 887 1 908 1 930 1 940 1 966 1 983 1 695 1 725 1 733 1 736 1 752 1 774 1 779 1 798 1 800 1 825 1 833 1 839 1 845 1 860 1 867 1 883 1 892 1 920 1 932 1 934 1 942 1 945 1 949 1 970 1 992 1 1005 1 1016 1 1019 1 1021 1 1026 1 1027 1 
1 212 14 1 18 1 48 1 56 1 76 1 77 1 110 1 157 1 184 1 221 2 234 1 273 1 275 1 304 1 310 1 325 1 364 1 376 2 386 1 418 1 446 1 452 1 453 1 461 1 471 1 475 1 486 1 497 1 498 1 501 1 524 1 542 2 546 1 558 1 565 1 584 1 593 1 600 1 648 1 664 2 674 1 4 1 11 1 17 1 19 1 39 1 79 1 133 1 150 1 151 1 172 1 195 1 210 1 282 1 317 1 343 1 354 1 358 1 408 1 433 1 451 1 503 1 505 1 529 1 531 1 543 1 556 1 560 1 566 1 586 1 622 1 635 1 657 1 690 2 708 1 710 1 737 2 754 1 762 1 765 1 778 1 786 1 791 1 811 1 815 1 827 1 836 1 838 1 862 1 912 1 953 2 965 1 978 1 980 1 717 1 764 1 795 1 805 1 842 1 896 1 915 1 927 1 995 1 1006 1 1007 1 1017 1 1021 1 1024 1 1026 1 
1 208 48 1 54 1 57 1 91 1 178 1 184 1 200 1 219 1 222 2 228 1 231 1 239 1 240 2 248 1 256 1 265 1 284 1 303 2 310 1 410 1 425 1 438 1 443 1 490 1 493 1 497 1 508 1 511 1 512 1 551 1 585 1 640 2 654 2 665 1 680 1 689 2 9 1 59 1 65 1 85 1 93 1 122 1 127 1 134 1 192 1 206 1 208 1 229 1 263 1 305 1 312 1 315 1 349 1 358 1 369 1 385 1 401 1 409 1 428 1 460 1 501 1 541 1 544 1 591 1 592 1 611 1 629 1 685 1 691 1 700 1 722 2 743 1 775 1 783 1 784 1 785 1 788 2 834 1 865 1 888 1 896 1 935 1 972 1 976 2 980 2 986 1 724 1 735 1 740 1 771 1 795 1 864 1 884 1 887 1 973 1 984 1 987 1 995 1 998 1 1003 1 1010 1 
1 210 12 1 14 1 34 1 45 1 46 2 62 1 70 1 119 2 130 1 135 1 145 1 178 1 181 1 201 1 208 1 220 1 224 1 225 1 234 1 252 1 275 1 282 1 287 1 288 2 291 1 350 1 351 1 359 1 397 1 457 1 462 1 479 1 491 1 493 1 497 1 513 1 540 1 545 1 553 1 577 1 601 1 629 1 631 1 636 1 639 1 647 1 659 1 669 1 685 1 690 1 15 1 24 1 29 1 42 1 52 1 75 1 80 1 95 1 103 1 121 1 148 1 156 1 173 1 187 1 207 1 219 1 221 1 261 1 293 1 298 1 312 1 367 1 376 1 381 1 426 1 442 1 446 1 460 1 477 1 483 1 489 1 539 1 572 1 596 1 632 1 677 1 720 1 727 1 741 1 744 1 762 1 763 1 772 1 780 1 814 1 831 1 847 1 907 1 915 1 928 1 944 1 945 1 951 1 967 1 701 1 706 1 782 1 783 1 790 1 820 1 833 1 839 1 865 1 889 1 898 1 917 1 943 1 955 1 965 1 991 1 1000 1 1015 1 1020 1 1024 1 
1 210 45 1 89 1 108 1 109 1 122 1 125 1 140 1 145 1 157 1 171 1 192 1 196 1 207 1 210 1 223 1 231 1 242 1 248 2 299 1 301 1 327 1 336 1 360 1 419 1 420 1 423 1 455 1 460 1 463 2 491 1 503 1 523 1 586 1 599 1 620 1 623 1 655 1 658 1 4 1 83 1 90 1 111 1 129 1 138 1 149 1 152 1 169 1 198 1 200 1 201 1 204 1 230 1 255 1 284 1 306 1 328 1 341 1 350 1 352 1 365 1 375 1 379 1 385 1 387 1 498 1 542 1 543 1 556 1 565 1 569 1 581 1 604 1 618 1 646 1 661 1 676 1 679 1 711 1 764 1 800 1 827 1 837 1 854 1 884 1 896 1 939 1 949 1 739 1 756 1 766 1 785 1 786 1 809 1 828 1 831 1 834 1 874 1 903 1 908 1 916 1 918 1 948 1 958 1 961 1 968 1 1000 1 1027 1 
1 214 8 1 46 1 49 2 50 1 64 1 79 1 83 2 87 1 108 1 227 1 273 1 312 1 314 1 324 1 325 1 328 1 378 1 395 1 403 1 408 1 414 1 420 1 427 1 440 1 446 1 452 1 471 1 472 1 475 2 490 2 496 1 497 1 500 1 513 2 571 1 601 1 669 1 9 1 35 1 36 1 52 1 56 1 65 1 93 1 96 1 101 1 106 1 109 1 126 1 127 1 152 1 160 1 162 1 165 1 202 1 236 1 251 1 262 1 304 1 306 1 332 1 353 1 377 1 382 1 399 1 417 1 431 1 443 1 457 1 481 1 492 1 527 1 539 1 553 1 579 1 632 1 647 1 678 1 714 1 724 1 743 1 749 1 762 1 787 1 797 1 808 1 838 1 849 1 868 1 873 2 910 2 930 1 937 1 967 1 968 1 708 1 739 1 740 1 770 1 773 1 780 1 816 1 822 1 899 1 915 1 940 1 949 1 977 1 981 1 984 1 998 1 1007 1 1008 1 1010 1 1011 1 1012 1 1018 1 1025 1 
1 214 26 1 59 1 108 1 162 1 164 1 169 1 172 1 181 1 214 1 232 1 238 1 258 1 262 1 273 1 281 1 334 1 335 1 343 1 366 1 434 1 440 1 469 1 474 1 479 2 503 1 508 1 511 1 523 1 553 1 588 1 608 1 631 1 649 1 671 1 676 1 18 1 41 1 51 1 65 1 70 1 75 1 77 1 88 1 93 1 134 1 144 1 186 1 202 1 209 1 243 1 302 1 347 1 362 1 375 1 392 1 401 1 415 1 417 1 432 1 438 1 488 1 489 1 495 1 520 1 534 1 539 1 561 1 565 1 567 1 583 1 599 1 602 1 614 1 623 1 627 1 710 1 719 1 726 1 731 1 761 1 772 1 779 1 788 1 793 1 807 1 821 1 834 1 852 1 854 1 883 1 886 1 898 1 922 1 950 2 705 1 718 1 728 1 733 1 738 1 752 1 769 1 781 1 800 1 872 1 894 1 925 1 975 1 985 1 1011 1 1018 1 1023 1 1025 1 
1 209 4 1 16 1 52 1 54 1 75 1 87 1 94 1 98 1 164 1 205 1 206 1 207 1 215 1 221 1 261 1 291 2 305 1 324 1 333 1 354 1 374 1 396 1 426 1 434 1 483 1 485 1 498 1 523 1 543 1 556 1 557 1 563 1 577 1 578 1 590 1 606 1 632 1 642 1 661 1 671 1 676 1 679 1 2 1 43 1 53 1 57 1 66 1 70 1 92 1 103 1 130 1 151 1 178 1 186 1 208 1 243 1 250 1 257 1 265 1 266 1 293 1 296 1 302 1 318 1 319 1 325 1 326 1 355 1 373 1 394 1 398 1 431 1 448 1 493 1 501 1 540 1 569 1 614 1 627 1 688 1 705 1 712 2 713 1 734 1 745 1 802 1 813 1 827 1 854 1 865 1 866 1 901 1 911 1 914 1 956 1 964 1 967 1 991 1 699 1 715 1 766 1 792 1 800 1 806 1 808 1 817 1 871 1 872 1 883 1 900 1 902 1 920 1 927 1 934 1 947 1 978 1 986 1 992 1 1015 1 1017 1 
1 207 16 1 18 1 46 1 65 1 94 1 104 1 108 1 112 1 115 1 138 1 151 1 152 1 161 1 264 1 283 1 301 2 357 1 381 1 384 1 395 1 423 1 429 1 432 1 452 2 505 1 519 1 550 1 591 1 592 1 613 1 621 1 629 1 645 1 7 1 41 1 57 1 61 1 68 1 81 1 93 1 95 1 121 1 157 1 159 1 182 1 249 1 273 1 308 1 329 1 338 1 368 1 377 1 386 1 399 1 438 1 442 1 447 1 527 1 537 1 562 1 572 1 575 1 582 1 606 1 660 1 670 1 674 1 702 1 716 1 727 1 750 1 775 1 776 1 782 1 807 1 825 1 835 1 841 1 864 1 870 1 871 1 872 1 880 1 904 1 946 1 948 1 975 1 987 1 989 1 700 1 704 1 722 1 726 1 729 1 732 1 751 1 757 1 765 1 773 1 783 1 799 1 815 1 844 1 878 1 903 1 906 1 951 1 1004 1 1019 1 
1 206 23 2 45 1 55 1 107 1 109 1 119 1 144 1 159 1 182 1 199 1 201 1 241 1 262 1 272 1 277 1 287 2 321 1 331 1 338 1 341 1 369 1 412 1 426 1 448 1 456 1 468 1 494 2 506 1 520 1 546 1 578 1 593 1 597 1 602 1 603 1 619 1 671 1 682 1 688 2 4 1 19 1 24 1 43 1 64 1 66 1 81 1 99 1 121 1 140 1 146 1 150 1 162 1 188 1 197 1 208 1 214 1 218 1 228 1 269 1 289 1 323 1 330 1 332 1 335 1 339 1 359 1 391 1 399 1 415 1 418 1 485 1 488 1 490 1 568 1 574 1 634 1 673 1 677 1 679 1 733 1 753 1 775 1 800 1 801 1 839 1 875 1 908 1 935 1 949 1 960 1 961 1 986 1 698 1 710 1 711 1 714 1 789 1 797 1 824 1 863 1 888 1 903 1 928 1 938 1 939 1 944 1 962 1 963 1 982 1 1016 1 1018 1 1022 1 
1 214 30 1 59 1 61 1 89 1 119 1 126 1 161 1 183 1 196 1 200 1 206 1 212 2 228 1 242 1 245 1 252 1 255 1 256 2 258 1 280 1 284 1 291 1 313 1 325 1 344 2 356 1 368 1 377 1 395 1 469 1 476 1 481 1 501 1 536 1 538 1 546 1 556 1 628 1 630 1 663 1 664 1 669 1 673 1 677 1 684 1 685 1 17 1 35 1 43 1 47 1 69 1 85 1 86 1 102 1 109 1 114 1 181 1 185 1 229 1 233 1 263 1 268 1 290 1 339 1 346 1 370 1 396 1 403 1 418 1 427 1 443 1 444 1 489 1 493 1 522 1 570 1 586 1 622 1 631 1 639 1 648 1 686 1 697 1 699 1 711 1 719 1 762 1 779 1 826 1 838 1 854 1 858 1 875 1 879 1 898 1 915 1 921 2 940 1 983 1 1001 1 734 1 781 1 807 1 816 1 819 1 820 1 828 1 831 1 846 1 849 1 930 1 933 1 948 1 995 1 1002 1 1007 1 1010 1 1014 1 1020 1 1024 1 
1 209 16 1 31 1 84 1 89 1 108 1 110 1 115 1 117 1 175 1 187 1 198 1 258 1 263 1 293 1 317 2 326 1 342 1 358 1 373 1 408 1 421 1 487 1 493 1 506 1 517 1 529 1 554 2 564 1 565 1 596 1 597 1 598 1 615 1 620 2 631 1 698 1 5 1 23 1 34 1 41 1 52 1 71 1 104 1 111 1 113 1 133 1 144 1 153 1 236 1 270 1 279 1 333 1 334 1 335 1 339 1 352 1 385 1 400 1 476 1 481 1 500 1 531 1 535 1 558 1 567 1 606 1 617 1 651 1 654 1 668 1 677 1 695 1 704 1 711 1 724 1 745 1 778 1 793 1 847 1 856 1 861 1 863 1 874 2 876 1 885 1 895 1 897 1 910 1 913 1 917 1 930 1 978 1 981 1 721 1 722 1 752 1 759 1 776 1 783 1 788 1 798 1 809 1 821 1 823 1 851 1 871 1 882 1 907 1 920 1 939 1 986 1 998 1 1002 1 1009 1 1012 1 1016 1 1024 1 
1 213 40 1 53 1 90 1 119 1 122 1 137 1 143 2 158 1 163 1 176 1 191 1 196 1 218 1 220 1 239 1 268 1 270 1 327 1 348 1 352 1 358 1 367 1 379 1 414 1 425 1 436 1 464 1 474 1 501 1 520 1 532 1 551 1 556 2 589 1 591 1 604 1 606 1 615 1 626 1 648 1 657 1 667 1 668 1 681 1 690 1 7 1 21 1 31 1 49 1 62 1 68 1 70 1 73 1 81 1 110 1 112 1 134 1 136 1 151 1 156 1 215 1 238 1 335 1 338 1 345 1 383 1 390 1 410 1 440 1 445 1 470 1 504 1 506 1 507 1 549 1 557 1 567 1 588 1 595 1 622 1 628 1 641 1 686 1 696 1 751 1 759 1 765 1 773 1 777 1 784 1 792 1 803 1 817 1 832 2 833 1 835 1 866 1 869 2 876 1 878 1 896 1 907 1 946 1 953 1 958 1 979 1 981 1 985 1 986 1 710 1 711 1 719 1 734 1 741 1 744 1 745 1 770 1 799 1 801 1 811 1 826 1 867 1 884 1 904 1 916 1 919 1 930 1 932 1 942 1 973 1 975 1 995 1 996 1 1005 1 1021 1 1022 1 
1 208 9 1 13 1 20 1 21 1 45 1 58 1 59 1 79 1 108 1 111 1 128 1 180 1 199 1 205 1 206 1 285 1 290 1 322 2 344 1 349 1 366 1 367 1 368 1 399 1 415 1 431 1 449 1 472 1 473 1 481 1 497 1 547 1 566 1 571 1 576 1 620 1 624 1 86 1 93 1 119 1 124 1 152 1 164 1 198 1 218 1 223 1 239 1 253 1 277 1 282 1 294 1 301 1 310 1 378 1 385 1 419 1 420 1 424 1 429 1 463 1 474 1 475 1 490 1 491 1 505 1 507 1 523 1 541 1 594 1 602 1 604 1 625 1 660 1 675 1 686 1 691 1 743 1 747 1 749 1 787 1 805 1 808 1 817 1 832 1 834 1 839 1 845 2 869 1 884 1 911 1 918 1 942 1 945 2 946 1 956 1 964 1 970 1 980 1 993 1 1001 2 706 1 712 1 717 1 727 1 731 1 760 1 786 1 789 1 824 1 848 1 851 1 861 1 873 1 893 1 901 1 913 1 950 1 962 1 969 1 991 1 
1 208 2 1 4 1 9 1 12 1 30 1 41 1 73 1 77 1 81 1 100 1 106 1 109 1 119 1 134 2 153 1 154 2 172 1 176 1 188 1 195 1 200 1 204 1 218 1 219 1 241 1 259 1 326 1 343 1 353 1 360 1 361 1 363 1 387 1 429 1 473 2 486 1 499 1 509 1 514 1 529 1 531 1 554 1 562 1 575 1 579 1 657 1 659 1 663 1 683 1 688 2 696 1 16 1 28 1 43 1 50 1 70 1 72 1 92 1 94 1 139 1 158 1 169 1 170 1 182 1 196 1 201 1 205 1 210 1 227 1 297 1 391 1 437 1 460 1 494 1 501 1 518 1 519 1 533 1 560 1 584 1 607 1 609 1 627 1 630 1 641 1 650 1 658 1 724 1 756 1 757 1 782 1 807 1 819 1 859 1 860 1 883 1 896 1 911 1 934 2 945 2 964 1 967 1 1001 1 705 1 763 1 775 1 795 1 805 1 840 1 841 1 895 1 902 1 919 1 921 1 926 1 970 1 
1 207 8 1 22 1 26 1 29 1 31 1 42 1 44 1 51 1 54 1 105 1 118 1 149 1 169 1 206 1 215 1 228 1 297 2 298 1 316 1 348 1 355 2 361 1 381 1 386 1 403 1 409 2 425 1 457 1 475 1 505 1 508 1 513 1 521 1 524 1 528 1 529 2 603 1 605 1 618 1 630 1 637 1 641 1 673 1 680 1 684 1 686 1 32 1 36 1 46 1 50 1 66 1 67 1 101 1 106 1 111 1 116 1 122 1 140 1 166 1 175 1 201 1 282 1 286 1 292 1 294 1 299 1 323 1 329 1 343 1 366 1 378 1 383 1 406 1 423 1 432 1 448 1 454 1 471 1 497 1 522 1 562 1 593 1 601 1 648 1 655 1 663 1 725 1 735 1 780 1 791 1 810 1 819 1 870 1 904 1 906 1 988 1 705 1 712 1 722 1 738 1 743 1 754 1 758 1 788 1 804 1 824 1 834 1 855 1 876 1 881 1 901 1 977 1 1013 1 1025 1 1027 1 
1 211 57 1 64 1 69 1 83 1 105 1 106 1 113 1 115 1 123 1 159 1 164 1 191 1 210 1 212 1 236 1 274 1 284 2 295 1 307 1 315 1 323 1 330 1 333 1 339 1 353 1 365 1 367 1 374 1 381 1 401 1 448 1 462 1 463 1 473 1 510 1 580 1 600 1 615 1 630 1 652 1 699 1 12 1 14 1 89 1 110 1 122 1 151 1 188 1 211 1 277 1 301 1 316 1 324 1 338 1 347 1 348 1 372 1 377 1 385 1 393 1 412 1 442 1 467 1 488 1 498 1 519 1 526 1 538 1 548 1 554 1 575 1 589 1 595 1 617 1 620 1 624 1 632 1 696 1 711 1 721 1 723 1 730 1 745 1 800 1 805 1 816 1 849 1 850 1 854 1 860 1 872 2 903 1 922 1 951 2 955 1 708 1 735 1 746 1 751 1 755 1 766 1 790 1 823 1 830 1 848 1 874 1 883 1 952 1 970 1 979 1 1011 1 1013 1 1015 1 1016 1 1022 1 1027 1 
1 213 8 1 43 1 110 1 114 1 147 1 152 1 177 1 178 1 189 1 202 1 238 1 244 1 245 1 253 1 259 1 268 1 295 1 304 1 312 1 340 1 356 1 370 1 397 1 398 1 407 2 423 1 452 1 467 1 475 1 493 1 506 1 546 1 556 1 606 1 622 1 675 1 695 1 5 1 21 1 47 1 62 1 66 1 67 1 72 1 94 1 126 1 148 1 193 1 199 1 206 1 207 1 210 1 230 1 254 1 272 1 273 1 275 1 354 1 355 1 377 1 440 1 453 1 474 1 547 1 601 1 620 1 630 1 636 1 647 1 655 1 660 1 665 1 694 1 702 1 703 1 711 1 733 1 735 1 752 1 755 1 764 1 771 1 775 1 784 1 808 1 838 1 860 1 927 1 949 1 978 1 979 1 712 1 718 1 754 1 756 1 762 1 809 1 843 1 846 1 847 1 878 1 891 1 909 1 935 1 947 1 957 1 982 1 993 1 1007 1 1008 1 1009 1 1016 1 1021 1 1027 1 
1 207 15 1 35 1 66 1 73 1 79 1 91 1 97 1 104 1 119 1 122 1 143 1 144 1 147 1 201 1 232 1 282 1 284 1 306 1 325 1 331 1 354 1 356 1 391 1 417 1 448 1 450 1 521 1 532 1 538 1 582 1 584 1 590 1 593 1 605 1 666 1 668 1 683 2 20 1 47 1 53 1 85 1 86 1 108 1 115 1 121 1 146 1 150 1 168 1 228 1 244 1 262 1 269 1 293 1 338 1 360 1 377 1 379 1 413 1 423 1 425 1 430 1 447 1 477 1 489 1 491 1 512 1 534 1 548 1 557 1 570 1 575 1 579 1 586 1 598 1 600 1 634 1 641 1 677 1 678 1 691 1 701 1 711 1 723 1 725 1 769 1 779 1 799 1 832 1 861 2 864 1 865 1 871 1 918 1 926 1 950 1 955 1 965 1 969 1 973 2 989 2 991 1 729 1 741 1 748 1 761 1 766 1 788 1 792 1 795 1 802 1 803 1 807 1 819 1 823 1 873 1 882 1 927 1 929 1 952 1 972 1 982 1 998 1 1015 1 
1 210 14 1 17 2 26 1 70 1 71 1 88 1 128 1 129 1 156 1 158 1 168 2 192 1 194 1 209 1 226 1 239 1 243 1 246 1 277 1 284 1 285 2 291 1 295 1 307 1 309 1 321 1 368 1 383 1 391 1 396 1 414 1 447 2 472 1 503 2 511 1 527 1 530 1 551 1 578 1 581 1 590 1 593 1 602 1 616 1 632 1 663 1 1 1 3 1 12 1 49 1 95 1 103 1 147 1 172 1 181 1 221 1 289 1 360 1 412 1 432 1 441 1 444 1 455 1 476 1 482 1 492 1 518 1 525 1 534 1 541 1 559 1 569 1 571 1 597 1 633 1 660 1 670 1 671 1 713 1 716 1 717 1 754 1 758 1 765 1 779 1 850 1 860 1 869 1 877 1 883 2 887 1 888 1 903 1 911 1 952 1 957 1 960 1 966 1 993 1 711 1 733 1 738 1 739 1 776 1 783 1 784 1 805 1 807 1 813 1 817 1 823 1 825 1 834 1 853 1 856 1 880 1 897 1 907 1 922 1 931 1 948 1 961 1 
1 210 5 1 12 1 36 1 62 1 66 1 70 1 90 1 102 1 138 1 140 1 144 1 197 1 244 1 250 1 268 1 303 1 311 1 362 1 366 1 381 1 389 1 393 1 395 1 404 1 419 1 424 1 443 1 446 1 457 1 459 1 465 1 468 1 469 1 489 1 524 1 535 1 541 1 542 1 551 1 552 1 555 1 562 1 588 1 623 1 632 1 649 1 664 1 689 1 28 1 30 1 72 1 81 1 86 1 109 1 110 1 123 1 128 1 154 1 171 1 175 1 182 1 188 1 212 1 227 1 243 1 263 1 273 1 276 1 279 1 309 1 314 1 323 1 324 1 329 1 397 1 402 1 408 1 409 1 412 1 429 1 501 1 564 1 579 1 583 1 629 1 662 1 665 1 677 1 693 1 704 1 721 1 726 1 733 1 739 1 747 2 748 1 756 1 782 1 796 1 819 1 867 1 877 1 879 1 890 1 897 1 912 1 939 1 758 1 818 1 850 1 853 1 869 1 924 1 929 1 942 1 945 1 956 1 957 1 967 1 1016 1 
1 208 27 1 28 1 82 1 128 1 129 1 160 1 177 1 223 1 230 1 249 1 254 1 280 1 322 1 324 1 342 1 364 1 371 1 372 1 378 1 380 1 382 2 383 2 395 1 423 1 431 1 434 1 470 2 480 1 496 1 512 1 516 1 538 1 542 1 566 1 574 1 577 1 589 1 627 2 629 1 635 1 650 1 675 1 21 1 26 1 41 1 66 1 85 1 112 1 146 1 159 1 163 1 178 1 234 1 275 1 290 1 344 1 360 1 391 1 433 1 462 1 474 1 501 1 507 1 519 1 528 1 547 1 561 1 570 1 612 1 623 1 632 1 634 1 654 1 661 1 722 1 737 1 782 1 799 1 845 1 851 1 861 1 884 1 942 1 952 1 956 1 984 1 743 1 757 1 764 1 779 1 808 1 841 1 850 1 855 1 882 1 896 1 906 1 924 1 951 1 977 1 988 1 993 1 1009 1 1024 1 
1 213 37 1 42 1 44 1 73 1 91 1 98 1 126 1 183 1 184 1 199 1 207 2 247 1 270 1 317 2 348 1 363 1 381 1 385 1 416 1 423 1 452 1 455 1 461 1 468 1 474 2 480 1 482 1 495 1 504 1 552 1 555 1 562 1 568 1 572 1 578 1 640 1 658 1 688 1 689 1 694 1 6 1 27 1 33 1 35 1 55 1 119 1 182 1 192 1 200 1 215 1 236 1 239 1 260 1 305 1 331 1 344 1 395 1 405 1 451 1 457 1 488 1 498 1 500 1 509 1 558 1 657 1 697 1 700 1 713 1 750 1 751 1 764 2 799 1 811 1 832 1 848 1 852 1 863 1 865 1 877 1 881 1 887 1 892 1 902 1 935 1 942 1 957 1 990 1 1000 1 723 1 725 1 774 1 776 1 815 1 842 1 869 1 874 1 876 1 882 1 885 1 901 1 908 1 918 1 972 1 977 1 980 1 984 1 988 1 1005 1 1008 1 1016 1 1017 1 1019 1 
1 210 18 1 43 1 50 1 53 1 75 2 80 1 99 1 100 1 143 1 144 2 146 1 166 1 181 2 218 1 308 1 359 1 369 1 371 1 375 1 386 1 408 1 469 1 477 1 487 1 509 1 516 1 533 1 572 1 576 1 580 1 582 1 595 1 606 1 619 1 642 1 674 1 677 1 692 1 698 1 699 1 704 1 705 1 706 1 2 1 5 1 10 1 36 1 60 1 70 1 90 1 162 1 219 1 255 1 269 1 270 1 285 1 291 1 317 1 336 1 337 1 355 1 391 1 404 1 466 1 468 1 476 1 525 1 526 1 537 1 542 1 566 1 579 1 597 1 611 1 660 1 697 1 700 1 707 1 714 1 737 1 746 1 767 1 774 1 791 1 830 1 831 1 843 1 872 1 881 1 904 1 922 1 950 1 970 1 980 1 1000 1 717 1 728 1 750 1 776 1 792 1 808 1 823 1 834 1 841 1 855 1 867 1 874 1 877 1 896 1 934 1 954 1 969 1 990 1 1008 1 1012 1 1024 1 
1 212 55 1 61 1 92 1 105 1 119 1 159 1 197 1 208 1 233 1 248 1 303 1 311 1 347 2 350 1 354 1 372 1 396 1 401 1 420 1 421 1 429 1 491 2 504 1 513 1 517 1 523 1 524 1 577 1 613 1 652 1 660 1 695 2 5 1 31 1 40 1 45 1 46 1 49 1 66 1 72 1 77 1 126 1 129 1 149 1 183 1 184 1 185 1 190 1 212 1 214 1 219 1 225 1 251 1 274 1 276 1 290 1 298 1 321 1 329 1 341 1 371 1 386 1 399 1 408 1 410 1 417 1 423 1 451 1 458 1 468 1 498 1 500 1 505 1 522 1 611 1 616 1 621 1 640 1 651 1 662 1 673 1 701 1 703 1 705 1 718 1 726 2 730 1 732 1 733 1 740 1 761 1 771 1 813 1 821 1 850 1 852 1 891 1 918 1 933 1 975 1 986 1 997 1 735 1 795 1 834 1 836 1 854 1 857 1 897 1 928 1 948 1 955 1 1003 1 1005 1 1016 1 1017 1 1026 1 
1 211 19 1 23 1 25 1 50 1 56 1 60 1 75 1 98 1 104 1 139 1 161 1 191 1 222 1 236 1 257 2 283 1 286 1 294 1 334 1 381 1 384 1 400 1 406 1 410 1 464 1 474 1 486 1 496 1 511 1 513 1 520 1 537 1 564 1 586 1 602 1 615 1 628 2 642 1 644 1 670 1 695 1 707 1 710 1 2 1 8 1 26 1 38 1 92 1 93 1 109 1 111 1 167 1 190 1 258 1 265 1 317 1 324 1 325 1 346 1 349 1 407 1 411 1 429 1 467 1 475 1 500 1 503 1 506 1 541 1 556 1 560 1 575 1 636 1 656 1 683 1 687 1 714 1 744 1 752 1 757 1 768 1 770 1 792 1 797 1 812 1 817 1 827 1 828 1 851 2 871 1 880 1 883 1 889 1 893 1 899 1 923 1 931 1 938 1 953 1 972 1 985 1 986 1 727 1 737 1 743 1 761 1 766 1 767 1 771 1 794 1 821 1 824 1 830 1 832 1 837 1 859 1 868 1 909 1 918 1 922 1 946 1 965 1 974 1 1005 1 1006 1 1021 1 
1 214 14 1 25 1 41 2 50 1 63 1 71 1 97 1 120 1 121 1 145 1 159 1 165 1 187 1 221 1 238 1 254 1 263 1 266 1 298 1 337 1 375 1 391 1 404 1 405 1 407 1 435 1 463 1 464 1 468 1 492 1 493 1 527 1 528 1 555 1 566 1 588 1 629 1 658 1 663 1 678 1 693 1 711 1 713 1 40 1 59 1 83 1 84 1 94 1 173 1 192 1 220 1 233 1 235 1 237 1 241 1 243 1 275 1 289 1 376 1 397 1 414 1 420 1 425 1 459 1 562 1 600 1 603 1 634 1 646 1 671 1 680 1 697 1 736 1 744 1 818 1 826 1 840 2 906 1 913 2 917 1 919 1 922 1 924 1 925 1 958 1 970 1 977 1 719 1 721 1 730 1 738 1 751 1 762 1 765 1 767 1 793 1 853 1 863 1 864 1 871 1 929 1 979 1 981 1 1003 1 1004 1 1008 1 1009 1 1021 1 
1 213 36 1 65 1 80 1 95 1 98 1 104 1 109 1 124 1 131 1 137 1 242 1 255 1 285 1 291 1 299 2 304 1 312 1 329 1 331 1 350 1 364 1 366 1 368 1 401 1 432 1 440 1 457 1 459 1 502 1 520 2 525 1 538 1 574 1 583 1 594 1 603 1 605 1 630 1 635 1 7 1 20 1 27 1 54 1 57 1 66 1 99 1 107 1 127 1 158 1 187 1 190 1 238 1 270 1 277 1 306 1 317 1 356 1 375 1 382 1 392 1 414 1 435 1 447 1 463 1 476 1 477 1 482 1 498 1 533 1 535 1 539 1 568 1 570 1 642 1 667 1 695 1 727 1 747 1 750 1 760 1 786 1 790 1 792 1 808 1 821 1 825 1 852 1 892 1 969 1 978 1 982 1 733 1 770 1 799 1 823 1 828 1 851 1 855 1 921 1 932 1 933 1 939 1 955 1 958 1 974 1 985 1 993 1 1010 1 1016 1 1022 1 
1 210 10 1 34 1 36 1 55 2 91 1 102 1 117 1 138 1 143 1 166 1 181 1 193 2 199 1 249 1 296 1 342 1 361 1 369 1 374 1 379 1 398 1 410 1 429 1 434 1 448 1 455 1 466 1 509 1 517 1 518 1 519 1 605 1 613 1 650 1 676 2 696 1 707 1 58 1 61 1 95 1 101 1 106 1 107 1 113 1 115 1 134 1 150 1 159 1 176 1 207 1 208 1 222 1 224 1 236 1 245 1 252 1 253 1 316 1 329 1 358 1 370 1 401 1 413 1 426 1 433 1 450 1 478 1 479 1 524 1 533 1 536 1 545 1 562 1 570 1 611 1 614 1 639 1 647 1 649 1 656 1 660 1 669 1 679 1 681 1 719 1 739 1 752 1 811 1 832 1 841 1 842 1 846 2 859 2 865 2 892 1 931 1 969 1 995 1 743 1 747 1 758 1 759 1 767 1 771 1 774 1 797 1 821 1 873 1 879 1 895 1 901 1 914 1 917 1 938 1 943 1 954 1 971 1 979 1 1003 1 1009 1 1010 1 1023 1 1024 1 
1 211 46 1 59 2 79 1 101 1 136 1 143 1 147 1 148 1 181 1 261 1 295 1 310 1 314 1 321 1 325 1 388 1 410 2 445 1 451 1 459 1 471 1 474 1 485 1 492 2 500 1 507 1 508 2 557 1 607 1 610 1 611 1 613 1 614 1 618 1 625 1 656 1 658 1 707 1 10 1 69 1 80 1 99 1 112 1 132 1 138 1 146 1 149 1 153 1 154 1 173 1 218 1 235 1 236 1 268 1 270 1 273 1 308 1 322 1 328 1 335 1 345 1 352 1 384 1 428 1 444 1 446 1 464 1 501 1 511 1 520 1 522 1 542 1 563 1 581 1 590 1 596 1 605 1 649 1 679 1 689 1 701 1 711 1 724 1 745 1 755 1 759 2 792 1 802 1 844 1 891 2 896 1 911 1 957 1 958 1 964 1 782 1 795 1 809 1 831 1 862 1 872 1 901 1 935 1 944 1 950 1 955 1 996 1 1003 1 1006 1 1026 1 
1 213 7 1 13 1 31 1 63 1 70 1 120 1 124 1 149 1 160 1 168 2 187 1 191 1 193 1 202 1 207 1 222 1 239 1 253 1 277 1 307 1 323 2 328 1 360 1 363 1 367 1 394 1 399 1 425 1 428 1 429 1 430 1 451 1 457 1 464 1 465 1 468 1 477 1 527 1 535 1 545 2 568 1 570 1 582 1 661 1 675 1 712 1 4 1 11 1 64 1 67 1 79 1 108 1 128 1 131 1 155 1 178 1 195 1 200 1 204 1 229 1 278 1 284 1 317 1 332 1 359 1 372 1 382 1 417 1 433 1 436 1 487 1 501 1 508 1 509 1 515 1 524 1 550 1 554 1 576 1 608 1 636 1 640 1 651 1 655 1 694 1 705 1 718 1 718 1 727 1 732 1 761 1 787 1 795 1 851 1 856 1 866 1 875 1 877 1 881 1 883 1 895 1 897 1 922 1 938 1 954 1 968 1 976 1 995 1 725 1 726 1 741 1 750 1 752 1 759 1 786 1 806 1 818 1 828 1 832 1 849 1 880 1 899 1 951 1 987 1 991 1 1002 1 1012 1 
1 208 6 1 15 1 71 1 76 1 91 1 155 1 207 1 231 1 271 1 279 1 299 2 303 1 312 1 322 1 368 1 372 1 377 1 395 1 396 1 410 2 426 1 432 1 472 1 475 2 477 1 488 1 501 1 512 1 541 1 543 1 550 1 577 1 587 1 605 1 608 1 610 2 623 1 625 1 633 1 635 1 638 1 673 1 675 1 678 1 694 1 698 1 716 1 74 1 138 1 151 1 182 1 183 1 204 1 210 1 217 1 235 1 245 1 261 1 265 1 321 1 325 1 329 1 332 1 354 1 403 1 412 1 414 1 430 1 546 1 568 1 572 1 582 1 609 1 619 1 647 1 648 1 700 1 714 1 726 1 742 1 750 1 764 1 769 1 779 1 784 1 795 1 805 1 876 1 883 1 905 1 919 2 932 1 949 1 989 1 997 1 736 1 737 1 738 1 744 1 760 1 780 1 792 1 796 1 877 1 893 1 946 1 956 1 1017 1 1018 1 1019 1 
1 215 10 1 13 1 32 1 37 1 58 1 79 1 90 1 118 1 130 1 152 1 168 1 187 1 191 1 210 2 240 1 294 1 383 1 386 1 394 1 411 1 416 2 430 1 441 1 461 1 473 1 478 1 513 1 535 1 545 1 549 1 567 1 574 1 581 1 599 1 630 1 636 1 647 1 651 1 653 1 656 1 680 2 682 1 688 1 691 1 6 1 15 1 23 1 28 1 49 1 81 1 93 1 137 1 138 1 173 1 182 1 189 1 252 1 280 1 289 1 301 1 325 1 336 1 342 1 347 1 348 1 363 1 364 1 393 1 399 1 405 1 427 1 458 1 470 1 480 1 489 1 491 1 512 1 529 1 548 1 559 1 566 1 568 1 593 1 609 1 616 1 674 1 683 1 725 1 749 1 806 1 836 1 869 1 970 1 977 2 981 1 838 1 855 1 872 1 887 1 892 1 897 1 900 1 963 1 973 1 992 1 993 1 1003 1 1013 1 1017 1 1020 1 1021 1 1022 1 1026 1 
1 212 47 1 71 1 134 1 140 1 194 1 199 1 216 1 229 1 237 2 256 1 272 1 326 1 342 2 391 1 399 1 421 1 450 1 479 1 487 1 489 1 499 1 512 2 574 1 660 1 677 1 678 1 704 1 708 1 12 1 23 1 35 1 39 1 65 1 68 1 70 1 83 1 85 1 96 1 104 1 113 1 123 1 141 1 147 1 159 1 162 1 169 1 176 1 183 1 189 1 208 1 209 1 224 1 254 1 255 1 281 1 295 1 352 1 354 1 369 1 378 1 408 1 417 1 435 1 440 1 441 1 462 1 497 1 498 1 507 1 517 1 532 1 567 1 575 1 579 1 607 1 631 1 632 1 638 1 649 1 683 1 699 1 714 1 737 1 739 1 743 1 765 1 779 1 799 1 821 1 823 1 827 1 871 1 887 1 909 1 912 1 927 2 943 1 969 1 989 1 991 1 998 1 999 1 750 1 770 1 781 1 788 1 807 1 833 1 857 1 867 1 868 1 886 1 917 1 928 1 932 1 945 1 952 1 990 1 1022 1 
1 211 10 1 29 1 32 1 38 1 42 1 53 1 66 1 71 1 92 1 98 1 119 2 140 1 176 1 183 2 202 1 226 1 266 1 280 1 281 1 287 1 302 2 338 1 373 1 395 1 451 1 461 1 467 1 488 1 502 1 553 1 564 1 590 1 592 1 624 1 635 1 638 1 643 1 655 1 690 2 709 1 56 1 72 1 84 1 104 1 122 1 137 1 171 1 191 1 195 1 196 1 207 1 245 1 255 1 262 1 325 1 335 1 349 1 353 1 423 1 439 1 486 1 490 1 495 1 526 1 554 1 577 1 587 1 589 1 613 1 632 1 644 1 661 1 696 1 699 1 703 1 743 1 779 1 782 1 795 1 813 1 868 1 870 1 879 1 885 1 893 1 897 1 917 1 939 1 973 1 988 1 996 1 750 1 774 1 785 1 787 1 793 1 794 1 817 1 846 1 851 1 894 1 931 1 934 1 942 1 945 1 961 1 995 1 1002 1 1005 1 1018 1 1023 1 
1 214 8 1 15 1 21 1 57 2 60 1 68 2 91 1 125 1 129 1 133 1 141 1 154 1 168 1 183 1 221 1 261 1 266 1 270 1 280 2 328 2 333 1 367 1 402 1 408 1 473 1 503 1 519 2 575 1 588 1 593 1 594 1 629 1 635 1 653 1 658 1 665 1 678 2 683 1 704 1 706 1 5 1 9 1 11 1 24 1 40 1 46 1 48 1 104 1 106 1 114 1 116 1 195 1 197 1 217 1 218 1 242 1 253 1 310 1 318 1 319 1 325 1 371 1 392 1 416 1 449 1 460 1 487 1 493 1 500 1 534 1 580 1 581 1 590 1 624 1 625 1 634 1 648 1 656 1 675 1 710 1 724 1 730 1 759 1 785 1 789 1 793 2 825 1 838 1 863 1 875 1 904 2 914 1 922 1 931 1 943 1 955 1 957 1 996 1 997 1 753 1 765 1 782 1 806 1 821 1 823 1 824 1 835 1 874 1 902 1 945 1 973 1 975 1 983 1 987 1 989 1 1007 1 1014 1 1020 1 1023 1 1024 1 1026 1 
1 210 28 1 36 1 100 1 102 1 109 1 111 2 112 1 129 1 140 1 147 1 150 1 196 1 197 1 201 1 251 1 261 1 264 1 301 1 340 1 343 1 376 1 399 1 402 1 426 1 436 1 457 1 461 1 479 1 538 1 573 1 621 1 623 1 638 1 649 1 660 1 693 1 699 1 702 1 717 1 723 1 11 1 24 1 27 1 46 1 57 1 72 1 80 1 84 1 107 1 120 1 179 1 181 1 187 1 190 1 217 1 219 1 249 1 255 1 263 1 275 1 298 1 305 1 317 1 327 1 336 1 357 1 365 1 374 1 394 1 449 1 458 1 459 1 474 1 481 1 504 1 522 1 533 1 540 1 555 1 570 1 613 1 639 1 653 1 669 1 672 1 690 1 731 1 768 1 796 1 839 1 856 1 924 1 993 1 745 1 750 1 785 1 795 1 805 1 850 1 876 1 879 1 894 1 896 1 901 1 953 1 957 1 971 1 1007 1 1024 1 
1 210 26 1 58 1 104 1 105 1 115 1 123 1 140 1 153 1 173 2 191 1 198 1 215 1 216 1 276 1 283 1 314 1 316 1 334 1 371 1 374 1 392 1 397 1 398 1 425 1 447 1 490 1 494 1 533 2 544 1 549 1 570 1 584 1 585 1 621 1 642 1 645 1 663 1 703 1 706 1 720 1 38 1 56 1 88 1 150 1 158 1 209 1 228 1 230 1 241 1 244 1 249 1 295 1 297 1 313 1 351 1 353 1 359 1 380 1 381 1 389 1 393 1 404 1 409 1 433 1 456 1 470 1 495 1 523 1 526 1 546 1 550 1 551 1 596 1 600 1 623 1 635 1 653 1 656 1 680 1 684 1 688 1 710 1 718 1 743 1 745 1 748 1 768 1 794 1 795 2 845 1 862 2 907 2 921 1 944 1 980 1 1001 1 730 1 740 1 752 1 772 1 793 1 806 1 820 1 847 1 869 1 874 1 904 1 926 1 948 1 971 1 993 1 998 1 1012 1 1022 1 
1 213 11 1 63 1 85 1 132 1 143 1 165 1 203 1 232 1 248 1 385 1 400 1 409 1 425 1 429 1 461 1 476 1 486 1 527 1 532 1 564 1 572 1 575 1 578 1 580 1 591 1 599 1 600 2 613 1 628 1 637 1 644 1 667 1 687 1 694 1 708 1 712 2 719 1 4 1 7 1 16 1 21 1 35 1 50 1 93 1 100 1 113 1 118 1 168 1 175 1 183 1 202 1 206 1 214 1 222 1 244 1 269 1 270 1 291 1 297 1 305 1 318 1 321 1 324 1 353 1 366 1 368 1 376 1 396 1 420 1 443 1 496 1 508 1 517 1 520 1 535 1 544 1 565 1 617 1 623 1 625 1 650 1 651 1 682 1 696 1 718 1 772 1 777 1 781 1 789 1 831 1 841 1 843 1 851 1 852 1 853 1 864 1 883 1 900 1 910 1 949 1 955 1 956 1 965 1 988 1 990 1 729 1 733 1 759 1 768 1 792 1 799 1 810 1 812 1 834 1 839 1 861 1 866 1 870 1 871 1 889 1 922 1 923 1 938 1 951 1 967 1 976 1 989 1 992 1 997 1 1004 1 1006 1 1013 1 1021 1 
1 205 1 1 28 1 32 1 108 1 116 1 117 1 127 1 128 1 147 1 165 1 191 1 202 1 296 1 314 1 334 1 335 1 363 1 368 1 389 1 420 1 448 1 466 1 477 1 491 1 521 1 530 1 537 1 542 1 567 1 570 1 594 1 653 1 663 1 667 1 670 2 679 1 691 1 696 1 715 1 718 1 16 1 27 1 41 1 49 1 77 1 83 1 93 1 150 1 176 1 184 1 211 1 252 1 267 1 309 1 319 1 321 1 353 1 390 1 399 1 412 1 473 1 474 1 475 1 486 1 512 1 564 1 585 1 595 1 604 1 611 1 633 1 648 1 657 1 672 1 701 1 713 1 746 1 750 1 766 1 817 1 828 1 836 1 886 1 938 1 963 1 972 1 995 1 767 1 776 1 780 1 785 1 809 1 810 1 866 1 895 1 916 1 930 1 933 1 943 1 944 1 949 1 980 1 994 1 1016 1 1018 1 
1 211 11 1 42 1 43 1 53 2 54 1 123 1 149 1 151 1 195 1 200 1 230 1 237 1 238 1 251 1 261 1 268 1 271 1 305 1 314 1 354 1 374 1 375 1 379 1 388 1 393 1 401 1 421 1 424 1 447 1 463 1 479 1 480 1 487 1 499 1 513 1 519 1 524 1 527 1 535 1 542 1 549 1 550 1 558 2 576 1 616 1 628 1 638 1 640 1 642 2 664 1 675 1 680 1 17 1 20 1 56 1 90 1 100 1 115 1 139 1 184 1 247 1 255 1 289 1 308 1 313 1 317 1 323 1 355 1 365 1 398 1 407 1 410 1 413 1 434 1 439 1 466 1 470 1 506 1 507 1 575 1 582 1 610 1 613 1 620 1 694 1 711 1 736 1 742 1 749 1 768 1 793 1 803 1 866 1 872 1 912 1 925 1 927 1 967 1 983 1 996 1 1001 1 756 1 764 1 801 1 813 1 847 1 865 1 869 1 875 1 881 1 904 1 908 1 909 1 930 1 947 1 997 1 1006 1 1011 1 1013 1 1025 1 1027 1 
1 213 7 1 17 1 21 2 33 1 37 1 46 1 63 1 65 2 85 2 119 1 136 1 143 1 156 1 177 1 218 1 225 1 229 1 254 1 276 1 296 1 298 1 322 1 369 1 383 1 398 1 400 1 411 1 415 1 434 1 435 1 439 1 450 1 460 1 468 1 486 1 495 1 527 1 540 1 579 1 581 1 642 1 650 1 655 1 661 1 677 1 102 1 190 1 201 1 210 1 292 1 302 1 315 1 328 1 338 1 347 1 350 1 374 1 419 1 530 1 554 1 571 1 589 1 623 1 627 1 628 1 648 1 653 1 667 1 696 1 706 1 726 1 730 1 735 1 773 1 776 1 790 1 827 1 856 1 864 1 876 1 879 1 898 1 960 1 737 1 738 1 751 1 766 1 768 1 772 1 798 1 808 1 840 1 870 1 899 1 924 1 927 1 950 1 951 1 955 1 976 1 993 1 1007 1 1008 1 1022 1 
1 211 6 1 29 1 63 1 75 1 79 1 86 2 94 1 117 1 129 1 160 2 174 1 195 1 201 1 211 1 232 1 248 1 268 1 345 1 387 1 438 2 440 1 461 1 463 1 495 1 505 1 514 1 541 1 579 1 594 1 611 1 630 1 670 2 704 1 712 1 723 1 729 1 2 1 42 1 56 1 59 1 64 1 78 1 88 1 103 1 106 1 122 1 136 1 143 1 157 1 190 1 202 1 226 1 236 1 257 1 276 1 294 1 307 1 334 1 335 1 341 1 353 1 369 1 376 1 398 1 412 1 427 1 443 1 453 1 456 1 472 1 482 1 490 1 520 1 522 1 526 1 529 1 628 1 714 1 725 1 737 1 744 1 745 1 747 1 750 1 752 1 755 1 763 1 771 1 803 1 816 1 852 1 857 1 861 1 930 1 996 1 739 1 762 1 772 1 785 1 817 1 819 1 849 1 867 1 905 1 914 1 950 1 961 1 976 1 1008 1 1010 1 1014 1 1019 1 1021 1 
1 206 23 1 37 1 64 1 66 1 77 1 80 1 87 1 104 1 122 2 143 1 160 2 203 1 219 1 251 1 262 1 273 1 312 1 317 1 321 1 351 1 380 1 388 1 392 1 433 1 437 1 460 1 516 1 537 1 584 1 601 2 619 1 667 1 672 2 674 1 685 1 694 1 724 1 7 1 10 1 20 1 21 1 55 1 56 1 82 1 95 1 100 1 123 1 138 1 162 1 188 1 200 1 205 1 247 1 250 1 267 1 269 1 271 1 282 1 285 1 294 1 302 1 377 1 382 1 391 1 413 1 418 1 422 1 446 1 447 1 479 1 493 1 538 1 543 1 565 1 592 1 604 1 615 1 618 1 624 1 630 1 631 1 657 1 701 1 736 1 748 1 757 1 766 1 783 1 812 1 815 1 824 1 838 1 842 1 874 1 891 1 899 1 958 1 988 1 991 1 998 1 1001 1 764 1 773 1 778 1 785 1 799 1 804 1 821 1 841 1 845 1 854 1 859 1 871 1 902 1 913 1 945 1 957 1 969 1 997 1 1000 1 1005 1 1011 1 1018 1 1021 1 1027 1 
1 211 30 1 34 1 84 2 104 1 114 1 126 1 141 1 154 1 218 1 234 1 241 1 311 1 313 1 320 1 330 2 362 1 375 1 386 1 402 1 419 1 433 1 454 1 457 2 461 2 466 1 478 1 481 1 540 1 564 1 571 1 574 1 622 1 624 1 625 1 629 1 659 1 663 1 665 1 712 1 718 1 6 1 20 1 21 1 48 1 107 1 116 1 123 1 133 1 135 1 140 1 173 1 184 1 203 1 213 1 238 1 257 1 288 1 302 1 306 1 349 1 358 1 360 1 398 1 400 1 406 1 407 1 446 1 500 1 532 1 599 1 631 1 673 1 696 1 739 1 752 1 785 1 823 2 846 1 852 1 859 1 868 1 981 1 794 1 809 1 824 1 832 1 841 1 844 1 849 1 857 1 907 1 912 1 919 1 954 1 962 1 966 1 1011 1 1012 1 1013 1 1015 1 1022 1 1025 1 
1 212 23 2 39 1 101 1 120 1 135 1 140 1 163 1 195 1 198 1 231 1 256 1 266 1 339 1 349 1 392 1 404 1 409 1 416 1 439 1 461 1 486 1 487 1 496 1 504 1 507 1 510 2 524 1 536 1 559 1 574 1 582 1 612 1 619 1 658 1 697 1 705 1 708 1 712 1 8 1 12 1 15 1 21 1 54 1 59 1 79 1 90 1 115 1 119 1 132 1 172 1 191 1 237 1 244 1 292 1 298 1 308 1 340 1 365 1 377 1 399 1 417 1 488 1 518 1 557 1 576 1 578 1 596 1 620 1 624 1 642 1 651 1 653 1 674 1 675 1 688 1 694 1 707 1 715 1 726 1 736 1 758 1 759 1 764 1 766 1 811 1 816 2 817 1 840 1 885 1 898 1 923 1 931 1 937 1 947 1 971 1 997 1 740 1 742 1 761 1 819 1 861 1 873 1 875 1 888 1 935 1 944 1 953 1 958 1 967 1 974 1 1006 1 1007 1 1011 1 1021 1 
1 207 9 1 22 1 77 1 88 1 105 2 120 1 121 2 138 1 145 2 156 1 176 1 211 1 219 1 220 1 239 1 252 1 254 1 269 1 279 1 330 1 356 1 403 1 408 1 425 1 460 1 474 1 501 1 502 2 508 1 510 1 533 1 541 1 554 1 581 1 600 1 619 1 633 1 635 1 638 1 678 1 680 1 688 1 695 1 37 1 46 1 106 1 110 1 122 1 148 1 151 1 170 1 191 1 197 1 206 1 207 1 244 1 246 1 248 1 300 1 305 1 341 1 345 1 381 1 401 1 405 1 423 1 435 1 470 1 516 1 517 1 535 1 536 1 571 1 591 1 593 1 595 1 599 1 621 1 657 1 677 1 698 1 700 1 823 1 835 1 848 1 874 1 922 1 932 1 936 1 951 1 956 1 967 1 975 1 976 1 738 1 757 1 774 1 793 1 836 1 842 1 867 1 974 1 987 1 1005 1 1026 1 
1 208 42 1 43 1 57 1 79 1 81 1 139 1 140 1 268 1 273 1 284 1 327 1 351 1 360 1 396 1 398 1 429 1 430 1 452 1 468 1 489 1 495 1 508 1 538 1 542 1 594 1 611 1 646 1 703 1 705 1 729 1 18 1 20 1 26 1 31 1 59 1 65 1 109 1 120 1 138 1 186 1 191 1 200 1 213 1 214 1 215 1 230 1 249 1 269 1 274 1 326 1 329 1 345 1 357 1 365 1 392 1 393 1 397 1 435 1 436 1 438 1 439 1 445 1 449 1 450 1 458 1 482 1 483 1 488 1 504 1 512 1 532 1 545 1 556 1 560 1 579 1 615 1 631 1 638 1 658 1 680 1 681 1 683 1 690 1 704 1 712 1 772 1 787 1 794 1 845 2 849 1 859 1 886 1 887 1 896 1 904 1 944 2 946 1 959 2 983 1 990 1 1001 1 739 1 763 1 771 1 835 1 857 1 894 1 940 1 945 1 970 1 996 1 997 1 1006 1 
1 215 12 1 22 1 27 1 29 1 52 1 57 1 94 1 100 2 102 1 105 1 115 2 158 1 179 1 181 2 186 1 188 1 216 1 234 1 237 1 242 2 253 1 274 1 288 1 314 1 330 1 362 1 373 2 375 1 381 1 385 1 425 1 430 1 435 1 451 2 464 1 477 1 499 2 528 1 573 2 577 1 579 1 629 1 632 1 633 1 648 1 658 1 661 1 683 1 714 1 728 1 731 1 733 1 5 1 56 1 62 1 63 1 70 1 82 1 110 1 127 1 140 1 163 1 180 1 183 1 231 1 270 1 292 1 294 1 304 1 305 1 359 1 365 1 379 1 397 1 474 1 484 1 527 1 611 1 667 1 688 1 719 1 739 1 744 1 772 1 799 1 803 1 834 1 835 1 841 1 898 1 932 1 938 1 964 1 993 1 754 1 778 1 798 1 800 1 828 1 833 1 837 1 851 1 878 1 924 1 952 1 962 1 967 1 983 1 984 1 988 1 1002 1 1012 1 1020 1 1021 1 
1 215 2 1 5 1 13 1 22 1 25 1 45 1 53 2 54 1 61 1 70 1 81 1 107 1 159 2 191 2 192 2 212 1 226 1 287 1 294 1 295 1 334 1 335 1 353 1 385 1 428 1 476 1 477 1 506 1 542 1 578 1 580 1 588 1 589 1 603 1 632 1 635 1 644 1 650 1 677 1 687 1 689 2 709 1 711 1 721 1 730 1 34 1 66 1 73 1 80 1 99 1 113 1 138 1 143 1 147 1 157 1 169 1 205 1 221 1 223 1 229 1 249 1 258 1 260 1 280 1 303 1 332 1 333 1 359 1 418 1 444 1 478 1 521 1 533 1 534 1 536 1 568 1 600 1 602 1 614 1 616 1 647 1 657 1 674 1 713 1 719 1 729 1 739 1 741 1 790 1 792 1 797 1 824 1 833 1 884 1 916 1 917 1 952 1 954 1 956 1 964 1 742 1 744 1 750 1 760 1 778 1 839 1 866 1 869 1 880 1 895 1 923 1 929 1 934 1 960 1 1002 1 1003 1 1010 1 1017 1 1023 1 
1 206 17 1 27 1 48 1 68 1 95 1 104 1 118 1 136 1 145 1 166 1 187 1 204 1 212 1 241 1 252 1 255 1 274 1 292 1 352 1 365 1 427 1 434 1 439 1 448 1 451 1 459 1 474 1 527 1 534 1 556 2 605 1 623 1 625 1 639 1 642 1 644 1 657 1 30 1 49 1 50 1 55 1 62 1 98 1 101 1 127 1 169 1 177 1 178 1 201 1 210 1 218 1 240 1 253 1 260 1 267 1 270 1 276 1 278 1 285 1 307 1 308 1 333 1 337 1 370 1 403 1 407 1 409 1 452 1 476 1 494 1 528 1 535 1 559 1 575 1 631 1 643 1 656 1 674 1 679 1 694 1 703 1 707 1 714 1 719 1 729 1 734 1 750 1 770 1 781 1 795 1 797 1 821 1 822 1 823 1 846 1 857 1 861 1 863 1 898 1 916 1 947 1 987 1 995 1 747 1 754 1 755 1 758 1 759 1 767 1 768 1 771 1 789 1 801 1 810 1 812 1 827 1 841 1 849 1 854 1 915 1 924 1 935 1 941 1 961 1 990 1 1014 1 
1 209 11 1 20 1 37 1 51 1 52 1 73 1 93 1 129 1 145 1 154 1 162 1 215 1 221 1 229 1 237 1 258 1 272 1 283 1 299 1 308 2 310 1 332 1 333 1 370 1 391 1 425 1 437 1 438 1 442 1 460 2 484 1 497 1 555 1 556 1 558 1 560 1 561 1 616 1 622 1 630 1 634 1 658 1 708 1 716 1 721 1 732 1 736 1 737 1 6 1 33 1 57 1 59 1 67 1 92 1 111 1 137 1 173 1 179 1 273 1 282 1 294 1 320 1 323 1 325 1 327 1 344 1 371 1 385 1 411 1 412 1 434 1 440 1 465 1 492 1 537 1 567 1 572 1 578 1 602 1 614 1 659 1 692 1 693 1 707 1 730 1 735 1 777 1 785 1 815 1 827 1 829 1 839 1 851 1 878 1 879 1 891 1 901 1 904 1 951 1 955 1 963 1 973 1 984 1 988 1 1001 1 751 1 768 1 787 1 808 1 814 1 816 1 833 1 837 1 841 1 844 1 861 1 895 1 916 1 939 1 947 1 952 1 954 1 978 1 1000 1 1004 1 1015 1 1017 1 
1 208 3 1 12 1 30 1 50 1 60 1 107 1 124 1 174 1 209 1 211 1 223 1 263 1 270 1 304 1 325 1 353 1 365 1 367 1 368 1 379 1 389 2 391 1 408 1 459 1 477 1 505 1 522 1 537 1 561 2 584 1 595 1 597 1 601 1 610 1 613 1 630 1 635 1 638 1 653 1 662 1 673 1 674 1 712 1 27 1 81 1 96 1 98 1 100 1 113 1 125 1 128 1 138 1 159 1 178 1 192 1 285 1 290 1 306 1 314 1 317 1 340 1 400 1 409 1 412 1 445 1 465 1 470 1 471 1 484 1 498 1 512 1 529 1 540 1 554 1 557 1 564 1 593 1 607 1 619 1 648 1 667 1 685 1 690 1 693 1 725 1 733 1 740 1 740 1 770 1 789 1 812 1 815 1 817 1 845 1 851 1 852 1 862 1 938 2 952 2 997 1 743 1 767 1 776 1 788 1 805 1 849 1 857 1 894 1 909 1 914 1 926 1 933 1 970 1 972 1 1007 1 1013 1 1017 1 
1 211 21 1 31 1 37 1 43 1 45 1 51 1 122 1 135 2 149 1 201 1 205 1 219 1 227 1 251 1 252 1 261 1 266 1 304 1 312 1 316 1 325 1 328 1 329 1 332 1 350 1 352 1 353 1 362 1 372 1 382 1 385 1 391 1 392 1 398 1 408 1 415 1 438 1 444 1 552 1 594 1 667 1 691 1 737 1 2 1 32 1 36 1 65 1 84 1 86 1 96 1 102 1 107 1 108 1 110 1 142 1 151 1 160 1 163 1 167 1 182 1 204 1 238 1 244 1 255 1 269 1 279 1 282 1 343 1 355 1 378 1 379 1 417 1 424 1 537 1 560 1 577 1 590 1 599 1 628 1 632 1 634 1 666 1 668 1 669 1 681 1 700 1 706 1 718 1 742 1 758 1 761 1 773 1 775 1 786 1 793 1 818 1 841 2 850 1 868 1 869 1 902 1 944 1 983 1 803 1 822 1 828 1 840 1 848 1 854 1 941 1 945 1 970 1 984 1 1018 1 
1 214 32 1 33 2 37 1 45 1 61 1 80 1 81 1 90 2 92 1 114 1 126 1 139 1 160 1 183 1 184 1 185 1 220 1 233 1 243 1 298 1 351 1 395 1 423 1 438 1 470 1 497 1 524 1 546 1 582 1 596 1 626 1 637 2 665 1 671 1 673 1 677 1 686 1 719 1 728 1 741 1 14 1 19 1 116 1 130 1 138 1 147 1 169 1 198 1 215 1 225 1 234 1 238 1 246 1 250 1 262 1 271 1 275 1 293 1 297 1 307 1 317 1 355 1 360 1 365 1 366 1 372 1 392 1 410 1 422 1 529 1 538 1 550 1 552 1 559 1 573 1 579 1 593 1 619 1 624 1 650 1 662 1 675 1 678 1 733 1 737 1 751 1 779 1 818 1 822 1 852 1 914 1 947 1 962 1 992 1 752 1 757 1 762 1 780 1 792 1 810 1 820 1 859 1 864 1 868 1 892 1 907 1 959 1 973 1 1008 1 1010 1 1016 1 1026 1 
1 215 1 1 40 1 55 1 56 1 58 1 88 1 90 1 99 1 118 1 140 1 150 1 174 1 235 1 261 1 281 2 290 1 305 1 311 1 365 1 376 1 404 1 408 1 420 1 434 1 446 2 531 1 574 1 581 1 598 1 599 1 615 1 650 1 655 1 673 1 688 1 690 1 693 1 701 1 721 1 722 1 725 1 5 1 39 1 66 1 84 1 113 1 124 1 135 1 148 1 168 1 186 1 188 1 213 1 214 1 215 1 237 1 239 1 266 1 275 1 345 1 359 1 361 1 396 1 424 1 426 1 430 1 431 1 432 1 464 1 469 1 473 1 478 1 486 1 491 1 509 1 538 1 543 1 548 1 563 1 564 1 577 1 591 1 610 1 612 1 619 1 637 1 670 1 703 1 709 1 713 1 716 1 740 1 755 1 764 1 778 1 782 1 784 1 788 1 795 1 815 1 842 1 875 1 884 1 923 1 745 1 776 1 780 1 822 1 845 1 889 1 890 1 904 1 907 1 915 1 926 1 939 1 980 1 991 1 1002 1 1007 1 1008 1 1010 1 1011 1 1016 1 1023 1 
1 209 6 1 35 1 40 1 59 1 100 1 159 1 160 1 165 1 169 1 206 1 249 1 255 1 266 1 270 2 302 1 309 1 318 1 322 1 325 1 327 1 350 1 369 1 385 1 416 1 435 1 449 1 452 1 485 1 494 1 546 1 586 1 653 1 659 2 691 1 713 1 714 1 730 1 736 1 4 1 17 1 18 1 44 1 72 1 73 1 91 1 109 1 152 1 177 1 203 1 209 1 214 1 227 1 271 1 291 1 297 1 312 1 314 1 344 1 362 1 370 1 388 1 396 1 412 1 415 1 421 1 438 1 464 1 468 1 500 1 501 1 503 1 509 1 525 1 531 1 532 1 543 1 568 1 585 1 603 1 613 1 619 1 700 1 719 1 737 1 745 1 767 2 771 1 792 1 810 1 811 1 873 1 924 1 936 1 937 1 938 1 950 1 964 1 971 1 972 1 787 1 794 1 801 1 824 1 874 1 898 1 899 1 918 1 927 1 974 1 992 1 998 1 1005 1 1009 1 1025 1 1027 1 
1 215 11 1 76 1 93 1 97 1 131 1 137 1 177 1 181 1 196 1 203 1 224 1 234 1 241 1 244 1 245 1 250 1 254 1 261 1 266 1 311 1 322 1 323 1 324 1 332 1 355 1 357 1 370 1 382 1 395 1 432 1 433 1 461 1 465 1 494 1 500 1 503 1 504 1 557 1 559 1 631 1 634 2 665 1 695 1 699 1 704 1 717 1 725 1 730 1 744 1 1 1 2 1 12 1 16 1 25 1 53 1 89 1 163 1 207 1 209 1 230 1 242 1 252 1 255 1 257 1 278 1 292 1 299 1 331 1 388 1 396 1 402 1 416 1 428 1 430 1 431 1 446 1 473 1 485 1 486 1 491 1 532 1 568 1 581 1 586 1 599 1 617 1 638 1 641 1 679 1 700 1 724 1 743 1 766 1 799 1 808 1 845 1 877 1 943 2 950 2 993 1 776 1 779 1 859 1 860 1 865 1 881 1 887 1 919 1 933 1 942 1 999 1 1004 1 1007 1 1010 1 1027 1 
1 210 2 1 15 1 25 1 57 1 72 1 74 1 82 1 89 1 94 1 96 1 115 1 122 1 142 1 145 1 153 2 170 1 203 1 223 1 226 1 254 1 259 1 312 1 317 1 325 1 343 1 376 1 377 1 386 1 388 1 389 1 422 1 441 1 464 1 486 1 499 1 508 1 514 1 568 1 608 1 640 1 687 1 711 1 727 1 18 1 21 1 23 1 32 1 45 1 63 1 160 1 172 1 175 1 193 1 197 1 201 1 216 1 235 1 260 1 262 1 287 1 331 1 344 1 346 1 367 1 368 1 370 1 430 1 446 1 477 1 555 1 583 1 590 1 593 1 636 1 647 1 651 1 661 1 672 1 704 1 770 1 771 1 776 1 788 1 803 1 810 1 826 1 879 1 897 1 898 2 927 1 953 1 969 1 984 1 986 1 749 1 750 1 772 1 790 1 801 1 825 1 864 1 869 1 884 1 888 1 939 1 967 1 983 1 1011 1 1015 1 1019 1 1020 1 1021 1 1025 1 
1 211 9 2 13 2 14 1 37 1 42 1 53 1 92 1 103 1 164 1 166 1 195 1 210 1 252 1 273 1 292 1 306 1 317 1 347 1 356 1 423 1 454 1 465 1 488 1 496 1 501 2 512 1 552 1 595 1 610 1 621 1 622 1 640 1 643 1 678 1 685 1 701 1 708 2 715 1 730 1 38 1 45 1 112 1 129 1 137 1 153 1 176 1 188 1 190 1 219 1 227 1 258 1 260 1 284 1 285 1 301 1 357 1 393 1 401 1 415 1 422 1 455 1 467 1 520 1 547 1 566 1 578 1 603 1 609 1 615 1 623 1 633 1 648 1 668 1 675 1 716 1 738 1 758 1 817 1 850 1 866 1 881 1 925 1 964 1 974 1 981 1 992 1 751 1 766 1 807 1 809 1 831 1 836 1 859 1 862 1 877 1 939 1 953 1 957 1 980 1 1020 1 1025 1 
1 211 19 1 22 1 59 1 65 1 139 1 140 1 162 1 177 1 179 1 232 1 235 1 243 1 262 1 268 1 278 1 309 1 311 1 323 1 325 1 362 1 369 1 386 1 387 1 391 1 392 1 420 2 434 1 444 1 461 1 469 1 508 1 512 1 532 1 610 2 611 1 617 2 651 1 663 1 677 1 708 1 725 1 731 1 35 1 50 1 53 1 72 1 83 1 101 1 160 1 166 1 182 1 190 1 200 1 210 1 237 1 253 1 266 1 293 1 310 1 320 1 329 1 330 1 340 1 341 1 351 1 399 1 400 1 406 1 439 1 456 1 478 1 487 1 489 1 499 1 547 1 566 1 593 1 668 1 675 1 706 1 751 1 782 1 864 1 884 1 889 2 911 1 934 1 936 1 953 1 963 1 978 1 992 1 996 1 998 1 755 1 762 1 789 1 814 1 820 1 841 1 851 1 881 1 888 1 900 1 903 1 906 1 919 1 933 1 957 1 1004 1 1014 1 1016 1 1024 1 
1 209 7 1 37 1 52 2 61 1 69 1 75 1 78 1 88 1 95 1 107 1 111 1 193 1 194 1 224 2 227 1 236 1 289 1 351 1 357 1 373 1 439 1 454 1 507 1 520 1 559 1 602 1 625 1 641 1 657 1 658 1 660 1 663 1 693 1 701 1 720 1 728 1 1 1 2 1 14 1 21 1 30 1 41 1 72 1 86 1 90 1 94 1 106 1 112 1 137 1 204 1 228 1 229 1 243 1 307 1 311 1 323 1 331 1 332 1 335 1 362 1 374 1 377 1 381 1 403 1 426 1 452 1 466 1 468 1 481 1 482 1 484 1 488 1 497 1 552 1 586 1 619 1 659 1 674 1 683 1 746 1 782 2 784 1 791 1 826 1 843 1 847 1 855 1 857 1 893 1 945 1 956 1 992 1 999 1 751 1 757 1 779 1 809 1 827 1 863 1 870 1 898 1 930 1 961 1 975 1 979 1 991 1 1004 1 1016 1 1020 1 
1 210 43 1 53 1 89 1 108 1 113 1 133 1 144 1 161 1 169 1 174 1 220 1 223 1 224 1 227 1 274 1 297 1 300 1 319 1 334 1 352 1 366 1 390 1 394 1 421 1 430 1 433 1 441 2 450 1 460 1 472 1 473 1 516 1 541 1 583 1 588 1 613 1 630 1 660 1 664 1 696 1 710 1 715 1 719 1 727 1 730 1 738 1 1 1 5 1 13 1 33 1 40 1 47 1 54 1 66 1 72 1 84 1 118 1 134 1 150 1 178 1 281 1 304 1 310 1 329 1 378 1 384 1 396 1 402 1 429 1 456 1 471 1 492 1 514 1 545 1 557 1 559 1 582 1 584 1 597 1 599 1 600 1 609 1 673 1 681 1 711 1 718 1 721 1 722 1 724 1 737 1 746 1 766 1 806 1 826 1 833 1 840 1 847 1 900 1 912 2 932 1 943 1 949 1 989 1 990 1 996 1 1001 2 753 1 788 1 791 1 807 1 811 1 816 1 885 1 914 1 918 1 950 1 972 1 982 1 995 1 1008 1 1019 1 1021 1 
1 211 46 2 49 1 56 1 72 1 91 1 132 2 150 1 164 2 191 1 193 1 215 1 243 1 255 1 256 1 284 1 369 1 374 1 394 1 409 1 478 1 490 1 503 2 520 1 552 2 560 1 564 1 567 1 570 1 582 1 597 2 603 1 639 1 643 1 655 1 665 1 683 1 700 1 710 1 742 1 748 1 26 1 52 1 90 1 102 1 201 1 251 1 264 1 280 1 347 1 352 1 387 1 397 1 430 1 469 1 519 1 536 1 539 1 545 1 563 1 605 1 607 1 696 1 704 1 714 1 729 1 739 1 747 1 749 1 759 1 789 1 837 1 843 1 879 1 904 1 920 1 944 1 956 1 985 2 768 1 778 1 806 1 815 1 832 1 854 1 856 1 864 1 868 1 869 1 900 1 905 1 910 1 918 1 946 1 988 1 1018 1 
1 216 8 1 28 1 44 1 78 1 79 1 84 1 89 1 92 1 102 1 123 1 144 1 173 1 184 1 188 1 226 1 232 1 233 1 243 1 262 1 273 1 275 1 289 1 314 2 316 1 318 1 334 1 340 1 341 1 347 2 389 1 415 1 425 1 440 1 474 1 485 1 495 1 523 1 553 1 563 1 568 1 583 1 586 1 589 1 622 1 633 1 647 1 659 1 662 1 670 1 679 1 705 1 713 1 716 1 730 1 732 1 11 1 12 1 57 1 90 1 113 1 132 1 133 1 139 1 194 1 196 1 203 1 211 1 235 1 251 1 257 1 276 1 293 1 303 1 308 1 354 1 356 1 399 1 458 1 480 1 482 1 502 1 514 1 546 1 554 1 573 1 576 1 590 1 618 1 645 1 678 1 688 1 694 1 699 1 718 1 725 1 742 1 760 1 780 1 781 1 800 1 808 1 868 1 889 1 914 1 916 1 936 1 962 1 967 2 980 2 993 1 998 1 1000 1 764 1 785 1 799 1 866 1 870 1 874 1 893 1 921 1 929 1 955 1 976 1 982 1 987 1 988 1 1006 1 1007 1 1011 1 1014 1 1015 1 1027 1 
1 209 6 1 9 1 21 1 23 1 45 1 49 1 80 1 95 1 108 1 126 1 129 1 131 1 149 1 163 1 167 1 169 1 171 1 185 1 196 1 203 1 215 1 235 1 243 1 296 2 313 1 332 1 333 1 353 1 370 1 372 1 393 2 426 1 442 1 454 1 459 1 465 1 473 1 507 1 517 1 519 2 528 1 551 1 561 1 567 1 573 1 593 1 600 1 610 1 623 1 659 2 661 1 666 1 697 1 1 1 31 1 37 1 63 1 77 1 88 1 115 1 140 1 187 1 202 1 207 1 252 1 289 1 291 1 319 1 345 1 350 1 357 1 358 1 361 1 366 1 383 1 417 1 428 1 443 1 448 1 472 1 476 1 487 1 497 1 500 1 524 1 525 1 526 1 575 1 578 1 603 1 604 1 607 1 617 1 624 1 629 1 651 1 675 1 723 1 750 1 792 1 800 1 815 1 825 2 833 1 866 1 882 1 908 1 916 1 975 1 980 1 985 1 759 1 772 1 780 1 859 1 913 1 964 1 989 1 1009 1 1016 1 1021 1 
1 212 21 1 33 1 45 1 46 1 48 2 54 1 61 2 62 1 66 1 91 1 116 1 141 1 174 1 185 2 193 1 258 1 269 1 275 1 276 1 284 1 301 1 305 1 311 2 318 1 331 2 377 1 417 1 423 2 471 1 482 1 494 1 499 1 503 1 618 1 626 1 627 1 649 2 657 1 689 1 707 1 55 1 58 1 75 1 82 1 109 1 115 1 137 1 158 1 179 1 182 1 183 1 186 1 196 1 200 1 238 1 248 1 290 1 303 1 307 1 371 1 381 1 386 1 436 1 442 1 450 1 452 1 466 1 468 1 473 1 476 1 506 1 562 1 586 1 592 1 611 1 638 1 676 1 685 1 703 1 705 1 736 1 738 1 805 1 825 1 839 1 840 1 842 1 856 1 862 1 867 1 878 1 909 1 919 1 937 1 940 1 941 1 945 1 972 1 1001 1 785 1 789 1 791 1 799 1 801 1 824 1 847 1 870 1 880 1 895 1 930 1 968 1 970 1 985 1 992 1 1016 1 1021 1 
1 207 2 1 11 1 12 1 57 1 69 1 70 1 88 1 93 1 103 1 113 1 121 1 128 1 147 1 187 1 227 1 274 1 282 1 286 1 304 1 311 1 312 1 317 1 320 1 325 2 327 1 338 1 401 1 423 1 437 1 450 2 461 1 464 1 492 1 543 1 568 1 579 1 597 1 639 1 655 1 664 1 665 1 666 1 667 1 670 1 671 1 705 1 717 1 730 1 743 1 6 1 15 1 32 1 85 1 104 1 107 1 109 1 117 1 118 1 125 1 127 1 133 1 134 1 136 1 139 1 159 1 170 1 209 1 238 1 244 1 246 1 263 1 284 1 298 1 310 1 362 1 372 1 458 1 485 1 487 1 518 1 521 1 533 1 541 1 544 1 604 1 622 1 680 1 704 1 738 1 748 1 814 1 820 1 842 1 855 2 864 1 890 1 906 1 918 1 930 1 939 1 946 1 969 1 990 1 992 1 790 1 794 1 802 1 815 1 827 1 829 1 833 1 882 1 889 1 893 1 902 1 912 1 926 1 932 1 943 1 945 1 949 1 952 1 981 1 988 1 991 1 994 1 1004 1 1015 1 
1 211 13 1 44 1 47 1 74 1 75 1 95 1 104 1 116 1 120 1 122 2 164 1 170 2 175 1 222 1 252 1 257 1 280 1 314 1 319 1 323 1 381 1 387 1 408 1 426 1 444 1 448 1 455 1 474 1 481 1 485 1 512 1 584 1 611 1 613 1 629 1 662 1 702 1 708 1 64 1 105 1 123 1 149 1 150 1 157 1 159 1 180 1 193 1 208 1 211 1 213 1 220 1 261 1 275 1 305 1 334 1 343 1 363 1 383 1 397 1 412 1 416 1 449 1 483 1 491 1 500 1 516 1 637 1 661 1 665 1 683 1 685 1 692 1 705 1 728 1 781 1 809 1 840 1 860 1 865 1 873 1 875 2 876 1 882 1 892 1 909 1 955 1 956 1 971 1 973 1 789 1 843 1 853 1 855 1 878 1 964 1 980 1 987 1 994 1 1000 1 1001 1 1004 1 1005 1 1008 1 
1 211 9 1 15 1 36 1 40 1 108 1 137 1 172 1 181 1 182 1 191 1 197 1 214 1 232 1 239 1 242 1 254 1 276 1 289 1 290 1 292 1 313 1 327 1 330 1 345 1 435 1 442 1 451 1 464 1 470 1 483 1 498 1 500 1 513 1 526 1 547 1 556 1 564 1 570 1 587 1 608 1 615 1 637 1 650 1 702 1 713 1 731 1 5 1 18 1 19 1 24 1 32 1 118 1 138 1 156 1 179 1 184 1 209 1 224 1 228 1 240 1 298 1 351 1 369 1 411 1 450 1 467 1 486 1 490 1 495 1 497 1 511 1 512 1 514 1 525 1 571 1 583 1 596 1 647 1 656 1 696 1 709 1 734 1 742 1 749 1 759 1 766 1 776 1 826 1 837 1 850 1 886 1 905 1 923 1 931 1 957 1 975 1 770 1 781 1 795 1 818 1 821 1 836 1 857 1 865 1 919 1 966 1 983 1 986 1 999 1 1005 1 1011 1 1026 1 
1 213 3 1 11 1 17 1 38 1 42 2 68 2 121 1 127 1 146 1 182 1 189 1 205 2 211 1 223 1 235 1 251 1 260 1 265 1 285 1 353 1 365 1 376 1 381 1 390 1 393 1 429 1 452 1 455 1 472 1 501 1 518 1 520 1 526 1 534 1 540 1 548 1 582 1 598 1 612 2 652 1 659 1 671 1 707 1 733 1 741 1 747 1 13 1 19 1 35 1 62 1 64 1 103 1 153 1 156 1 162 1 164 1 166 1 191 1 202 1 228 1 231 1 268 1 277 1 326 1 327 1 339 1 370 1 384 1 405 1 438 1 446 1 447 1 473 1 478 1 507 1 539 1 579 1 591 1 614 1 625 1 669 1 703 1 708 1 716 1 738 1 761 1 776 1 795 1 799 1 813 2 820 1 822 1 857 1 878 1 907 1 915 1 962 1 984 1 998 1 760 1 766 1 767 1 769 1 783 1 788 1 800 1 833 1 844 1 847 1 860 1 862 1 867 1 875 1 902 1 904 1 949 1 1008 1 1009 1 1012 1 1017 1 
1 206 2 1 34 1 40 1 45 1 155 1 156 1 173 1 182 1 197 1 201 1 239 1 284 1 285 1 300 2 308 1 316 1 331 1 354 1 360 1 390 1 408 1 440 1 453 1 462 1 481 1 489 1 497 1 502 1 525 1 537 1 550 1 585 1 610 1 666 1 700 1 717 2 723 1 733 1 751 1 757 1 1 1 6 1 23 1 48 1 62 1 64 1 71 1 86 1 103 1 118 1 144 1 149 1 174 1 189 1 198 1 200 1 226 1 227 1 268 1 274 1 292 1 305 1 319 1 340 1 349 1 373 1 383 1 447 1 508 1 527 1 543 1 549 1 573 1 598 1 599 1 606 1 607 1 638 1 640 1 665 1 678 1 699 1 716 1 718 1 726 1 738 1 753 1 764 1 776 1 797 1 803 1 804 1 814 1 819 1 839 1 847 1 855 1 857 1 862 1 883 1 884 1 896 2 907 1 919 1 921 1 935 1 946 2 951 1 953 1 956 1 984 1 778 1 779 1 781 1 795 1 802 1 824 1 906 1 914 1 920 1 965 1 985 1 987 1 995 1 1023 1 
1 214 21 1 35 1 77 1 81 1 114 1 143 1 163 1 167 1 240 2 258 1 260 1 272 1 283 1 284 1 287 1 320 1 366 1 374 1 387 1 393 1 396 1 438 1 441 1 446 1 458 1 493 1 510 1 514 1 524 1 531 1 551 1 558 1 563 1 569 1 574 1 593 1 605 2 610 1 653 2 666 1 715 1 752 1 8 1 63 1 97 1 117 1 151 1 152 1 185 1 199 1 216 1 219 1 280 1 306 1 343 1 365 1 418 1 430 1 439 1 442 1 473 1 475 1 476 1 542 1 565 1 578 1 579 1 597 1 627 1 670 1 685 1 701 1 719 1 737 1 758 1 763 1 768 1 770 1 794 1 819 1 851 1 854 1 858 1 866 1 873 1 878 2 886 1 899 1 906 1 911 1 923 1 964 1 781 1 798 1 832 1 881 1 882 1 900 1 912 1 940 1 957 1 963 1 978 1 982 1 985 1 986 1 988 1 1008 1 1012 1 1017 1 1023 1 1025 1 1027 1 
1 206 47 1 68 1 95 1 123 1 150 1 173 1 175 1 196 1 209 1 210 1 232 1 239 1 257 1 260 1 264 1 310 1 311 1 321 1 354 1 361 1 373 1 374 1 387 1 394 1 399 1 403 2 408 1 414 1 447 1 469 1 490 1 504 1 590 1 599 1 608 1 619 1 628 1 664 1 688 1 694 1 712 1 718 1 741 1 758 1 22 1 58 1 126 1 138 1 180 1 190 1 216 1 226 1 237 1 249 1 287 1 307 1 309 1 369 1 386 1 419 1 422 1 424 1 438 1 477 1 479 1 509 1 517 1 529 1 560 1 571 1 579 1 581 1 596 1 620 1 643 1 652 1 684 1 706 1 713 1 733 1 782 1 789 1 790 1 791 1 798 1 854 1 857 1 889 1 940 1 967 1 968 1 976 1 765 1 775 1 777 1 799 1 802 1 823 1 827 1 829 1 832 1 848 1 874 1 928 1 937 1 956 1 980 1 1013 1 1017 1 
1 204 9 1 29 1 49 1 63 1 79 1 98 1 106 1 134 1 148 1 161 1 169 1 174 1 193 1 222 1 262 1 266 1 269 1 316 1 346 1 379 1 404 1 405 1 410 1 488 1 505 1 515 1 533 1 548 1 550 1 556 1 574 1 601 1 603 1 622 1 642 1 669 1 675 1 679 1 689 1 691 1 693 1 698 1 6 1 24 1 38 1 65 1 116 1 138 1 139 1 147 1 177 1 187 1 220 1 221 1 227 1 248 1 263 1 315 1 344 1 359 1 376 1 448 1 450 1 478 1 480 1 514 1 535 1 540 1 572 1 578 1 592 1 602 1 608 1 624 1 632 1 645 1 649 1 668 1 671 1 682 1 705 1 714 1 730 1 742 1 748 1 811 1 887 1 902 1 905 1 923 1 979 2 1001 1 775 1 793 1 817 1 823 1 865 1 868 1 873 1 874 1 877 1 880 1 906 1 922 1 943 1 982 1 999 1 1002 1 1007 1 
1 204 17 1 21 1 24 1 44 1 47 1 50 1 55 1 69 1 81 1 103 1 113 1 127 1 131 1 134 2 145 1 147 1 180 1 182 1 190 1 198 2 252 1 260 1 273 1 318 1 332 1 342 1 350 1 401 1 405 1 435 1 450 1 451 1 505 1 521 1 544 1 548 1 569 1 582 1 585 1 630 1 637 1 649 1 664 1 674 1 686 1 691 1 730 1 760 1 2 1 9 1 64 1 65 1 71 1 79 1 122 1 146 1 164 1 192 1 197 1 205 1 207 1 211 1 238 1 249 1 338 1 379 1 396 1 415 1 433 1 455 1 462 1 490 1 496 1 508 1 515 1 519 1 631 1 683 1 702 1 735 1 769 2 784 1 790 1 794 1 800 1 803 1 814 1 824 1 828 1 852 1 859 1 872 1 884 1 893 1 900 1 927 1 949 1 995 1 766 1 780 1 840 1 847 1 874 1 892 1 901 1 906 1 920 1 933 1 936 1 952 1 954 1 963 1 992 1 996 1 1026 1 
1 209 23 1 30 1 32 1 47 1 76 2 144 1 168 1 171 1 178 1 188 1 197 1 217 1 221 1 238 1 239 1 243 1 249 1 254 1 303 1 310 1 315 1 342 1 373 1 388 1 394 1 395 1 416 1 429 1 442 1 447 1 490 1 504 1 505 1 508 1 509 1 525 1 554 1 595 1 616 1 666 1 676 1 692 1 705 1 710 2 719 1 733 1 743 1 759 1 3 1 60 1 71 1 80 1 86 1 98 1 99 1 103 1 105 1 140 1 148 1 159 1 261 1 313 1 338 1 367 1 389 1 419 1 421 1 448 1 461 1 463 1 465 1 467 1 470 1 480 1 527 1 534 1 544 1 576 1 628 1 635 1 647 1 652 1 661 1 689 1 709 1 728 1 731 1 752 1 795 1 818 1 852 1 885 2 903 1 918 1 924 1 927 1 982 1 776 1 792 1 827 1 886 1 932 1 945 1 961 1 996 1 1014 1 
1 212 27 1 42 1 66 2 79 1 87 1 100 1 112 1 116 1 123 1 133 1 136 1 184 1 185 1 198 1 225 1 228 2 230 1 247 1 248 1 256 1 272 1 288 1 304 2 316 1 325 1 367 1 375 1 381 1 395 1 399 1 423 1 431 1 453 1 479 1 487 1 495 1 519 1 521 1 527 1 531 1 569 1 575 1 600 1 615 1 616 1 633 1 643 1 647 1 659 1 689 1 700 1 707 1 721 1 8 1 16 1 19 1 23 1 26 1 30 1 35 1 52 1 64 1 73 1 86 1 101 1 107 1 121 1 132 1 149 1 163 1 199 1 216 1 251 1 271 1 277 1 305 1 335 1 342 1 347 1 379 1 383 1 402 1 424 1 425 1 430 1 434 1 435 1 437 1 444 1 483 1 499 1 541 1 555 1 558 1 570 1 629 1 663 1 668 1 696 1 714 1 723 1 761 1 766 1 767 1 770 1 798 1 800 1 847 1 866 1 879 2 893 1 949 1 956 1 963 1 964 1 988 1 991 1 796 1 801 1 810 1 816 1 823 1 842 1 844 1 854 1 860 1 868 1 875 1 919 1 924 1 957 1 970 1 986 1 1005 1 1017 1 
1 209 1 1 11 1 27 1 56 1 87 1 129 2 142 1 147 1 161 1 175 1 177 1 188 1 192 1 203 1 208 1 249 1 255 1 257 1 266 1 277 1 305 1 310 1 328 1 345 1 375 1 379 1 404 1 409 1 411 1 433 1 443 1 444 1 487 1 517 1 529 1 533 1 555 1 566 1 569 1 633 1 666 1 681 1 684 1 727 1 731 1 733 1 745 1 750 1 757 1 765 1 10 1 29 1 34 1 53 1 85 1 94 1 100 1 115 1 132 1 143 1 170 1 179 1 205 1 246 1 334 1 342 1 349 1 374 1 381 1 425 1 438 1 446 1 459 1 471 1 497 1 512 1 546 1 557 1 574 1 576 1 586 1 589 1 612 1 644 1 652 1 663 1 670 1 679 1 687 1 692 1 695 1 704 1 706 1 713 1 729 1 747 1 758 1 763 1 770 1 795 1 807 2 830 1 832 2 847 1 887 1 893 1 894 1 907 1 935 1 947 1 955 1 969 1 972 1 973 1 819 1 821 1 829 1 837 1 862 1 865 1 899 1 911 1 912 1 925 1 950 1 996 1 1003 1 1010 1 1021 1 1024 1 
1 209 3 1 9 2 49 1 54 2 100 1 135 1 138 1 164 1 172 1 178 1 196 1 218 1 287 1 303 2 305 1 349 1 364 1 371 1 380 1 389 1 414 1 430 1 434 1 463 1 465 1 483 1 528 2 562 1 564 1 567 1 570 1 593 1 598 1 674 1 678 1 711 1 744 2 765 1 61 1 62 1 68 1 94 1 95 1 112 1 114 1 115 1 130 1 156 1 175 1 194 1 235 1 248 1 308 1 348 1 376 1 412 1 413 1 426 1 428 1 449 1 477 1 508 1 514 1 530 1 544 1 551 1 555 1 561 1 568 1 573 1 592 1 647 1 672 1 682 1 713 1 714 1 716 1 727 1 738 1 740 1 758 1 772 1 854 1 856 1 858 1 859 1 867 1 890 1 901 1 936 1 938 1 969 1 996 1 999 1 780 1 820 1 828 1 830 1 876 1 880 1 886 1 902 1 926 1 934 1 942 1 944 1 946 1 947 1 952 1 965 1 1002 1 1011 1 1016 1 1018 1 1024 1 
1 213 8 1 20 1 35 1 36 1 37 1 60 1 101 1 125 1 130 1 144 1 155 1 165 1 167 1 178 1 180 1 181 1 210 1 228 2 233 1 254 1 290 1 312 1 323 1 338 1 351 1 453 1 460 2 474 1 488 1 492 1 540 2 582 1 631 1 639 1 647 1 665 1 669 1 673 1 674 1 713 1 724 1 725 1 728 1 760 1 26 1 82 1 83 1 90 1 100 1 156 1 211 1 226 1 232 1 250 1 252 1 264 1 278 1 309 1 331 1 339 1 342 1 348 1 353 1 358 1 359 1 369 1 379 1 400 1 419 1 440 1 489 1 493 1 498 1 509 1 526 1 527 1 562 1 569 1 576 1 579 1 587 1 601 1 612 1 626 1 640 1 642 1 660 1 667 1 681 1 726 1 729 1 738 1 739 1 751 1 788 1 789 1 794 1 817 1 850 1 858 1 875 1 897 1 923 1 930 1 935 1 955 1 959 1 966 1 978 1 988 1 992 1 798 1 819 1 821 1 853 1 896 1 899 1 919 1 932 1 968 1 977 1 993 1 995 1 1008 1 1015 1 1023 1 1026 1 
1 211 54 1 64 1 105 1 137 1 147 1 160 1 178 1 190 1 193 1 200 1 208 1 213 1 221 1 244 1 254 1 267 1 296 1 321 1 350 1 362 1 384 1 391 1 403 1 414 1 419 1 422 1 436 1 437 1 464 1 490 1 501 1 507 1 515 1 522 1 558 1 564 1 579 1 595 1 601 1 608 1 643 1 682 1 706 1 719 1 763 2 17 1 26 1 139 1 148 1 166 1 215 1 247 1 282 1 286 1 341 1 392 1 398 1 408 1 409 1 455 1 462 1 472 1 520 1 562 1 609 1 626 1 634 1 645 1 664 1 671 1 678 1 687 1 694 1 758 1 769 1 769 1 777 1 789 1 827 1 830 1 836 1 843 1 860 1 877 1 891 1 900 1 904 1 925 1 929 1 965 1 985 1 1000 1 1001 1 772 1 795 1 824 1 840 1 847 1 878 1 884 1 889 1 892 1 978 1 996 1 1003 1 1004 1 1011 1 
1 212 27 1 32 1 74 1 98 1 102 2 127 1 142 1 150 1 155 1 176 1 183 1 187 1 196 2 198 1 220 1 227 1 250 1 266 1 320 1 341 1 362 1 367 1 368 1 376 1 387 1 389 1 393 1 404 2 421 1 441 1 451 1 460 1 467 1 481 1 531 1 537 1 541 1 550 1 643 1 680 1 713 1 738 1 740 1 746 1 760 1 765 1 766 1 11 1 17 1 20 1 61 1 92 1 134 1 173 1 179 1 203 1 221 1 226 1 251 1 273 1 275 1 295 1 314 1 364 1 384 1 400 1 470 1 504 1 506 1 513 1 587 1 597 1 605 1 615 1 629 1 654 1 661 1 681 1 693 1 700 1 715 1 721 1 757 1 792 1 795 1 806 1 833 2 837 1 852 1 865 1 868 1 879 1 902 1 919 1 930 1 934 1 941 1 951 1 957 1 969 1 975 1 784 1 874 1 912 1 916 1 927 1 935 1 939 1 978 1 979 1 991 1 1010 1 1013 1 1017 1 1018 1 1021 1 
1 212 22 1 24 1 27 1 33 1 48 1 62 1 88 1 101 1 128 1 174 1 223 1 239 1 240 1 254 1 270 1 273 1 299 1 300 1 315 1 333 1 334 1 398 1 406 1 431 1 435 1 489 1 491 1 497 1 515 1 518 1 554 1 572 2 621 1 624 1 626 1 636 1 661 1 667 1 705 1 712 1 730 1 744 1 746 1 4 1 5 1 63 1 64 1 82 1 84 1 89 1 106 1 135 1 166 1 180 1 184 1 185 1 189 1 203 1 231 1 233 1 298 1 305 1 321 1 324 1 326 1 361 1 402 1 426 1 433 1 467 1 476 1 506 1 528 1 538 1 576 1 597 1 649 1 668 1 676 1 690 1 713 1 716 1 735 1 738 1 793 1 794 1 796 1 800 1 828 1 839 2 845 1 847 1 859 1 880 1 903 1 927 1 939 1 951 1 958 1 980 2 991 1 784 1 786 1 797 1 813 1 825 1 826 1 829 1 848 1 854 1 905 1 957 1 966 1 971 1 1009 1 1017 1 1020 1 1022 1 
1 210 12 1 23 2 27 1 32 1 49 2 70 1 118 1 119 1 121 1 131 1 134 1 138 1 175 2 192 1 283 1 303 1 321 1 329 1 346 1 347 1 366 1 382 1 396 1 416 1 419 1 444 1 489 1 526 1 562 1 576 1 582 1 629 1 662 2 685 1 691 1 694 1 726 1 735 1 736 1 767 1 2 1 69 1 125 1 129 1 142 1 159 1 160 1 162 1 167 1 180 1 183 1 186 1 219 1 228 1 230 1 252 1 298 1 300 1 322 1 336 1 340 1 354 1 358 1 381 1 395 1 397 1 401 1 424 1 428 1 454 1 464 1 473 1 477 1 483 1 485 1 509 1 540 1 553 1 559 1 560 1 594 1 601 1 606 1 615 1 654 1 659 1 666 1 679 1 725 1 729 1 730 1 746 1 753 1 769 1 792 1 817 1 818 1 828 1 837 1 843 1 844 1 852 1 871 1 893 1 908 1 913 1 934 1 952 1 961 2 779 1 791 1 811 1 839 1 869 1 875 1 881 1 894 1 897 1 917 1 937 1 965 1 969 1 986 1 990 1 996 1 1024 1 
1 215 3 1 5 1 25 1 52 1 65 1 83 1 84 1 93 1 150 1 156 1 175 1 177 1 186 1 190 1 204 1 207 1 210 1 224 1 226 1 251 1 289 1 292 1 304 1 341 1 345 1 368 1 377 1 385 1 406 1 408 1 431 1 433 1 444 1 452 1 485 1 490 1 526 1 544 1 549 1 554 1 630 1 660 1 700 1 729 1 741 1 10 1 19 1 20 1 36 1 73 1 82 1 113 1 132 1 143 1 162 1 205 1 242 1 245 1 258 1 259 1 269 1 277 1 278 1 296 1 310 1 327 1 337 1 354 1 390 1 395 1 399 1 412 1 413 1 429 1 450 1 469 1 473 1 476 1 487 1 509 1 511 1 545 1 546 1 556 1 576 1 581 1 606 1 659 1 677 1 678 1 681 1 693 1 696 1 731 1 798 1 801 1 819 1 845 1 861 1 871 1 899 1 904 1 910 2 915 1 922 1 923 1 964 1 983 1 780 1 792 1 818 1 851 1 891 1 941 1 969 1 977 1 987 1 996 1 1007 1 1016 1 1017 1 1025 1 1027 1 
1 211 4 1 31 1 35 1 106 1 108 1 120 1 131 1 143 2 223 1 224 1 231 1 232 1 261 1 264 1 302 1 305 1 308 1 311 1 317 1 328 1 381 1 388 1 425 1 474 1 498 1 503 1 507 1 518 1 523 1 540 1 549 1 556 1 563 1 590 1 601 1 638 1 711 1 47 1 51 1 59 1 62 1 71 1 81 1 91 1 127 1 137 1 193 1 196 1 236 1 255 1 263 1 269 1 293 1 329 1 341 1 366 1 382 1 389 1 415 1 417 1 423 1 435 1 462 1 476 1 521 1 527 1 547 1 609 1 613 1 649 1 655 1 658 1 678 1 684 1 688 1 710 1 716 1 722 1 734 1 777 1 780 1 809 1 824 1 848 1 855 1 879 1 882 2 939 1 948 1 951 1 960 1 981 1 775 1 803 1 819 1 863 1 883 1 884 1 894 1 926 1 962 1 964 1 970 1 974 1 980 1 1003 1 1004 1 1020 1 1025 1 1026 1 
1 215 27 1 38 1 66 1 80 1 82 1 105 1 114 1 120 1 127 1 128 1 135 1 138 1 150 1 170 1 175 1 251 1 279 1 300 1 306 1 312 1 341 1 349 1 399 1 410 1 461 1 492 1 508 1 510 1 511 1 543 1 571 1 579 1 601 2 628 1 637 1 661 1 668 2 679 1 682 1 683 1 690 1 696 1 697 1 705 1 741 1 7 1 25 1 30 1 53 1 64 1 83 1 87 1 126 1 131 1 225 1 237 1 248 1 310 1 330 1 372 1 380 1 395 1 440 1 449 1 453 1 455 1 466 1 485 1 537 1 554 1 555 1 578 1 587 1 618 1 625 1 653 1 662 1 702 1 761 1 762 1 774 1 784 1 841 1 846 1 849 1 871 1 874 1 915 1 951 1 966 1 975 1 993 1 820 1 829 1 839 1 851 1 868 1 876 1 889 1 894 1 899 1 919 1 926 1 927 1 935 1 938 1 986 1 990 1 1010 1 1011 1 1015 1 1021 1 
1 208 2 1 6 1 17 1 25 1 92 1 153 1 248 1 265 1 266 1 274 1 339 1 355 1 377 1 395 1 438 1 442 1 468 1 519 1 524 1 525 1 527 1 544 1 603 1 627 1 636 1 652 1 660 1 669 1 676 1 696 1 729 1 746 1 757 1 758 1 759 1 19 1 74 1 80 1 82 1 97 1 106 1 132 1 145 1 204 1 224 1 229 1 255 1 271 1 302 1 306 1 315 1 352 1 353 1 358 1 364 1 371 1 383 1 392 1 397 1 404 1 407 1 439 1 446 1 461 1 491 1 536 1 539 1 542 1 575 1 576 1 587 1 617 1 637 1 646 1 653 1 659 1 661 1 668 1 699 1 707 1 710 1 711 1 727 1 740 1 743 1 745 1 764 1 839 1 843 1 860 1 875 1 890 1 895 1 924 1 936 1 957 1 967 1 971 1 976 1 987 1 790 1 806 1 823 1 902 1 905 1 914 1 932 1 939 1 984 1 998 1 1010 1 1017 1 1023 1 1025 1 
1 205 6 1 20 1 21 1 30 1 39 1 61 1 73 1 80 1 86 2 138 1 183 1 207 1 210 1 268 1 308 1 351 1 372 1 373 1 410 1 421 2 422 1 427 1 443 1 456 1 475 1 510 1 517 1 525 1 530 1 534 1 547 1 556 1 557 1 589 2 601 1 619 1 641 1 642 1 652 1 659 1 670 1 674 1 700 1 726 1 739 1 769 1 774 1 23 1 56 1 79 1 83 1 102 1 106 1 110 1 148 1 161 1 162 1 185 1 202 1 257 1 260 1 262 1 288 1 302 1 309 1 329 1 368 1 492 1 505 1 511 1 538 1 564 1 574 1 579 1 585 1 628 1 636 1 649 1 668 1 761 1 785 1 837 1 867 1 943 1 949 1 959 1 979 1 983 1 797 1 801 1 814 1 843 1 844 1 863 1 871 1 906 1 907 1 919 1 951 1 956 1 970 1 976 1 
1 210 12 1 14 1 28 1 50 1 72 1 120 1 125 1 147 1 149 1 150 1 162 1 184 1 185 1 216 1 219 1 238 1 260 1 303 1 327 1 331 2 337 1 422 1 429 1 432 1 436 1 458 1 519 1 590 2 597 1 609 1 619 1 634 1 650 1 689 1 699 1 743 1 26 1 45 1 48 1 64 1 65 1 66 1 70 1 103 1 105 1 110 1 124 1 193 1 202 1 234 1 272 1 275 1 288 1 299 1 321 1 338 1 408 1 410 1 441 1 469 1 478 1 492 1 505 1 518 1 528 1 529 1 573 1 595 1 602 1 606 1 632 1 639 1 642 1 644 1 662 1 671 1 680 1 731 1 736 1 737 1 751 1 759 1 809 1 818 1 830 1 831 1 834 1 841 2 864 1 884 1 892 1 914 1 920 1 922 1 923 1 928 1 934 1 970 1 974 1 791 1 796 1 799 1 812 1 820 1 827 1 889 1 900 1 935 1 943 1 996 1 1003 1 1010 1 
1 211 7 1 28 1 37 1 55 1 80 1 83 1 110 1 120 1 122 1 168 1 169 1 181 1 192 1 195 1 247 1 248 1 265 1 273 1 335 1 337 1 358 1 359 1 389 1 411 1 414 1 424 1 425 1 427 1 453 1 471 1 472 1 490 1 513 1 515 1 529 1 569 1 570 1 613 1 620 1 623 2 625 1 629 1 642 1 652 1 658 1 670 1 694 1 698 1 706 1 707 1 719 1 721 1 722 1 742 1 2 1 24 1 61 1 63 1 64 1 79 1 98 1 130 1 133 1 159 1 160 1 162 1 183 1 185 1 233 1 275 1 277 1 316 1 331 1 369 1 375 1 380 1 384 1 398 1 400 1 429 1 433 1 498 1 505 1 514 1 525 1 536 1 537 1 538 1 547 1 607 1 628 1 631 1 688 1 709 1 745 1 749 1 759 1 772 1 781 1 788 1 853 1 855 1 869 1 876 1 888 1 897 1 917 2 968 1 985 1 795 1 822 1 840 1 844 1 863 1 882 1 912 1 939 1 966 1 994 1 1002 1 1009 1 
1 211 10 1 19 1 51 1 55 1 61 1 85 1 108 1 112 1 143 1 146 1 155 1 173 1 176 1 181 1 214 1 233 1 272 1 296 1 315 1 336 1 338 1 352 1 366 1 369 1 371 1 389 1 404 1 414 1 418 1 449 1 531 1 548 1 549 1 584 1 613 1 630 2 651 1 657 1 681 1 687 1 691 1 703 1 752 1 774 1 9 1 29 1 50 1 58 1 83 1 84 1 94 1 98 1 111 1 205 1 289 1 305 1 333 1 343 1 355 1 419 1 468 1 472 1 478 1 490 1 500 1 512 1 513 1 550 1 552 1 573 1 593 1 621 1 629 1 639 1 675 1 679 1 693 1 719 1 727 1 742 1 743 1 753 1 763 1 767 1 773 1 786 1 793 1 830 1 850 1 855 1 856 1 859 1 874 2 882 1 901 1 909 1 926 1 961 1 970 1 988 1 781 1 790 1 812 1 818 1 829 1 835 1 837 1 839 1 860 1 861 1 903 1 940 1 945 1 948 1 986 1 1006 1 1014 1 1019 1 1021 1 
1 211 71 1 97 1 115 1 121 1 126 1 137 1 176 1 205 1 207 1 225 1 239 1 251 1 270 1 315 1 342 1 354 1 375 1 405 1 428 1 429 1 436 1 452 1 453 1 465 1 481 1 483 2 541 1 548 1 564 2 580 1 584 1 588 1 610 1 611 1 660 1 684 1 726 1 738 1 752 1 756 1 779 1 41 1 67 1 69 1 78 1 111 1 159 1 166 1 168 1 192 1 200 1 215 1 226 1 244 1 257 1 261 1 265 1 297 1 306 1 307 1 316 1 325 1 328 1 337 1 356 1 358 1 388 1 392 1 418 1 419 1 447 1 472 1 513 1 528 1 530 1 540 1 591 1 593 1 595 1 621 1 638 1 641 1 642 1 653 1 656 1 694 1 698 1 721 1 757 1 759 1 760 1 780 1 781 1 781 1 785 1 800 1 812 1 815 1 835 1 862 1 893 1 916 1 926 1 931 1 937 1 1000 1 786 1 789 1 832 1 853 1 868 1 934 1 938 1 946 1 985 1 993 1 1007 1 1013 1 1016 1 
1 208 5 1 9 1 47 1 51 1 63 1 118 1 140 1 146 2 163 1 182 1 208 1 211 1 217 1 219 1 232 2 249 1 297 1 314 1 327 1 331 1 346 1 363 1 366 1 377 1 383 1 389 2 395 1 403 1 449 1 459 1 474 1 534 1 546 1 570 1 571 1 585 1 645 1 659 1 661 1 668 1 696 1 702 1 708 1 709 1 722 1 743 1 748 1 749 2 761 1 14 1 19 1 70 1 102 1 114 1 147 1 167 1 172 1 190 1 194 1 200 1 201 1 224 1 247 1 250 1 257 1 262 1 285 1 318 1 322 1 338 1 345 1 406 1 424 1 432 1 434 1 455 1 461 1 486 1 492 1 543 1 552 1 572 1 573 1 574 1 595 1 602 1 665 1 674 1 683 1 685 1 687 1 691 1 717 1 723 1 792 1 800 1 810 1 848 2 855 1 879 1 888 1 928 1 936 1 950 1 963 1 983 1 985 1 785 1 835 1 845 1 854 1 862 1 895 1 907 1 910 1 931 1 993 1 1026 1 
1 209 10 2 11 1 14 2 94 1 115 1 129 1 132 1 152 1 180 1 183 1 190 1 195 2 219 1 250 1 270 1 289 1 351 1 380 1 381 1 386 2 417 1 419 1 429 1 431 1 438 1 441 1 472 1 473 1 475 1 479 1 521 1 531 1 542 1 572 1 596 1 598 1 610 1 627 1 638 1 664 1 665 1 690 1 731 1 19 1 37 1 61 1 66 1 67 1 77 1 114 1 119 1 127 1 146 1 201 1 226 1 233 1 236 1 237 1 240 1 269 1 282 1 326 1 347 1 350 1 410 1 427 1 448 1 451 1 452 1 458 1 471 1 489 1 490 1 492 1 504 1 543 1 560 1 576 1 601 1 602 1 613 1 652 1 676 1 691 1 696 1 699 1 707 1 758 1 790 1 804 1 817 1 840 1 861 1 863 1 872 1 886 1 895 1 915 1 942 1 975 1 993 1 799 1 823 1 830 1 858 1 884 1 909 1 913 1 922 1 932 1 953 1 960 1 966 1 987 1 1006 1 1014 1 1017 1 1020 1 
1 211 25 1 37 2 48 1 63 2 75 1 90 1 113 2 121 1 144 2 148 1 153 1 190 1 197 1 201 1 229 1 241 1 243 1 254 1 269 1 318 1 334 1 338 1 367 1 368 1 385 1 397 1 444 1 471 2 495 1 508 1 519 1 535 1 538 1 541 1 556 1 563 1 569 1 591 1 653 1 660 1 668 1 670 1 690 1 700 1 705 1 719 1 743 1 749 1 763 1 775 1 3 1 31 1 45 1 80 1 88 1 102 1 108 1 124 1 135 1 187 1 194 1 196 1 207 1 214 1 244 1 283 1 290 1 301 1 337 1 352 1 409 1 421 1 487 1 505 1 533 1 560 1 595 1 604 1 605 1 628 1 631 1 637 1 640 1 665 1 673 1 674 1 707 1 770 1 771 1 874 1 892 1 906 1 911 1 912 1 933 1 940 1 944 1 959 1 963 1 984 1 993 1 811 1 837 1 850 1 870 1 876 1 926 1 994 1 1010 1 1015 1 1026 1 
1 215 6 1 10 1 14 1 19 1 47 1 52 1 131 1 132 1 144 1 145 1 146 1 191 1 236 1 260 1 278 2 304 1 327 1 339 1 350 1 429 1 434 2 437 1 485 1 494 1 507 1 523 2 548 1 555 1 558 1 584 1 597 1 621 1 648 1 656 1 690 1 723 1 732 1 739 1 777 1 781 1 16 1 25 1 31 1 40 1 46 1 51 1 54 1 63 1 98 1 110 1 111 1 143 1 150 1 171 1 173 1 195 1 259 1 274 1 379 1 383 1 393 1 423 1 551 1 576 1 589 1 593 1 610 1 637 1 646 1 658 1 661 1 669 1 684 1 692 1 722 1 724 1 727 1 730 1 731 1 752 1 754 1 782 1 836 1 838 1 845 1 885 1 902 1 909 1 918 1 926 1 942 1 946 1 951 1 964 1 986 1 802 1 817 1 873 1 883 1 927 1 932 1 938 1 962 1 977 1 987 1 990 1 1007 1 1015 1 1017 1 1022 1 1026 1 
1 216 6 1 10 1 131 1 137 1 151 1 155 1 163 1 176 1 183 1 202 1 210 1 245 1 330 1 336 1 341 1 390 1 392 1 395 1 400 2 414 1 453 1 460 1 461 2 462 1 476 1 492 1 500 1 510 1 518 1 528 1 534 1 535 1 572 1 580 1 585 1 588 1 600 1 603 1 634 1 659 1 689 1 715 1 741 1 780 1 5 1 19 1 20 1 28 1 29 1 52 1 56 1 90 1 92 1 101 1 106 1 119 1 124 1 134 1 214 1 251 1 261 1 272 1 274 1 275 1 295 1 309 1 314 1 320 1 339 1 365 1 369 1 372 1 389 1 407 1 463 1 467 1 477 1 536 1 548 1 568 1 616 1 635 1 692 1 701 1 718 1 771 1 781 1 810 1 845 1 850 1 851 1 861 1 877 1 893 1 920 1 981 1 982 1 792 1 839 1 857 1 862 1 899 1 927 1 944 1 955 1 961 1 970 1 1003 1 1004 1 1005 1 1008 1 1016 1 1018 1 
1 216 49 1 58 1 76 1 133 1 134 1 152 2 178 1 185 1 192 1 248 2 253 1 291 1 303 1 339 2 373 1 375 1 420 1 432 1 455 1 494 1 530 1 557 1 585 1 590 1 603 1 608 1 631 1 653 1 664 1 666 1 676 2 684 1 693 1 701 1 718 1 735 1 9 1 68 1 73 1 119 1 131 1 156 1 171 1 176 1 183 1 184 1 198 1 202 1 213 1 214 1 215 1 223 1 258 1 265 1 288 1 294 1 301 1 314 1 318 1 327 1 370 1 380 1 408 1 415 1 421 1 430 1 459 1 469 1 479 1 504 1 512 1 518 1 519 1 527 1 531 1 546 1 568 1 615 1 618 1 633 1 639 1 649 1 659 1 665 1 722 1 739 1 744 1 795 1 847 1 852 1 854 1 880 1 925 1 961 1 967 1 972 1 807 1 822 1 827 1 830 1 845 1 868 1 938 1 941 1 957 1 971 1 996 1 1000 1 1006 1 1014 1 1015 1 1017 1 1021 1 1024 1 
1 214 40 1 87 1 88 1 134 1 164 1 178 1 182 1 194 1 208 1 230 2 242 1 263 1 284 1 291 1 301 1 308 1 318 1 345 1 358 1 390 1 428 1 436 1 443 1 455 1 481 1 511 1 516 1 532 2 539 1 549 2 554 1 567 2 583 1 592 1 606 1 660 1 688 1 690 2 694 1 743 1 746 1 768 1 779 1 22 1 29 1 50 1 89 1 92 1 151 1 183 1 281 1 285 1 304 1 314 1 355 1 393 1 420 1 468 1 478 1 483 1 508 1 512 1 576 1 584 1 593 1 604 1 619 1 626 1 637 1 662 1 684 1 686 1 699 1 703 1 706 1 721 1 740 1 750 1 758 1 830 1 834 1 860 2 886 1 906 2 907 1 908 1 910 1 923 2 932 1 976 1 980 1 983 1 797 1 849 1 901 1 915 1 1013 1 1022 1 1023 1 
1 213 10 1 13 1 16 1 34 1 38 1 55 1 75 1 87 1 97 1 129 1 139 1 165 1 170 1 197 1 199 1 209 1 236 1 240 1 247 1 251 1 252 1 262 2 304 1 305 1 313 1 317 1 341 1 343 1 405 1 420 1 500 1 506 1 516 1 517 1 540 1 565 1 619 1 631 1 650 1 652 1 662 1 678 1 723 1 726 1 740 1 751 1 761 1 768 1 769 1 41 1 59 1 68 1 84 1 110 1 113 1 132 1 143 1 215 1 253 1 297 1 300 1 302 1 328 1 331 1 334 1 369 1 372 1 376 1 378 1 399 1 404 1 416 1 435 1 445 1 451 1 468 1 472 1 529 1 531 1 547 1 552 1 594 1 596 1 609 1 611 1 641 1 644 1 653 1 683 1 685 1 697 1 701 1 738 1 748 1 754 1 756 1 781 1 796 1 798 1 818 1 834 1 854 2 867 1 904 1 932 1 944 1 957 1 972 1 792 1 868 1 869 1 873 1 936 1 941 1 969 1 975 1 1018 1 1022 1 1024 1 
1 209 14 1 23 1 32 1 40 1 43 1 64 1 94 1 96 1 100 1 102 1 119 1 134 1 158 1 163 1 204 1 209 1 217 1 229 1 276 1 304 1 306 1 330 2 364 1 386 1 404 1 431 1 456 1 458 1 461 1 474 2 498 1 510 1 527 1 534 1 560 1 590 1 596 1 614 1 623 1 641 1 664 1 669 1 682 1 715 1 729 1 737 1 761 1 763 1 783 1 4 1 11 1 24 1 49 1 80 1 88 1 123 1 124 1 133 1 136 1 140 1 142 1 170 1 213 1 218 1 220 1 231 1 301 1 311 1 324 1 341 1 359 1 375 1 406 1 415 1 440 1 491 1 533 1 558 1 606 1 612 1 633 1 652 1 654 1 673 1 675 1 691 1 704 1 746 1 755 1 776 1 780 1 802 1 809 1 820 1 846 1 860 1 915 1 927 1 983 1 994 1 801 1 912 1 930 1 932 1 935 1 963 1 968 1 996 1 1004 1 1007 1 1010 1 1022 1 
1 213 21 1 42 1 65 1 107 1 184 1 185 1 200 1 250 1 255 1 276 1 291 1 302 1 308 1 326 2 331 2 336 1 337 1 381 1 418 1 427 1 429 1 433 1 476 2 481 1 544 2 571 1 586 1 588 1 599 1 609 1 611 1 618 1 661 1 669 1 684 1 689 1 703 1 711 1 749 1 761 1 14 1 16 1 24 1 92 1 102 1 104 1 109 1 141 1 187 1 207 1 232 1 246 1 277 1 281 1 286 1 322 1 347 1 349 1 361 1 386 1 392 1 395 1 434 1 461 1 474 1 478 1 482 1 498 1 514 1 523 1 553 1 581 1 604 1 619 1 628 1 666 1 750 1 754 1 772 1 778 1 794 1 810 1 817 1 820 2 847 2 863 1 866 1 877 1 891 1 916 1 954 1 796 1 809 1 832 1 840 1 843 1 857 1 873 1 890 1 907 1 913 1 930 1 968 1 973 1 991 1 1006 1 
1 212 5 1 7 1 15 1 19 1 31 1 34 1 51 1 60 1 66 1 102 1 103 1 114 1 132 1 134 1 163 1 222 1 224 1 229 1 231 1 246 1 272 1 289 1 315 2 317 1 324 1 337 1 339 1 341 1 350 1 361 1 365 1 416 2 422 1 437 1 441 2 450 1 494 1 509 1 519 1 547 1 594 1 616 1 619 1 649 1 661 1 667 1 677 1 700 1 713 1 715 1 717 1 737 1 744 1 753 1 770 1 772 1 782 1 18 1 41 1 52 1 120 1 150 1 151 1 153 1 188 1 230 1 241 1 247 1 260 1 338 1 346 1 363 1 372 1 384 1 406 1 408 1 417 1 431 1 451 1 591 1 624 1 629 1 631 1 641 1 645 1 684 1 686 1 695 1 706 1 711 1 719 1 726 1 742 1 764 1 773 1 786 1 789 1 794 1 816 1 873 1 881 1 928 1 954 1 965 1 972 1 808 1 813 1 823 1 854 1 859 1 871 1 904 1 932 1 933 1 953 1 956 1 962 1 1020 1 
1 212 32 1 37 1 47 1 57 1 106 1 125 1 157 1 159 1 196 1 197 1 210 1 223 1 224 2 225 1 234 1 258 1 263 1 277 1 279 2 286 1 366 1 369 2 386 1 403 1 415 1 420 1 421 1 435 1 477 1 523 1 528 1 533 1 548 2 566 1 584 1 626 2 634 1 652 1 667 1 670 1 681 1 694 1 699 1 723 2 728 1 741 1 771 1 780 1 91 1 121 1 126 1 143 1 167 1 195 1 203 1 227 1 247 1 312 1 330 1 344 1 347 1 353 1 359 1 408 1 432 1 455 1 460 1 485 1 488 1 502 1 511 1 529 1 556 1 559 1 563 1 571 1 617 1 641 1 645 1 669 1 687 1 714 1 722 1 725 1 734 1 762 1 817 1 833 1 853 1 874 1 881 1 889 1 911 1 949 1 959 1 961 1 963 1 966 1 974 2 977 1 980 1 988 1 822 1 824 1 830 1 841 1 876 1 888 1 938 1 950 1 967 1 987 1 1004 1 1011 1 1021 1 1023 1 
1 206 10 1 12 2 41 1 84 1 86 2 88 1 99 1 112 1 146 1 156 1 227 1 247 1 267 1 356 1 381 1 383 1 436 1 442 1 464 2 465 1 475 1 595 1 604 1 607 1 621 1 725 1 735 1 760 1 763 1 768 1 771 1 791 1 792 1 2 1 37 1 61 1 65 1 75 1 80 1 89 1 140 1 145 1 168 1 189 1 193 1 198 1 199 1 216 1 219 1 220 1 223 1 231 1 249 1 262 1 276 1 282 1 295 1 305 1 318 1 333 1 351 1 354 1 365 1 418 1 425 1 440 1 491 1 496 1 499 1 510 1 522 1 526 1 528 1 537 1 541 1 546 1 547 1 594 1 614 1 628 1 634 1 640 1 649 1 652 1 667 1 681 1 713 1 722 1 732 1 744 1 755 1 798 1 814 1 815 1 824 1 840 1 844 1 852 1 893 1 901 1 930 1 957 1 961 1 971 1 972 1 990 2 997 1 1001 2 830 1 833 1 869 1 871 1 897 1 906 1 908 1 953 1 956 1 989 1 1017 1 
1 209 44 1 57 1 73 1 100 1 170 1 195 1 202 2 229 1 240 1 270 1 275 1 291 1 296 1 302 1 350 1 354 1 357 1 359 1 376 1 391 1 396 1 400 1 401 1 434 1 448 1 475 1 489 1 490 1 506 1 520 1 530 1 537 1 561 1 574 1 588 1 606 1 628 1 643 1 650 1 674 1 688 1 718 1 719 1 722 1 725 2 738 1 743 1 758 1 764 1 766 1 770 1 787 1 46 1 85 1 94 1 174 1 192 1 197 1 234 1 235 1 236 1 249 1 252 1 266 1 274 1 293 1 310 1 318 1 341 1 342 1 393 1 403 1 407 1 422 1 451 1 466 1 471 1 476 1 485 1 511 1 555 1 556 1 566 1 586 1 609 1 618 1 636 1 680 1 685 1 689 1 690 1 702 1 706 1 712 1 717 1 724 1 757 1 759 1 769 1 779 1 822 1 886 1 894 1 953 1 968 1 995 1 802 1 829 1 830 1 837 1 842 1 846 1 858 1 942 1 986 1 989 1 1020 1 1022 1 
1 208 5 1 15 1 18 1 38 1 75 1 85 1 105 1 106 2 128 1 148 1 161 1 165 1 166 1 204 1 213 1 218 2 244 1 254 1 274 1 279 1 285 1 316 1 341 1 400 1 413 1 431 1 450 1 451 1 480 1 493 2 495 1 501 1 503 1 514 1 549 1 559 1 592 1 597 1 602 1 608 1 625 1 633 1 643 1 680 2 708 1 724 1 771 1 789 1 17 1 26 1 28 1 49 1 56 1 64 1 91 1 144 1 160 1 174 1 210 1 222 1 247 1 253 1 259 1 265 1 272 1 276 1 286 1 359 1 377 1 396 1 424 1 437 1 442 1 529 1 542 1 562 1 570 1 573 1 577 1 581 1 599 1 635 1 657 1 668 1 719 1 765 1 778 1 791 1 821 1 836 1 852 1 871 1 876 1 896 1 925 1 926 1 987 1 994 1 997 1 797 1 808 1 834 1 846 1 851 1 854 1 858 1 885 1 917 1 947 1 950 1 996 1 1004 1 1012 1 1018 1 1019 1 
1 215 43 1 60 1 63 2 71 1 79 1 98 1 110 1 115 1 134 1 136 1 137 1 164 1 168 1 195 1 247 1 258 2 307 1 338 1 358 1 361 1 371 1 381 1 393 1 409 1 411 1 426 1 427 1 432 1 435 1 443 1 454 1 468 1 502 1 507 1 529 1 620 1 630 1 639 1 681 1 682 1 683 1 688 1 693 1 713 1 737 1 738 1 759 1 16 1 40 1 100 1 120 1 127 1 150 1 184 1 217 1 224 1 225 1 230 1 251 1 259 1 299 1 336 1 350 1 383 1 429 1 473 1 484 1 487 1 493 1 511 1 513 1 528 1 532 1 545 1 578 1 587 1 619 1 657 1 658 1 685 1 697 1 716 1 771 1 777 1 788 1 796 1 817 1 855 1 872 1 888 1 896 1 905 1 907 1 955 1 960 1 809 1 836 1 844 1 849 1 860 1 865 1 891 1 915 1 926 1 933 1 977 1 997 1 999 1 1001 1 1006 1 1010 1 1012 1 1020 1 1022 1 1024 1 1026 1 
1 210 22 1 38 1 55 1 60 1 62 1 66 2 83 1 84 1 89 2 92 1 97 1 111 1 126 1 133 1 157 1 165 1 181 1 190 1 222 1 227 1 232 1 258 1 292 1 304 1 307 1 326 1 340 1 407 1 439 1 459 1 472 1 474 2 481 1 552 1 559 1 562 1 599 1 612 1 627 1 630 1 641 1 663 1 670 1 671 1 672 2 673 1 684 1 761 1 765 1 773 1 789 1 794 1 9 1 12 1 23 1 58 1 67 1 101 1 105 1 110 1 130 1 134 1 140 1 143 1 145 1 155 1 179 1 260 1 274 1 287 1 300 1 308 1 323 1 342 1 355 1 362 1 376 1 391 1 420 1 444 1 462 1 553 1 564 1 607 1 611 1 633 1 640 1 651 1 660 1 688 1 699 1 729 1 736 1 760 1 768 1 805 1 816 1 817 1 819 1 822 1 830 2 836 1 872 1 891 1 892 1 907 1 942 1 968 1 972 1 994 1 809 1 818 1 850 1 862 1 919 1 925 1 928 1 944 1 952 1 956 1 979 1 981 1 986 1 1010 1 1019 1 1025 1 1026 1 
1 212 40 1 52 1 83 1 94 1 103 1 154 1 190 1 194 1 203 1 204 1 220 1 221 2 223 1 271 1 276 1 299 1 328 1 335 1 359 1 369 1 378 1 406 1 437 1 446 1 452 1 460 1 462 1 482 1 490 1 515 1 521 1 565 1 578 1 598 1 623 1 644 1 650 1 664 1 706 1 709 1 710 1 721 1 736 1 745 1 758 1 7 1 39 1 46 1 63 1 113 1 123 1 137 1 207 1 236 1 249 1 264 1 274 1 277 1 282 1 316 1 336 1 347 1 356 1 398 1 399 1 409 1 413 1 456 1 481 1 491 1 494 1 533 1 535 1 547 1 573 1 590 1 632 1 646 1 658 1 666 1 696 1 700 1 715 1 726 1 731 1 752 1 754 1 761 1 778 1 783 1 848 1 869 1 871 1 881 1 882 1 907 1 917 1 919 1 930 1 962 2 964 1 995 1 996 1 805 1 807 1 818 1 841 1 842 1 851 1 904 1 935 1 948 1 977 1 978 1 1007 1 1008 1 1012 1 1015 1 1018 1 1027 1 
1 209 7 1 19 1 40 1 54 1 64 1 110 1 134 1 137 1 141 1 154 1 157 1 168 1 190 1 210 1 217 1 223 1 229 1 239 1 250 1 258 1 262 1 268 1 276 1 318 1 353 1 383 1 386 1 405 1 437 1 475 1 491 1 492 1 517 1 518 1 525 1 527 1 540 1 562 1 594 1 597 1 600 1 675 2 682 1 686 1 692 1 697 1 704 1 752 1 753 1 763 1 765 1 771 1 781 1 782 1 3 1 22 1 60 1 73 1 79 1 80 1 105 1 122 1 129 1 156 1 158 1 171 1 172 1 186 1 244 1 267 1 280 1 315 1 329 1 433 1 480 1 486 1 494 1 502 1 505 1 539 1 541 1 564 1 572 1 592 1 614 1 626 1 633 1 664 1 667 1 673 1 674 1 680 1 688 1 694 1 695 1 736 1 758 1 812 1 821 1 822 1 830 1 860 1 887 1 896 1 907 2 938 1 961 1 974 1 975 1 988 1 849 1 852 1 874 1 876 1 899 1 908 1 914 1 953 1 962 1 972 1 992 1 999 1 1007 1 1014 1 1016 1 1017 1 1023 1 1027 1 
1 212 17 1 27 1 28 1 34 1 42 2 52 1 92 1 138 1 181 1 189 1 200 1 221 1 281 1 285 1 286 1 291 1 303 2 313 1 319 1 329 1 343 1 361 1 387 1 428 1 441 1 452 1 463 1 468 1 470 1 473 1 475 1 485 1 487 1 492 1 565 1 578 1 587 1 589 2 592 1 593 1 612 1 640 1 646 1 697 1 773 1 1 1 3 1 12 1 25 1 49 1 116 1 125 1 147 1 157 1 163 1 169 1 203 1 235 1 249 1 265 1 269 1 273 1 301 1 310 1 315 1 332 1 349 1 358 1 409 1 474 1 488 1 490 1 493 1 505 1 508 1 515 1 520 1 561 1 597 1 623 1 643 1 649 1 700 1 728 1 738 1 744 1 746 1 754 1 765 1 777 1 790 1 808 1 814 1 823 1 824 1 847 1 852 1 908 1 927 1 959 1 963 1 977 1 985 1 986 1 827 1 828 1 839 1 849 1 855 1 895 1 902 1 925 1 951 1 965 1 1008 1 1025 1 
1 214 29 1 48 1 49 1 61 1 99 1 113 1 135 1 149 1 170 1 173 1 187 1 194 1 228 1 253 1 306 1 315 1 330 1 348 1 353 1 364 1 375 1 402 1 410 1 434 1 435 1 453 1 472 1 528 1 534 1 539 1 550 1 564 1 567 1 625 1 637 2 665 1 679 1 682 1 695 1 717 1 790 1 8 1 10 1 40 1 45 1 52 1 70 1 119 1 180 1 219 1 222 1 261 1 287 1 293 1 308 1 335 1 339 1 377 1 378 1 383 1 385 1 388 1 406 1 426 1 427 1 451 1 475 1 485 1 487 1 499 1 507 1 541 1 548 1 555 1 575 1 587 1 596 1 646 1 706 1 755 1 759 1 761 1 785 1 795 1 809 1 835 1 876 2 892 1 895 1 911 1 914 1 930 1 932 1 955 1 973 1 974 1 999 1 839 1 860 1 873 1 882 1 890 1 898 1 902 1 915 1 998 1 1002 1 1018 1 1021 1 1024 1 
1 213 29 1 47 1 65 1 80 1 107 1 110 1 112 1 116 2 123 1 142 1 149 1 165 1 172 1 201 1 244 1 264 1 275 1 289 1 292 1 293 1 299 1 306 1 329 1 333 1 344 1 351 1 363 1 371 1 392 1 465 1 516 1 517 1 541 1 542 1 551 2 556 1 623 1 659 1 663 1 678 1 684 1 700 1 728 1 730 1 736 1 746 1 759 1 763 1 1 1 28 1 46 1 48 1 79 1 96 1 103 1 113 1 153 1 212 1 217 1 228 1 245 1 322 1 334 1 341 1 346 1 390 1 424 1 429 1 454 1 461 1 485 1 489 1 553 1 571 1 604 1 609 1 612 1 613 1 622 1 630 1 642 1 706 1 741 1 774 1 805 1 811 1 822 1 840 1 861 1 868 1 887 1 896 1 908 2 935 1 947 1 975 1 855 1 857 1 859 1 870 1 883 1 884 1 891 1 932 1 948 1 949 1 993 1 1009 1 1011 1 1023 1 
1 210 28 1 30 1 36 1 112 1 124 1 132 1 139 1 173 1 175 1 181 1 199 1 203 1 208 1 209 2 224 1 271 1 276 1 277 1 306 1 312 1 358 1 365 1 403 1 458 1 473 2 484 1 558 1 569 2 598 1 627 1 642 1 647 1 657 1 659 1 677 1 759 1 783 1 2 1 46 1 49 1 54 1 63 1 97 1 99 1 104 1 122 1 131 1 161 1 165 1 168 1 190 1 215 1 222 1 235 1 339 1 357 1 362 1 397 1 404 1 411 1 422 1 443 1 465 1 472 1 480 1 485 1 494 1 510 1 521 1 550 1 614 1 634 1 638 1 651 1 655 1 660 1 671 1 703 1 731 1 812 1 820 1 842 1 861 1 878 1 883 1 893 1 894 1 899 1 914 1 946 1 951 1 962 1 970 1 986 1 811 1 817 1 824 1 832 1 850 1 877 1 888 1 898 1 907 1 922 1 925 1 928 1 936 1 943 1 976 1 989 1 1002 1 1010 1 1021 1 
1 209 12 1 37 1 54 1 59 1 78 1 81 1 92 1 105 1 108 1 130 1 164 1 220 1 225 1 235 1 263 1 268 1 284 1 302 1 303 1 308 1 312 1 348 1 384 1 395 1 414 1 448 1 449 1 476 1 486 1 506 1 552 1 580 1 592 1 606 1 623 1 701 1 704 1 719 1 754 1 798 1 803 1 9 1 16 1 18 1 24 1 29 1 31 1 67 1 72 1 75 1 87 1 98 1 100 1 103 1 118 1 199 1 226 1 253 1 269 1 301 1 309 1 352 1 371 1 386 1 400 1 404 1 419 1 438 1 463 1 475 1 485 1 507 1 521 1 535 1 559 1 610 1 627 1 636 1 639 1 654 1 689 1 702 1 707 1 724 1 740 1 799 1 809 1 817 1 819 1 825 1 848 1 879 1 888 1 889 1 922 1 924 1 959 1 987 2 806 1 808 1 868 1 887 1 911 1 934 1 958 1 986 1 1018 1 
1 205 4 2 42 1 43 1 68 1 77 1 93 1 94 1 130 1 144 1 152 1 161 1 188 1 189 1 191 1 195 1 200 1 212 1 244 1 294 1 343 1 363 1 378 1 404 1 428 1 431 1 433 1 456 1 495 1 496 1 541 1 550 1 555 1 578 1 579 1 582 1 590 1 630 1 642 2 661 1 662 1 672 1 674 1 683 1 720 1 750 1 770 1 21 1 39 1 40 1 60 1 106 1 117 1 149 1 158 1 160 1 162 1 171 1 183 1 197 1 202 1 220 1 299 1 301 1 308 1 312 1 329 1 337 1 340 1 349 1 387 1 403 1 417 1 424 1 451 1 461 1 467 1 481 1 525 1 575 1 596 1 618 1 622 1 626 1 637 1 645 1 652 1 695 1 718 1 723 1 725 1 751 1 776 1 805 1 818 2 844 1 845 1 852 1 866 1 868 1 892 1 911 1 934 1 945 1 977 1 981 1 827 1 835 1 920 1 926 1 935 1 936 1 939 1 957 1 962 1 990 1 1001 1 1023 1 
1 213 2 1 33 1 37 1 41 1 101 1 122 1 163 1 189 1 195 1 199 1 211 1 214 1 271 1 293 1 317 1 354 1 356 1 364 1 412 1 414 1 452 1 468 1 498 1 504 1 522 1 534 1 548 2 618 1 628 1 630 1 647 1 668 1 694 1 696 1 702 1 766 2 3 1 14 1 65 1 67 1 96 1 104 1 138 1 141 1 144 1 167 1 239 1 241 1 244 1 247 1 254 1 257 1 258 1 269 1 276 1 295 1 314 1 322 1 330 1 362 1 396 1 409 1 410 1 422 1 426 1 433 1 475 1 493 1 494 1 501 1 502 1 530 1 535 1 541 1 564 1 619 1 642 1 660 1 684 1 698 1 706 1 707 1 721 1 747 1 750 1 787 1 799 1 809 1 825 1 830 1 850 2 874 1 883 1 891 1 899 1 901 1 909 1 924 1 955 1 969 1 815 1 829 1 832 1 836 1 864 1 877 1 907 1 953 1 982 1 985 1 1005 1 1020 1 1021 1 
1 209 2 1 6 1 18 1 52 1 54 1 70 1 123 1 135 1 162 1 193 1 230 1 264 1 270 2 295 1 318 1 346 1 353 1 364 1 391 1 417 1 435 1 462 1 465 1 466 1 490 1 496 1 504 1 508 1 520 1 578 1 583 2 599 1 615 1 623 1 629 1 648 2 693 1 701 1 705 1 715 1 745 1 752 1 801 1 4 1 7 1 39 1 81 1 84 1 88 1 108 1 116 1 124 1 131 1 138 1 144 1 164 1 170 1 206 1 226 1 262 1 286 1 287 1 360 1 372 1 392 1 393 1 412 1 414 1 421 1 442 1 450 1 458 1 515 1 521 1 547 1 552 1 556 1 570 1 577 1 609 1 616 1 632 1 641 1 647 1 674 1 681 1 686 1 695 1 709 1 711 1 729 1 739 1 792 1 796 1 805 1 809 1 810 1 819 1 834 1 835 1 882 1 898 1 915 1 937 1 951 1 973 1 994 1 825 1 836 1 883 1 900 1 902 1 910 1 913 1 940 1 963 1 969 1 975 1 991 1 1027 1 
1 211 14 1 47 1 53 1 58 1 79 1 82 1 87 1 92 1 94 1 96 1 126 1 135 1 152 1 171 1 173 1 202 1 213 1 229 1 234 1 325 1 327 1 341 1 417 2 437 2 451 1 458 1 505 1 509 1 519 1 526 1 532 1 546 1 568 1 599 1 600 1 605 1 612 1 630 1 631 1 646 1 756 1 774 1 778 1 790 1 802 1 805 1 807 1 808 1 17 1 40 1 56 1 117 1 139 1 150 1 160 1 161 1 204 1 214 1 256 1 281 1 286 1 305 1 306 1 314 1 318 1 335 1 357 1 358 1 371 1 396 1 466 1 494 1 512 1 552 1 556 1 575 1 576 1 580 1 610 1 614 1 617 1 626 1 670 1 692 1 699 1 705 1 717 1 727 1 732 1 747 1 749 1 791 1 797 1 798 1 818 1 822 1 826 1 831 1 840 1 868 1 875 1 888 1 933 1 973 1 811 1 814 1 815 1 882 1 892 1 923 1 948 1 950 1 952 1 957 1 962 1 971 1 977 1 983 1 1014 1 
1 206 8 1 10 2 17 1 36 1 43 1 121 1 135 1 141 1 151 1 186 1 203 1 230 1 245 1 256 1 294 1 301 1 316 1 344 1 351 1 362 1 369 1 402 1 422 1 433 1 437 1 452 1 462 1 470 1 488 1 511 1 525 1 534 1 536 1 543 1 553 1 555 1 577 1 586 1 587 1 650 1 655 1 678 1 680 1 703 1 744 1 746 1 782 1 786 1 791 1 808 1 7 1 19 1 28 1 37 1 53 1 76 1 88 1 89 1 114 1 125 1 131 1 145 1 202 1 204 1 221 1 259 1 311 1 328 1 346 1 355 1 381 1 416 1 436 1 441 1 445 1 480 1 489 1 500 1 515 1 520 1 527 1 545 1 565 1 574 1 575 1 578 1 584 1 600 1 651 1 652 1 659 1 662 1 684 1 726 1 727 1 738 1 742 1 765 1 816 1 838 1 854 1 867 1 873 1 922 1 936 1 949 1 968 1 973 1 988 1 818 1 843 1 862 1 875 1 894 1 913 1 928 1 950 1 957 1 982 1 986 1 989 1 1008 1 
1 204 95 1 99 1 101 2 106 1 130 1 144 1 162 1 182 1 194 1 197 1 216 1 241 1 246 1 248 1 254 1 275 1 282 1 284 1 286 1 297 1 321 1 356 1 377 1 402 1 409 1 430 1 443 1 459 1 470 1 486 1 512 1 518 1 607 1 633 1 642 2 689 1 710 1 716 1 733 1 744 1 762 1 803 1 17 1 61 1 103 1 110 1 125 1 126 1 132 1 134 1 135 1 147 1 155 1 166 1 173 1 174 1 188 1 195 1 231 1 258 1 261 1 320 1 327 1 350 1 374 1 428 1 433 1 474 1 503 1 511 1 513 1 526 1 529 1 532 1 546 1 547 1 586 1 591 1 594 1 624 1 653 1 662 1 668 1 682 1 684 1 700 1 750 1 772 1 784 1 804 1 809 1 815 1 835 1 849 1 871 1 900 1 903 1 907 1 932 1 934 1 940 1 943 1 951 2 964 1 969 1 979 1 833 1 861 1 882 1 929 1 946 1 966 1 967 1 999 1 1001 1 1009 1 1018 1 
1 208 12 1 65 1 83 1 116 1 159 1 160 1 163 1 167 1 172 2 183 1 185 1 187 1 216 1 284 1 307 1 331 2 337 1 390 1 394 1 404 1 414 2 417 1 419 1 430 1 448 1 449 1 462 1 481 1 521 1 534 1 555 1 597 1 610 1 623 1 628 1 631 1 643 1 645 1 646 1 654 1 668 1 669 1 713 1 731 1 740 1 781 1 800 1 804 1 3 1 11 1 69 1 71 1 103 1 115 1 124 1 146 1 171 1 173 1 228 1 274 1 282 1 304 1 344 1 368 1 371 1 385 1 422 1 444 1 485 1 487 1 491 1 500 1 520 1 545 1 548 1 605 1 642 1 677 1 678 1 683 1 726 1 738 1 778 1 780 1 820 1 838 1 848 1 854 1 864 1 874 1 875 1 886 1 888 1 903 1 913 1 922 1 926 1 936 1 938 1 939 2 950 1 980 1 982 1 814 1 825 1 836 1 837 1 842 1 844 1 847 1 898 1 907 1 956 1 993 1 1011 1 1018 1 
1 208 23 1 41 1 68 1 80 1 88 1 105 1 120 1 149 1 156 1 164 1 166 1 187 1 188 1 199 1 214 1 223 1 224 1 236 1 243 1 247 1 299 1 300 1 312 1 356 1 359 1 431 1 433 1 441 1 486 1 502 2 544 1 549 1 572 1 575 1 585 1 602 1 617 1 618 1 654 2 656 1 661 1 695 1 712 1 722 1 758 2 30 1 42 1 62 1 77 1 83 1 87 1 107 1 111 1 112 1 171 1 186 1 190 1 198 1 265 1 279 1 287 1 336 1 339 1 350 1 381 1 421 1 447 1 475 1 499 1 505 1 559 1 577 1 586 1 589 1 591 1 619 1 673 1 707 1 728 1 771 1 792 1 834 1 846 1 861 1 870 1 888 1 902 1 903 1 924 1 934 1 945 1 985 1 838 1 872 1 879 1 918 1 932 1 974 1 976 1 980 1 1002 1 1014 1 1018 1 1024 1 
1 213 13 1 20 1 24 1 38 1 43 1 45 1 84 1 132 1 147 1 148 1 152 1 157 1 199 1 200 1 208 1 213 1 250 1 303 1 310 1 327 1 351 1 365 1 368 1 377 1 379 1 391 1 400 1 417 1 427 1 439 1 490 1 500 1 530 1 569 1 587 1 591 1 597 1 612 1 691 1 755 1 759 1 763 1 794 1 801 1 3 1 15 1 40 1 69 1 73 1 76 1 101 1 104 1 107 1 114 1 123 1 135 1 143 1 144 1 149 1 179 1 211 1 217 1 222 1 244 1 247 1 266 1 270 1 275 1 278 1 285 1 305 1 321 1 331 1 332 1 356 1 358 1 413 1 425 1 432 1 433 1 448 1 453 1 461 1 471 1 502 1 581 1 634 1 672 1 676 1 684 1 739 1 748 1 777 1 809 1 812 1 835 1 850 1 867 1 872 1 936 1 939 2 954 1 957 1 997 1 843 1 871 1 937 1 938 1 948 1 963 1 969 1 973 1 988 1 1012 1 1014 1 1017 1 1018 1 
1 209 4 1 21 1 29 1 49 1 65 1 74 1 87 1 125 1 155 2 182 1 185 1 189 1 214 1 220 1 229 1 237 1 243 1 261 1 267 1 292 1 299 2 319 1 332 1 345 1 346 1 349 1 356 1 415 1 436 1 438 1 486 1 500 1 513 1 515 1 519 1 528 1 537 1 543 1 557 1 558 1 559 1 580 1 601 1 625 1 633 1 641 2 645 1 671 1 685 1 689 1 731 1 739 1 740 1 743 1 753 1 781 1 794 1 811 1 2 1 147 1 212 1 235 1 272 1 322 1 331 1 366 1 394 1 397 1 413 1 417 1 456 1 461 1 476 1 482 1 508 1 545 1 571 1 588 1 591 1 609 1 647 1 660 1 682 1 696 1 710 1 751 1 755 1 807 1 809 1 828 1 864 1 866 1 892 1 914 1 935 1 945 1 956 1 830 1 838 1 857 1 868 1 878 1 889 1 894 1 911 1 938 1 965 1 968 1 975 1 979 1 985 1 1008 1 1016 1 1020 1 1027 1 
1 207 19 1 46 1 57 1 90 1 95 1 127 1 139 1 142 1 171 1 204 1 217 1 230 1 240 1 282 1 283 1 298 1 365 1 373 1 378 1 380 1 399 2 418 1 446 1 478 1 482 1 487 1 522 2 529 1 532 1 548 1 553 1 554 1 569 1 581 1 631 1 632 2 636 1 674 1 676 2 681 1 704 1 730 1 733 2 792 1 798 1 810 1 13 1 45 1 56 1 70 1 71 1 79 1 83 1 87 1 97 1 107 1 112 1 113 1 126 1 163 1 198 1 216 1 225 1 237 1 257 1 295 1 301 1 349 1 360 1 367 1 391 1 398 1 406 1 417 1 423 1 427 1 431 1 486 1 491 1 503 1 504 1 515 1 540 1 594 1 607 1 613 1 648 1 658 1 686 1 693 1 698 1 739 1 750 1 765 1 821 1 823 1 899 1 923 1 933 1 939 1 949 1 961 2 992 1 818 1 855 1 857 1 911 1 965 1 972 1 996 1 1010 1 
1 208 4 1 23 1 24 1 35 1 56 1 63 1 82 1 87 1 100 1 130 2 169 1 190 1 236 1 240 1 253 1 284 1 325 1 337 1 350 1 359 1 376 1 377 2 397 1 407 2 441 1 452 1 489 1 490 1 493 1 514 1 582 1 586 2 611 1 624 1 682 1 700 1 701 1 713 1 727 1 733 1 740 1 747 1 768 1 772 1 783 1 791 1 793 1 797 1 798 1 805 1 1 1 14 1 27 1 33 1 52 1 77 1 107 1 114 1 116 1 127 1 138 1 146 1 201 1 226 1 245 1 295 1 296 1 304 1 317 1 329 1 336 1 344 1 351 1 387 1 429 1 474 1 496 1 509 1 534 1 575 1 578 1 609 1 641 1 666 1 695 1 707 1 722 1 730 1 762 1 785 1 804 1 848 1 856 1 860 1 873 1 880 1 931 1 937 1 938 1 942 1 962 1 976 1 978 1 824 1 857 1 869 1 870 1 891 1 945 1 949 1 953 1 957 1 982 1 998 1 1018 1 1019 1 1023 1 
1 213 15 1 32 1 80 1 105 1 113 1 121 1 145 1 161 1 181 1 186 1 210 1 211 1 218 1 228 1 236 1 249 1 267 1 270 2 285 1 331 1 341 1 386 1 388 2 417 1 441 1 497 1 503 1 525 1 536 1 601 1 613 1 623 1 630 1 632 1 638 1 651 1 674 1 714 1 741 1 742 1 764 1 772 1 778 1 789 1 806 2 809 1 24 1 25 1 42 1 55 1 57 1 63 1 83 1 98 1 115 1 118 1 123 1 205 1 244 1 254 1 287 1 310 1 321 1 351 1 359 1 360 1 394 1 395 1 429 1 460 1 472 1 474 1 502 1 553 1 563 1 581 1 616 1 624 1 627 1 675 1 708 1 718 1 757 1 773 1 780 1 798 1 799 1 810 1 816 1 835 1 840 1 841 1 865 1 869 1 872 1 882 2 902 1 908 1 978 1 984 1 989 2 855 1 892 1 895 1 899 1 923 1 927 1 954 1 955 1 962 1 1017 1 
1 209 12 1 32 1 34 1 104 1 131 1 165 1 171 1 185 2 253 1 263 1 278 1 296 1 303 1 308 1 320 1 332 1 341 1 354 1 378 1 385 1 404 1 408 1 413 1 417 1 418 1 426 1 432 1 440 1 500 1 503 1 505 1 537 1 549 1 563 1 580 1 596 1 627 1 658 1 663 1 702 1 703 1 708 1 759 1 760 1 773 1 798 1 805 1 808 1 2 1 14 1 44 1 49 1 72 1 79 1 80 1 85 1 110 1 112 1 115 1 127 1 133 1 151 1 159 1 195 1 200 1 201 1 202 1 240 1 260 1 299 1 309 1 323 1 347 1 360 1 433 1 461 1 468 1 475 1 498 1 620 1 634 1 670 1 680 1 698 1 706 1 730 1 733 1 766 1 768 1 774 1 850 1 855 1 856 1 885 1 888 1 903 1 909 2 918 1 925 2 961 1 963 1 967 1 1000 2 866 1 879 1 895 1 908 1 914 1 920 1 929 1 931 1 933 1 937 1 960 1 992 1 1006 1 1019 1 1023 1 
1 208 18 1 23 1 31 1 39 1 48 1 67 1 90 1 91 1 99 1 105 1 119 1 138 1 158 1 183 1 226 1 233 1 266 1 277 1 300 1 311 1 318 1 322 2 323 1 331 1 348 1 357 1 407 1 409 1 439 2 447 2 456 1 503 1 509 2 532 1 533 1 542 1 583 1 586 1 591 1 598 1 599 1 610 1 615 1 642 1 645 1 661 1 682 1 684 1 755 1 758 1 790 1 791 2 804 1 812 1 16 1 32 1 60 1 63 1 70 1 106 1 118 1 122 1 148 1 153 1 155 1 161 1 162 1 214 1 218 1 243 1 265 1 275 1 280 1 284 1 285 1 292 1 374 1 390 1 396 1 403 1 426 1 467 1 492 1 506 1 539 1 561 1 563 1 569 1 575 1 647 1 671 1 673 1 686 1 691 1 698 1 725 1 742 1 748 1 767 1 775 1 778 1 847 1 854 1 877 1 881 1 883 1 898 1 906 1 917 1 919 1 930 1 939 1 951 1 954 1 978 1 982 1 825 1 830 1 831 1 872 1 874 1 901 1 904 1 915 1 962 1 969 1 1005 1 1006 1 1009 1 1015 1 1017 1 
1 214 5 1 16 1 23 1 31 1 35 1 45 1 47 1 71 1 98 1 102 2 111 1 115 1 159 1 209 1 211 1 218 1 247 1 249 1 260 1 297 1 330 1 349 1 350 1 355 1 377 2 411 1 436 1 494 1 504 1 505 1 518 1 540 1 560 1 573 1 581 1 583 1 589 1 626 2 650 1 669 1 694 1 712 1 715 1 721 1 738 1 796 1 800 1 816 1 9 1 32 1 48 1 75 1 94 1 100 1 101 1 112 1 185 1 196 1 205 1 215 1 225 1 243 1 263 1 272 1 273 1 299 1 302 1 316 1 339 1 341 1 367 1 418 1 429 1 450 1 466 1 498 1 525 1 537 1 541 1 543 1 601 1 610 1 656 1 699 1 713 1 716 1 723 1 731 1 757 1 766 1 768 1 822 2 845 1 853 1 867 1 906 1 956 1 970 1 982 1 825 1 832 1 834 1 839 1 849 1 850 1 858 1 862 1 883 1 907 1 910 1 913 1 922 1 935 1 937 1 961 1 979 1 984 1 988 1 995 1 1002 1 1006 1 1009 1 1010 1 1013 1 1016 1 1024 1 
1 210 29 1 47 1 92 1 95 1 114 1 118 1 129 1 190 1 198 1 220 1 223 1 228 1 232 1 250 1 254 1 267 1 274 1 299 1 301 1 322 1 328 2 344 1 349 1 362 2 387 1 392 1 412 1 446 1 448 1 451 1 468 1 552 1 554 1 559 1 625 1 633 1 644 1 646 1 650 1 651 1 667 1 683 1 687 1 738 1 742 1 758 1 795 1 798 1 800 1 803 1 809 1 821 2 39 1 45 1 53 1 56 1 57 1 59 1 82 1 162 1 188 1 210 1 240 1 245 1 263 1 283 1 292 1 297 1 324 1 327 1 381 1 385 1 406 1 418 1 429 1 441 1 458 1 461 1 471 1 482 1 522 1 583 1 591 1 649 1 661 1 693 1 741 1 743 1 779 1 787 1 793 1 847 1 914 1 918 1 929 1 968 1 864 1 869 1 871 1 880 1 896 1 931 1 932 1 944 1 983 1 992 1 1002 1 1024 1 
1 207 23 1 25 1 52 2 56 1 94 1 110 1 116 1 117 1 171 1 182 1 191 1 203 1 224 1 236 1 238 1 257 1 266 1 269 1 273 1 278 1 283 1 292 1 341 1 348 1 355 1 369 1 412 1 430 2 439 1 458 1 478 1 480 1 499 1 502 1 523 1 533 1 541 1 571 1 574 1 576 1 596 1 601 1 613 1 626 1 668 1 669 1 721 1 732 2 734 1 738 1 801 1 816 1 29 1 50 1 69 1 127 1 128 1 136 1 137 1 199 1 220 1 253 1 267 1 286 1 300 1 306 1 332 1 340 1 349 1 373 1 403 1 441 1 446 1 447 1 464 1 481 1 492 1 496 1 516 1 524 1 558 1 560 1 573 1 577 1 585 1 587 1 604 1 622 1 640 1 680 1 684 1 699 1 704 1 706 1 707 1 711 1 715 1 723 1 761 1 762 1 765 1 776 1 783 1 792 1 864 1 925 1 952 1 957 1 960 1 979 1 866 1 892 1 899 1 918 1 934 1 942 1 974 1 1023 1 
1 204 20 1 69 1 119 1 122 1 128 1 129 1 147 1 150 1 168 1 191 1 200 1 234 1 245 1 257 1 258 1 279 1 280 1 320 1 327 1 347 1 376 1 387 1 413 1 426 1 519 1 525 1 530 1 532 1 533 1 544 1 545 1 552 1 561 1 567 1 568 2 587 1 595 1 619 1 624 1 633 1 638 1 658 1 672 1 731 1 737 1 763 1 774 1 794 1 801 1 24 1 28 1 40 1 46 1 47 1 70 1 94 1 96 1 110 1 117 1 132 1 167 1 181 1 188 1 192 1 205 1 227 1 228 1 260 1 317 1 355 1 363 1 399 1 405 1 407 1 417 1 423 1 427 1 453 1 457 1 465 1 480 1 510 1 513 1 537 1 598 1 600 1 609 1 610 1 612 1 631 1 639 1 655 1 663 1 697 1 701 1 703 1 713 1 723 1 732 1 744 1 754 1 759 1 769 1 793 1 804 1 817 1 872 1 876 2 911 1 919 1 925 1 937 1 990 2 828 1 869 1 871 1 879 1 896 1 956 1 964 1 970 1 1018 1 1022 1 
1 209 16 1 23 1 29 1 59 1 86 1 137 1 140 1 150 1 158 1 186 1 218 1 222 1 230 1 234 2 243 2 257 1 262 1 279 1 305 1 382 1 403 1 405 1 410 1 413 1 438 1 471 1 523 1 531 1 611 2 628 1 635 1 651 2 682 1 696 1 715 1 723 1 753 2 754 1 805 1 807 1 12 1 50 1 76 1 89 1 121 1 155 1 166 1 180 1 219 1 235 1 248 1 282 1 288 1 303 1 327 1 332 1 341 1 359 1 362 1 368 1 418 1 433 1 460 1 468 1 530 1 553 1 574 1 606 1 613 1 621 1 625 1 630 1 639 1 656 1 679 1 680 1 688 1 707 1 746 1 771 1 808 1 812 1 820 1 821 1 856 1 867 1 874 1 896 1 901 1 906 1 919 1 926 1 936 1 940 1 943 1 945 1 975 1 994 1 1000 1 1001 1 830 1 852 1 857 1 872 1 875 1 935 1 952 1 956 1 965 1 966 1 974 1 1005 1 1006 1 1020 1 
1 213 54 1 57 1 59 1 77 1 97 1 131 1 137 1 146 1 161 1 214 1 217 1 241 1 252 1 259 1 289 2 329 1 401 1 408 1 438 1 450 1 459 1 465 2 467 1 474 1 495 1 525 1 532 1 568 1 647 1 661 1 669 1 677 1 698 1 714 1 746 1 749 1 750 1 757 1 809 1 43 1 51 1 74 1 152 1 167 1 180 1 193 1 204 1 206 1 248 1 256 1 264 1 277 1 296 1 313 1 319 1 340 1 356 1 362 1 390 1 400 1 409 1 419 1 432 1 443 1 468 1 483 1 491 1 498 1 512 1 547 1 562 1 577 1 593 1 605 1 635 1 666 1 683 1 700 1 771 1 837 1 839 1 842 1 857 1 869 1 876 1 904 1 928 1 937 1 949 2 854 1 861 1 873 1 884 1 900 1 911 1 945 1 955 1 980 1 986 1 1010 1 1013 1 1023 1 1024 1 1027 1 
1 216 5 1 32 1 35 1 77 2 92 1 94 1 123 1 138 1 149 1 153 1 157 1 214 1 250 2 265 1 273 1 274 1 276 1 285 1 320 1 323 1 327 1 347 1 420 2 426 1 440 1 486 1 508 1 512 1 517 1 524 1 533 1 542 2 550 1 566 1 567 1 586 2 592 1 606 1 627 1 645 1 687 1 689 1 692 1 695 1 713 1 721 1 729 1 739 1 769 1 1 1 15 1 47 1 72 1 75 1 108 1 109 1 152 1 154 1 156 1 160 1 161 1 180 1 191 1 199 1 220 1 248 1 261 1 262 1 275 1 319 1 346 1 350 1 356 1 364 1 385 1 429 1 431 1 475 1 497 1 498 1 513 1 523 1 548 1 556 1 568 1 580 1 596 1 633 1 674 1 686 1 738 1 749 1 755 1 761 1 764 1 778 1 787 1 801 1 806 1 831 1 845 1 861 1 864 1 894 1 907 2 919 1 925 1 950 1 952 1 959 1 961 1 974 1 851 1 884 1 905 1 929 1 936 1 938 1 939 1 942 1 943 1 992 1 1004 1 1009 1 1018 1 1026 1 1027 1 
1 215 17 1 34 1 56 1 65 1 66 2 75 1 81 1 93 1 107 1 143 1 152 1 162 1 197 1 249 1 371 1 373 1 381 1 399 1 404 1 407 1 444 1 453 2 456 1 459 1 493 1 541 1 566 1 575 1 593 1 631 1 640 1 641 1 649 1 662 1 672 1 679 1 684 1 713 1 727 1 763 1 771 1 772 1 815 1 113 1 118 1 120 1 178 1 201 1 203 1 205 1 227 1 241 1 255 1 272 1 284 1 296 1 303 1 305 1 319 1 327 1 345 1 385 1 460 1 476 1 508 1 556 1 559 1 564 1 596 1 610 1 620 1 651 1 654 1 678 1 692 1 698 1 715 1 718 1 736 1 741 1 767 1 801 1 824 1 844 1 851 1 861 1 881 1 883 1 908 1 909 1 916 1 939 1 970 1 991 1 858 1 866 1 879 1 910 1 911 1 920 1 935 1 945 1 954 1 964 1 967 1 979 1 988 1 1006 1 1010 1 1022 1 
1 205 45 1 65 1 67 1 87 1 110 1 121 1 122 1 139 1 146 2 167 1 184 1 189 1 216 1 239 1 241 1 268 1 280 1 338 1 346 1 347 1 349 1 359 2 366 1 379 1 380 1 387 1 392 1 506 1 511 1 532 1 537 1 543 1 544 1 558 1 559 2 573 1 622 1 631 1 651 1 665 1 686 1 739 1 12 1 30 1 47 1 54 1 56 1 68 1 78 1 103 1 104 1 119 1 130 1 185 1 190 1 193 1 194 1 213 1 240 1 245 1 274 1 296 1 326 1 344 1 352 1 355 1 386 1 406 1 426 1 502 1 503 1 529 1 539 1 542 1 565 1 569 1 591 1 599 1 656 1 657 1 661 1 669 1 670 1 678 1 755 1 761 1 766 1 771 1 775 1 780 1 795 1 807 1 879 1 902 1 918 1 974 1 984 1 994 2 831 1 871 1 903 1 961 1 962 1 966 1 996 1 1010 1 1012 1 1023 1 
1 209 21 1 37 1 44 1 51 1 104 1 140 1 144 1 178 2 192 1 202 1 244 1 266 1 283 1 289 2 321 1 346 1 383 1 407 1 429 1 469 1 479 1 500 1 512 1 520 1 529 1 535 1 536 1 551 1 561 1 566 1 568 1 587 1 591 1 601 1 626 2 629 1 638 1 643 1 650 1 711 1 766 1 769 1 778 1 780 1 788 1 798 2 800 1 807 1 14 1 19 1 22 1 59 1 116 1 183 1 191 1 288 1 294 1 305 1 313 1 325 1 327 1 329 1 342 1 345 1 354 1 363 1 375 1 391 1 393 1 395 1 401 1 408 1 410 1 412 1 425 1 431 1 474 1 509 1 538 1 545 1 555 1 578 1 600 1 606 1 611 1 616 1 633 1 655 1 667 1 704 1 713 1 767 1 783 1 787 1 793 1 794 1 795 1 815 1 820 1 825 1 836 1 864 1 884 1 909 2 930 1 931 1 939 1 953 1 963 1 964 1 980 1 904 1 913 1 926 1 952 1 966 1 986 1 992 1 1000 1 1003 1 1005 1 1006 1 1007 1 1021 1 
1 212 3 1 8 1 16 1 41 1 90 1 107 1 114 1 136 1 137 2 150 1 156 1 157 1 164 1 204 1 234 1 239 1 246 1 319 1 337 1 340 1 350 1 371 1 373 1 374 1 383 1 404 1 407 1 411 1 413 1 422 1 437 1 443 1 444 1 465 1 481 1 483 1 502 1 519 1 530 1 537 1 569 1 572 1 603 1 614 1 621 1 637 1 638 1 655 1 672 1 691 1 711 1 726 1 778 1 809 1 827 1 30 1 32 1 34 1 48 1 80 1 82 1 128 1 160 1 167 1 169 1 194 1 253 1 261 1 276 1 277 1 283 1 300 1 309 1 316 1 321 1 384 1 431 1 435 1 464 1 506 1 535 1 549 1 576 1 581 1 597 1 609 1 645 1 649 1 653 1 665 1 670 1 692 1 698 1 717 1 747 1 820 1 829 1 857 1 867 1 914 1 964 1 976 1 834 1 853 1 859 1 864 1 869 1 871 1 872 1 893 1 901 1 911 1 934 1 937 1 983 1 1005 1 1009 1 1012 1 
1 213 7 1 8 2 49 1 50 1 57 1 87 1 99 1 103 1 105 1 121 1 154 1 163 1 169 1 265 1 273 1 280 1 320 1 324 1 333 1 337 1 349 2 401 1 405 1 425 1 430 1 441 1 463 1 471 1 495 1 514 1 517 1 527 1 535 1 551 1 576 1 587 1 592 1 614 1 634 2 651 1 700 2 701 1 706 1 710 1 716 1 766 2 20 1 61 1 72 1 80 1 107 1 156 1 167 1 179 1 180 1 202 1 214 1 232 1 251 1 252 1 275 1 293 1 311 1 335 1 338 1 339 1 356 1 380 1 384 1 387 1 418 1 440 1 490 1 501 1 549 1 560 1 567 1 586 1 590 1 601 1 620 1 627 1 628 1 629 1 631 1 641 1 643 1 674 1 679 1 685 1 713 1 718 1 732 1 751 1 760 1 761 1 781 1 791 1 804 1 807 1 821 1 871 1 905 1 920 1 922 1 933 1 957 1 958 1 959 1 960 1 974 1 842 1 900 1 902 1 910 1 938 1 972 1 973 1 978 1 991 1 1011 1 1013 1 1020 1 1025 1 1027 1 
1 209 7 1 9 1 30 1 54 1 56 1 61 1 79 1 87 1 116 1 141 2 158 1 166 1 184 1 191 1 201 1 218 1 259 1 260 1 273 1 298 1 319 1 326 1 334 1 335 1 347 1 362 1 373 1 381 1 403 1 419 1 423 1 450 1 478 1 510 1 526 1 532 1 534 1 543 1 559 2 571 1 584 1 634 1 636 1 700 1 737 1 750 1 753 1 770 2 793 1 12 1 31 1 50 1 51 1 62 1 63 1 67 1 72 1 92 1 93 1 100 1 104 1 105 1 107 1 113 1 117 1 125 1 162 1 193 1 255 1 267 1 280 1 297 1 310 1 314 1 324 1 333 1 349 1 359 1 377 1 386 1 391 1 404 1 424 1 432 1 464 1 477 1 487 1 497 1 503 1 539 1 575 1 591 1 646 1 652 1 657 1 661 1 676 1 686 1 688 1 691 1 721 1 736 1 739 1 755 1 758 1 794 1 811 1 840 1 854 2 859 1 867 1 873 1 882 1 892 1 931 1 978 2 998 1 845 1 853 1 861 1 876 1 890 1 949 1 966 1 977 1 995 1 996 1 1012 1 1023 1 
1 214 7 1 12 1 57 2 72 1 75 1 94 1 96 2 113 1 120 2 157 1 161 1 196 1 212 1 246 1 248 1 312 1 350 1 379 1 385 1 510 1 515 1 527 1 537 1 579 1 582 2 607 1 631 1 690 1 694 1 701 1 736 1 778 1 788 1 789 1 808 1 813 1 13 1 33 1 65 1 73 1 82 1 85 1 104 1 105 1 111 1 130 1 154 1 168 1 172 1 215 1 236 1 251 1 282 1 283 1 291 1 309 1 351 1 370 1 408 1 412 1 425 1 432 1 453 1 485 1 520 1 524 1 533 1 568 1 573 1 609 1 611 1 635 1 640 1 673 1 681 1 685 1 692 1 703 1 707 1 711 1 712 1 726 1 796 1 821 1 831 1 847 1 874 1 906 1 910 1 941 1 956 1 974 1 992 1 836 1 851 1 855 1 895 1 907 1 925 1 938 1 944 1 971 1 1002 1 1004 1 1009 1 1012 1 1022 1 1025 1 
1 213 42 1 103 1 133 1 145 1 151 1 163 1 170 1 185 1 193 1 208 1 223 1 227 2 267 2 292 1 294 1 307 1 325 1 363 1 477 1 483 1 503 1 533 1 549 1 563 2 597 1 656 1 666 1 671 1 696 1 700 1 734 1 736 1 781 1 802 1 808 1 811 1 814 1 818 1 16 1 19 1 20 1 21 1 28 1 62 1 65 1 81 1 129 1 146 1 152 1 162 1 214 1 226 1 260 1 284 1 332 1 360 1 378 1 394 1 412 1 439 1 456 1 461 1 474 1 481 1 484 1 496 1 518 1 519 1 540 1 585 1 638 1 669 1 683 1 684 1 723 1 735 1 780 1 782 1 806 1 857 1 880 1 890 1 895 1 926 1 927 2 971 1 976 1 993 1 836 1 847 1 877 1 896 1 910 1 916 1 949 1 950 1 951 1 954 1 980 1 995 1 1002 1 1004 1 1010 1 1013 1 1021 1 
1 214 16 1 32 1 39 1 80 1 139 1 148 1 172 1 179 1 181 1 182 1 183 1 207 1 208 1 222 1 247 1 260 1 278 1 324 1 329 2 366 1 385 1 409 1 412 1 422 1 475 1 512 1 513 1 523 1 526 1 533 2 546 1 567 1 587 1 602 1 619 1 643 1 669 1 689 1 720 1 727 1 769 1 785 1 796 1 798 1 830 1 14 1 31 1 42 1 49 1 59 1 61 1 71 1 72 1 85 1 90 1 138 1 155 1 166 1 171 1 174 1 198 1 206 1 231 1 264 1 270 1 272 1 276 1 285 1 292 1 312 1 316 1 336 1 337 1 341 1 375 1 382 1 402 1 410 1 415 1 435 1 448 1 462 1 488 1 495 1 543 1 576 1 584 1 586 1 595 1 612 1 649 1 650 1 665 1 679 1 684 1 712 1 734 1 747 1 757 1 797 1 807 1 808 1 812 1 834 1 835 1 839 1 857 1 869 2 888 1 937 1 995 1 998 1 847 1 851 1 867 1 946 1 972 1 973 1 981 1 986 1 992 1 1003 1 1009 1 1016 1 1019 1 
1 210 9 1 21 1 25 1 29 1 48 1 53 1 55 1 116 1 124 1 141 1 153 1 156 1 169 2 204 1 208 1 211 1 226 2 278 1 282 1 284 1 366 1 386 1 449 1 451 1 463 1 470 1 479 1 504 1 508 1 531 1 552 2 561 1 579 1 621 1 634 1 692 1 751 1 757 1 770 1 772 1 777 1 826 1 6 1 19 1 60 1 64 1 69 1 76 1 90 1 109 1 113 1 114 1 132 1 139 1 161 1 165 1 168 1 198 1 203 1 242 1 275 1 296 1 314 1 344 1 355 1 384 1 388 1 401 1 418 1 440 1 534 1 611 1 637 1 646 1 666 1 679 1 685 1 713 1 736 1 739 1 766 1 780 1 784 1 795 1 812 1 843 1 849 1 884 1 887 1 914 1 916 1 932 1 954 1 956 1 969 2 977 1 881 1 899 1 931 1 935 1 940 1 963 1 966 1 1006 1 1008 1 1014 1 1015 1 1024 1 
1 208 63 1 76 1 87 2 125 1 162 1 163 1 170 1 183 1 234 1 245 1 246 1 255 1 265 1 280 1 285 1 303 1 320 1 323 1 333 1 337 1 347 2 348 1 374 1 376 1 450 1 452 1 463 2 469 1 472 1 502 1 514 1 532 1 542 1 545 1 556 1 577 1 588 1 603 1 675 1 689 1 693 1 698 1 705 1 723 1 731 1 785 1 810 1 812 1 19 1 22 1 32 1 54 1 68 1 72 1 110 1 120 1 150 1 152 1 153 1 175 1 199 1 203 1 206 1 238 1 241 1 244 1 247 1 250 1 279 1 298 1 308 1 357 1 360 1 380 1 384 1 404 1 423 1 440 1 465 1 474 1 476 1 496 1 497 1 526 1 543 1 567 1 584 1 586 1 593 1 598 1 627 1 632 1 637 1 658 1 720 1 813 1 815 1 839 1 852 1 857 1 874 1 878 1 880 1 904 1 905 1 908 1 919 1 957 1 968 1 983 1 867 1 877 1 888 1 932 1 940 1 954 1 972 1 1005 1 1008 1 
1 209 5 1 25 1 67 1 71 1 80 1 86 1 132 1 159 1 177 1 183 1 208 1 225 1 241 1 262 2 291 1 293 1 338 1 348 1 379 1 388 1 400 1 410 1 414 1 421 1 423 1 427 1 445 1 469 1 476 1 494 1 507 1 515 1 554 1 558 1 587 1 593 1 606 2 628 1 656 1 697 1 701 1 724 1 739 1 754 1 759 1 771 2 776 1 826 1 836 1 838 1 13 1 29 1 34 1 84 1 94 1 107 1 118 1 119 1 123 1 137 1 151 1 190 1 193 1 195 1 216 1 219 1 232 1 285 1 288 1 305 1 327 1 329 1 352 1 353 1 367 1 389 1 446 1 459 1 460 1 484 1 498 1 513 1 522 1 532 1 562 1 570 1 596 1 643 1 687 1 688 1 691 1 726 1 737 1 772 1 775 1 780 1 786 1 801 1 802 1 821 1 863 1 868 1 871 1 897 1 978 1 985 1 990 1 993 1 1000 1 841 1 875 1 894 1 898 1 938 1 942 1 982 1 998 1 1009 1 1018 1 
1 212 18 1 37 1 57 1 59 1 87 2 96 1 103 1 108 1 141 1 146 1 173 1 179 1 180 1 196 2 200 1 201 1 229 2 235 1 259 1 300 1 343 1 368 1 383 1 396 1 407 1 419 1 429 1 430 1 435 1 438 1 448 1 462 1 471 1 502 1 518 1 519 1 557 1 568 1 589 1 592 1 598 1 605 1 646 1 667 1 681 1 688 1 714 2 733 1 750 1 754 1 756 1 783 1 794 1 803 1 809 1 818 1 833 1 17 1 24 1 28 1 68 1 75 1 86 1 114 1 116 1 129 1 145 1 147 1 178 1 181 1 182 1 191 1 198 1 210 1 214 1 232 1 261 1 284 1 295 1 317 1 321 1 336 1 350 1 423 1 436 1 463 1 528 1 529 1 571 1 576 1 587 1 631 1 632 1 648 1 650 1 664 1 666 1 677 1 684 1 702 1 729 1 741 1 763 1 769 1 779 1 791 1 840 1 840 1 845 1 879 1 887 1 892 1 896 1 938 1 941 1 954 1 958 1 961 1 1001 1 903 1 913 1 917 1 936 1 943 1 959 1 966 1 988 1 1012 1 1025 1 
1 211 3 1 12 1 23 1 26 1 30 1 136 1 157 1 165 1 180 1 205 1 231 1 240 1 257 1 285 1 286 1 316 1 334 1 355 1 363 1 414 1 417 2 461 1 512 1 519 1 542 1 543 1 555 2 559 1 574 1 588 1 591 1 647 1 651 2 656 1 658 1 659 1 664 1 667 1 673 1 696 1 716 1 726 1 736 1 741 2 775 1 778 2 818 1 28 1 46 1 55 1 63 1 77 1 88 1 200 1 203 1 219 1 228 1 236 1 243 1 249 1 252 1 284 1 298 1 308 1 314 1 320 1 327 1 333 1 336 1 341 1 357 1 361 1 375 1 521 1 552 1 586 1 589 1 621 1 630 1 637 1 663 1 702 1 709 1 711 1 731 1 732 1 738 1 739 1 748 1 793 1 799 1 839 1 865 1 867 1 869 1 879 1 900 2 905 1 908 1 911 1 919 1 931 1 934 1 936 2 961 1 966 1 972 1 998 1 872 1 887 1 914 1 921 1 930 1 948 1 989 1 995 1 1008 1 1018 1 1020 1 
1 208 2 1 4 1 20 1 22 1 25 1 34 1 52 2 59 1 81 1 94 1 101 1 139 1 148 1 173 1 179 1 192 1 194 1 204 1 210 1 238 1 258 1 268 1 284 1 286 1 295 1 306 1 316 2 325 1 339 1 401 2 427 1 432 1 473 1 488 1 521 1 584 1 590 1 652 1 664 2 679 1 685 1 687 1 716 1 731 1 743 1 754 1 755 1 804 1 826 1 8 1 23 1 35 1 62 1 66 1 88 1 120 1 162 1 175 1 218 1 229 1 308 1 315 1 377 1 383 1 411 1 435 1 442 1 480 1 502 1 523 1 535 1 545 1 596 1 598 1 607 1 667 1 681 1 689 1 710 1 734 1 765 1 795 1 799 1 812 1 832 1 851 1 898 2 902 1 932 1 962 1 967 1 969 1 975 1 986 1 991 2 998 1 855 1 876 1 891 1 892 1 905 1 909 1 919 1 952 1 959 1 982 1 1013 1 
1 220 3 1 6 1 8 1 10 1 25 1 51 1 95 1 100 1 124 1 137 1 153 1 176 1 190 1 195 1 196 1 204 1 208 1 211 1 267 1 283 1 286 1 287 1 296 1 313 1 326 1 365 1 381 1 392 1 404 1 438 1 445 1 453 1 489 1 535 1 545 1 548 1 592 1 603 1 615 1 658 1 711 1 726 1 749 1 751 1 769 1 772 1 776 1 837 1 7 1 11 1 12 1 73 1 77 1 79 1 81 1 106 1 109 1 142 1 152 1 174 1 189 1 197 1 226 1 232 1 248 1 260 1 265 1 290 1 309 1 333 1 335 1 360 1 394 1 395 1 397 1 401 1 405 1 433 1 450 1 474 1 476 1 491 1 494 1 497 1 517 1 521 1 532 1 536 1 541 1 552 1 553 1 569 1 572 1 582 1 588 1 599 1 613 1 630 1 638 1 640 1 662 1 705 1 756 1 777 1 791 1 810 1 814 1 844 1 880 1 886 1 897 1 915 1 932 1 937 1 942 1 963 1 970 1 850 1 853 1 894 1 929 1 953 1 969 1 976 1 1002 1 1003 1 1005 1 1007 1 1015 1 1021 1 1025 1 
1 208 5 2 6 1 35 1 40 1 66 1 82 1 138 1 148 1 218 1 235 1 312 1 321 1 355 1 378 1 382 1 393 1 422 1 445 1 448 1 476 1 511 1 517 1 520 1 529 1 535 1 549 1 571 1 577 1 593 1 594 1 634 1 673 2 717 1 772 1 794 1 806 1 828 1 843 1 18 1 69 1 78 1 88 1 101 1 114 1 155 1 208 1 216 1 227 1 228 1 242 1 244 1 257 1 269 1 324 1 326 1 330 1 342 1 347 1 354 1 381 1 383 1 396 1 413 1 415 1 428 1 432 1 451 1 468 1 498 1 510 1 515 1 605 1 616 1 617 1 657 1 658 1 674 1 696 1 732 1 739 1 758 1 765 1 777 1 779 1 797 1 812 1 856 1 872 1 879 1 885 1 896 1 926 1 939 1 948 1 955 1 973 1 849 1 861 1 916 1 924 1 944 1 945 1 1002 1 1018 1 
1 207 4 1 10 1 27 1 32 1 56 1 82 1 84 1 96 1 97 2 109 1 110 1 123 1 126 1 144 1 167 1 212 1 218 1 220 1 230 1 244 1 257 2 259 1 261 1 271 1 290 1 303 1 304 1 319 1 359 1 379 1 381 1 397 1 409 1 417 1 421 1 430 1 431 1 440 1 447 1 455 1 456 1 473 1 514 1 519 1 569 1 577 1 607 1 629 1 634 1 655 1 657 1 701 2 709 1 725 1 735 2 740 1 745 1 771 1 773 1 785 1 786 1 806 1 821 1 827 1 840 1 8 1 33 1 67 1 89 1 113 1 120 1 134 1 165 1 166 1 182 1 196 1 216 1 225 1 280 1 325 1 343 1 368 1 383 1 400 1 433 1 459 1 495 1 507 1 520 1 540 1 614 1 620 1 631 1 632 1 645 1 651 1 661 1 664 1 669 1 688 1 731 1 743 1 782 1 787 1 833 1 845 1 845 1 865 1 889 2 911 1 926 1 930 1 936 1 943 1 944 1 967 1 981 1 872 1 875 1 909 1 912 1 938 1 954 1 972 1 1012 1 
1 212 15 1 31 1 38 1 48 1 78 1 81 1 116 1 121 1 139 2 142 1 145 1 164 1 167 1 208 1 211 1 217 1 219 1 220 1 224 1 250 1 269 1 293 1 296 1 318 1 341 1 393 1 397 1 403 1 456 1 463 1 477 1 507 1 521 1 538 1 543 1 569 2 571 1 580 1 624 1 651 1 653 1 657 1 658 1 665 1 674 1 678 1 682 1 716 2 732 1 738 1 775 1 790 1 813 1 2 1 20 1 92 1 105 1 158 1 165 1 187 1 228 1 231 1 292 1 300 1 304 1 316 1 344 1 387 1 388 1 417 1 419 1 437 1 440 1 450 1 469 1 502 1 504 1 510 1 525 1 605 1 616 1 625 1 632 1 654 1 667 1 673 1 698 1 705 1 722 1 795 1 796 1 847 1 848 1 853 1 884 1 901 1 908 1 941 1 945 1 948 1 955 1 959 1 961 1 964 1 993 1 855 1 873 1 885 1 980 1 996 1 1002 1 1005 1 1011 1 1014 1 
1 210 52 1 61 1 73 1 121 1 136 1 141 1 149 1 151 1 154 1 236 1 240 1 241 1 253 1 295 1 301 1 320 1 355 2 397 1 456 1 464 1 467 1 468 1 489 1 537 1 546 1 551 1 567 1 603 1 632 1 633 1 668 1 691 1 699 1 749 1 750 1 759 1 765 1 766 1 771 1 787 1 791 2 801 1 820 1 822 1 834 1 846 1 1 1 12 1 18 1 24 1 57 1 70 1 173 1 183 1 199 1 203 1 238 1 276 1 278 1 281 1 285 1 313 1 321 1 343 1 353 1 357 1 364 1 389 1 394 1 409 1 418 1 450 1 453 1 462 1 477 1 485 1 498 1 532 1 534 1 570 1 600 1 645 1 673 1 676 1 705 1 725 1 728 1 754 1 758 1 763 1 769 1 812 1 835 1 836 1 855 1 865 1 872 2 874 1 927 1 937 1 940 2 950 1 957 1 996 1 866 1 875 1 900 1 956 1 987 1 1007 1 1019 1 1023 1 
1 211 16 1 23 1 31 1 33 1 35 1 66 2 70 1 93 1 97 1 113 1 115 1 136 1 147 1 149 1 150 1 180 1 184 1 198 1 218 1 247 1 300 1 350 1 355 1 358 1 369 2 381 1 385 1 417 1 423 1 442 1 452 1 477 1 558 1 583 1 599 1 617 1 629 1 633 1 710 1 734 1 774 1 782 2 799 1 805 1 812 1 817 1 846 1 27 1 42 1 69 1 85 1 101 1 114 1 139 1 190 1 200 1 229 1 246 1 307 1 332 1 351 1 363 1 393 1 400 1 403 1 410 1 435 1 447 1 451 1 454 1 469 1 470 1 485 1 486 1 505 1 578 1 607 1 623 1 626 1 628 1 636 1 665 1 678 1 701 1 704 1 741 1 761 1 771 1 860 1 868 1 882 1 904 1 911 1 919 1 924 1 930 1 945 1 961 1 971 1 995 1 999 1 1000 1 857 1 879 1 897 1 898 1 906 1 917 1 935 1 962 1 967 1 975 1 1015 1 
1 202 17 1 78 1 79 1 133 1 172 1 173 1 178 1 198 2 203 1 237 1 243 1 244 1 252 1 253 1 255 1 258 1 296 1 300 2 318 1 341 1 379 1 383 1 389 1 429 1 435 1 436 1 440 1 448 1 450 1 513 1 560 1 567 1 571 1 630 1 632 1 645 1 652 1 670 1 681 1 687 1 693 1 704 1 735 1 775 1 811 1 837 1 16 1 25 1 46 1 84 1 85 1 88 1 104 1 125 1 143 1 153 1 169 1 179 1 180 1 202 1 250 1 259 1 288 1 314 1 326 1 360 1 361 1 377 1 388 1 395 1 397 1 428 1 455 1 463 1 475 1 477 1 491 1 497 1 509 1 520 1 524 1 583 1 591 1 614 1 638 1 648 1 698 1 718 1 730 1 732 1 738 1 740 1 788 1 797 1 800 1 801 1 821 1 844 1 870 1 881 1 903 1 924 1 927 2 929 1 932 1 965 1 974 1 975 1 980 2 850 1 858 1 872 1 875 1 886 1 897 1 899 1 900 1 931 1 971 1 981 1 1023 1 
1 215 25 1 54 1 86 1 96 1 99 1 121 1 136 1 146 1 155 1 165 1 185 1 192 1 270 1 288 1 290 2 332 1 351 1 399 1 402 1 414 1 464 1 466 1 468 1 471 1 472 1 491 1 499 1 505 1 512 1 521 1 549 2 563 1 602 1 613 1 628 1 633 1 641 2 647 1 664 1 670 1 676 1 704 1 707 1 712 1 741 1 747 1 757 1 768 1 780 1 786 1 807 2 814 1 819 1 12 1 64 1 67 1 70 1 76 1 126 1 168 1 169 1 187 1 262 1 294 1 297 1 306 1 310 1 325 1 327 1 329 1 355 1 370 1 377 1 394 1 400 1 409 1 419 1 420 1 422 1 456 1 469 1 481 1 506 1 539 1 577 1 615 1 617 1 627 1 640 1 646 1 649 1 653 1 666 1 668 1 708 1 709 1 724 1 784 1 798 1 804 1 821 1 843 1 849 1 851 1 869 1 870 1 904 1 916 1 917 1 948 1 873 1 883 1 886 1 905 1 935 1 944 1 976 1 1008 1 1010 1 1012 1 1013 1 
1 210 28 1 33 1 36 1 48 1 54 1 73 1 83 1 90 1 95 1 101 1 126 1 146 1 185 1 192 2 193 1 198 1 225 1 235 1 237 1 248 1 257 1 260 1 271 1 273 2 323 1 341 1 367 2 368 1 407 1 412 1 423 1 474 1 539 1 544 1 558 1 566 1 575 1 591 1 647 1 709 1 713 2 718 1 726 1 739 1 740 1 760 1 786 1 828 1 842 1 850 1 13 1 22 1 31 1 40 1 71 1 75 1 119 1 151 1 171 1 175 1 230 1 241 1 249 1 269 1 286 1 320 1 321 1 344 1 356 1 388 1 392 1 404 1 409 1 438 1 453 1 461 1 466 1 478 1 480 1 485 1 545 1 549 1 562 1 590 1 593 1 601 1 634 1 645 1 649 1 663 1 699 1 701 1 715 1 722 1 736 1 748 1 773 1 775 1 796 1 799 1 827 1 834 1 836 1 867 1 874 1 883 1 893 1 942 1 949 1 951 1 971 1 973 1 981 1 987 1 996 1 877 1 903 1 937 1 948 1 957 1 982 1 994 1 1002 1 1010 1 
1 207 7 1 27 1 47 1 75 1 137 2 151 1 171 1 178 2 188 1 242 1 254 1 268 1 290 1 317 1 323 1 337 1 343 1 367 1 389 2 407 1 412 1 427 1 434 2 446 1 452 1 470 1 494 1 502 1 528 1 544 1 552 1 556 1 565 2 570 1 624 1 631 1 673 1 694 1 710 1 712 1 715 1 726 1 730 1 732 1 740 1 742 1 763 1 764 1 770 1 772 1 787 1 794 1 796 1 801 1 806 1 838 1 10 1 25 1 56 1 65 1 118 1 126 1 163 1 175 1 180 1 205 1 213 1 231 1 299 1 303 1 340 1 394 1 401 1 440 1 457 1 463 1 475 1 477 1 495 1 497 1 519 1 541 1 562 1 575 1 597 1 614 1 629 1 638 1 656 1 800 1 825 1 863 1 877 1 885 1 907 1 908 2 909 1 911 1 960 1 966 2 858 1 889 1 902 1 903 1 906 1 956 1 957 1 963 1 978 1 1011 1 1020 1 
1 211 41 1 43 1 58 1 73 1 81 1 95 1 100 1 109 1 110 1 112 1 117 1 120 1 140 1 287 1 311 1 320 1 375 1 382 1 399 1 427 1 439 1 446 1 469 1 471 1 492 1 512 2 579 1 592 1 620 1 645 1 653 1 672 1 674 1 680 1 726 1 779 1 793 1 821 1 846 1 2 1 10 1 29 1 50 1 55 1 62 1 74 1 77 1 108 1 126 1 135 1 148 1 150 1 170 1 225 1 231 1 233 1 234 1 242 1 261 1 263 1 289 1 293 1 302 1 313 1 356 1 383 1 384 1 389 1 409 1 416 1 417 1 422 1 425 1 450 1 484 1 495 1 501 1 504 1 545 1 549 1 571 1 572 1 594 1 601 1 606 1 614 1 626 1 641 1 655 1 666 1 678 1 707 1 708 1 714 1 756 1 768 1 781 1 831 1 833 1 843 1 858 1 870 1 879 1 881 1 897 1 914 1 918 1 941 1 990 1 992 2 994 1 873 1 875 1 885 1 907 1 937 1 997 1 1005 1 1014 1 1022 1 
1 211 10 1 24 1 63 1 67 1 95 1 126 1 133 2 149 1 167 1 176 2 192 1 199 1 208 1 227 1 243 1 267 2 304 1 309 1 315 1 328 1 341 1 351 1 353 1 378 1 385 1 402 1 406 1 438 1 492 1 527 1 533 1 578 1 597 1 600 1 601 1 630 2 677 1 692 1 694 1 695 1 698 1 704 1 760 1 761 1 767 1 787 1 789 2 810 1 812 1 820 1 833 2 6 1 30 1 46 1 51 1 73 1 89 1 94 1 209 1 217 1 228 1 234 1 253 1 273 1 274 1 322 1 387 1 393 1 403 1 405 1 426 1 448 1 453 1 455 1 465 1 495 1 496 1 554 1 593 1 633 1 638 1 712 1 731 1 738 1 741 1 751 1 765 1 771 1 782 1 792 1 796 1 826 1 882 1 920 1 923 1 924 1 956 1 969 1 978 1 981 1 862 1 887 1 906 1 915 1 933 1 935 1 977 1 991 1 1002 1 1011 1 1025 1 
1 209 17 1 25 1 31 1 79 1 90 1 94 1 107 1 110 1 144 1 160 1 169 1 232 1 245 1 271 1 274 1 276 1 284 1 292 1 293 1 297 2 298 1 337 1 340 1 352 1 361 1 373 1 378 1 383 1 472 1 473 1 489 1 532 1 543 1 560 1 564 2 582 1 609 1 621 1 639 1 649 1 749 1 755 2 759 1 774 1 779 1 780 1 782 1 797 1 819 1 847 1 5 1 13 1 20 1 41 1 66 1 88 1 126 1 141 1 187 1 188 1 213 1 220 1 225 1 241 1 242 1 252 1 277 1 287 1 288 1 299 1 314 1 318 1 338 1 343 1 347 1 353 1 364 1 370 1 406 1 466 1 486 1 509 1 587 1 624 1 658 1 659 1 665 1 703 1 709 1 711 1 715 1 720 1 756 1 801 1 803 1 816 1 818 1 834 1 842 1 846 1 868 1 918 1 924 1 958 1 864 1 873 1 878 1 908 1 936 1 951 1 966 1 1021 1 
1 209 1 1 6 1 12 2 23 1 37 1 101 1 155 1 160 1 163 1 181 1 204 1 227 1 231 1 235 1 247 1 323 1 340 1 380 1 382 1 387 1 397 1 406 1 435 1 436 1 460 2 501 1 502 1 504 1 517 1 556 1 565 2 570 1 606 1 628 1 656 1 657 1 675 1 677 1 699 1 718 1 724 1 729 1 754 1 767 1 780 1 817 1 819 1 825 1 844 1 17 1 22 1 28 1 56 1 83 1 98 1 106 1 116 1 127 1 138 1 143 1 242 1 257 1 285 1 288 1 310 1 331 1 389 1 392 1 423 1 425 1 431 1 432 1 443 1 445 1 446 1 462 1 500 1 516 1 519 1 539 1 544 1 605 1 613 1 634 1 639 1 664 1 707 1 751 1 868 1 885 1 894 1 909 1 931 1 939 1 980 1 914 1 933 1 974 1 975 1 982 1 999 1 1005 1 1021 1 1022 1 1023 1 1026 1 
1 212 48 1 53 1 97 1 110 2 119 1 121 1 136 1 145 1 147 1 159 1 160 1 165 1 188 1 213 1 223 1 260 1 294 1 327 1 345 1 352 1 375 1 377 1 378 1 379 1 380 2 412 1 416 1 469 1 516 1 536 1 572 1 606 1 618 1 634 1 660 1 678 1 730 1 738 1 749 1 758 1 759 1 761 1 826 1 831 1 835 1 836 1 838 1 10 1 19 1 30 1 33 1 58 1 148 1 158 1 175 1 185 1 196 1 218 1 248 1 318 1 323 1 341 1 394 1 427 1 441 1 451 1 462 1 475 1 476 1 492 1 499 1 537 1 594 1 599 1 607 1 658 1 662 1 712 1 721 1 732 1 735 1 740 1 757 1 786 1 791 1 803 1 815 1 816 1 817 1 825 1 848 1 857 1 857 1 862 1 878 1 879 1 888 1 903 1 904 1 938 1 940 1 973 1 863 1 895 1 931 1 961 1 996 1 997 1 1020 1 1027 1 
1 213 19 1 41 1 73 1 74 1 79 1 90 1 142 1 144 1 151 1 152 1 167 1 170 1 249 1 257 1 270 1 295 1 310 1 334 1 355 1 377 1 380 1 397 1 408 1 429 1 493 1 502 1 511 1 525 1 534 1 555 2 565 1 569 1 576 2 598 1 622 1 625 1 659 1 660 1 676 1 698 1 760 1 767 1 768 1 853 1 3 1 14 1 15 1 23 1 24 1 84 1 120 1 125 1 135 1 217 1 220 1 225 1 228 1 237 1 259 1 277 1 282 1 285 1 297 1 301 1 365 1 370 1 375 1 395 1 482 1 483 1 492 1 496 1 504 1 526 1 531 1 539 1 560 1 566 1 579 1 586 1 606 1 608 1 630 1 673 1 783 1 795 1 796 1 821 1 828 1 849 1 852 1 863 1 865 1 881 1 891 1 938 1 940 1 944 2 945 1 972 1 973 2 910 1 960 1 962 1 998 1 1016 1 
1 218 29 1 39 1 66 1 83 1 92 1 94 1 104 1 117 1 123 1 154 1 199 1 221 1 241 1 276 1 277 1 284 1 351 1 366 1 391 1 421 1 442 2 443 1 458 1 470 1 473 1 475 1 478 1 480 1 503 1 522 1 566 1 570 1 576 1 598 1 603 1 644 1 649 1 655 1 661 1 668 1 675 1 702 1 716 2 732 1 735 1 763 1 767 1 771 1 780 1 833 1 23 1 35 1 52 1 76 1 82 1 84 1 101 1 124 1 130 1 140 1 148 1 187 1 224 1 233 1 264 1 265 1 279 1 309 1 382 1 389 1 395 1 433 1 447 1 504 1 513 1 514 1 519 1 526 1 541 1 577 1 582 1 604 1 622 1 633 1 659 1 660 1 713 1 731 1 742 1 745 1 747 1 753 1 792 1 803 1 831 1 862 1 876 1 878 1 884 1 885 1 894 1 905 1 911 1 933 1 942 1 946 1 962 1 993 1 865 1 870 1 890 1 899 1 903 1 924 1 967 1 992 1 1002 1 1007 1 1015 1 1021 1 1027 1 
1 211 1 1 28 2 50 1 55 1 118 1 133 1 134 2 153 1 155 1 169 1 176 1 187 1 212 1 230 2 232 1 261 1 278 1 283 1 298 1 318 1 350 1 352 1 377 2 379 1 387 1 506 2 544 2 548 1 554 2 561 1 563 1 567 1 570 1 595 2 596 1 626 2 632 1 684 2 702 1 704 1 705 1 707 1 756 1 769 1 776 1 788 2 790 1 800 1 817 1 848 1 25 1 75 1 88 1 105 1 106 1 132 1 135 1 139 1 148 1 199 1 216 1 279 1 287 1 297 1 322 1 323 1 328 1 336 1 382 1 412 1 424 1 429 1 460 1 496 1 503 1 518 1 525 1 526 1 575 1 577 1 581 1 598 1 637 1 657 1 687 1 688 1 745 1 758 1 765 1 780 1 797 1 802 1 862 1 877 1 907 1 930 1 947 1 880 1 882 1 946 1 951 1 973 1 976 1 979 1 981 1 1007 1 1016 1 
1 206 17 1 18 1 49 1 106 1 125 1 127 1 135 1 182 1 216 1 222 1 230 1 251 1 256 1 281 1 286 1 295 1 301 1 304 1 317 1 318 1 347 1 350 1 359 1 378 1 407 1 440 1 448 1 478 1 493 1 504 1 542 1 550 1 570 1 575 1 583 1 614 1 619 1 658 1 666 1 668 1 670 1 677 1 699 1 706 2 709 1 730 1 738 1 773 1 783 1 786 1 803 1 804 1 813 1 827 1 828 1 36 1 37 1 50 1 61 1 99 1 100 1 103 1 116 1 133 1 143 1 167 1 172 1 195 1 219 1 234 1 238 1 244 1 259 1 264 1 270 1 290 1 308 1 325 1 353 1 404 1 470 1 482 1 514 1 524 1 551 1 602 1 650 1 680 1 701 1 726 1 733 1 739 1 780 1 811 1 826 1 833 1 844 1 884 1 887 2 896 1 941 1 942 1 950 1 953 1 973 1 979 1 988 1 999 1 875 1 876 1 914 1 918 1 928 1 964 1 977 1 995 1 1008 1 1017 1 
1 207 3 1 68 1 69 2 104 1 109 1 169 1 191 1 200 1 222 1 236 1 245 1 246 1 286 1 289 1 292 1 293 1 376 1 379 1 407 2 412 1 424 1 428 1 449 1 452 1 457 1 473 1 492 1 497 1 499 1 513 1 554 1 557 1 601 1 602 1 613 1 635 1 637 1 689 1 725 2 740 1 754 1 759 1 781 1 857 1 859 1 860 1 2 1 5 1 9 1 13 1 14 1 43 1 113 1 117 1 136 1 144 1 152 1 161 1 181 1 186 1 225 1 242 1 266 1 268 1 308 1 328 1 343 1 350 1 356 1 362 1 374 1 391 1 398 1 403 1 429 1 447 1 448 1 458 1 461 1 466 1 474 1 491 1 580 1 584 1 592 1 619 1 625 1 634 1 653 1 717 1 747 1 758 1 766 1 782 1 786 1 798 1 810 1 821 1 854 1 882 1 883 1 919 1 950 1 975 1 868 1 922 1 935 1 947 1 990 1 993 1 1003 1 1008 1 1026 1 
1 214 17 1 19 1 25 1 29 1 73 1 85 1 97 1 105 1 131 1 141 1 164 1 176 1 189 1 197 1 205 1 213 1 217 1 221 1 239 1 251 1 254 1 256 1 258 1 287 1 288 1 302 1 306 1 328 1 372 2 373 1 429 1 439 1 464 1 478 2 486 1 502 1 510 2 518 2 545 1 548 1 559 1 611 1 616 1 627 1 686 1 699 1 710 1 723 1 738 1 783 1 791 1 839 1 852 1 858 1 75 1 90 1 98 1 112 1 122 1 208 1 214 1 226 1 238 1 265 1 281 1 305 1 309 1 313 1 314 1 317 1 322 1 326 1 377 1 386 1 389 1 393 1 409 1 433 1 546 1 557 1 562 1 571 1 574 1 579 1 599 1 605 1 617 1 622 1 664 1 669 1 687 1 697 1 714 1 749 1 774 1 777 1 779 1 857 1 870 1 892 1 934 1 899 1 915 1 917 1 965 1 981 1 1004 1 1009 1 1014 1 1017 1 1024 1 
1 215 11 1 51 1 64 1 66 1 86 1 117 2 174 1 199 1 204 1 219 1 244 1 250 1 253 1 268 1 276 1 296 1 301 1 308 1 316 1 342 1 344 1 350 1 357 1 403 1 424 2 428 1 438 1 447 1 464 1 465 1 475 1 535 1 539 1 553 1 573 1 585 1 609 1 617 1 640 1 649 1 678 1 696 1 706 1 726 1 729 1 748 1 755 1 778 1 812 1 815 1 823 1 827 1 830 1 77 1 108 1 115 1 131 1 139 1 141 1 169 1 195 1 224 1 249 1 275 1 279 1 312 1 315 1 317 1 414 1 435 1 480 1 486 1 507 1 526 1 532 1 630 1 632 1 650 1 673 1 690 1 714 1 742 1 746 1 751 1 807 1 822 1 831 1 855 1 877 1 912 1 946 2 964 1 965 1 980 1 990 1 994 1 873 1 875 1 894 1 913 1 917 1 938 1 939 1 973 1 984 1 1003 1 1011 1 1024 1 1026 1 
1 206 3 1 24 1 49 1 80 1 145 1 187 1 190 1 192 1 206 1 217 1 241 2 277 1 306 1 325 1 329 1 332 1 345 1 362 1 369 1 372 1 373 1 425 1 464 1 472 1 475 1 496 1 513 1 517 1 523 1 585 1 603 2 605 1 626 1 690 1 695 1 706 1 710 1 716 2 756 1 770 1 818 1 841 1 845 1 847 1 858 1 8 1 20 1 25 1 46 1 70 1 90 1 116 1 150 1 156 1 176 1 197 1 205 1 222 1 230 1 287 1 311 1 319 1 322 1 336 1 340 1 343 1 354 1 368 1 379 1 381 1 395 1 399 1 408 1 409 1 416 1 426 1 432 1 481 1 521 1 527 1 531 1 540 1 573 1 594 1 609 1 617 1 638 1 650 1 665 1 680 1 691 1 728 1 745 1 757 1 762 1 766 1 797 1 859 1 886 1 894 1 911 1 918 1 939 1 954 1 973 1 981 1 867 1 877 1 915 1 917 1 924 1 958 1 969 1 1000 1 1004 1 1011 1 1021 1 
1 216 11 1 37 1 56 1 69 1 99 1 138 1 208 2 270 1 297 1 305 1 313 1 318 1 340 2 344 1 360 1 367 1 374 1 389 1 425 1 441 1 451 1 459 2 496 1 529 1 539 1 561 1 564 1 572 1 583 1 598 1 600 1 604 1 606 1 641 1 653 1 670 1 695 1 700 1 718 1 728 1 747 1 753 1 760 1 765 1 791 1 806 1 815 1 30 1 50 1 62 1 66 1 80 1 85 1 90 1 130 1 143 1 169 1 172 1 182 1 190 1 277 1 286 1 292 1 299 1 300 1 312 1 333 1 338 1 353 1 354 1 355 1 361 1 371 1 386 1 412 1 434 1 446 1 455 1 466 1 479 1 499 1 524 1 542 1 550 1 556 1 615 1 616 1 630 1 635 1 645 1 672 1 674 1 726 1 727 1 737 1 752 1 819 1 823 1 828 1 847 1 871 1 896 2 918 1 927 1 928 1 929 1 952 1 1001 1 869 1 986 1 993 1 1015 1 1022 1 1023 1 
1 209 5 1 9 1 32 1 43 1 55 1 56 1 84 1 103 1 116 1 123 1 128 1 202 1 210 1 215 1 221 1 230 1 326 1 335 1 339 1 347 1 350 1 358 1 359 2 360 1 361 1 366 1 389 1 433 1 436 2 458 1 492 1 507 1 551 1 557 1 562 1 586 1 589 1 597 1 605 1 612 1 621 1 632 1 654 2 666 1 672 1 708 1 754 1 767 1 777 1 789 1 810 1 814 1 821 1 825 1 831 1 833 1 841 1 851 1 4 1 42 1 45 1 49 1 52 1 67 1 83 1 88 1 90 1 115 1 146 1 149 1 153 1 176 1 183 1 237 1 241 1 248 1 250 1 328 1 390 1 402 1 407 1 521 1 526 1 542 1 577 1 629 1 630 1 662 1 678 1 688 1 700 1 711 1 721 1 730 1 734 1 758 1 836 1 838 1 865 1 878 1 887 1 918 1 923 1 974 1 868 1 896 1 945 1 948 1 963 1 966 1 980 1 1019 1 1024 1 1027 1 
1 209 5 1 8 1 46 1 56 1 79 1 117 1 128 1 141 1 162 1 206 1 214 2 223 1 293 1 305 1 310 1 326 1 346 1 353 1 359 1 390 2 399 1 418 1 435 1 437 1 445 1 462 1 473 2 477 1 500 1 520 1 571 1 572 1 578 1 615 1 634 1 649 1 660 1 684 1 693 1 722 1 732 1 741 1 752 1 770 1 803 1 806 1 809 1 839 1 848 1 855 1 856 1 47 1 51 1 69 1 105 1 130 1 172 1 207 1 209 1 213 1 265 1 309 1 312 1 341 1 422 1 469 1 481 1 504 1 521 1 568 1 577 1 585 1 598 1 601 1 602 1 605 1 621 1 661 1 681 1 713 1 721 1 742 1 751 1 762 1 765 1 775 1 781 1 787 1 789 1 805 1 815 1 862 1 867 1 897 1 904 1 907 1 930 1 945 1 946 1 952 1 869 1 870 1 875 1 887 1 901 1 917 1 925 1 932 1 947 1 968 1 1004 1 
1 212 7 1 34 1 70 1 74 1 97 2 110 2 113 1 147 1 163 1 179 2 185 1 212 1 216 1 233 1 240 1 246 1 251 1 260 1 285 1 307 1 336 1 345 1 351 1 380 1 396 1 422 1 426 2 435 1 437 1 456 1 464 1 480 1 501 1 514 1 525 1 534 1 568 1 601 1 608 2 613 1 615 1 623 1 684 1 700 2 701 1 707 1 720 1 741 1 779 1 799 1 818 1 826 1 836 2 841 1 850 1 50 1 52 1 84 1 93 1 114 1 156 1 211 1 225 1 245 1 255 1 258 1 269 1 270 1 305 1 308 1 323 1 331 1 341 1 343 1 349 1 385 1 414 1 419 1 434 1 443 1 454 1 481 1 504 1 513 1 517 1 527 1 530 1 569 1 589 1 648 1 650 1 667 1 708 1 710 1 725 1 728 1 737 1 746 1 751 1 772 1 789 1 794 1 817 1 822 1 824 1 831 1 866 1 868 1 902 1 920 1 955 1 961 1 870 1 931 1 957 1 960 1 992 1 1024 1 
1 212 8 2 11 1 24 1 115 1 126 1 131 1 139 1 141 1 178 1 180 1 207 1 214 1 263 1 287 1 302 1 306 1 308 1 364 1 400 1 418 1 424 1 449 1 465 1 505 2 516 1 517 1 577 1 578 2 582 1 596 1 606 1 613 1 614 1 622 1 629 1 639 1 645 1 668 1 696 1 703 1 722 1 813 1 849 1 850 1 853 1 863 1 6 1 43 1 49 1 74 1 78 1 155 1 159 1 189 1 198 1 208 1 209 1 253 1 272 1 307 1 323 1 343 1 346 1 362 1 369 1 404 1 409 1 415 1 430 1 443 1 456 1 482 1 491 1 503 1 509 1 510 1 519 1 571 1 590 1 593 1 603 1 604 1 621 1 623 1 648 1 661 1 678 1 682 1 726 1 729 1 749 1 752 1 754 1 784 1 803 1 817 1 859 1 868 1 869 1 884 1 895 1 910 1 913 1 920 1 927 1 947 1 964 1 967 1 973 1 975 1 977 1 980 1 989 1 995 1 875 1 900 1 908 1 921 1 948 1 960 1 999 1 1003 1 1015 1 1020 1 
1 208 38 2 40 1 43 1 104 1 106 1 114 1 140 1 143 1 173 1 221 1 224 1 236 1 246 1 273 1 283 1 295 1 306 1 316 1 366 1 397 1 405 1 443 1 451 1 514 1 521 1 531 2 545 1 547 1 597 1 686 1 696 1 706 1 713 1 721 1 772 1 773 1 775 1 796 1 799 1 811 1 832 1 839 1 866 1 18 1 19 1 22 1 76 1 192 1 202 1 203 1 220 1 239 1 241 1 251 1 265 1 291 1 307 1 321 1 328 1 345 1 362 1 399 1 403 1 427 1 437 1 448 1 453 1 477 1 506 1 525 1 532 1 546 1 555 1 565 1 584 1 585 1 586 1 612 1 654 1 676 1 695 1 699 1 714 1 726 1 731 1 777 1 792 1 794 1 814 1 822 1 824 1 829 1 831 1 878 1 884 1 930 1 931 1 936 1 945 1 953 1 975 1 979 1 872 1 896 1 907 1 909 1 914 1 938 1 970 1 981 1 1003 1 1009 1 1013 1 1026 1 
1 211 2 1 15 2 33 1 47 1 53 1 73 1 100 1 103 1 118 1 124 1 145 1 180 1 190 1 200 1 211 1 213 1 275 1 323 1 331 1 352 1 359 1 365 1 377 1 442 2 457 2 463 1 471 1 475 1 481 1 500 1 537 1 568 1 572 1 587 1 656 1 696 1 704 2 711 1 728 1 763 1 783 1 797 1 798 1 814 1 818 1 824 1 844 1 847 2 4 1 8 1 39 1 106 1 115 1 142 1 148 1 152 1 153 1 163 1 210 1 217 1 220 1 226 1 231 1 237 1 265 1 282 1 297 1 321 1 336 1 353 1 358 1 369 1 383 1 413 1 415 1 434 1 435 1 438 1 439 1 443 1 453 1 456 1 474 1 496 1 502 1 503 1 593 1 611 1 613 1 614 1 630 1 668 1 684 1 694 1 695 1 717 1 720 1 813 1 820 1 825 1 831 1 841 1 845 1 849 1 871 1 879 1 883 1 892 1 901 1 905 1 919 1 933 1 964 1 990 1 878 1 900 1 916 1 940 1 945 1 954 1 969 1 991 1 996 1 1001 1 1002 1 1004 1 1009 1 1020 1 1023 1 1025 1 
1 214 3 1 6 1 37 1 59 1 74 1 81 1 86 2 99 1 120 1 204 1 209 1 230 1 235 1 260 1 273 1 274 1 290 1 291 1 329 1 344 1 354 1 363 1 399 1 427 1 428 1 450 1 482 1 497 1 503 1 561 1 569 2 605 1 651 2 652 1 678 2 693 2 744 1 756 1 760 1 792 1 810 1 817 1 833 1 38 1 53 1 58 1 71 1 104 1 105 1 125 1 131 1 132 1 135 1 149 1 156 1 160 1 165 1 178 1 180 1 191 1 193 1 194 1 218 1 240 1 266 1 281 1 292 1 309 1 358 1 369 1 370 1 383 1 385 1 465 1 501 1 530 1 536 1 555 1 576 1 592 1 598 1 604 1 633 1 646 1 658 1 668 1 671 1 701 1 706 1 716 1 733 1 762 1 785 1 789 1 791 1 802 1 826 1 846 1 850 1 853 1 855 1 864 1 874 1 877 1 883 1 915 1 921 1 923 1 927 1 936 1 940 1 944 1 945 1 976 1 988 1 991 1 884 1 904 1 929 1 938 1 948 1 952 1 957 1 967 1 984 1 998 1 999 1 1004 1 1018 1 1020 1 1025 1 1027 1 
1 208 43 1 54 1 59 1 64 2 81 1 105 1 121 1 160 1 189 1 254 1 264 1 273 1 287 1 291 1 300 1 308 1 326 1 333 1 347 1 350 1 357 1 414 1 416 1 433 1 460 1 461 1 500 1 544 1 547 1 559 1 576 1 586 1 590 1 647 1 663 1 699 2 731 1 734 1 775 1 780 2 784 1 793 1 807 1 812 1 825 1 834 1 838 1 847 1 851 1 873 1 25 1 37 1 56 1 65 1 70 1 76 1 89 1 99 1 126 1 134 1 135 1 182 1 196 1 207 1 217 1 221 1 222 1 223 1 225 1 260 1 267 1 279 1 285 1 290 1 296 1 302 1 309 1 331 1 348 1 359 1 367 1 368 1 385 1 404 1 405 1 434 1 436 1 472 1 474 1 538 1 541 1 567 1 568 1 570 1 610 1 649 1 672 1 683 1 692 1 704 1 710 1 711 1 723 1 725 1 744 1 752 1 761 1 762 1 763 1 770 1 800 1 820 1 887 1 901 1 929 1 933 1 937 1 951 1 965 1 912 1 971 1 997 1 1021 1 
1 205 25 1 95 1 105 1 153 1 156 1 168 1 197 1 198 2 201 1 225 1 281 1 285 1 317 1 321 1 334 1 349 1 373 1 378 1 384 1 400 1 444 2 465 1 481 1 487 1 508 1 511 1 526 1 558 1 561 1 565 1 587 1 592 1 626 1 632 1 656 1 657 1 697 1 698 1 718 1 723 1 743 1 756 2 768 1 776 1 809 1 812 1 18 1 38 1 39 1 75 1 81 1 92 1 100 1 104 1 122 1 128 1 135 1 205 1 212 1 218 1 235 1 238 1 257 1 278 1 311 1 314 1 339 1 340 1 348 1 368 1 425 1 457 1 471 1 480 1 495 1 509 1 536 1 538 1 545 1 594 1 598 1 609 1 628 1 631 1 648 1 672 1 728 1 733 1 758 1 765 1 772 1 810 1 825 1 839 1 845 1 847 1 849 1 853 1 861 1 864 1 868 1 870 1 876 1 884 1 912 1 933 1 941 1 955 1 880 1 897 1 900 1 904 1 911 1 948 1 957 1 965 1 985 1 988 1 992 1 999 1 1004 1 1027 1 
1 207 14 2 17 1 23 1 29 1 32 1 68 1 75 2 82 1 108 1 109 1 184 1 199 1 223 1 230 1 241 1 244 1 254 1 306 1 322 2 339 1 341 1 360 1 375 2 425 1 428 1 432 1 433 1 447 1 449 1 469 1 474 1 477 1 483 1 490 1 491 1 506 1 516 1 547 1 551 1 566 1 596 1 642 2 656 1 699 1 700 1 719 1 729 1 756 1 779 1 796 1 802 2 824 2 826 1 859 1 875 1 26 1 31 1 41 1 62 1 83 1 94 1 120 1 136 1 142 1 153 1 186 1 207 1 217 1 234 1 235 1 250 1 277 1 314 1 336 1 352 1 393 1 435 1 445 1 455 1 458 1 466 1 468 1 473 1 488 1 500 1 525 1 530 1 534 1 550 1 553 1 585 1 598 1 602 1 614 1 648 1 657 1 662 1 703 1 710 1 724 1 767 1 775 1 784 1 793 1 800 1 833 1 842 1 861 1 900 1 906 1 911 1 912 1 925 1 973 1 998 1 898 1 901 1 907 1 913 1 971 1 983 1 
1 209 9 1 23 1 34 1 35 1 104 1 112 1 140 1 141 1 159 1 161 1 171 1 196 1 197 1 214 1 221 1 272 1 282 1 285 1 330 1 372 1 383 1 413 1 422 1 444 1 461 1 477 1 488 1 497 1 520 1 548 1 580 1 588 1 595 1 605 1 646 1 647 1 674 2 688 1 707 1 708 1 710 1 718 1 745 1 769 1 786 1 791 1 820 1 852 1 860 1 864 1 873 1 2 1 8 1 27 1 42 1 69 1 72 1 77 1 105 1 106 1 111 1 116 1 131 1 152 1 154 1 180 1 185 1 207 1 213 1 257 1 274 1 275 1 295 1 299 1 307 1 321 1 361 1 396 1 405 1 455 1 536 1 552 1 559 1 560 1 612 1 617 1 618 1 642 1 711 1 719 1 747 1 762 1 804 1 807 1 835 1 838 1 851 1 865 1 892 1 925 1 929 1 956 1 977 1 884 1 945 1 954 1 976 1 1008 1 1015 1 
1 209 7 1 21 1 29 1 33 1 54 1 69 1 85 1 92 1 129 1 150 1 162 1 169 1 174 1 189 1 228 1 230 1 242 1 260 1 264 2 277 1 343 1 358 1 374 1 375 1 404 1 441 1 468 1 474 1 475 1 487 1 530 1 534 1 535 1 536 1 551 1 563 1 580 1 603 1 632 1 644 1 664 1 665 1 676 1 700 1 739 1 754 1 758 1 760 2 804 1 838 1 857 1 859 1 867 1 871 1 1 1 5 1 12 1 23 1 39 1 47 1 62 1 83 1 89 1 102 1 134 1 149 1 153 1 156 1 163 1 176 1 205 1 213 1 391 1 399 1 403 1 410 1 414 1 419 1 464 1 476 1 479 1 549 1 570 1 589 1 592 1 594 1 605 1 609 1 639 1 642 1 651 1 654 1 655 1 657 1 661 1 696 1 705 1 736 1 756 1 769 1 815 1 855 1 872 1 894 1 902 1 921 1 933 1 949 1 965 1 979 1 984 1 997 1 883 1 885 1 891 1 930 1 972 1 973 1 974 1 1001 1 1008 1 
1 210 1 1 26 1 81 1 93 1 156 1 162 1 163 1 164 1 173 2 195 1 198 1 199 1 253 1 259 1 274 1 289 1 356 1 364 1 388 1 400 1 420 1 425 2 441 1 447 1 457 1 459 1 476 1 507 1 530 1 559 1 603 1 610 1 661 2 662 1 678 1 680 1 698 1 708 1 722 1 729 1 739 1 746 1 751 1 765 2 770 1 774 1 782 1 805 1 829 1 840 1 841 1 844 1 853 1 857 1 872 1 10 1 17 1 24 1 25 1 72 1 76 1 97 1 101 1 138 1 142 1 192 1 194 1 214 1 222 1 223 1 244 1 255 1 256 1 266 1 305 1 307 1 320 1 332 1 350 1 357 1 384 1 396 1 462 1 500 1 505 1 515 1 565 1 567 1 590 1 625 1 716 1 724 1 813 1 819 1 824 1 828 1 848 1 895 2 903 1 909 1 923 1 950 1 951 1 973 1 880 1 928 1 982 1 1005 1 1009 1 1016 1 1019 1 1024 1 
1 209 72 1 75 1 82 1 89 1 97 1 104 1 117 2 128 1 143 1 145 1 153 1 156 1 184 1 185 1 221 1 228 1 306 1 317 1 332 1 333 1 340 1 343 1 346 1 369 1 374 1 381 1 435 1 455 1 479 1 502 1 531 1 534 1 550 1 562 1 575 1 586 1 601 1 613 1 639 1 696 1 713 1 771 1 787 1 817 1 835 1 838 1 843 1 9 1 43 1 71 1 77 1 86 1 90 1 135 1 150 1 165 1 191 1 205 1 215 1 216 1 220 1 252 1 301 1 313 1 324 1 371 1 388 1 409 1 420 1 444 1 445 1 471 1 473 1 474 1 483 1 492 1 503 1 505 1 533 1 540 1 561 1 566 1 579 1 587 1 614 1 620 1 637 1 642 1 656 1 707 1 718 1 737 1 754 1 762 1 767 1 822 1 860 1 875 1 879 1 894 1 917 1 926 1 954 1 967 2 970 1 895 1 907 1 960 1 989 1 1002 1 1007 1 1011 1 1018 1 
1 211 26 1 43 1 58 1 84 1 97 1 119 1 134 1 140 1 142 1 164 1 170 1 177 1 213 1 235 1 269 1 315 1 324 1 337 1 392 1 405 1 407 1 421 1 439 1 448 1 471 1 492 1 514 1 537 1 548 1 556 2 561 1 577 1 596 1 599 1 600 1 613 1 622 1 625 1 634 1 636 1 641 1 661 1 671 1 677 1 710 1 711 1 718 1 747 1 792 1 793 1 799 1 820 1 828 1 849 1 853 1 858 1 2 1 13 1 14 1 59 1 63 1 79 1 109 1 118 1 155 1 169 1 179 1 197 1 203 1 217 1 232 1 252 1 290 1 296 1 312 1 318 1 346 1 352 1 353 1 369 1 395 1 397 1 402 1 422 1 427 1 429 1 469 1 485 1 500 1 563 1 589 1 598 1 615 1 703 1 728 1 745 1 748 1 760 1 772 1 837 1 914 1 926 1 933 1 935 1 940 1 941 1 955 1 970 1 971 1 977 1 929 1 953 1 963 1 976 1 997 1 1007 1 1022 1 1024 1 
1 213 16 1 34 1 35 1 54 1 61 1 68 2 90 1 100 1 108 1 134 1 135 1 146 1 150 1 166 1 172 1 182 1 214 1 258 1 283 1 297 1 325 1 330 1 340 1 359 1 363 1 377 1 412 1 440 1 502 1 511 1 514 1 542 1 553 2 632 1 638 1 656 2 658 1 659 1 660 2 670 1 753 1 756 1 774 2 780 1 799 1 808 1 818 2 833 1 848 1 854 1 862 1 27 1 63 1 69 1 103 1 137 1 162 1 163 1 186 1 204 1 269 1 275 1 324 1 382 1 388 1 424 1 427 1 433 1 458 1 471 1 493 1 541 1 543 1 548 1 550 1 551 1 554 1 573 1 574 1 578 1 609 1 610 1 619 1 639 1 646 1 661 1 663 1 666 1 699 1 706 1 709 1 710 1 755 1 760 1 779 1 802 1 809 1 811 1 860 1 900 1 909 1 919 1 920 1 959 1 971 1 893 1 901 1 904 1 930 1 960 1 1004 1 1008 1 1017 1 1023 1 
1 210 47 1 54 1 69 1 88 1 116 1 121 1 151 1 156 1 170 1 210 1 217 1 223 1 236 1 241 1 250 1 295 1 298 1 305 1 308 1 317 1 321 1 324 1 348 1 356 1 370 1 372 1 392 1 397 1 423 1 435 1 445 1 454 1 489 1 495 1 504 1 509 1 511 1 527 1 590 1 602 1 618 1 620 1 637 1 694 1 702 1 707 2 713 1 718 1 719 1 726 1 759 1 804 1 807 1 820 1 828 1 851 1 862 1 872 1 873 1 9 1 13 1 33 1 44 1 51 1 52 1 55 1 83 1 98 1 105 1 125 1 148 1 164 1 212 1 224 1 255 1 281 1 286 1 288 1 291 1 302 1 316 1 323 1 331 1 363 1 384 1 413 1 447 1 460 1 461 1 462 1 471 1 542 1 549 1 568 1 640 1 643 1 655 1 688 1 695 1 704 1 774 1 785 1 803 1 808 1 821 1 850 1 878 1 906 1 923 1 927 1 944 1 959 1 962 1 970 2 977 1 985 1 999 1 891 1 905 1 952 1 1015 1 1021 1 1022 1 
1 209 1 1 7 1 23 1 60 1 74 1 124 1 186 1 197 1 214 1 223 1 230 1 249 1 273 1 285 1 289 1 290 1 301 1 310 1 364 1 428 1 448 1 478 1 482 1 488 1 502 1 526 1 553 1 557 1 581 1 596 1 612 1 613 1 626 1 643 2 687 1 692 1 701 1 709 1 737 1 743 1 748 1 759 1 763 1 778 1 830 1 837 1 846 1 859 1 861 1 870 1 871 1 875 1 19 1 58 1 83 1 108 1 115 1 126 1 131 1 165 1 169 1 237 1 270 1 346 1 361 1 371 1 375 1 378 1 398 1 412 1 417 1 457 1 466 1 467 1 475 1 485 1 489 1 490 1 503 1 509 1 514 1 519 1 531 1 550 1 558 1 622 1 650 1 667 1 690 1 700 1 746 1 769 1 774 1 783 1 803 1 826 1 827 1 873 1 877 1 890 1 900 1 908 1 911 1 913 1 946 1 982 1 986 1 994 1 929 1 941 1 945 1 959 1 962 1 969 1 976 1 993 1 1013 1 1015 1 1023 1 1024 1 
1 210 1 1 4 2 13 1 43 1 61 1 62 1 74 1 81 1 87 1 109 1 116 1 118 1 150 1 179 1 186 1 215 1 224 1 303 1 322 1 361 1 395 1 401 1 406 1 409 1 427 1 459 1 470 1 476 1 482 1 503 1 557 1 563 1 594 1 596 1 602 1 635 1 642 1 668 1 699 1 722 1 733 1 764 2 785 1 819 1 844 1 852 1 856 1 859 1 3 1 16 1 28 1 52 1 95 1 97 1 114 1 124 1 172 1 178 1 197 1 266 1 273 1 284 1 308 1 332 1 342 1 359 1 366 1 372 1 373 1 375 1 381 1 413 1 420 1 439 1 447 1 458 1 471 1 486 1 493 1 497 1 502 1 517 1 546 1 577 1 615 1 619 1 624 1 626 1 640 1 656 1 671 1 686 1 710 1 750 1 796 1 846 1 853 1 878 1 887 1 891 1 924 1 944 1 989 1 999 1 892 1 894 1 905 1 911 1 979 1 981 1 990 1 1005 1 1013 1 
1 215 9 1 26 1 36 1 40 1 132 1 202 1 205 1 207 1 221 1 223 1 261 1 268 1 273 1 274 1 293 1 326 1 342 1 348 1 360 1 370 1 371 1 374 1 383 1 398 1 406 1 407 1 438 2 440 1 450 1 453 1 501 1 511 1 520 1 526 2 534 1 544 2 559 1 565 1 589 1 620 1 640 1 658 1 666 1 669 1 686 1 694 1 727 1 735 1 757 1 760 1 783 1 788 1 795 1 812 1 843 1 865 1 1 1 60 1 61 1 71 1 79 1 85 1 104 1 107 1 183 1 200 1 220 1 232 1 256 1 269 1 278 1 280 1 301 1 309 1 310 1 313 1 318 1 331 1 359 1 378 1 394 1 410 1 464 1 475 1 542 1 543 1 566 1 570 1 572 1 573 1 588 1 592 1 595 1 622 1 623 1 644 1 675 1 721 1 764 1 767 1 849 1 850 1 890 1 922 1 940 1 982 1 905 1 921 1 929 1 941 1 946 1 952 1 953 1 1016 1 1022 1 
1 208 14 1 64 1 87 1 102 1 115 1 118 1 123 1 134 1 135 2 177 1 179 1 183 1 213 1 223 2 232 1 236 1 239 1 257 1 260 1 263 1 280 1 289 1 294 1 304 1 324 1 336 1 348 1 381 1 407 1 431 1 469 1 503 1 504 1 513 1 527 1 533 1 542 1 545 1 548 1 571 1 574 1 618 1 630 1 639 1 659 1 679 1 688 1 707 1 710 1 721 1 735 1 762 1 766 1 800 1 803 1 837 1 840 1 861 2 867 1 874 1 885 1 26 1 41 1 42 1 44 1 79 1 94 1 104 1 105 1 127 1 130 1 138 1 145 1 150 1 160 1 195 1 199 1 200 1 206 1 212 1 218 1 258 1 313 1 322 1 346 1 359 1 414 1 493 1 518 1 530 1 532 1 544 1 550 1 553 1 568 1 601 1 677 1 690 1 720 1 745 1 805 1 841 1 854 1 868 1 900 1 923 1 992 1 895 1 911 1 985 1 1005 1 1019 1 1023 1 
1 211 6 1 34 1 88 1 91 1 96 1 98 2 103 1 104 1 145 1 162 1 169 1 181 1 193 1 256 1 272 1 282 1 305 1 322 1 344 1 379 1 397 1 410 1 427 1 434 1 446 1 511 2 555 1 561 1 564 1 568 1 571 1 587 1 611 2 619 1 628 1 642 1 660 1 668 1 669 1 674 1 679 1 690 1 707 1 779 1 782 1 797 1 805 1 809 1 812 1 813 1 819 1 836 1 857 1 9 1 17 1 41 1 82 1 117 1 119 1 141 1 142 1 153 1 187 1 189 1 199 1 201 1 202 1 246 1 274 1 286 1 295 1 351 1 366 1 400 1 401 1 409 1 432 1 462 1 464 1 468 1 483 1 493 1 544 1 579 1 620 1 621 1 687 1 697 1 733 1 746 1 748 1 793 1 804 1 838 1 901 1 921 2 938 1 945 1 958 1 967 1 974 2 982 1 983 1 1000 1 1001 1 926 1 940 1 960 1 975 1 987 1 996 1 997 1 1010 1 
1 210 14 1 21 1 86 1 98 1 127 1 129 1 137 1 138 1 167 1 170 1 185 2 210 1 220 2 226 1 247 1 331 1 339 1 341 1 351 1 355 1 365 1 388 1 404 1 425 1 430 1 432 1 459 1 464 1 468 1 481 1 495 1 504 1 507 2 534 1 537 1 552 1 556 1 557 1 601 2 618 1 624 1 659 1 668 1 673 1 713 1 748 2 752 1 761 1 793 1 805 1 845 2 3 1 40 1 55 1 73 1 94 1 99 1 109 1 124 1 202 1 245 1 348 1 358 1 360 1 452 1 453 1 458 1 461 1 501 1 510 1 522 1 529 1 560 1 570 1 573 1 592 1 594 1 636 1 640 1 662 1 691 1 726 1 743 1 755 1 769 1 775 1 778 1 815 1 852 1 894 1 927 1 975 1 999 1 895 1 900 1 957 1 965 1 969 1 984 1 994 1 1009 1 
1 214 31 1 36 1 46 1 56 1 62 1 70 2 84 1 87 1 105 1 124 1 134 1 161 1 188 1 189 1 196 1 209 1 275 1 305 1 309 1 323 1 331 1 332 1 333 1 336 1 339 1 405 1 407 1 425 1 460 1 471 1 489 1 490 2 496 1 498 1 500 2 512 1 519 1 520 1 526 1 577 1 580 1 591 1 600 1 608 1 630 1 670 1 673 1 708 1 755 1 767 1 776 1 835 1 884 1 886 1 3 1 6 1 15 1 43 1 121 1 122 1 123 1 127 1 148 1 164 1 174 1 203 1 212 1 219 1 224 1 226 1 229 1 233 1 248 1 261 1 271 1 280 1 288 1 337 1 355 1 397 1 430 1 437 1 441 1 491 1 493 1 494 1 508 1 517 1 535 1 561 1 567 1 586 1 602 1 610 1 643 1 647 1 649 1 654 1 676 1 743 1 791 1 802 1 833 1 859 1 924 1 926 1 927 1 939 1 941 2 948 1 955 1 961 1 969 1 988 1 991 1 993 1 901 1 905 1 912 1 925 1 930 1 952 1 971 1 978 1 986 1 997 1 1002 1 1010 1 1015 1 1024 1 
1 214 10 1 54 1 59 1 66 2 76 1 85 1 92 1 97 1 100 1 145 1 168 1 181 1 195 1 201 1 223 1 235 1 248 1 272 1 296 1 318 1 418 1 426 1 444 1 456 1 477 1 481 1 493 1 496 1 526 1 553 1 574 1 588 1 589 1 599 1 619 1 628 1 643 1 644 1 669 1 712 1 717 2 731 1 739 1 769 1 791 1 798 1 807 1 858 1 885 1 3 1 11 1 34 1 36 1 41 1 47 1 117 1 139 1 161 1 231 1 265 1 274 1 310 1 335 1 359 1 364 1 370 1 381 1 388 1 395 1 397 1 413 1 438 1 454 1 463 1 476 1 480 1 503 1 523 1 590 1 593 1 601 1 605 1 607 1 614 1 615 1 621 1 632 1 681 1 705 1 773 1 797 1 803 1 817 1 842 1 878 1 883 1 923 1 928 2 959 2 977 1 995 1 924 1 945 1 956 1 973 1 994 1 999 1 1003 1 1015 1 1020 1 
1 207 1 1 45 1 48 1 55 1 63 1 95 1 104 1 117 1 194 2 205 1 228 1 229 1 264 1 346 1 356 1 402 1 404 1 467 1 525 1 543 1 551 1 609 1 626 1 643 1 651 1 658 1 675 2 677 1 679 1 685 1 710 1 715 1 716 1 756 1 778 1 784 1 798 1 802 1 806 1 815 1 833 1 840 1 863 1 872 1 877 1 9 1 21 1 43 1 51 1 74 1 76 1 77 1 85 1 88 1 125 1 163 1 186 1 187 1 238 1 239 1 256 1 296 1 308 1 334 1 348 1 353 1 364 1 366 1 378 1 398 1 400 1 405 1 419 1 427 1 472 1 494 1 508 1 549 1 563 1 574 1 578 1 604 1 619 1 622 1 630 1 637 1 639 1 673 1 688 1 720 1 742 1 763 1 769 1 809 1 818 1 823 1 842 1 885 1 895 1 905 1 908 1 915 1 934 1 950 1 964 1 924 1 953 1 979 1 988 1 1000 1 1001 1 1012 1 1019 1 
1 214 2 1 40 1 69 1 73 1 74 1 83 1 98 1 105 1 119 2 128 1 132 1 141 1 170 1 181 1 184 1 189 1 205 2 209 1 223 2 291 1 295 1 301 1 323 1 363 1 378 1 382 1 385 1 398 1 413 1 417 1 463 1 484 1 517 1 519 1 531 2 536 1 539 1 546 1 581 1 602 1 622 1 631 1 644 1 713 1 722 1 749 1 763 1 765 1 766 1 772 1 781 1 786 1 794 1 804 1 851 1 38 1 57 1 68 1 96 1 145 1 153 1 157 1 158 1 200 1 203 1 206 1 244 1 250 1 272 1 283 1 288 1 306 1 312 1 326 1 334 1 360 1 366 1 381 1 383 1 393 1 421 1 428 1 431 1 436 1 477 1 559 1 564 1 596 1 598 1 618 1 624 1 701 1 719 1 752 1 755 1 831 1 882 1 893 1 893 1 896 1 920 1 924 1 938 1 946 1 970 1 975 1 983 1 986 1 999 1 904 1 952 1 959 1 1016 1 
1 206 28 1 46 1 89 2 92 1 94 1 96 1 115 1 138 2 148 1 189 1 218 1 254 1 269 1 293 1 298 1 313 2 337 1 339 1 344 1 380 1 387 1 417 1 434 1 440 1 457 2 471 1 490 1 499 1 505 1 522 1 554 1 568 1 577 1 579 1 582 1 592 1 595 1 628 1 646 1 665 1 667 1 766 1 795 1 804 1 827 1 856 1 859 1 865 1 878 1 880 1 889 1 20 1 22 1 23 1 45 1 70 1 90 1 103 1 116 1 140 1 144 1 165 1 172 1 178 1 191 1 197 1 221 1 292 1 355 1 377 1 437 1 441 1 466 1 470 1 486 1 506 1 535 1 543 1 596 1 612 1 624 1 635 1 637 1 652 1 671 1 694 1 722 1 724 1 735 1 740 1 772 1 774 1 775 1 810 1 815 1 839 1 843 1 864 1 885 1 898 1 909 1 934 1 937 1 943 1 952 1 972 1 991 1 999 1 906 1 912 1 959 1 973 1 989 1 1016 1 1023 1 
1 208 10 1 26 1 31 1 45 1 145 1 146 1 157 1 169 1 172 1 174 1 193 1 206 1 219 1 238 1 240 1 251 1 257 1 290 1 297 1 315 2 362 1 396 1 397 1 420 1 454 1 463 1 474 1 479 1 497 1 509 1 512 1 517 1 532 1 556 2 571 1 582 1 584 1 590 2 602 1 606 2 667 1 677 1 699 1 718 1 776 1 783 1 802 1 835 1 870 1 879 2 892 1 7 1 12 1 15 1 21 1 49 1 59 1 64 1 86 1 95 1 166 1 170 1 201 1 209 1 223 1 230 1 236 1 246 1 247 1 293 1 294 1 345 1 352 1 360 1 375 1 412 1 422 1 453 1 467 1 485 1 494 1 522 1 528 1 529 1 586 1 603 1 605 1 620 1 627 1 630 1 643 1 650 1 674 1 702 1 716 1 727 1 737 1 739 1 754 1 782 1 801 1 818 1 819 1 834 1 857 1 880 1 887 1 889 1 903 1 931 1 949 1 966 1 972 1 993 1 897 1 900 1 901 1 906 1 915 1 921 1 925 1 975 1 984 1 1000 1 1017 1 
1 214 2 1 14 1 25 1 28 1 29 1 32 1 47 1 48 1 94 1 96 1 144 1 162 1 179 1 184 1 198 1 207 1 230 2 232 1 246 1 251 1 257 1 276 1 300 1 335 1 368 1 373 1 376 1 402 1 457 1 466 1 482 1 483 1 499 1 500 1 529 1 560 1 562 1 577 1 585 1 594 1 595 1 608 1 644 1 670 1 674 1 690 1 692 1 700 1 702 1 717 1 735 1 759 2 796 1 797 1 800 1 803 1 825 1 840 1 844 1 861 1 866 2 893 1 10 1 35 1 36 1 65 1 73 1 95 1 150 1 205 1 216 1 218 1 235 1 248 1 260 1 290 1 294 1 297 1 315 1 320 1 340 1 363 1 367 1 391 1 432 1 436 1 443 1 447 1 448 1 488 1 490 1 495 1 507 1 522 1 554 1 578 1 583 1 619 1 623 1 627 1 634 1 641 1 646 1 653 1 689 1 709 1 711 1 724 1 768 1 822 1 824 1 835 1 867 1 871 1 904 1 987 1 898 1 903 1 916 1 918 1 1002 1 1006 1 1013 1 1016 1 1023 1 
1 208 4 1 16 1 29 1 43 1 55 1 65 1 72 1 128 1 142 1 169 1 185 1 196 1 199 2 208 1 211 1 230 1 241 1 278 1 279 1 319 1 321 1 326 1 327 1 335 1 347 1 359 1 383 1 385 1 410 1 431 1 445 1 459 2 466 1 476 1 485 1 536 1 545 1 558 1 572 1 580 1 589 1 590 1 595 1 614 1 626 1 649 1 658 1 659 1 682 1 699 1 708 1 718 1 722 1 746 1 768 1 779 1 839 1 843 1 853 1 868 1 2 1 7 1 20 1 71 1 99 1 141 1 168 1 216 1 254 1 270 1 273 1 289 1 313 1 317 1 325 1 334 1 388 1 411 1 412 1 423 1 439 1 484 1 561 1 577 1 583 1 617 1 623 1 631 1 660 1 707 1 712 1 720 1 772 1 794 1 848 1 849 1 875 1 895 1 909 1 929 1 934 1 940 1 949 1 971 1 997 1 916 1 952 1 1002 1 1004 1 1007 1 1027 1 
1 208 25 1 35 2 56 1 98 1 126 1 132 1 145 2 197 1 220 1 264 1 272 1 282 1 339 1 342 1 352 1 356 1 375 1 413 1 427 1 448 1 451 1 454 1 458 1 459 1 477 1 478 1 498 1 499 1 501 1 502 1 554 1 579 1 589 1 630 1 639 1 642 1 652 1 659 1 681 1 694 1 698 1 729 1 733 1 736 1 738 1 746 2 808 1 820 1 842 2 894 1 27 1 59 1 64 1 66 1 78 1 80 1 141 1 162 1 165 1 176 1 181 1 204 1 210 1 213 1 222 1 245 1 279 1 303 1 346 1 364 1 365 1 393 1 444 1 456 1 470 1 486 1 493 1 537 1 567 1 577 1 620 1 628 1 643 1 663 1 671 1 684 1 691 1 744 1 749 1 802 1 804 1 812 1 839 1 848 1 876 1 896 1 901 1 910 1 946 1 975 1 914 1 915 1 940 1 947 1 957 1 992 1 994 1 996 1 1006 1 1008 1 1011 1 
1 208 79 1 152 1 165 1 179 1 181 1 187 1 189 1 209 1 210 1 215 1 218 1 280 1 294 1 303 1 328 1 337 1 362 1 371 1 388 1 391 1 395 1 400 1 405 1 417 1 420 1 436 1 443 1 455 1 488 1 497 1 506 1 522 1 541 1 547 1 570 1 598 1 634 1 657 1 664 1 672 1 673 1 674 1 684 1 687 1 713 1 731 1 760 1 773 1 804 1 807 1 816 1 21 1 49 1 59 1 94 1 109 1 117 1 142 1 150 1 162 1 166 1 226 1 227 1 276 1 297 1 323 1 445 1 454 1 456 1 474 1 487 1 580 1 581 1 589 1 599 1 611 1 620 1 650 1 682 1 693 1 718 1 729 1 744 1 766 1 768 1 775 1 786 1 800 1 818 1 823 1 837 1 849 1 859 1 863 1 911 1 955 1 972 1 974 1 986 1 987 2 907 1 944 1 964 1 973 1 1013 1 
1 208 14 1 27 1 41 1 42 1 102 1 155 1 298 1 311 1 355 1 383 2 387 1 390 1 405 2 413 1 416 1 430 1 450 1 479 1 483 1 485 1 495 1 497 1 522 1 543 1 552 1 554 1 586 1 603 1 605 1 611 2 646 1 662 1 672 1 675 1 678 1 726 1 750 1 763 1 769 1 811 1 841 2 876 1 882 1 884 1 887 1 32 1 53 1 55 1 104 1 105 1 111 1 152 1 157 1 182 1 210 1 224 1 235 1 307 1 343 1 363 1 393 1 432 1 453 1 474 1 478 1 480 1 503 1 517 1 542 1 544 1 550 1 616 1 636 1 645 1 655 1 671 1 695 1 720 1 748 1 751 1 760 1 778 1 808 1 826 1 832 1 847 1 849 1 870 1 872 1 875 1 889 1 895 1 908 1 913 1 944 2 941 1 951 1 956 1 973 1 976 1 1002 1 1024 1 
1 212 5 1 26 1 47 1 62 1 80 1 83 1 86 1 97 1 142 1 150 1 151 1 194 1 207 2 255 1 263 2 269 1 279 1 327 1 339 1 372 1 378 1 381 1 395 1 412 1 430 1 446 1 457 2 459 1 484 1 498 1 523 1 547 1 572 1 587 1 603 1 619 1 650 1 656 1 662 1 668 1 695 1 739 1 767 1 780 1 794 1 807 1 825 1 846 1 872 1 874 1 888 1 898 1 32 1 104 1 109 1 140 1 226 1 262 1 270 1 275 1 278 1 303 1 346 1 347 1 374 1 387 1 401 1 405 1 432 1 444 1 452 1 453 1 487 1 516 1 549 1 553 1 560 1 576 1 580 1 610 1 629 1 649 1 672 1 677 1 701 1 703 1 710 1 716 1 717 1 724 1 763 1 788 1 820 1 831 1 868 1 876 1 882 1 890 1 895 1 914 1 915 1 995 1 903 1 913 1 929 1 931 1 970 1 988 1 992 1 1002 1 1016 1 1025 1 
1 212 37 1 43 1 46 1 73 1 85 1 105 2 149 1 155 1 156 1 176 1 201 1 205 1 219 1 223 1 230 1 328 1 330 1 387 1 392 1 393 1 404 1 417 1 435 1 438 1 445 1 465 1 502 1 510 1 521 1 522 2 543 1 558 1 573 1 656 1 674 1 710 1 741 1 762 1 770 1 785 1 813 1 818 1 829 1 842 1 869 1 878 1 8 1 24 1 35 1 50 1 59 1 78 1 101 1 103 1 119 1 147 1 151 1 171 1 173 1 189 1 200 1 244 1 248 1 275 1 311 1 317 1 327 1 336 1 340 1 383 1 386 1 396 1 411 1 419 1 424 1 434 1 442 1 462 1 469 1 476 1 481 1 490 1 552 1 596 1 640 1 647 1 652 1 653 1 671 1 684 1 695 1 702 1 723 1 731 1 755 1 758 1 767 1 776 1 801 1 802 1 808 1 832 1 852 1 917 1 922 1 968 2 977 1 936 1 939 1 955 1 973 1 975 1 999 1 1003 1 1013 1 1014 1 1025 1 
1 216 4 1 20 1 54 1 58 1 149 1 164 1 170 2 183 1 214 1 218 1 250 1 264 1 282 1 289 1 290 1 307 1 309 1 313 1 348 1 361 2 375 1 378 1 387 1 414 1 428 1 451 1 459 1 468 1 486 1 488 1 497 1 498 1 507 1 532 1 543 1 548 1 554 2 556 1 560 1 632 1 633 1 642 1 644 2 649 2 663 1 676 1 687 1 704 1 707 1 764 1 771 1 811 1 812 1 813 1 819 1 849 1 857 1 879 1 895 1 16 1 40 1 78 1 81 1 97 1 127 1 145 1 159 1 162 1 186 1 208 1 216 1 238 1 243 1 254 1 296 1 315 1 337 1 381 1 389 1 407 1 432 1 434 1 472 1 495 1 521 1 529 1 551 1 557 1 595 1 601 1 603 1 606 1 619 1 636 1 666 1 692 1 696 1 697 1 748 1 780 1 829 1 840 1 851 1 852 1 859 1 896 1 901 1 903 1 903 1 913 1 915 1 927 1 930 2 953 1 974 1 983 1 987 1 961 1 965 1 979 1 994 1 1003 1 1005 1 1014 1 1017 1 1024 1 
1 209 22 1 31 1 32 1 34 1 54 1 60 1 89 1 92 1 104 1 129 1 161 1 183 1 189 2 204 1 225 1 227 1 241 1 256 1 264 1 276 1 282 1 288 1 297 1 304 1 313 1 349 1 363 1 383 1 462 1 468 1 503 1 504 1 508 1 512 1 528 1 556 1 560 1 604 1 632 1 644 1 649 1 664 1 678 1 696 1 703 1 711 1 723 2 735 1 739 1 751 1 769 1 773 1 789 1 826 1 838 1 848 1 850 1 857 1 868 1 896 1 9 1 57 1 63 1 98 1 114 1 132 1 202 1 251 1 253 1 269 1 340 1 359 1 369 1 378 1 437 1 457 1 464 1 561 1 573 1 597 1 616 1 620 1 662 1 663 1 668 1 683 1 700 1 725 1 728 1 743 1 758 1 792 1 799 1 820 1 830 1 873 1 875 1 882 1 893 1 907 1 912 1 921 1 929 1 939 1 969 1 982 1 986 1 987 1 988 1 991 1 918 1 977 1 994 1 999 1 1000 1 1003 1 1006 1 1018 1 1021 1 
1 209 5 1 15 1 82 1 87 1 112 1 114 1 115 1 133 1 135 1 139 1 143 1 174 1 196 1 202 1 209 1 240 1 245 1 261 1 267 1 282 1 301 1 313 1 314 1 315 1 324 1 325 1 352 1 373 1 402 1 426 1 456 1 468 1 488 1 492 1 537 1 546 1 548 1 575 2 592 1 595 1 597 1 599 1 620 1 645 1 667 1 719 1 757 1 762 1 797 1 832 1 838 1 841 1 859 1 872 1 892 1 16 1 117 1 145 1 194 1 219 1 221 1 291 1 354 1 372 1 406 1 407 1 420 1 434 1 443 1 446 1 490 1 557 1 561 1 623 1 642 1 644 1 658 1 665 1 676 1 730 1 751 1 771 1 776 1 827 1 842 1 850 1 883 1 885 1 886 1 890 1 943 1 979 1 983 1 987 1 988 1 1001 1 911 1 940 1 945 1 965 1 1005 1 1010 1 1023 1 
1 206 15 1 34 1 68 1 71 1 133 1 145 2 157 1 163 1 238 1 246 1 280 1 309 1 312 1 328 1 351 1 356 1 370 1 376 1 395 1 396 1 414 1 488 1 506 1 517 1 571 1 573 1 593 1 601 1 607 1 612 1 638 1 650 1 672 1 681 1 703 1 714 1 755 1 760 1 784 1 788 2 820 1 821 1 825 1 834 1 876 1 883 1 3 1 4 1 30 1 81 1 88 1 91 1 106 1 155 1 170 1 204 1 291 1 326 1 344 1 346 1 375 1 380 1 397 1 422 1 429 1 440 1 451 1 479 1 485 1 515 1 524 1 535 1 557 1 569 1 587 1 598 1 610 1 625 1 627 1 648 1 675 1 696 1 709 1 748 1 759 1 762 1 763 1 777 1 794 1 848 1 852 1 854 1 894 1 895 1 919 1 921 1 927 1 935 1 957 1 985 1 991 2 992 1 911 1 930 1 
1 212 9 1 23 1 36 1 50 1 53 1 77 2 108 1 121 1 126 1 138 1 140 1 150 1 153 1 195 1 200 1 201 1 223 1 234 1 237 1 240 1 247 1 248 1 274 1 289 1 318 1 323 1 341 1 345 1 355 1 362 1 381 1 393 1 409 1 428 1 443 1 450 1 489 1 494 1 499 1 542 1 560 1 617 1 629 1 638 1 658 1 691 1 700 1 725 2 758 1 759 1 766 1 788 1 797 1 798 1 799 1 800 2 811 1 827 2 852 1 860 1 868 1 904 1 3 1 67 1 74 1 96 1 137 1 147 1 165 1 166 1 178 1 202 1 204 1 233 1 235 1 244 1 257 1 280 1 298 1 311 1 330 1 363 1 373 1 376 1 379 1 386 1 408 1 414 1 444 1 473 1 497 1 505 1 506 1 528 1 546 1 548 1 551 1 556 1 581 1 603 1 625 1 647 1 664 1 699 1 707 1 732 1 742 1 743 1 777 1 782 1 791 1 804 1 807 1 812 1 821 1 834 1 853 1 871 1 876 1 880 1 899 1 951 2 964 1 966 1 922 1 924 1 954 1 969 1 980 1 981 1 997 1 1000 1 1009 1 1016 1 1017 1 1026 1 
1 212 12 1 48 1 96 1 111 1 113 1 134 1 137 1 149 1 208 1 224 1 227 1 239 1 368 1 383 1 388 1 419 1 450 1 454 1 464 1 465 1 466 1 502 1 508 1 511 1 542 1 554 1 559 1 588 1 590 1 601 1 628 1 629 1 639 2 659 2 682 1 687 1 688 1 697 1 753 1 772 1 788 1 801 1 803 2 818 1 828 1 838 1 841 1 846 1 852 2 884 1 892 1 900 1 20 1 31 1 41 1 69 1 74 1 81 1 97 1 98 1 102 1 116 1 167 1 175 1 178 1 179 1 189 1 192 1 202 1 248 1 274 1 276 1 277 1 301 1 302 1 324 1 329 1 330 1 378 1 379 1 385 1 391 1 427 1 435 1 461 1 469 1 482 1 510 1 531 1 547 1 549 1 564 1 572 1 575 1 623 1 624 1 626 1 654 1 692 1 710 1 728 1 794 1 800 1 819 1 855 1 870 1 916 1 924 1 932 1 956 1 961 1 966 1 983 1 915 1 937 1 939 1 940 1 1000 1 1005 1 1024 1 
1 209 9 1 29 1 33 1 51 1 134 1 144 1 155 1 159 1 181 1 185 1 206 1 222 1 239 1 246 1 248 1 249 1 251 1 266 1 272 1 283 1 285 1 288 1 296 1 303 1 306 1 323 1 330 1 332 1 351 1 366 1 384 1 403 2 446 1 448 1 454 1 494 1 498 1 499 1 509 1 549 1 555 1 572 1 577 1 583 2 626 1 642 1 645 1 651 1 658 1 678 1 685 1 721 1 754 1 756 1 780 1 785 1 807 1 819 2 828 1 830 2 852 1 856 1 879 1 882 1 894 1 897 1 8 1 13 1 46 1 80 1 82 1 86 1 98 1 118 1 138 1 143 1 214 1 255 1 289 1 297 1 301 1 310 1 318 1 341 1 358 1 373 1 383 1 432 1 434 1 463 1 502 1 503 1 511 1 537 1 551 1 575 1 576 1 596 1 603 1 604 1 624 1 647 1 705 1 713 1 728 1 740 1 783 1 842 1 845 1 871 1 915 1 927 1 930 1 945 1 952 1 968 1 972 1 994 1 917 1 954 1 984 1 1000 1 1011 1 
1 213 21 1 23 1 34 2 37 1 62 1 65 1 73 2 94 1 99 1 102 1 112 1 158 1 162 1 189 1 222 1 244 1 254 1 265 1 287 1 308 2 336 1 339 1 364 1 381 1 401 1 421 1 433 1 440 1 442 1 483 1 503 1 506 1 507 1 539 1 540 1 547 1 576 1 577 1 583 1 594 1 610 1 614 1 638 1 644 1 658 1 686 1 693 2 699 1 726 1 773 2 788 1 834 1 870 1 898 1 77 1 91 1 104 1 212 1 219 1 223 1 249 1 253 1 255 1 268 1 273 1 288 1 290 1 371 1 403 1 417 1 419 1 422 1 424 1 436 1 444 1 453 1 457 1 468 1 477 1 497 1 513 1 519 1 522 1 543 1 553 1 560 1 561 1 618 1 625 1 628 1 651 1 653 1 669 1 674 1 751 1 782 1 808 1 821 1 828 1 832 1 835 1 858 1 912 1 951 2 960 1 970 1 982 1 1001 1 930 1 962 1 974 1 978 1 988 1 1016 1 1027 1 
1 213 7 1 12 1 29 1 62 1 70 1 126 1 198 1 202 1 209 1 226 1 237 1 240 1 315 1 335 1 352 1 370 1 379 1 395 1 416 1 430 1 457 1 458 1 473 1 523 1 526 1 528 1 538 1 551 1 559 1 569 1 577 1 590 1 598 1 624 1 629 1 631 1 642 1 648 1 658 1 660 1 695 1 701 1 702 1 707 1 717 1 748 1 760 1 784 1 793 1 802 1 806 1 824 1 841 1 845 1 848 1 852 1 859 1 865 1 876 1 884 1 899 1 6 1 8 1 43 1 52 1 104 1 118 1 183 1 191 1 229 1 231 1 256 1 265 1 286 1 287 1 291 1 292 1 313 1 317 1 331 1 356 1 389 1 391 1 392 1 393 1 396 1 428 1 439 1 462 1 478 1 488 1 496 1 497 1 506 1 527 1 539 1 545 1 558 1 575 1 643 1 649 1 766 1 805 1 815 1 816 1 826 1 828 1 831 1 875 1 885 1 887 1 905 1 906 1 922 1 946 1 963 1 970 1 918 1 942 1 977 1 980 1 981 1 982 1 1002 1 1007 1 1011 1 1022 1 1023 1 
1 214 3 1 13 1 43 1 94 1 141 1 143 1 157 1 171 1 182 2 185 1 194 1 196 1 202 1 224 1 238 1 240 1 252 1 258 1 282 1 291 1 294 1 304 1 316 1 325 1 326 1 343 1 347 1 352 1 371 1 374 1 396 1 398 1 400 1 411 1 412 1 419 1 437 1 532 1 534 1 596 1 598 2 630 1 672 2 689 1 708 1 721 1 728 1 750 2 784 1 864 1 875 1 876 1 904 1 910 1 19 1 53 1 61 1 71 1 84 1 85 1 112 1 124 1 144 1 151 1 155 1 175 1 206 1 218 1 220 1 251 1 254 1 261 1 265 1 272 1 275 1 280 1 315 1 319 1 320 1 340 1 351 1 402 1 418 1 431 1 464 1 475 1 499 1 505 1 513 1 574 1 592 1 611 1 617 1 619 1 659 1 732 1 755 1 760 1 766 1 770 1 779 1 790 1 845 1 874 1 890 1 894 1 916 1 944 1 913 1 926 1 988 1 1008 1 1009 1 1011 1 1016 1 
1 208 22 1 90 1 160 1 194 1 196 1 197 1 209 1 215 1 221 1 243 2 249 1 273 1 283 1 320 1 357 1 375 1 426 1 427 2 440 1 442 1 458 2 472 1 475 1 479 1 545 1 558 1 581 1 591 1 635 1 636 1 644 1 648 1 663 1 672 1 686 1 699 1 714 2 772 1 812 1 870 1 884 1 900 1 903 1 2 1 47 1 60 1 61 1 70 1 104 1 122 1 149 1 183 1 193 1 213 1 291 1 296 1 345 1 377 1 433 1 444 1 471 1 495 1 514 1 527 1 553 1 575 1 598 1 603 1 612 1 645 1 646 1 659 1 665 1 666 1 667 1 668 1 701 1 731 1 753 1 783 1 791 1 808 1 810 1 821 1 830 1 840 1 864 1 876 1 901 1 912 1 941 1 973 1 977 1 981 1 983 1 986 1 995 1 971 1 978 1 982 1 985 1 1014 1 1016 1 1024 1 1026 1 1027 1 
1 213 33 1 64 1 72 1 76 1 132 1 134 1 146 1 158 1 159 1 179 1 183 1 195 1 207 1 227 1 240 1 254 1 292 1 299 1 303 1 334 1 350 1 361 1 395 1 442 1 452 1 485 1 538 1 544 1 550 1 590 1 609 1 623 1 648 1 649 2 654 1 670 1 679 2 680 1 695 1 723 1 742 1 752 1 778 1 802 1 804 1 815 1 822 1 831 1 837 1 853 1 881 1 901 1 5 1 25 1 42 1 73 1 184 1 198 1 200 1 212 1 229 1 253 1 263 1 270 1 279 1 313 1 322 1 344 1 412 1 436 1 440 1 492 1 503 1 516 1 533 1 547 1 576 1 586 1 599 1 630 1 631 1 633 1 641 1 664 1 666 1 671 1 687 1 716 1 730 1 740 1 750 1 759 1 776 1 800 1 819 1 841 1 856 1 861 1 871 1 898 1 918 1 935 1 981 1 960 1 961 1 965 1 1006 1 1011 1 1013 1 1014 1 1017 1 1024 1 
1 210 22 1 53 1 54 1 64 1 81 1 151 1 154 1 156 1 167 1 177 1 194 1 221 1 256 1 259 1 290 1 319 1 322 1 334 1 337 1 338 1 357 1 378 2 389 1 398 2 407 1 413 1 485 1 488 1 493 1 498 1 509 1 542 1 547 1 568 1 589 1 597 1 611 1 637 1 651 1 653 1 691 1 698 1 758 1 773 1 775 1 783 1 790 1 808 1 843 1 873 1 892 1 901 1 903 1 909 1 19 1 20 1 30 1 99 1 112 1 132 1 168 1 175 1 198 1 207 1 208 1 232 1 236 1 263 1 269 1 329 1 382 1 397 1 411 1 427 1 431 1 444 1 467 1 479 1 508 1 550 1 561 1 565 1 571 1 591 1 595 1 609 1 617 1 635 1 644 1 689 1 693 1 738 1 743 1 788 1 797 1 802 1 820 1 854 1 863 1 865 1 895 1 898 1 908 1 953 1 954 1 974 1 955 1 956 1 977 1 997 1 1005 1 1014 1 
1 211 17 1 63 1 104 1 152 2 165 2 185 2 216 1 219 1 229 1 235 1 238 1 249 1 286 1 292 1 298 1 300 1 302 1 319 1 326 1 327 1 335 1 342 1 402 1 416 1 418 1 427 1 436 1 463 1 468 1 471 2 474 1 487 1 490 1 553 1 562 1 573 1 576 1 578 1 605 1 617 1 637 1 645 1 655 1 671 1 676 1 737 1 738 1 752 1 753 1 781 1 791 1 828 1 837 1 850 1 908 1 912 1 60 1 70 1 71 1 74 1 95 1 106 1 130 1 170 1 222 1 228 1 244 1 255 1 272 1 279 1 318 1 333 1 334 1 341 1 348 1 376 1 387 1 426 1 455 1 529 1 542 1 550 1 551 1 567 1 600 1 601 1 606 1 613 1 638 1 650 1 682 1 683 1 692 1 700 1 727 1 739 1 770 1 835 1 844 1 872 1 896 1 897 1 947 1 952 1 955 1 962 1 981 2 999 2 922 1 967 1 975 1 988 1 989 1 1002 1 1008 1 1009 1 
1 212 1 1 23 1 36 1 55 1 88 1 95 1 109 1 113 1 151 1 155 1 158 1 222 1 244 1 245 1 246 1 253 1 259 1 292 1 319 1 345 1 360 1 363 1 390 1 447 1 463 1 474 1 517 2 548 1 550 1 559 1 620 1 636 1 646 1 678 1 680 1 699 1 714 1 722 1 737 1 779 2 799 1 820 1 850 1 880 1 902 1 11 1 22 1 24 1 52 1 57 1 58 1 111 1 149 1 150 1 177 1 178 1 234 1 250 1 282 1 288 1 293 1 304 1 329 1 334 1 356 1 392 1 400 1 403 1 406 1 414 1 450 1 452 1 471 1 526 1 541 1 591 1 602 1 609 1 612 1 624 1 628 1 635 1 638 1 647 1 651 1 656 1 658 1 668 1 675 1 691 1 716 1 721 1 772 1 796 1 840 1 848 1 863 1 864 1 865 1 868 1 909 1 939 1 995 1 943 1 987 1 1012 1 1014 1 1022 1 1024 1 
1 206 15 1 36 1 39 1 56 1 64 1 74 1 133 1 139 1 166 1 190 2 207 1 211 1 220 1 263 1 292 1 298 1 299 1 300 1 303 1 306 1 342 2 353 1 356 1 357 1 372 1 385 1 398 2 422 1 429 1 448 1 458 1 483 1 484 1 511 1 599 1 602 1 610 1 622 1 638 1 659 1 670 1 679 1 701 1 706 1 712 1 755 1 764 1 785 1 819 1 822 1 829 1 853 1 855 1 865 1 866 1 867 1 914 1 20 1 31 1 51 1 63 1 73 1 91 1 93 1 116 1 127 1 129 1 197 1 201 1 221 1 274 1 275 1 294 1 301 1 313 1 407 1 441 1 451 1 464 1 481 1 505 1 508 1 514 1 516 1 531 1 546 1 548 1 555 1 557 1 578 1 580 1 584 1 585 1 590 1 613 1 636 1 640 1 667 1 668 1 672 1 682 1 684 1 692 1 710 1 713 1 744 1 750 1 751 1 813 1 823 1 861 1 896 1 904 1 911 1 926 1 942 1 965 1 972 1 974 2 987 1 992 1 1000 1 921 1 930 1 938 1 962 1 969 1 1004 1 1015 1 
1 207 7 1 11 1 17 1 19 1 23 1 24 2 27 1 65 1 68 1 71 1 108 1 172 1 174 1 188 1 193 1 198 1 201 1 239 1 250 1 253 1 266 1 293 1 334 1 375 1 392 2 394 1 417 1 431 1 448 1 472 1 474 1 475 1 478 1 492 1 501 1 525 1 557 1 594 1 607 1 647 1 650 1 656 1 660 1 714 1 719 2 754 1 759 1 770 1 799 1 820 1 824 1 825 1 827 1 838 1 841 1 848 1 862 1 872 1 882 1 906 1 8 1 35 1 52 1 69 1 203 1 206 1 208 1 246 1 247 1 303 1 327 1 344 1 363 1 371 1 376 1 381 1 393 1 405 1 435 1 480 1 494 1 514 1 536 1 547 1 554 1 565 1 567 1 576 1 581 1 582 1 584 1 585 1 588 1 608 1 617 1 618 1 676 1 700 1 702 1 732 1 745 1 748 1 757 1 765 1 768 1 775 1 777 1 798 1 842 1 925 1 931 1 945 1 957 1 959 1 984 1 986 2 991 1 955 1 987 1 989 1 1007 1 
1 213 10 1 42 1 60 1 68 1 74 1 96 1 119 1 131 1 147 1 162 2 168 1 179 1 187 1 194 1 204 1 222 1 270 1 324 1 390 1 393 1 404 1 434 1 456 1 460 1 478 2 503 1 516 1 568 1 574 1 593 1 594 1 597 2 599 1 612 1 625 1 630 1 651 1 653 1 655 1 687 1 751 1 778 1 786 1 832 1 854 1 869 1 870 1 882 1 893 1 12 1 35 1 45 1 54 1 83 1 110 1 111 1 170 1 186 1 190 1 229 1 250 1 252 1 305 1 307 1 310 1 330 1 360 1 377 1 388 1 403 1 406 1 414 1 427 1 469 1 482 1 499 1 510 1 513 1 553 1 578 1 579 1 607 1 623 1 631 1 646 1 666 1 668 1 688 1 695 1 699 1 759 1 763 1 806 1 819 1 828 1 923 1 930 1 931 1 943 1 975 1 977 1 981 1 987 1 935 1 955 1 974 1 978 1 1009 1 1014 1 1024 1 
1 208 3 1 11 1 52 1 60 1 66 1 72 1 86 1 87 1 95 1 98 1 103 1 108 1 139 1 156 1 161 1 163 1 172 1 180 1 187 1 188 1 191 1 201 1 208 1 226 1 227 1 238 1 244 1 250 1 257 1 266 1 267 2 270 1 303 1 312 1 318 1 321 1 347 1 349 1 355 2 391 1 402 1 422 2 451 2 458 1 465 1 500 1 507 1 520 2 542 1 569 1 582 1 607 1 614 1 698 2 725 1 759 1 873 1 878 1 888 2 904 1 906 1 30 1 77 1 81 1 92 1 101 1 141 1 143 1 145 1 147 1 193 1 224 1 230 1 236 1 255 1 265 1 277 1 319 1 337 1 342 1 364 1 386 1 395 1 396 1 406 1 416 1 460 1 463 1 467 1 493 1 512 1 539 1 562 1 563 1 564 1 600 1 653 1 702 1 715 1 752 1 841 1 870 1 886 1 895 1 918 1 935 1 965 1 980 1 985 1 988 1 927 1 929 1 944 1 954 1 955 1 975 1 998 1 1006 1 
1 213 14 1 26 1 29 1 32 1 59 1 65 1 78 1 82 1 95 2 152 1 158 2 171 2 180 1 191 1 221 1 280 1 295 1 312 1 326 1 352 1 360 1 361 1 423 1 426 1 449 1 458 1 463 1 469 1 481 1 485 1 495 2 498 1 590 1 602 1 623 1 629 1 638 1 642 1 686 1 694 1 704 1 711 1 714 1 718 1 723 1 734 1 773 1 778 1 805 1 810 1 812 1 832 1 886 1 902 1 911 1 25 1 48 1 58 1 107 1 131 1 134 1 141 1 142 1 146 1 151 1 211 1 222 1 245 1 256 1 264 1 282 1 305 1 325 1 350 1 353 1 383 1 390 1 395 1 400 1 441 1 468 1 503 1 513 1 547 1 552 1 556 1 565 1 570 1 612 1 619 1 626 1 628 1 639 1 644 1 655 1 707 1 713 1 726 1 762 1 783 1 804 1 821 1 862 1 907 1 916 1 923 1 946 1 950 1 988 1 965 1 986 1 1008 1 1011 1 1016 1 1019 1 1020 1 1022 1 
1 211 39 1 40 1 58 1 69 1 87 1 92 1 97 1 120 1 148 1 191 1 225 1 235 1 246 1 256 1 283 1 287 1 307 1 324 1 326 1 345 2 355 1 373 1 374 2 375 1 397 1 438 1 443 1 453 1 576 2 585 1 591 1 595 2 597 1 605 1 613 1 625 1 658 1 661 1 668 1 713 1 733 1 743 1 757 1 760 1 762 1 768 1 773 1 778 1 788 2 816 1 854 1 867 1 873 1 879 1 883 1 887 1 891 1 920 1 922 1 44 1 45 1 67 1 96 1 122 1 136 1 144 1 157 1 179 1 181 1 186 1 196 1 209 1 226 1 268 1 305 1 329 1 351 1 361 1 382 1 422 1 426 1 427 1 465 1 469 1 491 1 492 1 538 1 552 1 565 1 628 1 648 1 662 1 667 1 726 1 737 1 809 1 818 1 959 1 960 1 981 1 937 1 943 1 953 1 978 1 986 1 1009 1 1011 1 1024 1 1025 1 
1 209 15 1 20 1 22 1 28 1 38 1 49 1 56 1 79 1 86 1 118 1 158 1 181 1 191 1 267 1 281 1 290 1 322 1 361 1 370 1 379 1 398 1 414 1 421 2 445 1 452 1 472 1 479 1 493 1 496 2 528 1 547 1 552 1 553 1 558 1 603 1 630 1 714 1 724 1 744 1 764 1 776 1 805 1 807 1 813 1 848 1 849 1 854 1 855 1 885 1 890 1 893 1 908 1 4 1 31 1 53 1 104 1 113 1 121 1 124 1 164 1 172 1 213 1 221 1 268 1 271 1 289 1 301 1 310 1 337 1 342 1 366 1 373 1 404 1 411 1 467 1 486 1 559 1 564 1 566 1 572 1 575 1 620 1 635 1 640 1 682 1 686 1 708 1 709 1 729 1 736 1 738 1 765 1 844 1 859 1 865 1 891 1 892 1 907 1 955 1 969 1 979 1 982 1 984 1 991 1 933 1 952 1 1006 1 1015 1 
1 210 13 1 21 1 35 1 38 1 50 1 77 1 79 2 85 1 86 1 108 2 120 1 161 1 169 1 229 1 231 1 240 1 284 1 292 1 295 1 318 1 354 1 356 1 410 1 429 1 481 1 488 1 489 1 506 1 530 1 559 1 561 1 573 1 617 1 645 1 658 1 685 1 714 1 728 1 747 1 769 1 787 1 796 1 819 2 823 1 824 1 827 1 876 1 877 1 919 1 5 1 6 1 14 1 15 1 20 1 22 1 24 1 37 1 47 1 55 1 65 1 88 1 89 1 122 1 126 1 136 1 155 1 171 1 217 1 223 1 232 1 233 1 252 1 275 1 276 1 285 1 293 1 316 1 329 1 388 1 409 1 439 1 466 1 478 1 523 1 533 1 535 1 544 1 578 1 587 1 599 1 654 1 694 1 766 1 798 1 801 1 804 1 834 1 868 1 890 1 895 1 926 1 948 1 962 1 985 1 986 1 988 1 997 1 957 1 966 1 992 1 996 1 999 1 1008 1 1012 1 1015 1 1021 1 1022 1 
1 205 18 1 30 1 40 2 43 1 50 1 51 1 52 1 82 2 94 1 96 1 102 1 111 1 117 1 136 1 137 1 143 1 147 1 171 1 191 2 192 1 219 1 221 1 228 1 232 1 240 1 258 1 269 1 283 1 304 1 387 1 395 1 396 1 402 2 410 1 429 1 440 1 461 1 483 1 486 1 508 1 514 1 531 2 534 1 538 1 562 1 564 1 569 1 575 1 581 1 598 1 599 1 600 2 603 1 645 1 646 1 664 1 675 1 706 1 780 1 781 1 785 1 796 1 812 1 825 1 835 1 844 1 845 1 880 1 881 1 890 1 918 1 925 1 1 1 12 1 14 1 32 1 56 1 76 1 100 1 110 1 125 1 150 1 179 1 196 1 226 1 241 1 294 1 310 1 332 1 337 1 349 1 376 1 378 1 403 1 406 1 430 1 487 1 512 1 586 1 662 1 702 1 725 1 740 1 743 1 755 1 767 1 774 1 775 1 784 1 797 1 806 1 830 1 888 1 912 1 931 1 950 1 973 1 975 1 994 1 944 1 946 1 984 1 992 1 
1 215 1 1 11 1 34 1 56 1 63 1 71 1 103 1 108 1 141 1 146 1 173 2 190 1 191 1 265 1 271 1 276 1 295 1 298 1 299 1 324 2 326 1 370 1 374 1 383 1 407 1 418 1 432 1 437 1 442 1 463 1 530 1 568 1 574 1 589 1 590 1 651 1 663 2 705 1 721 2 728 1 746 1 763 1 764 1 771 1 790 1 801 1 835 2 847 1 849 2 866 1 870 1 873 1 883 1 889 1 890 1 903 1 906 1 909 1 59 1 60 1 65 1 67 1 68 1 74 1 93 1 112 1 120 1 142 1 145 1 156 1 182 1 215 1 249 1 260 1 261 1 275 1 347 1 356 1 384 1 396 1 416 1 479 1 547 1 556 1 604 1 606 1 625 1 652 1 669 1 685 1 689 1 695 1 706 1 729 1 744 1 770 1 775 1 785 1 786 1 818 1 921 1 927 1 927 1 955 1 958 1 961 1 968 1 972 1 982 1 999 1 966 1 1006 1 1011 1 1020 1 1026 1 
1 209 14 1 26 1 29 1 30 2 37 1 44 1 130 1 148 1 158 2 164 1 170 1 175 1 185 1 186 1 234 2 256 1 304 2 312 1 321 1 353 1 389 1 390 1 394 1 414 1 493 1 517 2 519 1 573 1 586 1 617 1 648 1 677 1 679 1 691 1 778 1 782 1 792 1 826 1 866 1 891 2 40 1 91 1 103 1 139 1 141 1 145 1 161 1 179 1 214 1 216 1 235 1 237 1 253 1 264 1 269 1 277 1 282 1 288 1 289 1 296 1 298 1 322 1 323 1 337 1 338 1 340 1 360 1 361 1 363 1 373 1 392 1 396 1 411 1 441 1 455 1 474 1 494 1 522 1 533 1 565 1 570 1 578 1 587 1 658 1 660 1 667 1 674 1 676 1 681 1 683 1 697 1 712 1 721 1 761 1 798 1 804 1 810 1 861 1 879 1 993 1 938 1 955 1 962 1 963 1 972 1 987 1 989 1 1008 1 1014 1 1017 1 1021 1 
1 212 17 1 43 1 55 2 78 1 112 1 163 1 165 1 173 1 236 1 238 2 256 1 257 1 272 1 327 2 333 2 336 1 341 1 351 1 361 1 388 1 398 1 402 1 412 1 413 1 437 1 440 1 443 1 445 1 446 1 459 1 463 1 470 1 478 1 492 1 495 1 505 1 523 1 524 1 593 1 606 1 625 1 627 1 682 1 769 1 822 1 849 1 866 1 874 1 877 1 897 1 904 1 15 1 21 1 49 1 51 1 56 1 58 1 59 1 61 1 87 1 91 1 93 1 104 1 106 1 134 1 167 1 190 1 194 1 217 1 221 1 258 1 260 1 323 1 347 1 354 1 380 1 391 1 432 1 487 1 494 1 509 1 564 1 581 1 587 1 637 1 663 1 706 1 708 1 714 1 737 1 752 1 811 1 819 1 827 1 843 1 873 1 881 1 884 1 886 1 901 1 921 1 935 1 945 1 950 1 951 1 962 1 971 1 986 1 993 1 940 1 953 1 977 1 1008 1 1015 1 1025 1 
1 206 7 1 33 1 98 1 101 1 157 1 164 1 185 1 199 1 276 1 293 1 318 1 337 1 355 1 365 1 371 1 374 1 381 1 397 1 427 1 429 1 435 1 493 1 499 1 502 2 503 1 511 1 512 1 515 1 620 1 642 1 650 1 688 1 693 1 699 1 730 1 755 1 768 1 770 1 794 1 799 1 802 1 820 1 830 1 845 1 848 1 860 1 868 1 871 1 903 2 909 1 920 1 12 1 80 1 124 1 141 1 159 1 165 1 195 1 197 1 213 1 220 1 222 1 267 1 268 1 286 1 298 1 321 1 324 1 356 1 431 1 480 1 484 1 485 1 508 1 528 1 537 1 545 1 553 1 566 1 571 1 577 1 589 1 598 1 599 1 621 1 633 1 643 1 645 1 654 1 664 1 677 1 698 1 700 1 727 1 728 1 749 1 754 1 790 1 791 1 841 1 878 1 882 1 890 1 906 1 910 1 918 1 960 1 991 1 945 1 946 1 976 1 1019 1 1025 1 
1 215 64 1 84 1 85 1 94 1 99 1 122 1 148 1 151 1 160 1 168 1 178 1 194 1 202 1 224 1 242 1 245 2 246 1 250 1 256 1 272 1 289 1 296 1 304 2 311 1 334 1 338 1 368 1 370 1 427 1 429 1 430 1 434 1 455 1 460 1 506 1 522 1 526 1 528 1 541 1 549 1 558 1 570 1 628 1 639 1 660 1 683 1 713 1 716 1 723 1 733 1 757 1 781 1 817 1 830 1 833 1 841 1 856 1 871 1 895 1 919 1 920 1 926 1 12 1 15 1 27 1 30 1 42 1 47 1 60 1 65 1 75 1 101 1 121 1 144 1 146 1 180 1 201 1 211 1 229 1 241 1 259 1 260 1 302 1 313 1 317 1 372 1 380 1 398 1 421 1 467 1 504 1 512 1 594 1 615 1 634 1 641 1 651 1 659 1 707 1 722 1 782 1 819 1 822 1 837 1 849 1 857 1 869 1 901 1 939 1 966 1 970 1 979 1 982 1 987 1 997 1 1015 1 
1 218 23 1 37 1 48 1 54 1 57 1 63 1 75 1 95 1 117 1 160 1 197 1 200 1 207 1 251 1 264 1 272 1 291 1 299 1 308 1 312 1 340 1 366 1 391 1 410 2 411 1 429 1 463 1 523 1 529 1 531 1 536 1 555 1 593 1 641 1 650 1 655 1 659 1 666 1 719 1 734 1 736 1 750 1 788 1 789 1 802 1 811 1 837 1 842 1 843 1 849 1 908 1 14 1 35 1 41 1 65 1 71 1 89 1 115 1 129 1 139 1 169 1 174 1 201 1 212 1 214 1 233 1 263 1 296 1 321 1 348 1 349 1 365 1 373 1 376 1 399 1 427 1 491 1 518 1 546 1 565 1 579 1 627 1 636 1 646 1 652 1 688 1 700 1 715 1 721 1 755 1 764 1 768 1 776 1 783 1 785 1 790 1 792 1 803 1 813 1 822 1 838 1 868 1 933 1 952 1 984 1 988 1 993 1 996 1 953 1 968 1 970 1 1004 1 1006 1 1007 1 1008 1 1020 1 
1 208 8 1 28 1 30 2 58 1 99 1 149 1 207 1 214 1 221 1 268 1 270 1 271 1 281 1 285 1 298 1 302 2 343 1 354 1 376 1 443 1 471 1 478 1 485 1 495 1 501 1 505 1 513 1 539 1 561 1 571 1 591 1 594 1 611 1 615 1 630 1 634 1 636 1 653 1 712 1 784 1 809 1 816 1 832 1 859 1 872 1 874 1 875 1 878 1 881 1 932 1 25 1 32 1 35 1 87 1 115 1 129 1 171 1 202 1 211 1 240 1 241 1 244 1 248 1 250 1 260 1 282 1 335 1 338 1 361 1 414 1 433 1 468 1 472 1 480 1 503 1 516 1 519 1 520 1 540 1 546 1 548 1 580 1 582 1 588 1 628 1 670 1 698 1 715 1 727 1 740 1 745 1 748 1 763 1 792 1 797 1 819 1 854 1 856 1 924 1 942 1 952 1 959 1 978 1 990 1 998 1 999 1 940 1 1001 1 1003 1 1005 1 1012 1 
1 208 16 2 25 1 40 1 63 1 78 1 89 1 95 1 101 1 112 1 124 1 146 1 171 1 177 2 198 1 209 1 217 1 240 1 307 1 308 1 321 1 346 1 348 1 357 1 379 1 408 1 424 1 447 1 456 1 465 1 492 1 507 1 511 1 515 1 525 1 616 1 637 1 659 1 702 2 748 1 770 1 772 1 778 1 806 1 811 1 813 1 841 1 863 1 892 1 894 1 897 1 2 1 6 1 13 1 34 1 53 1 60 1 62 1 131 1 135 1 174 1 250 1 255 1 265 1 266 1 269 1 272 1 333 1 341 1 343 1 344 1 364 1 366 1 381 1 393 1 406 1 409 1 415 1 462 1 479 1 480 1 495 1 516 1 528 1 535 1 543 1 588 1 590 1 631 1 651 1 688 1 695 1 711 1 722 1 737 1 767 1 781 1 805 1 823 1 831 1 940 1 941 1 967 1 975 1 995 1 996 1 997 1 1010 1 1012 1 1020 1 
1 204 1 1 48 1 49 1 70 1 124 2 165 1 204 1 223 1 226 1 253 1 261 1 265 1 272 1 273 1 310 1 320 1 353 1 404 1 474 1 478 1 504 1 513 1 518 1 550 1 594 1 595 1 629 2 632 1 633 1 637 1 657 1 683 1 690 1 697 1 710 1 759 1 766 1 768 1 803 1 815 1 881 1 906 1 914 1 921 1 929 1 5 1 17 1 26 1 33 1 39 1 86 1 120 1 121 1 152 1 168 1 197 1 199 1 206 1 275 1 287 1 291 1 317 1 318 1 370 1 371 1 375 1 396 1 422 1 423 1 485 1 526 1 544 1 548 1 554 1 564 1 617 1 620 1 653 1 656 1 661 1 662 1 677 1 685 1 705 1 717 1 733 1 738 1 770 1 775 1 778 1 790 1 799 1 806 1 821 1 825 1 828 1 837 1 848 1 850 1 854 1 862 1 920 1 938 1 951 1 953 1 966 1 950 1 956 1 967 1 1021 1 
1 211 6 1 13 1 20 1 55 1 65 1 69 1 77 1 97 1 122 1 130 1 147 1 158 1 173 1 234 1 235 1 251 1 304 2 310 1 323 2 331 1 334 1 376 2 400 1 404 1 406 1 410 1 412 1 416 1 472 1 479 1 489 1 492 1 502 1 510 1 551 1 590 1 658 1 675 1 686 1 687 1 734 1 744 1 748 1 752 1 767 1 776 1 782 1 810 1 812 1 814 1 825 1 841 2 845 1 871 1 873 1 3 1 8 1 30 1 35 1 49 1 58 1 59 1 62 1 98 1 100 1 105 1 119 1 140 1 146 1 150 1 165 1 184 1 190 1 200 1 208 1 216 1 232 1 237 1 259 1 266 1 274 1 300 1 324 1 371 1 381 1 382 1 384 1 398 1 402 1 417 1 418 1 420 1 430 1 434 1 437 1 478 1 486 1 523 1 531 1 560 1 574 1 597 1 599 1 615 1 649 1 763 1 789 1 804 1 806 1 827 1 840 1 855 1 902 1 937 1 978 1 986 1 988 1 996 1 997 1 939 1 945 1 966 1 993 1 1014 1 
1 208 3 1 17 1 21 1 33 1 85 1 93 1 98 1 105 1 115 1 119 1 163 1 168 1 195 1 229 1 259 1 277 1 289 1 312 1 323 1 328 1 357 1 365 1 401 1 428 1 461 1 474 1 479 1 517 1 518 1 533 1 548 1 581 1 594 1 628 1 637 1 659 1 663 1 665 1 681 1 693 1 733 1 744 1 754 1 781 1 808 1 817 1 824 1 826 1 836 1 843 1 847 1 874 1 894 1 936 1 13 1 16 1 23 1 39 1 54 1 58 1 63 1 69 1 86 1 97 1 114 1 117 1 130 1 144 1 183 1 187 1 193 1 197 1 234 1 239 1 252 1 268 1 308 1 326 1 351 1 367 1 371 1 373 1 415 1 421 1 448 1 449 1 463 1 469 1 481 1 491 1 524 1 543 1 583 1 647 1 654 1 678 1 687 1 761 1 772 1 814 1 819 1 821 1 831 1 851 1 853 1 908 1 923 1 945 1 946 1 965 1 947 1 970 1 973 1 1013 1 1018 1 
1 212 16 1 22 1 38 1 40 1 144 1 153 1 173 1 197 2 210 1 240 1 302 1 309 1 315 1 318 1 338 1 345 1 374 1 377 1 378 1 392 1 439 1 448 1 452 1 461 1 464 1 511 2 515 1 532 1 541 1 542 1 545 1 558 1 590 1 595 1 622 1 636 1 642 1 666 1 672 1 682 1 713 1 718 1 727 1 736 1 740 2 744 1 767 1 800 1 812 1 817 1 840 1 857 1 858 1 888 1 893 1 935 1 51 1 60 1 88 1 113 1 128 1 143 1 195 1 217 1 245 1 255 1 271 1 289 1 292 1 297 1 362 1 363 1 400 1 405 1 411 1 420 1 422 1 433 1 443 1 447 1 451 1 455 1 498 1 531 1 543 1 568 1 577 1 602 1 608 1 639 1 697 1 716 1 726 1 775 1 781 1 785 1 787 1 793 1 814 1 815 1 827 1 832 1 834 1 839 1 845 1 864 1 871 1 873 1 918 1 928 1 996 1 947 1 964 1 969 1 971 1 1021 1 1022 1 
1 211 4 1 27 1 41 1 67 1 87 1 114 1 201 1 204 1 265 2 280 1 291 1 297 1 325 1 328 1 353 1 354 1 387 1 414 2 442 1 443 1 449 1 454 1 470 1 497 1 530 1 568 1 584 1 598 1 610 1 621 1 639 1 647 1 675 1 692 1 708 1 722 1 755 1 771 1 774 1 812 2 814 2 816 1 820 1 828 1 830 1 844 1 856 1 865 1 890 1 904 1 917 1 52 1 53 1 61 1 73 1 94 1 121 1 127 1 128 1 133 1 137 1 147 1 160 1 163 1 202 1 249 1 269 1 275 1 330 1 338 1 363 1 371 1 386 1 395 1 427 1 438 1 457 1 475 1 481 1 482 1 496 1 505 1 520 1 521 1 547 1 550 1 574 1 589 1 593 1 601 1 606 1 636 1 638 1 645 1 662 1 697 1 699 1 715 1 739 1 743 1 746 1 747 1 770 1 776 1 779 1 806 1 827 1 864 1 902 1 908 1 931 1 936 1 939 1 939 1 944 2 948 1 950 1 954 1 964 1 974 1 998 1 1003 1 
1 208 25 1 35 1 37 1 77 1 100 1 103 1 117 1 122 2 125 2 132 1 154 1 203 1 204 1 232 1 242 1 245 1 292 1 306 1 332 1 337 1 344 1 354 1 374 1 377 1 386 2 404 1 420 1 428 1 432 1 461 1 487 2 490 1 497 1 529 1 540 1 552 1 555 2 567 1 569 1 573 1 580 1 600 1 606 1 626 1 650 1 658 1 687 1 688 1 698 1 754 1 761 1 784 1 811 1 825 1 847 2 857 1 858 1 873 1 881 1 886 1 897 1 18 1 54 1 63 1 137 1 155 1 172 1 196 1 223 1 251 1 260 1 269 1 285 1 309 1 358 1 412 1 443 1 447 1 451 1 465 1 473 1 477 1 486 1 534 1 543 1 557 1 582 1 608 1 613 1 663 1 686 1 693 1 735 1 760 1 780 1 808 1 837 1 838 1 872 1 888 1 898 1 905 1 908 1 929 1 933 1 934 1 948 1 959 1 984 1 958 1 968 1 979 1 995 1 1002 1 1008 1 1022 1 1027 1 
1 212 4 1 24 1 40 1 55 2 74 1 79 1 84 1 103 1 106 1 112 1 118 1 132 1 211 1 229 1 234 1 274 1 287 1 332 1 368 1 371 1 381 1 390 1 419 1 442 1 447 1 451 1 458 1 463 1 467 1 475 1 476 1 477 1 480 1 484 1 485 1 511 1 517 1 523 1 526 1 531 1 540 1 580 1 601 1 605 2 620 1 629 1 631 1 754 1 770 1 834 1 840 1 846 1 853 1 861 1 875 1 881 1 890 2 913 1 8 1 9 1 14 1 58 1 90 1 108 1 130 1 220 1 230 1 253 1 277 1 336 1 338 1 339 1 348 1 360 1 362 1 385 1 392 1 400 1 401 1 416 1 421 1 425 1 435 1 455 1 502 1 504 1 527 1 529 1 532 1 547 1 548 1 569 1 591 1 592 1 597 1 612 1 614 1 616 1 623 1 626 1 633 1 653 1 686 1 738 1 741 1 773 1 787 1 789 1 884 1 886 1 900 1 934 1 989 1 991 1 947 1 955 1 975 1 1005 1 1015 1 1017 1 1023 1 1025 1 
1 212 25 1 39 1 41 1 127 1 145 1 150 1 157 1 171 1 174 1 197 1 205 1 210 1 216 1 218 1 219 1 223 1 323 1 336 1 372 1 373 1 409 1 498 1 539 1 573 2 584 1 604 1 608 1 611 1 618 1 634 1 639 1 642 2 643 1 667 1 668 1 671 1 683 1 701 1 709 1 710 1 783 1 785 1 798 1 817 1 843 1 851 1 859 1 861 1 918 1 933 1 3 1 22 1 40 1 46 1 48 1 59 1 111 1 119 1 129 1 134 1 148 1 151 1 187 1 199 1 214 1 226 1 234 1 244 1 254 1 261 1 268 1 318 1 339 1 346 1 349 1 351 1 359 1 368 1 381 1 434 1 489 1 493 1 496 1 501 1 511 1 520 1 525 1 530 1 552 1 589 1 607 1 652 1 688 1 700 1 708 1 722 1 745 1 767 1 795 1 823 1 827 1 839 1 911 1 966 1 981 1 1000 1 988 1 998 1 1001 1 1003 1 1004 1 1008 1 1014 1 1015 1 1017 1 1025 1 1027 1 
1 213 13 1 34 1 58 1 95 1 135 1 155 1 168 1 180 1 191 1 208 1 210 1 211 1 221 1 237 1 251 1 284 1 299 1 323 1 350 1 385 1 388 1 432 1 437 1 507 1 524 1 526 1 532 1 534 1 553 1 557 1 568 1 576 1 582 1 590 1 591 1 593 1 603 1 605 1 617 1 622 1 631 1 634 1 650 1 654 1 659 1 662 1 677 1 684 2 721 1 723 1 745 2 750 1 777 1 811 1 825 1 845 1 894 1 905 1 920 1 11 1 23 1 32 1 39 1 40 1 43 1 45 1 48 1 55 1 69 1 83 1 107 1 114 1 124 1 154 1 189 1 192 1 193 1 194 1 215 1 220 1 225 1 250 1 259 1 265 1 268 1 312 1 316 1 329 1 345 1 351 1 420 1 448 1 485 1 527 1 528 1 535 1 538 1 542 1 596 1 619 1 676 1 691 1 716 1 727 1 755 1 762 1 778 1 804 1 827 1 840 1 917 1 923 1 950 1 958 1 965 1 953 1 1007 1 1018 1 1023 1 1024 1 
1 207 5 1 40 1 53 1 65 1 66 1 67 1 92 1 101 2 106 1 149 1 181 1 190 1 192 1 200 1 234 1 241 1 242 1 249 1 295 1 316 1 382 1 447 1 466 1 469 1 471 1 481 1 484 1 512 1 524 1 544 1 545 1 555 1 560 1 590 1 591 1 614 2 680 1 691 1 725 1 735 2 741 1 751 1 784 1 789 1 845 1 858 2 873 1 883 1 885 1 900 2 912 1 939 2 15 1 25 1 35 1 60 1 80 1 108 1 128 1 129 1 151 1 155 1 162 1 180 1 245 1 258 1 261 1 328 1 331 1 372 1 373 1 398 1 404 1 418 1 431 1 440 1 498 1 575 1 602 1 610 1 617 1 674 1 677 1 697 1 717 1 727 1 733 1 767 1 786 1 798 1 822 1 834 1 844 1 850 1 899 1 921 1 926 1 959 1 965 1 968 1 979 1 998 1 1001 1 960 1 1000 1 1003 1 1006 1 1009 1 1026 1 
1 214 8 1 12 1 20 1 22 1 66 1 100 1 128 1 150 1 201 1 204 1 225 1 237 1 308 1 316 1 318 1 326 1 344 1 363 1 378 1 384 1 402 1 432 1 444 1 455 1 465 1 492 1 494 1 511 1 515 1 519 1 538 1 559 1 568 1 574 2 637 1 646 1 648 1 678 1 686 2 691 1 701 2 702 2 749 1 754 1 806 1 813 1 815 1 825 1 846 1 848 1 858 1 868 1 871 1 873 1 888 1 909 1 919 1 929 1 937 1 3 1 24 1 149 1 159 1 172 1 183 1 226 1 252 1 267 1 276 1 278 1 296 1 309 1 310 1 325 1 341 1 377 1 387 1 394 1 400 1 422 1 431 1 445 1 461 1 462 1 469 1 476 1 497 1 506 1 547 1 551 1 573 1 576 1 578 1 579 1 618 1 642 1 656 1 671 1 688 1 708 1 721 1 722 1 723 1 731 1 735 1 741 1 755 1 764 1 780 1 817 1 826 1 828 1 844 1 867 1 872 1 877 1 884 1 891 1 905 1 930 1 936 1 960 1 981 1 994 1 953 1 967 1 996 1 1002 1 1011 1 1016 1 1024 1 1025 1 1027 1 
1 214 23 1 25 1 28 1 35 1 48 1 105 1 108 2 134 1 138 2 149 1 174 1 188 1 195 1 287 2 288 1 296 1 314 1 335 1 361 1 363 1 376 1 380 2 388 1 404 1 414 1 418 1 419 1 437 1 442 1 455 1 460 1 498 1 501 1 512 1 523 1 577 2 614 2 696 1 700 1 701 1 735 1 755 1 759 2 785 1 804 1 859 1 864 2 868 1 884 1 893 1 898 1 911 1 922 1 937 1 4 1 8 1 26 1 46 1 95 1 109 1 112 1 147 1 175 1 200 1 206 1 249 1 270 1 273 1 300 1 315 1 334 1 339 1 345 1 379 1 407 1 421 1 482 1 491 1 499 1 559 1 563 1 580 1 581 1 627 1 644 1 650 1 659 1 670 1 713 1 719 1 751 1 767 1 781 1 811 1 836 1 860 1 886 1 926 1 930 1 950 1 999 1 953 1 956 1 985 1 996 1 1002 1 1011 1 1018 1 1022 1 1023 1 
1 206 7 1 35 1 51 1 60 1 66 1 72 1 78 1 86 1 95 1 106 1 126 1 136 1 151 1 171 1 179 1 188 1 221 1 239 1 252 1 291 1 321 1 323 1 332 1 340 1 379 1 426 2 429 1 445 1 452 1 478 1 491 1 515 1 534 1 564 1 565 1 626 1 627 1 647 1 733 1 738 1 742 1 766 1 803 1 860 1 870 1 916 1 6 1 24 1 58 1 82 1 101 1 105 1 119 1 125 1 134 1 140 1 156 1 191 1 231 1 244 1 261 1 272 1 296 1 303 1 329 1 382 1 444 1 472 1 477 1 482 1 484 1 497 1 518 1 522 1 538 1 569 1 579 1 588 1 611 1 619 1 671 1 686 1 695 1 705 1 728 1 739 1 767 1 796 1 862 1 868 1 898 1 937 1 938 1 941 1 950 1 954 1 974 1 976 1 992 1 994 1 1001 1 977 1 989 1 1010 1 
1 207 24 1 27 1 67 1 73 1 89 1 94 1 97 1 111 1 113 1 147 1 176 1 196 1 211 1 228 1 230 1 272 1 276 1 283 1 285 1 290 1 293 2 302 1 308 2 319 1 359 1 396 1 426 1 453 1 454 1 500 1 516 1 531 1 538 1 544 1 554 1 597 1 600 1 604 2 607 1 638 1 661 1 696 1 774 1 844 1 846 1 850 1 890 1 925 1 939 1 940 1 28 1 47 1 53 1 58 1 100 1 115 1 123 1 146 1 188 1 195 1 247 1 309 1 310 1 311 1 320 1 324 1 350 1 351 1 420 1 434 1 435 1 447 1 472 1 481 1 541 1 553 1 575 1 592 1 612 1 617 1 621 1 659 1 673 1 692 1 698 1 707 1 712 1 725 1 780 1 799 1 803 1 809 1 814 1 841 1 851 1 867 1 870 1 873 1 875 1 954 1 957 1 974 1 1002 1 1013 1 
1 208 17 1 24 1 37 1 76 1 80 1 85 1 97 1 98 1 118 1 121 1 133 1 141 1 143 1 188 1 204 1 220 1 225 1 245 1 258 1 293 1 300 1 335 1 337 2 389 1 405 1 452 1 457 1 465 1 488 1 503 1 525 1 538 1 550 1 620 1 636 1 639 1 640 1 648 1 650 1 664 1 685 1 692 1 697 1 705 1 719 1 726 1 750 1 763 1 765 1 777 1 793 1 810 1 816 1 826 2 851 1 878 1 895 1 897 1 14 1 31 1 58 1 59 1 60 1 66 1 79 1 87 1 94 1 95 1 105 1 116 1 122 1 129 1 137 1 138 1 145 1 228 1 255 1 262 1 295 1 299 1 325 1 329 1 415 1 422 1 459 1 487 1 542 1 546 1 588 1 602 1 618 1 630 1 673 1 674 1 688 1 693 1 727 1 755 1 758 1 803 1 817 1 833 1 835 1 949 1 949 1 996 1 976 1 981 1 1007 1 
1 216 20 1 36 1 44 1 48 1 50 1 59 1 86 1 89 1 108 1 168 1 204 1 224 1 227 1 233 1 291 1 317 1 331 1 335 1 337 1 343 1 372 1 374 1 375 1 376 1 393 1 436 1 443 1 453 1 473 1 481 1 482 1 490 1 511 1 516 1 534 1 549 1 576 2 587 1 606 1 638 1 640 1 673 1 694 2 706 1 711 1 744 1 745 2 782 1 812 1 827 1 847 1 861 1 862 1 879 1 892 1 922 1 926 1 929 1 939 1 943 1 946 1 947 1 4 1 6 1 28 1 38 1 66 1 80 1 81 1 98 1 106 1 134 1 175 1 186 1 195 1 218 1 221 1 272 1 292 1 298 1 299 1 307 1 333 1 377 1 404 1 407 1 421 1 429 1 442 1 450 1 466 1 497 1 547 1 558 1 561 1 572 1 585 1 622 1 635 1 637 1 641 1 665 1 686 1 701 1 717 1 729 1 730 1 750 1 766 1 793 1 796 1 809 1 810 1 835 1 935 1 967 1 984 1 995 1 979 1 1010 1 1013 1 1017 1 1019 1 1024 1 1027 1 
1 207 23 1 47 1 70 1 82 1 141 2 157 1 170 2 173 1 176 1 196 1 213 1 221 1 226 1 257 1 263 1 265 1 286 1 303 1 313 1 316 1 327 1 328 1 365 1 370 1 378 1 383 1 405 1 457 1 459 1 471 1 482 1 485 1 491 1 526 1 532 1 564 1 566 1 572 1 576 1 578 1 599 1 621 1 655 1 658 1 662 1 691 1 704 2 734 1 739 1 759 1 770 1 771 1 774 1 775 1 785 1 804 1 808 1 811 2 820 1 851 1 874 1 879 1 907 2 910 2 929 1 935 1 11 1 58 1 75 1 77 1 81 1 95 1 143 1 147 1 154 1 178 1 182 1 184 1 192 1 217 1 228 1 250 1 281 1 290 1 298 1 310 1 338 1 346 1 381 1 399 1 422 1 425 1 493 1 503 1 509 1 510 1 521 1 535 1 574 1 579 1 583 1 584 1 667 1 669 1 673 1 679 1 696 1 709 1 718 1 726 1 729 1 777 1 801 1 835 1 855 1 860 1 900 1 976 1 977 2 980 1 988 1 995 1 964 1 968 1 1027 1 
1 206 1 1 6 1 12 1 28 1 66 2 70 1 88 1 103 1 108 1 121 1 136 2 152 1 158 1 212 1 278 1 285 1 306 1 309 1 324 1 326 1 339 1 350 1 351 1 358 1 407 1 432 1 454 1 456 2 485 1 487 1 497 1 499 1 509 1 512 1 536 1 542 1 545 1 557 1 563 1 573 1 601 1 610 1 619 1 628 1 632 1 707 1 709 1 737 1 740 2 772 1 823 1 827 1 866 1 868 1 894 1 909 1 916 1 932 1 933 1 38 1 63 1 90 1 105 1 123 1 138 1 144 1 172 1 211 1 214 1 236 1 265 1 268 1 411 1 417 1 450 1 461 1 478 1 483 1 493 1 517 1 519 1 539 1 541 1 604 1 611 1 612 1 624 1 663 1 671 1 704 1 706 1 721 1 736 1 739 1 755 1 763 1 767 1 798 1 809 1 825 1 830 1 842 1 873 1 883 1 886 1 890 1 893 1 897 1 924 1 952 1 952 1 964 1 967 1 995 1 1020 1 1026 1 
1 210 10 1 14 1 16 1 24 1 25 1 26 1 59 1 140 1 146 1 164 1 180 1 187 1 216 1 217 1 221 1 228 1 242 1 250 1 283 1 292 1 307 1 332 1 344 1 371 1 372 1 385 1 388 1 419 1 448 1 471 2 491 1 499 1 514 1 535 1 551 1 591 1 613 1 616 1 655 1 663 1 666 1 683 1 684 2 686 1 689 2 700 1 713 1 746 1 748 1 759 1 795 1 830 1 861 1 871 1 903 1 915 1 935 1 12 1 18 1 39 1 49 1 114 1 139 1 163 1 176 1 198 1 207 1 212 1 247 1 254 1 262 1 280 1 284 1 287 1 347 1 358 1 422 1 432 1 452 1 464 1 479 1 480 1 485 1 487 1 511 1 544 1 546 1 568 1 582 1 587 1 588 1 594 1 599 1 607 1 610 1 614 1 650 1 664 1 724 1 733 1 747 1 783 1 792 1 794 1 800 1 807 1 817 1 843 1 881 1 886 1 892 1 923 1 929 1 932 1 943 1 945 1 946 1 957 1 959 1 979 2 1000 1 1001 1 1013 1 1025 1 1026 1 
1 209 12 1 15 1 25 1 30 1 48 2 104 1 109 1 112 1 139 1 146 1 157 1 188 1 217 1 223 2 226 1 235 1 256 1 268 1 326 1 363 1 373 1 393 1 400 1 408 2 430 1 452 1 454 1 484 1 502 1 525 1 527 1 534 1 549 1 551 1 562 1 575 1 583 1 612 1 616 1 665 1 718 1 737 1 791 1 792 1 814 1 820 1 837 1 840 1 865 1 880 1 915 1 939 1 947 1 948 1 17 1 22 1 39 1 76 1 86 1 87 1 134 1 147 1 151 1 160 1 186 1 198 1 221 1 248 1 251 1 292 1 309 1 331 1 351 1 354 1 368 1 409 1 459 1 530 1 540 1 544 1 573 1 588 1 593 1 594 1 599 1 620 1 634 1 645 1 646 1 711 1 716 1 732 1 739 1 763 1 818 1 828 1 835 1 838 1 845 1 872 1 877 1 907 1 909 1 921 1 959 1 967 1 979 1 996 1 997 1 970 1 988 1 1001 1 
1 212 13 1 53 2 70 1 85 1 91 1 93 1 95 2 99 1 144 1 156 1 202 1 250 1 252 1 262 1 264 1 271 1 314 1 345 1 360 2 367 1 381 1 393 1 398 1 433 1 448 2 477 1 510 1 534 1 549 2 588 1 591 1 622 1 626 1 634 1 704 1 706 1 723 1 726 1 739 1 756 1 766 1 768 1 797 1 802 1 807 1 844 1 846 1 869 1 875 1 881 1 890 1 899 1 916 1 924 1 927 1 2 1 9 1 15 1 45 1 47 1 49 1 102 1 136 1 168 1 235 1 240 1 244 1 248 1 256 1 321 1 327 1 353 1 380 1 389 1 466 1 467 1 468 1 470 1 474 1 519 1 524 1 541 1 550 1 556 1 574 1 592 1 597 1 604 1 607 1 608 1 611 1 637 1 647 1 673 1 691 1 712 1 715 1 717 1 729 1 752 1 786 1 818 1 826 1 902 1 915 1 919 1 920 1 921 1 928 1 941 1 992 1 995 2 973 1 999 1 1000 1 1001 1 1002 1 1012 1 1025 1 
1 209 2 1 4 1 16 1 38 1 42 1 52 1 60 2 89 1 94 1 109 1 111 1 121 1 173 1 207 1 242 1 244 1 288 1 297 1 361 1 383 1 394 1 450 1 478 1 489 1 499 1 500 1 532 1 536 1 579 1 584 1 589 1 604 1 621 1 637 2 649 1 664 1 695 1 701 1 709 1 726 1 734 1 737 1 749 1 751 1 756 1 759 1 765 1 815 1 821 1 834 1 837 1 854 1 877 1 908 1 1 1 21 1 25 1 44 1 75 1 81 1 100 1 101 1 118 1 152 1 154 1 155 1 219 1 227 1 305 1 309 1 321 1 348 1 357 1 362 1 363 1 407 1 441 1 446 1 466 1 467 1 493 1 512 1 527 1 531 1 556 1 567 1 575 1 650 1 652 1 667 1 708 1 719 1 761 1 777 1 792 1 794 1 798 1 812 1 824 1 825 1 847 1 852 1 891 1 900 1 915 1 935 1 946 1 959 1 964 2 994 1 1001 1 968 1 972 1 973 1 990 1 1002 1 1007 1 1008 1 
1 207 2 1 25 1 50 1 58 1 68 1 70 1 132 1 155 1 156 1 164 1 178 1 185 1 234 1 253 1 256 1 300 1 303 1 356 1 358 1 385 2 389 1 420 1 424 1 428 1 430 1 436 1 467 1 479 1 481 1 483 1 484 1 494 1 512 1 541 1 542 1 549 1 573 1 600 1 604 1 609 1 612 1 621 1 634 1 707 1 710 1 717 1 723 1 757 1 770 1 776 1 789 1 794 1 814 1 823 1 832 1 838 1 847 1 906 1 919 1 948 1 953 1 19 1 29 1 77 1 104 1 142 1 175 1 198 1 254 1 268 1 313 1 330 1 338 1 353 1 355 1 368 1 370 1 372 1 374 1 400 1 413 1 414 1 443 1 507 1 515 1 551 1 555 1 564 1 568 1 585 1 611 1 620 1 641 1 644 1 658 1 672 1 705 1 708 1 724 1 731 1 747 1 748 1 760 1 765 1 771 1 787 1 806 1 809 1 810 1 817 1 851 1 852 1 869 1 873 1 875 1 889 1 898 1 925 1 959 1 983 1 997 1 976 1 1008 1 1013 1 1017 1 
1 212 85 1 96 1 101 1 112 1 113 1 128 1 144 1 150 1 154 1 206 1 209 1 213 1 215 1 254 1 279 1 292 2 319 1 325 1 327 1 328 1 351 1 363 1 364 1 380 1 383 1 391 1 392 1 398 1 425 1 428 1 429 1 431 1 436 1 471 1 475 1 483 1 485 1 493 1 507 1 524 1 552 1 556 1 558 2 560 1 576 1 597 1 622 1 632 1 681 1 700 1 714 1 717 1 731 1 771 1 832 1 840 1 855 1 888 1 927 1 943 1 10 1 19 1 32 1 60 1 63 1 93 1 106 1 110 1 111 1 135 1 198 1 212 1 239 1 240 1 241 1 295 1 314 1 318 1 330 1 344 1 354 1 357 1 362 1 365 1 390 1 399 1 445 1 453 1 474 1 505 1 515 1 525 1 527 1 528 1 565 1 606 1 618 1 624 1 625 1 667 1 692 1 715 1 733 1 805 1 865 1 940 1 982 1 989 1 1000 1 979 1 986 1 994 1 996 1 1009 1 1017 1 1019 1 1026 1 
1 211 6 1 30 1 32 1 39 1 56 1 84 1 94 1 114 1 121 1 133 1 181 1 204 1 210 2 215 1 217 1 229 1 238 1 262 1 295 1 333 1 341 1 354 1 367 1 400 1 407 1 445 1 474 1 526 1 533 1 546 1 557 1 573 1 611 1 614 1 627 1 629 1 637 1 640 1 644 1 648 1 663 2 735 2 768 1 777 1 784 1 793 1 801 1 805 1 827 1 832 1 846 1 882 1 883 1 891 2 919 1 923 1 933 1 940 1 944 1 953 1 954 1 956 1 957 1 9 1 14 1 23 1 40 1 51 1 64 1 91 1 97 1 103 1 125 1 154 1 169 1 195 1 253 1 261 1 263 1 284 1 301 1 302 1 321 1 340 1 355 1 362 1 403 1 413 1 426 1 430 1 443 1 446 1 464 1 491 1 492 1 494 1 513 1 609 1 615 1 632 1 672 1 742 1 840 1 842 1 884 1 893 1 894 1 985 1 988 1 995 1 1003 1 1004 1 1008 1 1012 1 1021 1 1024 1 
1 204 21 1 24 1 92 1 94 1 111 1 127 1 142 1 152 1 204 1 222 1 228 1 248 1 350 1 356 1 364 2 409 2 411 1 434 1 436 1 441 1 449 1 467 1 486 1 491 1 503 1 512 1 514 1 524 2 546 1 579 1 603 1 611 1 614 1 643 1 648 1 676 1 697 1 707 1 729 1 774 1 797 1 823 1 832 1 852 1 910 1 923 1 930 1 945 1 20 1 49 1 61 1 77 1 91 1 104 1 115 1 155 1 171 1 207 1 212 1 224 1 233 1 241 1 251 1 275 1 286 1 307 1 318 1 338 1 358 1 373 1 418 1 428 1 453 1 460 1 466 1 493 1 529 1 530 1 534 1 568 1 593 1 597 1 600 1 621 1 633 1 637 1 660 1 737 1 783 1 819 1 858 1 869 1 870 1 880 1 882 1 888 1 914 1 944 1 961 1 973 1 993 1 996 1 964 1 990 1 994 1 995 1 
1 216 9 1 11 1 25 1 39 1 42 1 55 1 85 1 87 1 88 1 91 1 97 1 100 1 120 1 130 1 133 1 153 1 180 1 186 1 189 1 218 1 237 1 255 2 273 1 287 1 322 1 362 1 396 1 411 1 465 1 491 1 513 1 523 1 599 1 609 1 610 1 639 1 676 1 697 1 772 2 780 1 787 1 793 1 794 1 800 1 816 2 819 1 827 1 840 1 841 1 846 1 848 1 869 1 890 1 908 1 927 1 960 1 16 1 56 1 62 1 82 1 150 1 202 1 220 1 263 1 274 1 333 1 340 1 379 1 380 1 393 1 437 1 442 1 445 1 469 1 547 1 568 1 573 1 657 1 681 1 683 1 692 1 707 1 722 1 730 1 738 1 749 1 764 1 786 1 821 1 829 1 857 1 903 1 914 1 968 1 983 1 989 1 991 1 999 1 988 1 993 1 1000 1 1004 1 1007 1 1015 1 
1 212 16 1 51 1 52 1 84 1 87 1 93 1 123 1 157 2 166 1 209 1 210 1 244 1 258 1 321 1 324 2 332 2 337 1 345 1 352 1 389 1 434 1 435 1 488 1 492 1 496 1 517 1 537 1 545 1 549 1 555 1 565 1 568 2 573 2 593 1 598 1 601 1 629 1 637 1 638 1 646 2 742 1 752 1 758 1 799 2 804 1 817 1 842 1 859 1 883 1 916 1 925 1 929 1 2 1 40 1 46 1 56 1 61 1 99 1 104 1 167 1 168 1 186 1 187 1 197 1 220 1 229 1 232 1 242 1 260 1 273 1 342 1 344 1 358 1 360 1 365 1 368 1 390 1 413 1 429 1 440 1 449 1 453 1 508 1 509 1 513 1 528 1 529 1 586 1 589 1 590 1 591 1 623 1 656 1 662 1 675 1 679 1 697 1 701 1 732 1 736 1 774 1 785 1 792 1 800 1 806 1 809 1 818 1 820 1 829 1 848 1 858 1 884 1 910 1 918 1 928 1 968 1 976 1 983 1 987 1 1008 1 1010 1 1012 1 1021 1 1022 1 
1 205 2 1 8 1 11 1 67 1 68 1 71 1 96 1 101 2 104 1 105 2 124 1 134 1 160 1 181 1 188 2 200 1 210 1 213 2 252 1 264 1 276 2 283 1 290 1 301 1 304 1 310 1 352 1 359 1 364 2 387 1 390 1 412 1 432 1 441 1 468 1 486 1 510 1 514 1 551 1 552 1 558 1 565 1 623 1 644 1 654 2 665 1 727 1 739 1 748 1 765 1 782 1 784 1 793 1 801 1 819 1 830 1 843 1 911 1 26 1 46 1 89 1 97 1 117 1 140 1 147 1 203 1 230 1 274 1 302 1 306 1 317 1 349 1 368 1 396 1 398 1 414 1 519 1 559 1 584 1 595 1 603 1 615 1 624 1 636 1 641 1 642 1 697 1 720 1 760 1 763 1 790 1 808 1 814 1 837 1 852 1 867 1 881 1 928 1 979 1 992 1 971 1 972 1 977 1 978 1 984 1 990 1 998 1 1000 1 
1 213 27 1 35 1 45 1 93 1 111 1 114 1 156 1 157 1 252 1 259 1 262 1 274 1 283 1 302 1 344 1 345 1 363 1 370 1 380 1 407 2 422 1 428 1 442 2 489 1 507 1 527 1 606 1 657 1 682 1 695 1 701 1 702 1 717 1 736 1 737 1 744 1 747 1 760 1 765 1 773 1 785 1 799 1 811 1 830 1 831 1 846 1 864 1 870 1 872 1 892 1 907 1 939 1 952 1 956 2 28 1 56 1 59 1 71 1 79 1 91 1 100 1 106 1 122 1 133 1 142 1 144 1 173 1 176 1 193 1 206 1 212 1 263 1 266 1 280 1 305 1 319 1 322 1 328 1 377 1 378 1 391 1 439 1 440 1 472 1 481 1 515 1 518 1 529 1 551 1 565 1 590 1 611 1 625 1 644 1 650 1 655 1 663 1 753 1 756 1 774 1 824 1 828 1 861 1 899 1 938 1 951 1 960 1 965 1 979 1 982 1 986 1 981 1 1014 1 1019 1 
1 210 8 1 12 1 25 1 28 1 43 1 61 1 72 1 115 1 117 1 138 1 139 1 203 1 208 1 252 1 259 1 269 1 285 1 319 2 333 1 341 1 345 1 356 1 376 1 377 1 383 1 405 1 406 1 409 1 427 1 439 1 440 1 445 1 450 1 474 1 486 1 488 1 491 1 507 1 531 1 535 1 610 1 626 1 646 2 689 1 706 1 726 1 769 1 792 1 849 1 864 1 874 1 878 1 918 1 921 1 937 1 943 1 944 1 964 1 1 1 99 1 100 1 107 1 110 1 132 1 171 1 232 1 237 1 238 1 239 1 282 1 289 1 312 1 317 1 321 1 323 1 335 1 378 1 387 1 388 1 390 1 416 1 425 1 442 1 444 1 451 1 468 1 479 1 495 1 505 1 566 1 592 1 618 1 624 1 681 1 691 1 713 1 759 1 767 1 772 1 801 1 815 1 816 1 825 1 863 1 875 1 889 1 903 1 905 1 914 1 922 1 969 1 971 1 975 1 1001 1 967 1 996 1 
1 212 4 1 20 1 34 1 44 1 50 1 55 1 79 1 98 1 131 1 145 1 178 2 190 1 226 1 231 1 246 1 252 1 256 1 266 1 283 1 298 1 306 1 316 2 324 1 352 1 371 1 384 1 385 1 395 1 413 1 415 1 425 1 432 1 434 1 452 2 501 1 506 1 510 2 513 1 530 1 547 2 558 1 561 1 566 1 567 1 580 1 582 1 601 1 650 1 688 1 707 1 768 1 775 1 793 1 841 1 852 2 895 1 907 1 908 1 935 1 942 1 37 1 94 1 103 1 126 1 132 1 134 1 154 1 186 1 199 1 210 1 211 1 253 1 270 1 285 1 318 1 336 1 341 1 356 1 362 1 436 1 457 1 467 1 494 1 537 1 542 1 545 1 555 1 568 1 589 1 596 1 607 1 617 1 629 1 636 1 642 1 683 1 732 1 757 1 771 1 779 1 783 1 811 1 825 1 829 1 830 1 833 1 837 1 840 1 855 1 867 1 925 1 927 1 931 1 936 1 967 1 969 1 999 1 1010 1 
1 208 6 1 9 1 33 2 53 1 65 1 70 1 75 1 83 1 90 1 93 1 124 1 143 1 159 1 187 1 204 1 224 1 247 1 262 1 270 1 271 1 323 1 330 1 339 1 365 1 377 1 388 1 392 1 471 1 519 1 520 1 538 1 539 1 550 1 559 1 562 1 585 1 594 1 643 1 654 1 659 1 685 1 691 1 693 1 695 1 702 1 728 1 734 1 752 2 761 1 776 1 787 1 819 1 842 1 845 1 870 1 880 2 888 1 950 1 952 1 954 1 966 1 1 1 17 1 32 1 39 1 54 1 192 1 233 1 254 1 265 1 288 1 292 1 345 1 383 1 390 1 395 1 416 1 451 1 455 1 461 1 470 1 502 1 517 1 527 1 555 1 569 1 597 1 661 1 669 1 679 1 708 1 726 1 733 1 736 1 746 1 793 1 811 1 828 1 848 1 859 1 873 1 916 1 934 1 935 1 945 1 965 1 977 1 996 1 980 1 997 1 1016 1 1020 1 
1 205 17 1 43 1 46 2 74 1 87 1 95 2 103 1 122 1 138 1 154 1 186 1 222 1 240 1 264 2 322 2 323 1 341 1 355 1 376 2 413 1 423 1 428 2 434 1 467 1 471 1 517 1 532 1 560 1 566 1 576 2 578 1 594 1 628 1 632 1 634 1 637 1 648 1 687 1 693 1 718 1 761 1 779 1 795 1 798 1 810 1 822 1 838 1 902 2 909 1 927 1 944 1 961 1 962 1 4 1 67 1 79 1 89 1 99 1 100 1 101 1 126 1 142 1 168 1 184 1 213 1 251 1 257 1 259 1 286 1 295 1 325 1 336 1 343 1 388 1 389 1 394 1 408 1 427 1 450 1 495 1 497 1 512 1 515 1 522 1 538 1 557 1 567 1 579 1 583 1 599 1 653 1 662 1 670 1 684 1 685 1 692 1 754 1 768 1 790 1 791 1 815 1 868 1 932 1 940 1 951 1 956 1 971 1 975 1 988 1 990 2 995 1 973 1 994 1 1005 1 1019 1 
1 209 18 1 25 1 97 1 124 1 145 1 196 1 199 1 208 1 241 1 242 1 269 1 272 1 291 1 323 1 384 1 407 1 409 1 418 1 423 1 426 1 433 1 446 1 482 1 515 1 541 2 582 1 638 1 640 1 661 1 706 1 715 1 716 1 721 1 746 1 755 1 766 1 767 1 770 1 807 1 811 1 837 2 842 1 854 1 890 1 904 1 924 1 965 1 966 1 5 1 16 1 36 1 55 1 74 1 79 1 108 1 112 1 120 1 121 1 146 1 181 1 194 1 211 1 215 1 216 1 217 1 285 1 302 1 329 1 330 1 344 1 353 1 361 1 440 1 458 1 469 1 471 1 478 1 494 1 563 1 598 1 611 1 647 1 678 1 686 1 701 1 711 1 731 1 772 1 773 1 789 1 808 1 814 1 820 1 843 1 865 1 872 1 884 1 889 1 907 1 918 1 938 1 990 1 994 2 1001 1 972 1 973 1 974 1 976 1 999 1 1005 1 1014 1 1015 1 1019 1 1023 1 1027 1 
1 213 18 1 93 1 107 1 134 1 146 2 176 1 236 1 247 2 250 1 254 1 259 1 288 1 294 1 330 1 334 1 337 1 349 1 351 1 396 1 406 2 417 1 422 2 441 1 443 1 477 2 486 1 513 1 524 1 527 1 529 1 540 1 545 1 561 1 608 1 633 1 637 1 642 1 660 1 661 1 677 1 701 1 711 1 714 1 720 1 778 1 780 1 804 1 821 1 828 1 843 1 880 1 881 1 883 2 893 1 910 1 911 1 1 1 26 1 54 1 66 1 67 1 82 1 120 1 136 1 147 1 149 1 150 1 163 1 196 1 214 1 217 1 228 1 256 1 279 1 301 1 305 1 320 1 333 1 370 1 392 1 402 1 465 1 480 1 498 1 506 1 533 1 601 1 614 1 622 1 688 1 702 1 704 1 735 1 740 1 741 1 754 1 765 1 774 1 777 1 786 1 824 1 871 1 901 1 931 1 932 1 937 1 954 1 976 1 981 1 991 1 1005 1 1011 1 1012 1 1016 1 1017 1 
1 214 27 1 37 1 54 1 60 1 77 2 93 1 113 1 129 1 135 1 136 1 140 1 181 1 203 1 206 1 208 1 209 1 212 1 240 1 293 1 309 1 314 1 315 1 329 1 342 1 360 1 380 1 405 1 437 1 457 1 458 1 464 1 466 1 499 1 500 1 506 1 512 1 518 1 520 1 526 1 547 1 549 1 555 2 560 2 573 1 585 1 606 1 617 2 634 1 670 1 733 1 744 1 756 1 776 1 794 1 835 1 848 1 851 1 881 1 882 1 897 1 929 1 965 1 968 1 24 1 29 1 32 1 44 1 55 1 97 1 99 1 109 1 122 1 147 1 152 1 174 1 192 1 193 1 250 1 252 1 262 1 281 1 287 1 307 1 316 1 328 1 395 1 398 1 400 1 407 1 460 1 469 1 476 1 484 1 616 1 622 1 628 1 652 1 659 1 675 1 684 1 716 1 724 1 725 1 771 1 787 1 809 1 834 1 849 1 874 1 876 1 890 1 913 1 938 1 963 1 998 1 1000 1 1012 1 1016 1 
1 212 24 2 43 1 57 1 98 1 99 1 108 1 113 1 126 1 146 1 153 1 163 1 164 1 201 1 249 1 256 1 281 2 301 1 304 1 318 1 323 1 350 1 368 1 377 1 387 1 412 1 437 1 440 1 455 1 473 1 474 1 489 1 515 1 522 1 541 1 549 2 561 2 567 1 573 1 589 1 608 1 680 1 690 1 713 1 727 1 744 1 754 1 766 1 787 1 789 1 792 1 794 1 798 1 841 1 858 1 894 1 895 1 899 1 909 1 918 1 927 1 10 1 28 1 51 1 72 1 88 1 148 1 149 1 156 1 167 1 176 1 186 1 194 1 195 1 202 1 212 1 223 1 253 1 264 1 268 1 273 1 278 1 314 1 324 1 375 1 376 1 411 1 422 1 466 1 494 1 544 1 560 1 566 1 569 1 621 1 629 1 657 1 677 1 684 1 706 1 710 1 740 1 750 1 800 1 816 1 832 1 836 1 838 1 845 1 878 1 928 1 956 1 963 1 969 1 975 1 988 1 989 1 994 1 987 1 998 1 1005 1 1018 1 1019 1 
1 210 13 1 14 1 59 1 74 1 89 1 95 1 113 1 126 1 130 1 166 1 174 2 228 1 241 1 243 1 248 1 272 1 333 1 346 1 372 1 377 1 389 1 406 1 424 1 428 1 432 1 442 1 448 1 487 1 510 1 513 1 516 1 520 1 545 1 547 1 563 1 570 1 634 1 637 1 680 1 684 1 706 2 722 1 739 1 756 1 766 1 802 1 808 1 809 1 810 1 844 1 851 1 857 1 858 2 861 1 865 1 870 1 876 1 879 1 913 1 926 1 960 1 7 1 10 1 84 1 107 1 115 1 194 1 220 1 246 1 251 1 283 1 286 1 297 1 304 1 307 1 329 1 338 1 348 1 360 1 380 1 384 1 409 1 411 1 419 1 449 1 496 1 533 1 564 1 592 1 600 1 623 1 647 1 664 1 665 1 666 1 686 1 690 1 700 1 720 1 723 1 742 1 791 1 814 1 832 1 836 1 860 1 864 1 878 1 891 1 894 1 899 1 900 1 902 1 937 1 955 1 956 1 968 1 969 1 987 1 997 1 1004 1 1005 1 1019 1 1026 1 
1 205 9 1 13 1 21 1 68 1 102 1 124 1 132 1 145 1 159 1 172 1 204 1 207 1 216 1 226 1 242 1 249 1 252 1 282 1 306 1 325 1 332 2 335 1 359 1 386 1 444 1 488 1 510 1 532 1 533 1 535 1 555 2 562 1 568 1 574 1 585 1 589 1 605 1 607 1 620 1 634 1 640 1 663 1 685 1 747 1 778 1 793 2 800 1 802 1 827 1 829 1 832 1 834 1 849 1 867 1 888 2 899 1 903 1 915 1 918 2 947 1 2 1 10 1 57 1 64 1 73 1 88 1 110 1 116 1 122 1 126 1 151 1 169 1 208 1 223 1 308 1 327 1 330 1 350 1 362 1 404 1 415 1 425 1 428 1 432 1 447 1 452 1 461 1 506 1 507 1 566 1 594 1 600 1 633 1 668 1 686 1 713 1 715 1 733 1 734 1 744 1 774 1 813 1 823 1 825 1 856 1 878 1 910 1 920 1 939 1 948 1 969 1 988 2 1019 1 1026 1 
1 209 1 1 14 1 47 1 50 1 54 1 60 1 83 1 106 1 131 1 134 1 143 1 172 1 184 1 185 1 196 1 264 1 290 1 291 1 293 1 311 1 317 1 319 1 333 1 343 1 377 1 392 1 431 1 472 1 485 1 527 1 581 1 587 1 595 2 606 1 607 1 624 1 629 1 633 1 674 1 679 1 696 1 712 1 734 1 753 1 757 1 770 1 775 1 783 1 800 1 803 1 825 1 842 1 849 1 862 1 870 1 871 1 889 1 893 1 898 1 920 1 926 1 965 1 968 1 972 1 3 1 10 1 16 1 22 1 37 1 75 1 98 1 135 1 200 1 212 1 232 1 237 1 245 1 281 1 287 1 315 1 344 1 345 1 350 1 359 1 373 1 422 1 441 1 442 1 443 1 484 1 488 1 494 1 511 1 515 1 534 1 542 1 545 1 626 1 637 1 655 1 662 1 672 1 687 1 694 1 700 1 723 1 749 1 789 1 808 1 815 1 848 1 856 1 888 1 895 1 902 1 916 1 921 1 934 1 941 1 982 1 996 1 1025 1 1027 1 
1 211 18 1 42 1 116 1 128 1 137 1 138 2 151 1 160 1 171 1 179 1 183 1 197 1 249 1 260 1 285 1 291 1 292 1 300 1 316 1 321 1 355 1 370 1 376 1 391 1 423 1 429 1 444 1 454 1 491 1 492 1 500 1 501 1 654 2 669 1 690 2 718 1 734 1 761 1 776 1 788 1 817 1 831 1 835 1 873 1 947 1 951 1 962 1 970 1 4 1 5 1 54 1 62 1 83 1 99 1 102 1 142 1 163 1 170 1 175 1 177 1 187 1 206 1 211 1 234 1 239 1 240 1 248 1 256 1 271 1 274 1 302 1 335 1 403 1 415 1 450 1 464 1 482 1 509 1 516 1 538 1 556 1 599 1 726 1 729 1 730 1 752 1 777 1 804 1 813 1 843 1 850 1 860 1 877 1 881 1 884 1 900 1 930 1 949 1 957 1 969 1 985 1 1006 1 1009 1 1018 1 1019 1 1023 1 
1 208 2 1 58 2 84 1 97 1 139 1 159 1 167 1 184 1 189 1 208 1 217 1 264 1 273 1 276 2 278 2 312 1 333 1 335 1 343 1 348 1 359 1 365 1 366 1 388 1 398 1 435 1 450 2 488 1 503 1 533 1 534 1 536 1 554 1 566 1 571 1 575 1 606 1 636 1 687 1 714 1 720 2 793 1 801 1 806 1 837 1 870 1 877 1 881 1 883 1 891 1 902 1 913 1 920 1 951 2 967 1 15 1 31 1 34 1 57 1 85 1 87 1 99 1 117 1 177 1 186 1 192 1 193 1 224 1 237 1 317 1 371 1 378 1 394 1 432 1 446 1 448 1 461 1 463 1 480 1 486 1 487 1 509 1 519 1 624 1 637 1 673 1 693 1 703 1 709 1 710 1 768 1 773 1 785 1 797 1 799 1 809 1 833 1 854 1 861 1 904 1 911 1 915 1 929 1 947 1 963 1 989 1 994 1 1017 1 1024 1 1026 1 
1 212 33 1 36 1 38 1 41 1 51 1 52 1 59 1 68 1 162 1 176 1 188 1 205 1 228 1 232 1 287 1 294 1 309 1 320 1 329 1 336 1 338 1 367 1 383 1 385 1 388 1 390 1 395 1 415 1 422 1 439 1 514 1 570 1 580 1 587 1 605 1 623 1 663 1 689 1 699 1 705 1 715 1 748 1 768 1 817 1 818 1 820 1 833 2 839 1 854 1 933 1 936 1 1 1 14 1 40 1 74 1 75 1 79 1 92 1 166 1 169 1 180 1 198 1 213 1 216 1 237 1 249 1 279 1 298 1 302 1 356 1 357 1 380 1 406 1 414 1 458 1 469 1 497 1 520 1 560 1 608 1 628 1 666 1 671 1 686 1 695 1 739 1 760 1 769 1 770 1 799 1 832 1 852 1 890 1 910 1 913 1 920 1 923 1 963 1 1001 1 1002 1 1006 1 1012 1 1020 1 1023 1 1024 1 1026 1 
1 210 2 1 42 1 107 1 115 1 119 1 141 1 172 1 203 1 210 1 218 1 225 1 229 1 280 1 297 1 323 1 324 1 328 1 343 1 364 1 374 1 381 1 402 1 477 1 496 2 500 1 501 1 532 1 543 1 549 1 553 1 563 1 575 1 588 1 621 1 639 1 670 1 672 1 680 1 700 1 705 1 762 2 777 1 811 1 823 1 861 1 871 1 878 1 905 1 924 1 944 1 953 2 954 1 963 1 964 1 37 1 41 1 48 1 64 1 74 1 76 1 91 1 98 1 120 1 164 1 180 1 202 1 251 1 253 1 266 1 268 1 272 1 305 1 310 1 315 1 348 1 394 1 411 1 419 1 431 1 448 1 489 1 511 1 519 1 582 1 586 1 587 1 611 1 632 1 633 1 642 1 652 1 704 1 714 1 716 1 749 1 770 1 798 1 815 1 821 1 828 1 860 1 885 1 892 1 903 1 931 1 940 1 950 1 958 1 990 1 992 1 1000 1 1005 1 1018 1 1026 1 
1 210 2 1 57 1 72 1 77 1 105 1 124 1 136 1 139 1 152 1 157 1 159 1 166 1 174 1 194 1 197 1 220 1 232 1 257 1 276 1 279 1 289 1 292 1 298 1 320 1 367 1 380 1 385 2 409 1 421 1 428 2 430 1 450 1 455 1 476 1 489 1 496 1 533 1 579 1 609 1 617 1 651 1 683 1 689 1 690 2 701 1 711 1 725 1 752 2 753 1 771 2 788 1 793 1 812 1 830 1 849 2 856 1 864 1 870 1 921 1 951 1 8 1 12 1 14 1 22 1 23 1 25 1 48 1 65 1 82 1 148 1 229 1 247 1 266 1 293 1 318 1 369 1 383 1 403 1 438 1 465 1 473 1 498 1 519 1 520 1 521 1 529 1 583 1 587 1 601 1 611 1 620 1 625 1 668 1 677 1 710 1 727 1 743 1 747 1 756 1 761 1 774 1 813 1 826 1 835 1 846 1 867 1 907 1 911 1 967 1 990 1 999 1 1021 1 1023 1 1026 1 
1 210 6 1 14 1 33 1 38 1 55 1 60 1 63 1 98 1 130 1 132 1 134 1 155 1 181 1 209 1 265 1 286 1 289 2 346 1 347 1 350 1 385 1 437 1 442 1 454 1 493 1 516 2 563 1 569 1 579 1 626 1 665 1 683 1 699 1 700 1 720 1 732 1 747 1 774 1 786 1 806 1 845 1 851 1 854 1 865 1 913 1 914 1 916 2 920 1 923 1 942 1 945 1 970 1 13 1 19 1 21 1 26 1 30 1 57 1 91 1 95 1 103 1 106 1 119 1 144 1 152 1 158 1 171 1 184 1 194 1 196 1 200 1 251 1 258 1 264 1 269 1 306 1 312 1 367 1 391 1 409 1 417 1 433 1 436 1 465 1 488 1 511 1 515 1 517 1 564 1 582 1 586 1 591 1 596 1 609 1 615 1 638 1 640 1 651 1 666 1 682 1 693 1 714 1 755 1 798 1 836 1 849 1 860 1 863 1 871 1 885 1 907 1 911 1 949 1 964 1 982 1 985 1 994 1 1003 1 1011 1 1026 1 
1 207 20 1 25 1 30 1 50 1 90 2 91 1 110 1 113 2 127 1 144 1 159 1 182 1 211 1 219 1 225 1 238 1 241 1 243 1 261 1 270 1 294 1 298 1 304 1 316 1 328 1 352 1 389 1 393 1 411 1 417 1 437 1 446 1 507 1 550 1 580 1 591 2 665 1 677 1 715 1 764 1 786 1 812 1 820 1 821 1 884 1 886 1 888 1 904 1 910 1 924 1 927 1 958 1 964 1 975 1 981 1 68 1 73 1 105 1 107 1 134 1 158 1 163 1 227 1 244 1 259 1 293 1 297 1 318 1 326 1 329 1 330 1 331 1 378 1 409 1 410 1 412 1 423 1 428 1 441 1 470 1 472 1 487 1 494 1 521 1 530 1 532 1 548 1 549 1 552 1 554 1 558 1 564 1 566 1 571 1 584 1 585 1 598 1 635 1 672 1 697 1 705 1 706 1 750 1 752 1 760 1 762 1 807 1 810 1 817 1 839 1 842 1 851 1 856 1 879 1 911 1 913 1 931 1 986 1 994 1 1000 1 1010 1 1017 1 
1 209 9 1 36 1 64 1 66 1 86 1 90 1 98 1 119 1 122 1 133 1 149 1 151 1 157 1 163 1 169 1 180 2 185 1 218 1 219 1 242 1 279 1 283 1 307 1 310 1 335 1 336 1 339 1 346 1 361 1 383 1 393 1 414 1 420 1 430 1 431 1 455 1 478 1 503 1 527 1 535 1 547 1 599 1 627 1 646 1 660 1 665 1 688 1 698 1 728 1 735 1 741 1 773 1 777 1 782 1 788 1 790 1 838 1 888 1 893 1 903 1 905 1 908 1 913 1 957 1 961 1 962 1 18 1 72 1 78 1 110 1 115 1 126 1 138 1 150 1 153 1 175 1 203 1 214 1 235 1 240 1 272 1 290 1 317 1 330 1 352 1 357 1 376 1 461 1 462 1 482 1 543 1 559 1 582 1 591 1 638 1 641 1 651 1 674 1 723 1 736 1 746 1 757 1 809 1 822 1 831 1 876 1 990 1 987 1 988 1 1005 1 1015 1 1017 1 
1 210 55 1 59 1 78 1 80 1 139 1 198 1 200 1 210 1 226 1 227 1 234 1 237 1 273 1 280 1 300 1 301 1 318 1 343 1 376 1 414 1 417 1 451 1 482 1 503 1 505 1 546 1 566 1 567 1 570 1 655 1 658 1 682 1 709 1 739 1 746 1 758 1 759 1 784 1 818 1 829 1 878 1 919 1 924 1 932 1 940 1 950 1 72 1 81 1 89 1 92 1 106 1 149 1 154 1 171 1 176 1 185 1 195 1 223 1 249 1 250 1 276 1 283 1 293 1 299 1 315 1 319 1 336 1 361 1 366 1 402 1 405 1 452 1 471 1 528 1 565 1 580 1 581 1 588 1 592 1 593 1 638 1 639 1 640 1 644 1 666 1 669 1 674 1 690 1 693 1 710 1 736 1 741 1 776 1 821 1 864 1 873 1 889 1 895 1 909 1 926 1 963 1 1004 1 1006 1 1007 1 1022 1 1026 1 
1 215 15 1 30 1 41 1 58 1 59 1 65 1 71 1 72 1 77 1 87 2 128 1 133 1 151 1 175 1 194 1 202 1 218 1 234 1 238 1 242 1 254 1 304 1 311 1 325 1 328 1 332 1 346 1 367 1 400 2 403 1 405 1 431 1 468 1 494 1 497 1 516 1 529 1 555 1 570 1 586 1 595 1 610 1 614 1 651 1 659 1 669 1 670 1 676 1 700 1 713 1 751 2 753 1 769 1 779 1 782 1 801 1 813 1 839 1 883 1 906 1 921 1 925 1 959 1 976 1 48 1 55 1 80 1 117 1 129 1 140 1 149 1 165 1 176 1 219 1 263 1 264 1 267 1 269 1 280 1 310 1 317 1 327 1 335 1 336 1 391 1 407 1 416 1 455 1 488 1 492 1 517 1 527 1 537 1 587 1 622 1 638 1 649 1 652 1 675 1 694 1 715 1 754 1 759 1 760 1 781 1 807 1 815 1 875 1 887 1 913 1 946 1 981 1 991 1 1003 1 1011 1 1014 1 1019 1 1023 1 
1 207 36 1 40 1 71 1 96 1 103 1 124 1 129 1 144 2 155 1 161 1 189 1 194 1 196 1 238 1 260 1 269 1 286 1 293 1 299 1 307 1 324 1 334 1 364 1 375 1 426 1 433 1 457 2 465 1 470 1 474 1 547 1 562 1 600 1 602 1 637 1 674 1 679 1 684 1 690 1 697 1 700 1 712 1 713 1 746 1 785 1 801 1 804 1 842 1 884 1 893 1 899 1 904 1 913 1 919 2 925 1 929 1 936 1 964 1 12 1 24 1 29 1 32 1 35 1 38 1 73 1 77 1 83 1 140 1 154 1 204 1 206 1 229 1 242 1 247 1 289 1 330 1 384 1 402 1 484 1 508 1 533 1 534 1 588 1 601 1 609 1 655 1 668 1 676 1 695 1 699 1 757 1 760 1 765 1 772 1 775 1 780 1 795 1 798 1 805 1 810 1 826 1 830 1 836 1 866 1 890 1 922 1 923 1 958 1 982 1 990 1 991 1 1014 1 1015 1 1022 1 
1 209 8 1 39 1 47 1 60 1 70 1 93 1 95 1 98 1 120 1 124 1 125 1 131 1 144 1 153 1 162 1 179 1 183 1 193 1 201 1 215 1 225 1 252 1 306 1 363 1 366 1 386 1 392 1 404 1 431 1 465 1 472 1 475 1 480 1 509 1 517 1 522 1 538 1 569 1 596 1 608 2 612 1 629 1 645 1 662 1 675 1 696 1 738 1 776 1 796 1 805 2 851 1 896 1 899 2 903 1 904 1 905 1 918 1 920 1 962 1 973 1 19 1 41 1 68 1 83 1 102 1 133 1 175 1 180 1 198 1 199 1 227 1 240 1 286 1 295 1 297 1 317 1 332 1 369 1 398 1 412 1 413 1 424 1 428 1 436 1 445 1 453 1 454 1 498 1 507 1 549 1 571 1 576 1 618 1 640 1 647 1 690 1 718 1 723 1 734 1 752 1 756 1 759 1 773 1 783 1 785 1 793 1 847 1 888 1 917 1 919 1 928 1 931 1 972 1 983 1 998 1 1000 1 1011 1 1014 1 1023 1 
1 207 5 1 12 1 16 1 22 1 25 1 50 1 52 1 76 1 79 2 86 1 107 1 147 2 172 1 183 1 218 1 222 2 233 2 239 1 267 1 278 1 304 1 323 1 325 1 327 1 329 1 353 1 369 1 390 1 395 1 405 1 406 1 423 2 449 1 472 1 486 1 490 1 522 2 535 1 540 1 563 1 568 1 647 1 652 1 656 1 660 1 673 1 674 1 686 1 703 1 722 1 726 1 731 1 739 1 765 1 768 1 780 1 793 1 800 1 810 1 861 1 873 1 890 1 904 1 905 1 921 1 922 1 925 1 932 1 936 1 951 1 959 1 968 1 972 1 974 2 7 1 31 1 45 1 78 1 84 1 91 1 102 1 122 1 143 1 145 1 151 1 158 1 171 1 186 1 232 1 279 1 289 1 322 1 349 1 352 1 364 1 418 1 454 1 484 1 502 1 505 1 532 1 585 1 587 1 608 1 611 1 621 1 650 1 709 1 710 1 736 1 751 1 752 1 755 1 760 1 814 1 821 1 828 1 840 1 875 1 892 1 901 1 910 1 912 1 916 1 942 1 954 1 961 1 983 1 991 1 1004 1 1011 1 
1 208 40 1 74 2 84 1 92 1 98 1 99 1 128 1 136 1 145 1 168 2 192 1 206 1 233 1 243 1 256 1 268 1 286 1 313 1 334 2 338 1 378 1 393 2 405 1 409 1 427 1 441 1 452 1 462 1 481 1 484 1 507 1 548 1 555 1 586 1 593 1 594 1 607 1 619 1 620 2 674 1 696 1 706 2 719 1 721 1 750 1 818 2 870 1 885 1 941 1 958 1 961 1 972 1 977 1 25 1 41 1 59 1 64 1 70 1 140 1 143 1 163 1 170 1 191 1 213 1 214 1 295 1 304 1 311 1 322 1 326 1 333 1 349 1 351 1 384 1 387 1 456 1 469 1 496 1 550 1 551 1 560 1 575 1 599 1 630 1 635 1 638 1 641 1 643 1 648 1 653 1 659 1 723 1 726 1 753 1 794 1 795 1 804 1 810 1 841 1 880 1 894 1 916 1 919 1 928 1 947 1 1016 1 1018 1 
1 213 8 1 44 1 87 1 93 1 102 1 110 1 122 1 142 2 149 1 160 1 161 1 201 1 206 1 224 1 240 1 245 1 256 1 263 1 271 1 310 1 325 1 345 1 379 1 387 2 401 1 402 1 403 1 428 1 438 1 447 1 460 1 468 1 474 1 499 1 500 1 516 1 547 1 568 1 619 1 632 1 674 1 710 1 726 1 735 1 750 1 755 1 794 2 824 2 839 1 853 1 864 1 872 1 933 1 968 2 969 1 979 1 983 1 986 1 12 1 17 1 22 1 23 1 47 1 57 1 100 1 105 1 120 1 189 1 191 1 268 1 285 1 306 1 312 1 318 1 319 1 333 1 334 1 339 1 371 1 377 1 399 1 408 1 425 1 439 1 470 1 506 1 508 1 510 1 514 1 557 1 558 1 569 1 574 1 579 1 588 1 589 1 592 1 595 1 602 1 609 1 612 1 615 1 652 1 656 1 657 1 671 1 685 1 711 1 721 1 738 1 772 1 775 1 785 1 806 1 862 1 885 1 956 1 960 1 963 1 980 1 1012 1 1013 1 1023 1 1026 1 
1 205 2 1 13 1 20 1 26 1 54 1 61 1 66 2 67 2 107 1 171 1 187 1 189 1 193 1 208 1 215 1 217 1 242 1 268 1 282 1 285 1 297 1 309 1 311 1 316 1 345 1 364 1 380 1 386 1 400 1 421 2 450 1 456 1 460 1 484 1 489 1 521 1 536 1 552 1 572 1 576 1 610 1 644 1 659 1 664 1 679 1 695 1 706 1 721 1 731 1 765 1 771 1 828 1 842 2 873 1 890 1 894 1 904 1 906 2 919 1 924 1 930 1 941 1 961 1 970 1 988 1 5 1 11 1 45 1 102 1 106 1 132 1 140 1 156 1 158 1 160 1 173 1 183 1 213 1 221 1 247 1 270 1 271 1 287 1 292 1 305 1 328 1 336 1 363 1 408 1 432 1 472 1 496 1 506 1 509 1 523 1 560 1 561 1 589 1 594 1 623 1 648 1 691 1 701 1 718 1 743 1 749 1 755 1 770 1 791 1 808 1 832 1 854 1 872 1 985 1 986 1 993 1 998 1 1024 1 
1 214 22 1 32 1 36 1 61 1 67 1 122 1 152 2 178 1 180 1 194 1 224 1 241 1 262 1 292 1 300 1 302 1 314 1 318 1 346 1 348 1 363 1 402 1 428 1 429 1 442 1 470 1 489 1 510 1 517 1 552 1 553 2 581 1 582 2 601 1 605 1 621 1 629 1 641 1 661 1 676 1 682 1 683 1 742 1 747 1 748 1 749 1 755 1 768 1 816 1 834 1 853 2 887 1 906 1 918 1 947 1 955 1 963 1 9 1 25 1 33 1 48 1 54 1 91 1 104 1 130 1 132 1 155 1 161 1 167 1 176 1 210 1 229 1 272 1 281 1 294 1 296 1 328 1 342 1 367 1 368 1 381 1 395 1 397 1 407 1 441 1 455 1 458 1 504 1 536 1 546 1 576 1 585 1 603 1 631 1 634 1 642 1 688 1 695 1 720 1 726 1 744 1 754 1 763 1 800 1 819 1 822 1 827 1 830 1 836 1 859 1 869 1 875 1 898 1 901 1 925 1 926 1 979 1 1004 1 1014 1 1025 1 1027 1 
1 207 11 1 34 1 54 1 118 1 131 1 132 1 180 1 205 1 239 1 259 1 289 1 290 1 314 1 346 1 396 1 406 1 409 1 456 1 543 2 563 2 597 2 607 1 614 1 620 2 656 1 685 1 701 1 707 1 724 1 736 1 745 1 752 1 775 1 783 1 784 1 835 1 839 1 846 1 859 1 890 1 895 1 928 1 929 1 932 1 960 1 991 1 3 1 6 1 38 1 45 1 69 1 74 1 120 1 143 1 146 1 158 1 178 1 214 1 217 1 228 1 237 1 276 1 323 1 343 1 371 1 377 1 382 1 386 1 395 1 405 1 407 1 430 1 492 1 507 1 511 1 531 1 585 1 590 1 625 1 671 1 705 1 709 1 715 1 720 1 725 1 729 1 768 1 781 1 782 1 803 1 812 1 862 1 866 1 884 1 936 1 961 1 995 1 1000 1 1014 1 1024 1 
1 209 20 1 22 1 27 1 28 1 69 1 70 1 109 2 123 1 149 1 158 1 168 1 177 1 184 1 202 1 257 1 287 1 290 1 310 1 313 1 344 1 383 1 388 1 401 1 403 1 416 1 441 1 466 1 484 1 489 1 501 1 511 1 555 1 577 1 598 1 613 2 622 1 661 1 673 1 685 1 790 1 796 1 798 1 808 1 825 1 829 2 853 1 864 1 884 1 909 1 926 1 945 1 947 1 956 1 969 2 972 1 16 1 34 1 40 1 48 1 58 1 59 1 87 1 91 1 107 1 108 1 130 1 134 1 161 1 203 1 209 1 234 1 250 1 251 1 259 1 293 1 321 1 332 1 339 1 341 1 380 1 426 1 438 1 499 1 512 1 540 1 545 1 572 1 597 1 658 1 667 1 668 1 680 1 727 1 755 1 756 1 779 1 784 1 851 1 889 1 891 1 898 1 903 1 904 1 958 1 960 1 968 1 977 1 981 1 982 1 1001 1 1014 1 1025 1 
1 213 53 1 79 1 84 1 119 2 121 1 133 1 178 1 187 1 205 1 212 2 215 2 218 1 231 1 255 1 273 1 282 1 316 2 320 2 322 1 330 2 377 1 422 1 430 1 506 1 529 1 543 1 544 1 548 1 567 1 608 1 617 1 628 1 644 1 683 1 687 2 716 1 718 1 727 1 738 1 763 1 795 1 799 1 836 1 848 1 870 1 891 1 901 1 913 1 917 1 950 1 951 1 955 2 968 1 993 1 1 1 6 1 17 1 27 1 29 1 37 1 48 1 83 1 120 1 180 1 189 1 254 1 278 1 299 1 354 1 362 1 384 1 394 1 415 1 421 1 438 1 449 1 457 1 458 1 459 1 477 1 480 1 488 1 518 1 522 1 554 1 556 1 566 1 569 1 591 1 601 1 604 1 624 1 657 1 660 1 689 1 690 1 698 1 700 1 722 1 750 1 759 1 768 1 821 1 833 1 835 1 841 1 861 1 934 1 940 1 952 1 959 1 960 1 1000 1 1003 1 1006 1 1010 1 1023 1 1025 1 
1 206 48 1 49 1 78 1 80 1 85 1 125 1 158 1 161 1 165 1 171 1 172 1 256 1 271 1 272 1 283 1 298 1 304 1 307 1 318 2 324 1 342 1 353 1 429 1 453 1 480 1 503 1 507 1 527 1 535 1 565 1 585 1 594 1 602 1 616 1 631 1 657 1 676 1 682 1 722 1 723 1 728 1 730 1 748 1 750 1 767 1 799 1 847 1 851 1 932 1 936 1 938 1 949 1 954 1 960 1 967 1 10 1 29 1 39 1 62 1 70 1 104 1 127 1 153 1 175 1 190 1 194 1 229 1 245 1 281 1 289 1 295 1 339 1 341 1 348 1 354 1 363 1 380 1 390 1 401 1 410 1 440 1 465 1 492 1 504 1 506 1 516 1 519 1 523 1 529 1 572 1 577 1 655 1 659 1 700 1 717 1 735 1 763 1 764 1 766 1 769 1 772 1 773 1 778 1 787 1 790 1 796 1 816 1 829 1 833 1 846 1 857 1 872 1 888 1 898 1 925 1 934 1 945 1 946 1 958 1 965 1 975 1 998 1 
1 205 2 1 12 1 18 1 23 1 38 1 39 1 45 1 52 1 62 1 80 1 81 1 85 1 108 1 151 1 156 1 163 1 197 1 204 1 244 1 272 2 280 1 281 1 295 1 311 1 317 1 355 1 361 1 363 2 402 1 404 1 429 1 432 1 448 1 493 1 548 1 574 1 576 1 580 1 583 1 589 1 598 1 621 1 669 1 712 1 719 1 723 1 733 1 740 1 794 1 796 1 814 1 878 1 897 1 925 1 936 1 954 1 957 1 973 1 21 1 57 1 71 1 77 1 90 1 110 1 132 1 153 1 157 1 181 1 190 1 225 1 226 1 236 1 271 1 284 1 301 1 333 1 384 1 386 1 399 1 413 1 421 1 438 1 440 1 477 1 516 1 542 1 553 1 566 1 606 1 615 1 620 1 650 1 667 1 675 1 677 1 726 1 728 1 731 1 735 1 797 1 853 1 857 1 874 1 881 1 888 1 890 1 907 1 915 1 931 1 934 1 967 1 999 2 1023 1 
1 208 1 1 7 1 14 1 32 1 38 1 40 1 55 1 58 1 63 1 82 1 112 1 132 1 163 1 170 1 179 1 214 1 228 1 232 1 237 1 296 1 308 1 312 1 369 1 376 1 390 1 437 1 449 1 469 1 475 1 552 1 554 1 562 1 563 1 569 1 577 1 587 1 588 1 610 1 658 1 687 1 721 1 731 1 748 1 752 1 758 1 833 1 836 1 841 1 842 1 876 1 933 1 944 1 987 1 6 1 39 1 45 1 56 1 59 1 78 1 81 1 115 1 141 1 157 1 197 1 209 1 221 1 222 1 240 1 258 1 302 1 316 1 354 1 359 1 370 1 387 1 421 1 435 1 439 1 485 1 492 1 514 1 521 1 538 1 550 1 578 1 589 1 662 1 690 1 693 1 699 1 706 1 725 1 744 1 776 1 802 1 817 1 839 1 858 1 873 1 921 1 939 1 942 1 963 1 971 1 972 1 991 1 996 1 1009 1 1025 1 
1 214 19 1 31 1 52 1 56 1 73 1 100 1 122 1 131 1 137 1 143 1 147 1 150 1 208 1 222 1 227 1 229 1 244 1 249 1 284 1 301 1 307 1 318 1 347 1 373 1 376 1 395 1 406 1 452 1 479 1 482 1 508 1 528 1 542 1 560 1 572 1 583 1 586 1 659 1 721 1 749 1 767 1 802 1 848 1 861 1 883 1 885 1 889 1 893 1 894 1 916 2 927 1 933 1 946 1 961 1 997 2 14 1 20 1 23 1 29 1 45 1 64 1 68 1 105 1 110 1 115 1 146 1 164 1 174 1 185 1 190 1 235 1 245 1 270 1 281 1 329 1 370 1 393 1 401 1 426 1 451 1 462 1 483 1 484 1 488 1 510 1 541 1 544 1 546 1 561 1 581 1 595 1 634 1 745 1 757 1 762 1 797 1 800 1 811 1 856 1 870 1 873 1 875 1 891 1 902 1 904 1 925 1 955 1 966 1 969 1 980 1 1011 1 1015 1 1016 1 1023 1 1025 1 1026 1 
1 205 16 1 30 1 57 1 74 1 88 1 96 1 105 1 106 1 129 1 154 1 179 1 186 1 217 1 220 1 228 1 255 2 260 1 300 1 315 1 320 1 332 1 336 1 345 1 349 1 353 1 372 1 381 1 411 1 460 1 476 1 477 1 509 1 519 1 526 1 566 1 576 1 581 2 589 1 674 2 710 1 711 1 752 1 769 1 781 1 819 2 825 1 839 1 848 1 888 1 918 1 942 1 953 1 958 1 987 1 9 1 19 1 49 1 52 1 54 1 71 1 73 1 81 1 83 1 98 1 164 1 173 1 211 1 236 1 256 1 258 1 267 1 276 1 280 1 284 1 289 1 292 1 321 1 348 1 375 1 387 1 400 1 401 1 416 1 431 1 454 1 475 1 478 1 523 1 561 1 562 1 610 1 626 1 631 1 651 1 691 1 692 1 731 1 739 1 756 1 787 1 830 1 865 1 892 1 895 1 904 1 907 1 908 1 909 1 944 1 955 1 961 1 963 1 971 1 979 1 982 1 993 1 995 1 1002 1 1009 1 
1 210 15 1 19 1 34 1 47 1 52 1 65 2 73 1 78 1 92 1 120 1 122 1 177 1 212 1 238 1 257 1 273 1 302 1 318 1 328 1 330 1 356 1 358 1 392 1 430 1 432 1 437 1 438 2 469 1 491 1 495 1 507 1 518 2 524 2 530 1 576 1 596 1 617 1 639 1 647 1 673 1 680 1 698 1 701 2 702 1 725 1 728 1 731 1 735 1 739 1 750 2 754 1 762 1 769 1 794 2 825 1 840 1 866 1 888 1 905 1 910 1 944 1 947 1 956 1 965 1 969 1 978 1 994 1 2 1 5 1 76 1 97 1 171 1 247 1 283 1 293 1 299 1 310 1 326 1 357 1 372 1 373 1 375 1 390 1 411 1 451 1 463 1 493 1 556 1 582 1 583 1 600 1 603 1 616 1 677 1 756 1 797 1 806 1 811 1 872 1 878 1 892 1 933 1 942 1 953 1 954 1 955 1 1026 1 
1 0 978 1 813 1 215 1 585 1 203 1 465 1 331 1 2 1 916 1 479 1 901 1 537 1 821 1 354 1 621 1 649 1 654 1 872 1 851 1 614 1 567 1 623 1 911 1 684 1 594 1 844 1 370 1 433 1 531 1 762 1 835 1 679 1 224 1 323 1 472 1 152 1 422 1 275 1 890 1 946 1 685 1 897 1 228 1 412 1 843 1 390 1 698 1 822 1 273 1 311 1 238 1 148 1 129 1 269 1 444 1 242 1 24 1 767 1 522 1 378 1 168 1 189 1 940 1 437 1 420 1 3 1 426 1 722 1 718 1 50 1 101 1 948 1 956 1 190 1 36 1 20 1 540 1 303 1 945 1 570 1 834 1 207 1 361 1 846 1 205 1 45 1 258 1 108 1 147 1 288 1 333 1 175 1 145 1 227 1 900 1 896 1 318 1 736 1 373 1 854 1 880 1 802 1 955 1 451 1 230 1 428 1 699 1 305 1 804 1 670 1 622 1 495 1 743 1 481 1 517 1 468 1 779 1 417 1 1000 1 265 1 448 1 859 1 74 1 737 1 
1 0 122 1 596 1 173 1 656 1 300 1 944 1 290 1 240 1 133 1 864 1 836 1 374 1 572 1 870 1 605 1 363 1 959 1 712 1 365 1 720 1 112 1 287 1 774 1 269 1 481 1 261 1 598 1 536 1 270 1 903 1 343 1 439 1 902 1 413 1 985 1 79 1 624 1 89 1 390 1 714 1 369 1 44 1 587 1 219 1 149 1 506 1 58 1 352 1 109 1 933 1 490 1 995 1 717 1 939 1 716 1 507 1 588 1 312 1 942 1 249 1 101 1 469 1 769 1 18 1 786 1 891 1 904 1 215 1 510 1 55 1 338 1 737 1 862 1 294 1 64 1 681 1 652 1 124 1 119 1 1 1 981 1 197 1 778 1 171 1 551 1 248 1 539 1 690 1 220 1 564 1 843 1 871 1 462 1 766 1 256 1 111 1 532 1 488 1 20 1 323 1 666 1 657 1 83 1 297 1 227 1 830 1 431 1 75 1 258 1 40 1 
1 0 639 1 932 1 366 1 65 1 373 1 44 1 398 1 988 1 21 1 714 1 468 1 755 1 471 1 285 1 374 1 959 1 342 1 11 1 166 1 774 1 834 1 897 1 668 1 229 1 796 1 918 1 872 1 281 1 621 1 478 1 756 1 786 1 868 1 652 1 445 1 696 1 152 1 793 1 463 1 606 1 508 1 436 1 304 1 303 1 239 1 591 1 863 1 581 1 444 1 144 1 875 1 573 1 125 1 835 1 94 1 769 1 440 1 48 1 749 1 60 1 521 1 343 1 264 1 873 1 53 1 882 1 653 1 984 1 117 1 186 1 745 1 278 1 547 1 205 1 973 1 172 1 961 1 265 1 173 1 272 1 227 1 160 1 618 1 686 1 992 1 55 1 586 1 790 1 452 1 332 1 381 1 648 1 213 1 561 1 88 1 942 1 548 1 405 1 9 1 739 1 196 1 212 1 827 1 222 1 340 1 865 1 748 1 685 1 631 1 726 1 296 1 
1 0 903 1 546 1 11 1 44 1 756 1 165 1 51 1 311 1 63 1 475 1 908 1 528 1 89 1 616 1 399 1 82 1 372 1 67 1 807 1 387 1 17 1 830 1 856 1 537 1 170 1 712 1 601 1 843 1 765 1 825 1 145 1 620 1 879 1 983 1 713 1 640 1 744 1 427 1 941 1 525 1 731 1 337 1 499 1 757 1 434 1 59 1 560 1 347 1 838 1 722 1 9 1 734 1 624 1 409 1 641 1 266 1 268 1 275 1 263 1 458 1 406 1 679 1 688 1 885 1 973 1 598 1 391 1 285 1 317 1 700 1 972 1 512 1 131 1 531 1 968 1 614 1 363 1 254 1 979 1 291 1 853 1 710 1 970 1 273 1 831 1 287 1 887 1 969 1 915 1 429 1 933 1 351 1 610 1 820 1 241 1 422 1 548 1 91 1 62 1 400 1 905 1 32 1 424 1 206 1 40 1 76 1 231 1 786 1 846 1 87 1 305 1 591 1 178 1 496 1 485 1 589 1 56 1 635 1 508 1 130 1 484 1 301 1 
1 0 914 1 75 1 783 1 898 1 680 1 527 1 165 1 978 1 393 1 300 1 237 1 401 1 608 1 896 1 446 1 207 1 904 1 230 1 459 1 536 1 976 1 837 1 448 1 113 1 144 1 674 1 380 1 410 1 556 1 384 1 242 1 564 1 651 1 471 1 414 1 24 1 142 1 728 1 592 1 554 1 388 1 387 1 797 1 332 1 780 1 386 1 43 1 276 1 503 1 634 1 397 1 138 1 330 1 821 1 791 1 713 1 787 1 735 1 654 1 984 1 234 1 825 1 558 1 489 1 820 1 184 1 148 1 137 1 944 1 830 1 535 1 40 1 402 1 752 1 121 1 726 1 733 1 828 1 573 1 559 1 399 1 927 1 717 1 198 1 225 1 231 1 439 1 441 1 317 1 27 1 434 1 210 1 633 1 995 1 74 1 146 1 689 1 457 1 932 1 595 1 58 1 248 1 3 1 253 1 134 1 473 1 924 1 440 1 578 1 44 1 54 1 150 1 239 1 70 1 350 1 819 1 343 1 921 1 
1 0 799 1 204 1 558 1 693 1 843 1 86 1 593 1 77 1 524 1 588 1 762 1 681 1 516 1 349 1 724 1 215 1 60 1 286 1 743 1 343 1 221 1 170 1 476 1 830 1 89 1 859 1 860 1 354 1 366 1 195 1 932 1 626 1 773 1 32 1 353 1 443 1 6 1 911 1 595 1 142 1 740 1 127 1 790 1 453 1 334 1 597 1 698 1 603 1 91 1 267 1 39 1 179 1 508 1 389 1 190 1 277 1 139 1 405 1 881 1 372 1 266 1 689 1 183 1 984 1 566 1 306 1 723 1 311 1 956 1 451 1 346 1 785 1 535 1 99 1 733 1 272 1 431 1 961 1 653 1 705 1 919 1 253 1 136 1 781 1 242 1 115 1 425 1 133 1 586 1 58 1 752 1 67 1 537 1 572 1 847 1 314 1 155 1 519 1 745 1 949 1 800 1 880 1 897 1 352 1 376 1 943 1 729 1 148 1 538 1 256 1 410 1 387 1 475 1 
1 0 290 1 468 1 28 1 322 1 248 1 838 1 227 1 622 1 711 1 850 1 494 1 132 1 940 1 661 1 760 1 48 1 343 1 154 1 4 1 651 1 750 1 6 1 878 1 922 1 145 1 962 1 666 1 588 1 16 1 882 1 768 1 216 1 861 1 556 1 841 1 925 1 928 1 183 1 491 1 331 1 553 1 957 1 220 1 956 1 742 1 801 1 426 1 1 1 912 1 799 1 497 1 317 1 71 1 743 1 230 1 932 1 693 1 539 1 137 1 406 1 810 1 298 1 353 1 710 1 156 1 257 1 96 1 837 1 519 1 560 1 705 1 610 1 714 1 114 1 513 1 212 1 929 1 942 1 390 1 625 1 54 1 146 1 142 1 122 1 253 1 730 1 512 1 583 1 530 1 409 1 305 1 416 1 209 1 593 1 247 1 758 1 133 1 653 1 483 1 756 1 916 1 385 1 877 1 361 1 222 1 683 1 439 1 862 1 729 1 316 1 815 1 195 1 229 1 461 1 511 1 258 1 189 1 397 1 531 1 235 1 124 1 58 1 786 1 134 1 959 1 898 1 60 1 
1 0 1000 1 597 1 558 1 115 1 879 1 9 1 714 1 923 1 562 1 459 1 33 1 148 1 920 1 99 1 206 1 771 1 34 1 5 1 820 1 58 1 465 1 554 1 758 1 18 1 494 1 135 1 528 1 376 1 600 1 571 1 827 1 587 1 549 1 753 1 353 1 25 1 100 1 96 1 332 1 318 1 716 1 504 1 208 1 121 1 836 1 839 1 258 1 863 1 811 1 467 1 478 1 944 1 229 1 681 1 821 1 373 1 709 1 958 1 354 1 611 1 705 1 313 1 664 1 370 1 386 1 639 1 111 1 591 1 200 1 445 1 831 1 186 1 257 1 632 1 282 1 97 1 871 1 912 1 588 1 744 1 976 1 779 1 907 1 998 1 834 1 889 1 699 1 363 1 916 1 575 1 325 1 405 1 584 1 607 1 457 1 489 1 49 1 124 1 872 1 803 1 320 1 213 1 514 1 583 1 522 1 319 1 
1 0 742 1 593 1 743 1 95 1 934 1 1 1 155 1 250 1 66 1 314 1 663 1 617 1 715 1 540 1 119 1 282 1 775 1 790 1 108 1 798 1 698 1 835 1 91 1 640 1 821 1 219 1 816 1 850 1 123 1 745 1 890 1 905 1 828 1 730 1 766 1 297 1 584 1 402 1 851 1 150 1 340 1 468 1 670 1 947 1 690 1 195 1 562 1 299 1 193 1 7 1 430 1 538 1 180 1 555 1 554 1 776 1 295 1 151 1 770 1 464 1 65 1 532 1 452 1 432 1 995 1 804 1 130 1 950 1 279 1 118 1 158 1 202 1 12 1 249 1 90 1 510 1 962 1 434 1 592 1 737 1 888 1 310 1 784 1 829 1 637 1 982 1 246 1 49 1 466 1 372 1 676 1 200 1 580 1 826 1 36 1 797 1 87 1 311 1 186 1 673 1 563 1 966 1 551 1 443 1 332 1 716 1 654 1 693 1 634 1 778 1 122 1 559 1 598 1 43 1 
1 0 999 1 769 1 854 1 138 1 681 1 542 1 114 1 694 1 410 1 945 1 520 1 864 1 375 1 985 1 583 1 354 1 793 1 988 1 220 1 272 1 401 1 78 1 852 1 927 1 115 1 865 1 599 1 486 1 731 1 282 1 56 1 306 1 757 1 117 1 981 1 767 1 662 1 743 1 669 1 611 1 812 1 241 1 284 1 914 1 28 1 325 1 132 1 81 1 474 1 481 1 405 1 803 1 309 1 547 1 987 1 502 1 693 1 273 1 396 1 397 1 946 1 346 1 92 1 567 1 970 1 728 1 229 1 535 1 399 1 458 1 67 1 846 1 73 1 608 1 880 1 257 1 198 1 378 1 752 1 652 1 493 1 704 1 357 1 441 1 422 1 189 1 898 1 732 1 606 1 61 1 909 1 646 1 286 1 106 1 472 1 581 1 746 1 368 1 240 1 775 1 922 1 158 1 548 1 912 1 301 1 163 1 438 1 923 1 733 1 160 1 446 1 549 1 53 1 911 1 832 1 
1 0 962 1 892 1 304 1 177 1 9 1 845 1 959 1 100 1 628 1 108 1 142 1 74 1 393 1 971 1 669 1 659 1 534 1 990 1 30 1 557 1 351 1 397 1 760 1 82 1 204 1 814 1 169 1 681 1 664 1 454 1 181 1 833 1 580 1 474 1 917 1 799 1 104 1 533 1 380 1 78 1 718 1 575 1 40 1 1 1 511 1 613 1 955 1 127 1 933 1 566 1 666 1 516 1 373 1 797 1 608 1 374 1 427 1 925 1 850 1 934 1 732 1 711 1 194 1 725 1 558 1 452 1 166 1 699 1 576 1 423 1 625 1 560 1 232 1 383 1 335 1 340 1 236 1 607 1 119 1 308 1 432 1 693 1 536 1 102 1 736 1 840 1 445 1 569 1 758 1 229 1 405 1 93 1 180 1 414 1 201 1 831 1 490 1 685 1 796 1 978 1 829 1 661 1 834 1 328 1 482 1 485 1 167 1 349 1 347 1 970 1 
1 0 248 1 990 1 226 1 243 1 444 1 67 1 580 1 728 1 206 1 871 1 597 1 664 1 527 1 41 1 518 1 203 1 405 1 281 1 885 1 948 1 112 1 433 1 320 1 428 1 194 1 605 1 572 1 571 1 517 1 529 1 179 1 583 1 732 1 850 1 761 1 28 1 345 1 611 1 481 1 510 1 520 1 957 1 101 1 899 1 590 1 436 1 311 1 389 1 950 1 835 1 720 1 315 1 704 1 581 1 72 1 286 1 170 1 937 1 323 1 821 1 914 1 740 1 100 1 485 1 171 1 566 1 896 1 316 1 508 1 376 1 152 1 832 1 94 1 501 1 532 1 61 1 321 1 788 1 192 1 493 1 657 1 842 1 781 1 667 1 607 1 460 1 479 1 884 1 703 1 511 1 462 1 278 1 275 1 953 1 416 1 661 1 242 1 659 1 378 1 536 1 902 1 726 1 234 1 601 1 138 1 52 1 826 1 770 1 207 1 
1 0 639 1 133 1 698 1 167 1 331 1 903 1 573 1 574 1 264 1 914 1 936 1 917 1 113 1 813 1 609 1 401 1 418 1 928 1 511 1 524 1 800 1 114 1 723 1 675 1 65 1 535 1 837 1 913 1 678 1 992 1 300 1 194 1 46 1 371 1 323 1 217 1 366 1 43 1 780 1 470 1 787 1 986 1 179 1 168 1 238 1 261 1 373 1 730 1 406 1 582 1 202 1 499 1 502 1 551 1 200 1 752 1 62 1 51 1 189 1 964 1 580 1 260 1 278 1 671 1 987 1 198 1 969 1 994 1 902 1 554 1 588 1 687 1 993 1 614 1 175 1 271 1 433 1 738 1 385 1 625 1 748 1 99 1 93 1 67 1 196 1 340 1 920 1 118 1 58 1 853 1 846 1 367 1 83 1 360 1 4 1 409 1 311 1 655 1 783 1 809 1 469 1 485 1 463 1 315 1 597 1 174 1 505 1 313 1 393 1 235 1 915 1 319 1 408 1 942 1 985 1 764 1 540 1 55 1 35 1 863 1 336 1 674 1 814 1 
1 0 67 1 68 1 322 1 626 1 199 1 399 1 165 1 518 1 775 1 447 1 336 1 623 1 739 1 671 1 925 1 231 1 499 1 191 1 90 1 458 1 232 1 56 1 473 1 172 1 695 1 349 1 768 1 276 1 32 1 706 1 455 1 732 1 57 1 215 1 983 1 524 1 300 1 75 1 890 1 134 1 647 1 366 1 364 1 461 1 374 1 164 1 517 1 167 1 290 1 884 1 931 1 961 1 359 1 110 1 883 1 536 1 755 1 433 1 680 1 51 1 942 1 704 1 530 1 891 1 986 1 843 1 918 1 23 1 691 1 264 1 203 1 248 1 655 1 395 1 650 1 515 1 419 1 171 1 184 1 218 1 381 1 799 1 495 1 929 1 396 1 859 1 752 1 785 1 605 1 412 1 657 1 309 1 415 1 479 1 646 1 124 1 76 1 969 1 636 1 187 1 837 1 189 1 784 1 870 1 877 1 643 1 140 1 848 1 532 1 610 1 746 1 866 1 316 1 370 1 10 1 820 1 941 1 155 1 787 1 624 1 573 1 501 1 924 1 999 1 
1 0 710 1 385 1 170 1 858 1 265 1 821 1 879 1 105 1 633 1 3 1 704 1 116 1 753 1 489 1 175 1 250 1 912 1 945 1 520 1 860 1 754 1 235 1 989 1 697 1 147 1 999 1 35 1 836 1 886 1 742 1 542 1 2 1 56 1 638 1 631 1 913 1 428 1 636 1 800 1 268 1 971 1 75 1 200 1 597 1 231 1 18 1 155 1 727 1 375 1 300 1 896 1 498 1 786 1 644 1 967 1 901 1 24 1 743 1 922 1 309 1 557 1 36 1 894 1 748 1 172 1 131 1 446 1 37 1 907 1 815 1 7 1 661 1 245 1 115 1 221 1 608 1 708 1 434 1 566 1 148 1 426 1 60 1 217 1 271 1 515 1 176 1 283 1 699 1 82 1 476 1 545 1 297 1 51 1 406 1 357 1 395 1 688 1 624 1 681 1 119 1 767 1 781 1 607 1 705 1 594 1 715 1 893 1 773 1 78 1 482 1 712 1 1 1 749 1 970 1 910 1 
1 0 689 1 518 1 7 1 433 1 771 1 366 1 770 1 783 1 453 1 633 1 147 1 942 1 458 1 907 1 720 1 710 1 737 1 982 1 441 1 761 1 739 1 895 1 67 1 653 1 773 1 542 1 387 1 785 1 557 1 941 1 119 1 903 1 719 1 461 1 818 1 578 1 300 1 612 1 151 1 928 1 765 1 882 1 28 1 573 1 950 1 740 1 529 1 760 1 259 1 88 1 308 1 51 1 388 1 294 1 351 1 413 1 820 1 503 1 563 1 121 1 514 1 30 1 687 1 315 1 240 1 983 1 195 1 340 1 395 1 144 1 253 1 648 1 175 1 758 1 442 1 712 1 322 1 776 1 863 1 639 1 430 1 541 1 814 1 490 1 787 1 173 1 161 1 154 1 957 1 231 1 602 1 861 1 695 1 977 1 606 1 548 1 537 1 389 1 163 1 970 1 800 1 438 1 84 1 451 1 644 1 794 1 535 1 55 1 914 1 420 1 564 1 660 1 683 1 958 1 647 1 591 1 
1 0 209 1 114 1 937 1 35 1 142 1 411 1 674 1 55 1 163 1 741 1 563 1 719 1 679 1 366 1 839 1 399 1 824 1 904 1 497 1 541 1 844 1 694 1 44 1 544 1 602 1 449 1 639 1 812 1 499 1 552 1 269 1 34 1 357 1 297 1 813 1 435 1 239 1 827 1 255 1 138 1 811 1 799 1 188 1 150 1 256 1 475 1 204 1 481 1 841 1 372 1 565 1 770 1 817 1 697 1 727 1 873 1 291 1 242 1 192 1 814 1 98 1 645 1 183 1 401 1 517 1 722 1 508 1 786 1 972 1 213 1 612 1 943 1 347 1 236 1 341 1 767 1 693 1 323 1 462 1 200 1 368 1 417 1 428 1 946 1 73 1 87 1 597 1 550 1 657 1 989 1 338 1 420 1 979 1 494 1 789 1 751 1 404 1 49 1 655 1 172 1 218 1 90 1 136 1 802 1 396 1 391 1 796 1 976 1 76 1 880 1 805 1 731 1 
1 0 279 1 379 1 55 1 867 1 189 1 686 1 597 1 688 1 499 1 273 1 730 1 470 1 203 1 847 1 575 1 780 1 317 1 80 1 2 1 964 1 558 1 48 1 332 1 38 1 171 1 887 1 66 1 283 1 407 1 682 1 958 1 719 1 520 1 154 1 374 1 976 1 455 1 922 1 680 1 73 1 342 1 746 1 973 1 259 1 836 1 653 1 969 1 44 1 72 1 466 1 630 1 492 1 221 1 331 1 972 1 985 1 229 1 278 1 640 1 930 1 297 1 156 1 70 1 572 1 555 1 517 1 10 1 136 1 335 1 500 1 635 1 696 1 507 1 234 1 355 1 974 1 511 1 561 1 304 1 550 1 315 1 211 1 710 1 249 1 104 1 750 1 400 1 879 1 228 1 395 1 8 1 523 1 675 1 579 1 817 1 328 1 43 1 650 1 381 1 480 1 509 1 892 1 390 1 401 1 796 1 162 1 268 1 345 1 798 1 819 1 616 1 968 1 282 1 950 1 22 1 191 1 600 1 351 1 161 1 
1 0 45 1 471 1 227 1 872 1 952 1 723 1 223 1 873 1 476 1 421 1 505 1 442 1 832 1 231 1 720 1 825 1 483 1 691 1 151 1 292 1 490 1 465 1 246 1 215 1 774 1 538 1 153 1 101 1 88 1 325 1 852 1 661 1 698 1 254 1 238 1 450 1 870 1 130 1 545 1 370 1 26 1 210 1 203 1 385 1 663 1 619 1 280 1 191 1 239 1 934 1 792 1 394 1 230 1 195 1 978 1 530 1 55 1 807 1 419 1 783 1 335 1 857 1 967 1 771 1 253 1 28 1 42 1 290 1 932 1 795 1 596 1 683 1 475 1 526 1 493 1 583 1 679 1 404 1 922 1 2 1 415 1 664 1 797 1 352 1 138 1 167 1 24 1 344 1 591 1 444 1 25 1 76 1 553 1 747 1 433 1 267 1 927 1 746 1 638 1 558 1 186 1 523 1 456 1 152 1 891 1 815 1 609 1 30 1 480 1 628 1 461 1 342 1 511 1 160 1 749 1 120 1 633 1 841 1 568 1 736 1 452 1 
1 0 371 1 5 1 442 1 635 1 345 1 131 1 670 1 260 1 469 1 787 1 770 1 925 1 935 1 746 1 271 1 865 1 413 1 27 1 678 1 859 1 731 1 753 1 301 1 201 1 568 1 170 1 843 1 468 1 766 1 143 1 470 1 780 1 547 1 90 1 599 1 64 1 700 1 593 1 281 1 189 1 246 1 501 1 714 1 750 1 573 1 454 1 305 1 343 1 804 1 172 1 297 1 475 1 928 1 126 1 516 1 324 1 49 1 133 1 802 1 480 1 63 1 855 1 856 1 688 1 193 1 713 1 339 1 308 1 95 1 616 1 89 1 720 1 311 1 807 1 364 1 668 1 518 1 505 1 874 1 726 1 730 1 161 1 209 1 218 1 357 1 904 1 258 1 775 1 830 1 835 1 705 1 962 1 938 1 575 1 596 1 134 1 141 1 351 1 754 1 174 1 41 1 34 1 664 1 584 1 689 1 733 1 736 1 462 1 553 1 503 1 493 1 980 1 793 1 62 1 511 1 77 1 265 1 24 1 267 1 10 1 883 1 959 1 428 1 679 1 
1 0 323 1 917 1 11 1 790 1 645 1 263 1 80 1 544 1 457 1 123 1 232 1 268 1 666 1 120 1 394 1 56 1 834 1 700 1 139 1 50 1 103 1 345 1 333 1 406 1 3 1 986 1 421 1 190 1 824 1 570 1 771 1 853 1 856 1 194 1 721 1 478 1 648 1 498 1 349 1 296 1 984 1 13 1 732 1 449 1 866 1 246 1 720 1 828 1 715 1 272 1 697 1 314 1 244 1 343 1 401 1 443 1 175 1 886 1 193 1 176 1 151 1 213 1 938 1 1 1 795 1 128 1 391 1 682 1 212 1 606 1 250 1 797 1 288 1 149 1 538 1 729 1 309 1 276 1 502 1 416 1 118 1 10 1 170 1 569 1 572 1 788 1 164 1 552 1 211 1 725 1 940 1 925 1 962 1 946 1 883 1 407 1 922 1 911 1 704 1 383 1 785 1 881 1 26 1 507 1 593 1 258 1 298 1 53 1 134 1 789 1 402 1 325 1 289 1 321 1 
1 0 17 1 148 1 999 1 911 1 677 1 256 1 625 1 997 1 788 1 817 1 849 1 969 1 233 1 511 1 990 1 22 1 212 1 723 1 80 1 976 1 424 1 33 1 819 1 599 1 294 1 943 1 678 1 980 1 555 1 226 1 716 1 685 1 289 1 826 1 884 1 466 1 768 1 522 1 650 1 181 1 847 1 539 1 856 1 722 1 345 1 803 1 737 1 11 1 894 1 276 1 622 1 483 1 353 1 257 1 32 1 793 1 46 1 143 1 776 1 806 1 565 1 34 1 459 1 303 1 25 1 978 1 760 1 985 1 694 1 501 1 896 1 866 1 675 1 282 1 141 1 324 1 563 1 682 1 70 1 614 1 200 1 887 1 590 1 35 1 995 1 315 1 987 1 443 1 196 1 823 1 13 1 743 1 882 1 220 1 800 1 108 1 218 1 672 1 435 1 305 1 946 1 905 1 658 1 643 1 833 1 407 1 577 1 941 1 872 1 447 1 829 1 59 1 496 1 454 1 298 1 158 1 232 1 759 1 633 1 
1 0 316 1 698 1 787 1 494 1 150 1 802 1 993 1 591 1 920 1 11 1 587 1 978 1 169 1 884 1 826 1 96 1 837 1 231 1 468 1 991 1 668 1 278 1 716 1 404 1 945 1 35 1 748 1 80 1 396 1 821 1 18 1 678 1 280 1 64 1 148 1 575 1 900 1 959 1 879 1 660 1 40 1 797 1 917 1 813 1 470 1 950 1 709 1 43 1 616 1 207 1 424 1 646 1 560 1 869 1 331 1 864 1 914 1 471 1 923 1 48 1 822 1 881 1 789 1 73 1 485 1 76 1 565 1 541 1 724 1 766 1 385 1 394 1 245 1 341 1 516 1 863 1 867 1 711 1 375 1 623 1 691 1 338 1 539 1 334 1 435 1 661 1 14 1 358 1 123 1 357 1 58 1 503 1 913 1 615 1 386 1 890 1 266 1 723 1 689 1 908 1 460 1 618 1 943 1 89 1 238 1 903 1 513 1 581 1 699 1 977 1 91 1 218 1 772 1 117 1 767 1 321 1 366 1 
1 0 681 1 585 1 407 1 93 1 55 1 621 1 196 1 123 1 291 1 999 1 243 1 634 1 344 1 995 1 547 1 424 1 189 1 139 1 703 1 439 1 324 1 612 1 776 1 75 1 50 1 226 1 953 1 541 1 732 1 512 1 402 1 608 1 923 1 945 1 214 1 955 1 673 1 288 1 362 1 774 1 523 1 609 1 210 1 169 1 629 1 275 1 13 1 96 1 994 1 694 1 320 1 591 1 400 1 307 1 660 1 290 1 630 1 195 1 421 1 901 1 398 1 832 1 902 1 942 1 843 1 798 1 283 1 975 1 11 1 569 1 254 1 430 1 687 1 872 1 834 1 392 1 524 1 177 1 654 1 655 1 588 1 378 1 744 1 467 1 930 1 167 1 854 1 873 1 90 1 941 1 605 1 309 1 693 1 154 1 442 1 576 1 626 1 151 1 241 1 728 1 438 1 99 1 929 1 319 1 37 1 386 1 747 1 213 1 773 1 245 1 801 1 840 1 179 1 746 1 998 1 481 1 992 1 595 1 760 1 281 1 472 1 311 1 349 1 168 1 
1 0 304 1 688 1 66 1 557 1 507 1 984 1 271 1 442 1 742 1 990 1 628 1 434 1 506 1 195 1 371 1 589 1 322 1 856 1 624 1 478 1 559 1 347 1 974 1 907 1 797 1 571 1 958 1 927 1 643 1 798 1 174 1 712 1 302 1 70 1 978 1 520 1 827 1 634 1 463 1 154 1 973 1 600 1 202 1 977 1 952 1 173 1 980 1 981 1 14 1 344 1 573 1 438 1 999 1 675 1 862 1 191 1 638 1 29 1 757 1 214 1 526 1 337 1 521 1 485 1 531 1 42 1 283 1 215 1 416 1 311 1 768 1 944 1 734 1 355 1 512 1 430 1 717 1 180 1 1001 1 310 1 137 1 249 1 157 1 785 1 62 1 864 1 669 1 324 1 27 1 296 1 664 1 69 1 44 1 221 1 51 1 351 1 106 1 784 1 46 1 112 1 437 1 360 1 913 1 979 1 328 1 83 1 871 1 782 1 458 1 547 1 489 1 540 1 720 1 558 1 620 1 567 1 120 1 382 1 597 1 763 1 578 1 255 1 487 1 654 1 689 1 723 1 774 1 339 1 953 1 432 1 
1 0 597 1 347 1 145 1 703 1 281 1 464 1 875 1 103 1 50 1 945 1 688 1 310 1 731 1 826 1 548 1 266 1 913 1 951 1 367 1 799 1 507 1 99 1 264 1 652 1 155 1 897 1 649 1 670 1 134 1 553 1 827 1 859 1 969 1 142 1 585 1 469 1 773 1 291 1 760 1 476 1 307 1 404 1 910 1 465 1 857 1 650 1 338 1 752 1 601 1 92 1 623 1 992 1 166 1 265 1 704 1 139 1 193 1 171 1 158 1 189 1 436 1 815 1 603 1 136 1 692 1 593 1 293 1 563 1 640 1 41 1 873 1 181 1 575 1 800 1 39 1 667 1 85 1 397 1 832 1 940 1 304 1 745 1 49 1 447 1 572 1 523 1 867 1 9 1 744 1 183 1 942 1 509 1 71 1 209 1 93 1 728 1 127 1 471 1 467 1 587 1 150 1 400 1 950 1 705 1 287 1 253 1 505 1 197 1 630 1 98 1 461 1 653 1 808 1 221 1 975 1 375 1 561 1 53 1 151 1 
