521 27600 011 2
1 213 366 1 326 1 417 1 475 1 348 1 294 1 102 2 317 1 313 1 381 1 74 1 258 1 29 1 469 1 66 1 285 1 269 1 300 1 64 1 83 2 35 2 393 1 231 1 251 1 173 1 113 1 55 1 401 1 112 1 180 1 304 1 323 1 499 1 280 1 253 1 181 1 312 1 93 2 165 1 131 1 88 1 397 1 271 1 395 1 287 1 290 1 398 1 288 1 157 1 90 1 461 1 281 1 205 2 162 2 161 1 226 1 177 1 40 2 343 1 171 1 314 1 126 1 380 1 48 2 436 1 471 1 8 2 415 1 360 1 434 1 82 1 100 1 167 1 42 1 489 1 92 1 125 1 419 1 225 1 84 2 23 1 14 1 33 1 36 1 59 1 63 1 69 1 73 1 79 1 95 1 99 1 107 1 109 1 114 1 115 1 116 1 128 1 142 1 149 1 150 1 189 1 191 1 198 1 222 1 246 1 266 1 272 1 292 1 319 1 330 1 337 1 346 1 359 1 363 1 365 1 367 1 369 1 372 1 384 1 413 1 416 1 424 1 432 1 441 1 458 1 462 1 480 1 
1 192 204 1 394 1 269 2 92 1 78 1 287 1 415 1 186 1 270 2 49 1 71 1 87 1 460 1 42 1 174 1 277 2 408 1 382 1 200 1 272 1 329 1 414 1 320 1 162 1 250 1 327 1 294 1 220 1 214 1 231 1 59 1 311 2 301 1 259 1 418 1 248 1 48 1 55 1 154 1 19 1 322 1 94 1 167 1 130 1 360 1 197 1 345 1 412 1 357 1 199 1 380 1 477 1 370 1 312 1 429 1 324 1 187 1 3 1 8 1 13 1 16 1 24 1 36 1 41 1 58 1 79 1 89 1 107 1 111 1 116 1 122 1 123 1 129 1 138 1 143 1 147 1 152 1 157 1 160 1 189 1 218 1 222 1 266 1 284 1 323 1 350 1 361 1 362 1 373 1 386 1 397 1 398 1 401 1 416 1 426 1 454 1 455 1 459 1 472 1 499 1 
1 214 376 1 40 2 147 1 184 2 89 1 466 1 213 2 132 1 439 1 120 1 197 2 77 2 157 2 59 1 164 1 313 2 274 2 276 1 473 2 170 1 5 2 333 1 307 1 225 1 11 1 317 1 407 1 387 1 474 1 107 1 241 1 63 1 25 1 271 2 6 2 363 1 65 1 138 1 368 1 402 1 382 1 431 1 490 1 260 1 433 2 41 2 468 1 2 1 7 1 13 1 39 1 45 1 61 1 70 1 71 1 76 1 92 1 97 1 106 1 124 1 133 1 136 1 139 1 148 1 153 1 168 1 192 1 201 1 203 1 217 1 237 1 243 1 264 1 266 1 269 1 291 1 306 1 314 1 316 1 322 1 345 1 357 1 392 1 401 1 405 1 424 1 430 1 434 1 445 1 460 1 472 1 482 1 
1 202 404 1 409 1 306 1 214 1 213 1 122 1 59 1 339 1 57 1 301 1 370 1 433 1 263 1 136 1 334 1 149 1 142 1 204 1 383 1 77 1 167 1 369 1 40 2 49 1 390 1 228 1 147 1 251 1 135 1 190 1 260 1 82 1 419 1 446 1 197 1 137 1 156 1 493 1 296 1 18 1 324 2 51 1 342 2 252 1 181 1 120 1 224 1 410 1 216 1 335 1 482 1 447 1 454 1 182 1 193 1 280 1 121 1 279 1 9 1 7 1 42 1 43 1 60 1 66 1 68 1 73 1 93 1 115 1 125 1 128 1 153 1 164 1 201 1 207 1 230 1 237 1 240 1 245 1 250 1 253 1 255 1 262 1 267 1 269 1 273 1 285 1 305 1 310 1 341 1 344 1 376 1 381 1 399 1 420 1 422 1 434 1 437 1 438 1 440 1 441 1 443 1 456 1 458 1 466 1 474 1 486 1 501 1 502 1 503 1 
1 201 3 2 214 2 420 1 342 1 293 1 134 1 357 1 52 1 448 1 410 1 238 1 308 1 384 2 195 1 161 1 286 1 250 2 399 1 215 1 189 1 107 1 489 2 383 1 354 1 73 1 83 1 309 1 216 1 152 1 301 1 55 1 365 1 322 1 416 1 418 1 283 1 151 2 79 1 148 1 497 1 211 1 147 2 47 1 496 1 103 2 86 1 218 1 192 1 181 1 219 1 60 1 173 2 101 1 11 1 53 1 76 1 85 1 116 1 117 1 127 1 131 1 141 1 171 1 174 1 176 1 182 1 185 1 197 1 202 1 204 1 212 1 217 1 224 1 227 1 229 1 236 1 248 1 249 1 270 1 277 1 278 1 280 1 299 1 318 1 328 1 343 1 345 1 355 1 389 1 391 1 405 1 413 1 419 1 421 1 426 1 434 1 441 1 442 1 443 1 447 1 450 1 466 1 475 1 488 1 
1 201 3 2 446 1 120 1 179 1 72 1 483 1 394 2 427 1 435 1 189 1 119 1 220 2 178 1 258 1 213 1 183 1 263 1 389 1 364 1 423 1 80 1 117 1 265 1 233 1 346 1 216 2 380 2 116 1 229 1 336 1 165 1 62 1 97 1 55 1 484 1 47 2 465 1 379 1 488 1 424 1 437 1 448 2 393 1 51 1 194 2 415 1 314 1 217 2 52 1 365 2 286 1 428 2 12 1 261 1 197 1 59 1 371 1 21 1 9 1 32 1 45 1 70 1 75 1 81 1 89 1 110 1 137 1 143 1 147 1 161 1 167 1 186 1 193 1 200 1 205 1 212 1 224 1 226 1 235 1 242 1 245 1 257 1 318 1 323 1 332 1 349 1 370 1 372 1 381 1 391 1 403 1 418 1 431 1 433 1 440 1 444 1 447 1 460 1 462 1 467 1 470 1 472 1 476 1 481 1 498 1 503 1 508 1 510 1 
1 207 473 1 266 1 472 1 318 1 435 1 235 2 91 1 154 1 257 1 305 1 487 1 161 1 218 1 198 1 139 1 84 1 389 1 127 2 114 1 355 1 388 1 440 1 346 1 8 1 383 1 143 1 64 1 75 1 438 1 94 1 425 2 224 1 51 1 328 1 334 1 499 1 248 1 27 1 152 1 384 2 81 2 284 1 392 1 432 1 136 2 211 1 3 1 4 1 11 1 13 1 21 1 48 1 56 1 58 1 72 1 107 1 112 1 115 1 116 1 118 1 142 1 147 1 166 1 181 1 206 1 213 1 228 1 237 1 238 1 242 1 259 1 262 1 270 1 272 1 283 1 300 1 302 1 304 1 307 1 311 1 312 1 337 1 347 1 366 1 376 1 400 1 401 1 450 1 460 1 466 1 478 1 484 1 521 1 
1 196 1 2 7 1 202 1 221 1 471 1 376 1 397 1 49 2 151 1 170 1 105 1 101 2 211 2 177 1 212 1 296 1 479 2 104 1 383 1 102 1 482 1 175 2 129 1 419 1 477 1 236 1 382 1 356 1 111 1 87 1 114 1 60 2 168 1 277 1 85 1 233 1 244 1 130 1 227 2 196 1 395 1 446 2 262 1 110 2 109 1 138 1 193 1 440 1 36 1 153 1 187 1 409 1 108 1 17 1 122 1 351 2 366 1 2 1 10 1 24 1 32 1 47 1 65 1 112 1 121 1 123 1 124 1 128 1 136 1 162 1 179 1 182 1 186 1 198 1 199 1 242 1 250 1 257 1 268 1 275 1 291 1 295 1 302 1 304 1 305 1 309 1 313 1 332 1 353 1 365 1 370 1 373 1 392 1 417 1 437 1 461 1 489 1 495 1 499 1 512 1 
1 208 4 1 476 1 391 1 482 1 483 1 280 1 322 1 433 1 258 1 376 1 272 1 479 1 478 1 310 1 353 1 59 1 337 1 151 1 91 1 346 1 435 1 362 1 382 1 361 1 112 1 453 2 397 1 179 1 273 1 148 1 166 2 291 2 223 1 168 1 300 1 86 1 450 1 211 1 302 1 421 1 277 1 117 2 335 2 159 1 384 1 115 1 367 1 17 1 333 1 65 1 406 1 329 1 321 1 78 2 314 1 6 1 34 1 40 1 62 1 67 1 70 1 79 1 92 1 93 1 123 1 131 1 134 1 135 1 136 1 143 1 144 1 152 1 181 1 187 1 195 1 207 1 222 1 235 1 237 1 243 1 245 1 256 1 271 1 275 1 286 1 293 1 294 1 295 1 297 1 298 1 307 1 328 1 330 1 334 1 350 1 363 1 368 1 369 1 374 1 389 1 398 1 407 1 430 1 437 1 441 1 444 1 459 1 469 1 481 1 517 1 
1 206 62 1 83 2 442 1 420 1 152 1 281 1 434 1 354 2 455 1 463 1 333 1 456 2 441 1 450 1 385 1 392 1 159 1 303 1 430 1 446 1 67 1 162 1 185 1 327 1 326 1 109 1 116 1 176 1 305 1 14 1 300 1 467 1 104 2 219 1 361 1 425 1 168 1 228 1 183 2 64 1 241 2 437 1 468 1 114 1 54 1 313 1 418 1 75 1 285 1 43 1 86 1 358 1 8 1 16 1 19 1 40 1 47 1 53 1 58 1 72 1 89 1 100 1 112 1 134 1 135 1 139 1 145 1 156 1 169 1 170 1 178 1 213 1 230 1 245 1 249 1 253 1 255 1 257 1 282 1 309 1 317 1 318 1 323 1 328 1 331 1 355 1 364 1 365 1 368 1 374 1 375 1 387 1 388 1 396 1 406 1 431 1 440 1 477 1 502 1 512 1 521 1 
1 200 3 1 5 1 415 2 187 1 389 1 493 1 483 1 172 1 307 2 444 1 371 2 67 1 402 1 94 1 447 1 460 1 53 1 63 1 312 1 465 1 396 1 22 1 54 1 317 1 47 1 200 1 45 1 24 1 268 1 227 1 46 1 170 2 101 1 337 1 434 1 442 1 452 1 318 1 450 1 355 1 218 1 339 1 335 1 184 1 183 1 466 1 163 1 445 1 351 2 88 1 279 1 55 1 7 1 19 1 30 1 36 1 78 1 87 1 97 1 108 1 127 1 147 1 154 1 155 1 167 1 185 1 193 1 197 1 198 1 213 1 214 1 215 1 231 1 241 1 250 1 258 1 260 1 261 1 281 1 284 1 287 1 290 1 298 1 321 1 323 1 331 1 353 1 354 1 364 1 367 1 370 1 377 1 378 1 381 1 405 1 422 1 423 1 427 1 456 1 458 1 471 1 475 1 481 1 
1 185 6 1 153 2 212 1 115 1 315 1 379 1 377 1 473 1 378 1 347 1 475 1 450 2 351 1 220 1 48 1 387 1 18 1 469 1 395 1 116 1 79 1 195 2 421 1 317 1 215 1 333 1 303 2 191 1 426 1 52 1 460 1 356 1 283 1 341 2 84 1 185 1 208 1 376 2 288 1 361 1 360 1 78 1 466 1 135 1 336 1 273 1 29 1 162 1 334 1 130 1 64 1 292 1 282 1 452 1 172 1 152 1 19 1 344 1 236 1 391 1 425 1 368 1 248 1 401 1 322 1 14 1 47 1 59 1 63 1 67 1 68 1 69 1 72 1 103 1 123 1 124 1 128 1 143 1 158 1 169 1 178 1 183 1 196 1 197 1 221 1 227 1 232 1 247 1 252 1 256 1 266 1 296 1 304 1 306 1 319 1 329 1 338 1 345 1 348 1 354 1 359 1 364 1 383 1 402 1 408 1 410 1 414 1 418 1 420 1 428 1 430 1 433 1 459 1 472 1 487 1 489 1 490 1 504 1 
1 206 55 1 182 1 80 1 85 2 386 1 166 1 188 1 340 1 230 1 253 2 304 1 328 2 191 2 494 1 154 1 244 2 322 1 67 1 443 1 112 1 24 1 159 1 105 1 266 1 147 1 405 1 375 1 489 1 288 1 123 1 280 1 395 1 428 1 95 1 100 1 205 1 71 2 290 1 300 1 255 1 297 1 403 2 34 1 40 2 88 1 162 1 133 1 134 1 464 1 218 1 180 1 495 1 2 1 3 1 7 1 30 1 36 1 49 1 58 1 75 1 77 1 96 1 98 1 119 1 132 1 136 1 138 1 144 1 174 1 189 1 195 1 208 1 216 1 223 1 234 1 237 1 238 1 241 1 256 1 260 1 271 1 281 1 283 1 285 1 296 1 301 1 306 1 309 1 312 1 316 1 338 1 350 1 353 1 367 1 387 1 402 1 409 1 410 1 413 1 419 1 422 1 425 1 429 1 435 1 478 1 491 1 513 1 
1 206 10 1 261 1 437 1 366 1 341 1 485 1 332 1 269 1 16 1 237 1 71 2 480 1 81 1 460 1 272 1 342 1 372 1 390 2 446 1 410 1 176 1 396 1 479 1 378 1 427 1 57 1 114 1 72 1 136 1 139 1 464 1 381 1 133 2 78 1 130 1 469 1 109 2 233 1 122 1 193 1 204 1 207 1 49 1 159 1 413 1 334 1 118 1 120 1 48 1 268 1 1 1 12 1 29 1 30 1 37 1 58 1 66 1 74 1 76 1 89 1 104 1 113 1 121 1 143 1 144 1 151 1 168 1 173 1 187 1 198 1 199 1 211 1 215 1 222 1 232 1 239 1 257 1 258 1 259 1 263 1 264 1 271 1 277 1 285 1 286 1 287 1 311 1 313 1 335 1 340 1 348 1 357 1 361 1 364 1 380 1 391 1 421 1 435 1 439 1 440 1 442 1 456 1 472 1 477 1 484 1 
1 191 74 2 85 2 122 1 327 1 249 1 465 1 454 1 457 1 71 1 385 1 242 1 378 2 225 1 121 1 468 1 80 1 364 1 277 1 240 1 149 1 75 1 89 1 392 1 324 2 476 1 319 1 425 1 21 1 447 1 409 1 23 1 384 1 200 1 484 1 391 1 82 1 185 1 120 1 29 1 331 1 394 1 179 1 192 1 477 1 301 1 315 2 243 2 450 1 224 1 124 1 262 1 24 1 70 1 98 1 90 1 285 1 245 1 30 1 33 1 38 1 52 1 81 1 84 1 97 1 104 1 107 1 108 1 109 1 130 1 135 1 142 1 163 1 168 1 181 1 197 1 212 1 223 1 230 1 232 1 233 1 260 1 276 1 279 1 306 1 317 1 333 1 347 1 354 1 363 1 374 1 381 1 399 1 404 1 423 1 424 1 434 1 453 1 466 1 478 1 483 1 485 1 489 1 493 1 
1 213 14 1 316 1 200 1 283 1 348 1 271 1 93 1 302 1 320 1 225 1 303 1 287 1 362 1 77 2 488 1 47 1 251 1 155 1 179 1 192 1 370 1 263 1 425 1 382 1 144 1 83 1 153 1 64 1 324 1 415 1 347 2 164 1 332 1 447 1 175 1 158 1 126 1 335 1 162 1 133 1 386 1 106 1 86 1 356 2 435 1 337 1 312 1 373 1 363 1 375 1 2 1 10 1 62 1 69 1 74 1 75 1 89 1 92 1 101 1 105 1 121 1 125 1 127 1 128 1 143 1 149 1 152 1 167 1 177 1 178 1 180 1 186 1 243 1 249 1 261 1 265 1 266 1 275 1 276 1 288 1 289 1 292 1 293 1 305 1 317 1 318 1 322 1 323 1 349 1 359 1 361 1 369 1 395 1 396 1 413 1 421 1 427 1 432 1 436 1 437 1 438 1 439 1 461 1 481 1 485 1 509 1 515 1 
1 202 8 1 9 1 298 1 276 1 336 1 440 1 175 1 181 1 304 1 283 1 233 1 249 1 404 1 327 1 384 1 264 1 185 1 254 1 138 1 82 1 306 2 87 1 400 2 338 1 123 1 239 1 171 1 29 1 325 1 81 1 406 1 49 1 459 1 281 1 101 1 447 1 112 1 491 1 394 1 78 1 113 1 398 1 32 1 287 1 226 1 299 2 246 1 270 1 64 1 372 1 360 1 207 1 70 1 43 1 282 1 308 1 486 1 402 1 399 1 19 1 20 1 23 1 26 1 54 1 79 1 95 1 99 1 111 1 130 1 148 1 160 1 166 1 167 1 170 1 193 1 200 1 227 1 243 1 248 1 250 1 251 1 258 1 290 1 291 1 296 1 314 1 326 1 331 1 334 1 364 1 369 1 387 1 397 1 439 1 446 1 463 1 465 1 469 1 474 1 487 1 496 1 501 1 504 1 509 1 512 1 516 1 
1 192 4 1 12 1 205 1 154 1 298 1 56 1 213 1 58 1 387 2 308 1 96 1 259 1 159 1 462 1 256 1 218 1 420 1 208 1 117 1 263 2 155 1 54 1 415 1 450 1 355 1 253 1 284 1 103 2 165 1 428 1 130 1 299 1 194 2 278 1 189 1 228 1 289 1 121 1 273 1 456 2 370 1 394 1 385 1 242 1 345 1 241 1 181 1 472 1 412 1 276 2 199 2 231 1 328 1 29 1 50 1 170 1 488 1 127 2 227 1 338 1 421 1 266 2 418 1 381 1 34 1 100 1 193 1 60 1 114 1 152 1 185 1 93 1 153 2 40 1 48 1 68 1 74 1 86 1 99 1 112 1 138 1 139 1 144 1 147 1 198 1 215 1 225 1 246 1 252 1 264 1 274 1 287 1 293 1 295 1 300 1 303 1 304 1 312 1 323 1 330 1 332 1 333 1 363 1 365 1 380 1 388 1 401 1 417 1 448 1 461 1 469 1 478 1 504 1 
1 211 2 1 12 1 249 1 63 1 84 1 391 1 81 1 128 1 153 1 236 2 170 2 259 1 77 1 175 1 190 1 459 1 369 1 235 1 449 1 48 1 304 2 186 1 278 1 80 1 147 1 182 1 195 2 105 1 412 1 340 1 388 1 74 1 452 1 61 1 448 1 160 1 139 1 56 1 49 1 122 1 274 1 348 1 66 1 192 1 107 1 227 1 104 1 164 1 134 2 199 1 178 1 197 1 237 1 359 1 34 1 400 1 419 1 338 1 295 2 78 1 482 2 50 1 255 1 401 1 327 1 135 2 392 1 343 1 10 1 11 1 17 1 27 1 54 1 67 1 94 1 95 1 96 1 99 1 120 1 129 1 136 1 140 1 143 1 148 1 152 1 156 1 174 1 183 1 205 1 206 1 219 1 240 1 251 1 253 1 283 1 290 1 292 1 294 1 303 1 321 1 339 1 349 1 357 1 364 1 366 1 367 1 368 1 376 1 386 1 399 1 404 1 409 1 411 1 413 1 438 1 441 1 444 1 445 1 472 1 478 1 480 1 495 1 497 1 513 1 
1 204 458 2 88 1 280 2 444 1 245 1 487 1 239 1 139 1 447 1 359 2 90 1 284 1 206 1 237 1 22 1 55 1 401 2 437 1 366 1 302 1 287 1 68 1 296 1 328 1 117 2 355 1 162 1 58 1 392 1 367 1 307 1 184 1 100 1 138 1 151 1 219 1 281 1 363 1 146 2 465 1 225 1 379 1 431 1 495 1 415 1 104 1 107 1 402 1 306 1 260 1 44 1 17 1 36 1 50 1 59 1 80 1 83 1 94 1 98 1 118 1 119 1 123 1 124 1 137 1 145 1 148 1 178 1 196 1 201 1 205 1 214 1 224 1 235 1 236 1 243 1 251 1 253 1 261 1 269 1 282 1 293 1 311 1 314 1 316 1 317 1 322 1 329 1 357 1 365 1 369 1 374 1 377 1 378 1 394 1 398 1 404 1 424 1 430 1 466 1 471 1 486 1 493 1 496 1 497 1 502 1 519 1 
1 194 6 1 15 1 237 1 191 1 405 1 365 1 315 1 68 1 254 2 313 1 27 1 398 2 79 1 299 1 149 1 148 1 164 1 349 1 67 1 256 1 26 1 181 1 415 1 475 1 145 1 492 1 34 1 331 1 156 1 366 2 113 1 89 1 466 1 435 1 253 1 166 1 316 1 400 1 477 1 460 1 204 1 7 1 23 1 38 1 50 1 52 1 61 1 94 1 124 1 128 1 135 1 147 1 152 1 157 1 158 1 167 1 190 1 196 1 211 1 212 1 216 1 229 1 230 1 258 1 259 1 261 1 262 1 289 1 292 1 293 1 300 1 307 1 309 1 320 1 323 1 332 1 351 1 353 1 367 1 371 1 377 1 380 1 420 1 421 1 425 1 432 1 445 1 449 1 456 1 462 1 464 1 465 1 479 1 480 1 484 1 491 1 495 1 
1 227 11 1 20 1 48 1 62 1 404 1 473 1 251 1 286 1 410 1 425 2 460 1 172 2 382 1 374 2 454 1 458 1 193 1 439 1 383 1 63 2 68 1 163 2 175 1 310 1 295 1 86 1 457 2 235 1 116 1 453 1 472 1 79 1 318 1 471 1 436 1 36 1 274 1 357 1 343 1 229 1 177 2 397 1 23 1 70 1 300 1 31 2 370 1 50 2 360 1 49 1 266 1 238 1 38 1 44 1 328 1 446 1 200 2 272 1 478 1 76 1 56 1 57 1 67 1 75 1 81 1 113 1 115 1 118 1 124 1 137 1 138 1 148 1 151 1 153 1 154 1 160 1 161 1 171 1 181 1 185 1 198 1 212 1 213 1 225 1 230 1 232 1 239 1 240 1 255 1 264 1 276 1 281 1 305 1 308 1 314 1 323 1 325 1 327 1 330 1 331 1 335 1 336 1 339 1 344 1 345 1 356 1 364 1 375 1 376 1 380 1 385 1 399 1 406 1 411 1 412 1 413 1 429 1 430 1 486 1 512 1 
1 207 1 1 15 1 22 1 193 1 187 1 395 1 363 1 127 1 248 1 199 1 141 1 158 1 223 1 54 1 244 1 390 1 346 1 162 1 242 1 423 1 409 1 65 1 359 2 247 1 259 1 230 1 67 1 55 1 285 1 494 2 183 1 370 1 98 1 30 2 32 1 326 2 488 1 63 1 374 2 383 1 60 1 148 1 322 1 462 1 42 1 356 1 72 1 115 1 314 1 25 1 463 2 431 1 379 1 95 1 368 1 307 1 310 2 460 1 406 1 474 1 34 1 320 1 344 1 192 1 86 1 293 1 17 1 21 1 36 1 53 1 81 1 92 1 101 1 106 1 123 1 136 1 164 1 165 1 167 1 169 1 177 1 180 1 191 1 197 1 200 1 220 1 232 1 233 1 254 1 262 1 270 1 272 1 281 1 287 1 295 1 299 1 313 1 316 1 327 1 331 1 333 1 343 1 357 1 393 1 413 1 432 1 434 1 444 1 451 1 452 1 480 1 493 1 518 1 
1 228 11 1 13 1 15 1 250 1 205 1 274 1 396 1 364 2 230 1 311 1 191 1 128 1 422 1 389 1 418 1 144 1 139 1 454 1 247 1 102 1 48 1 237 1 407 2 338 1 368 1 356 1 411 1 409 2 498 1 416 1 258 2 315 1 138 1 324 1 202 1 240 1 33 1 320 1 180 1 363 1 469 1 233 1 383 2 289 1 185 1 84 1 494 1 109 2 221 1 219 1 385 1 482 1 62 1 244 1 386 2 2 1 8 1 29 1 30 1 41 1 79 1 82 1 92 1 96 1 105 1 116 1 133 1 146 1 149 1 154 1 155 1 158 1 161 1 162 1 169 1 173 1 174 1 179 1 183 1 188 1 196 1 210 1 215 1 225 1 234 1 239 1 256 1 285 1 293 1 295 1 296 1 297 1 305 1 306 1 307 1 310 1 313 1 318 1 321 1 325 1 327 1 340 1 354 1 370 1 373 1 382 1 395 1 400 1 408 1 421 1 432 1 434 1 436 1 445 1 448 1 455 1 496 1 
1 188 3 1 23 1 412 1 138 1 446 1 318 1 172 1 68 1 72 1 178 1 489 2 185 1 472 1 342 1 264 1 217 1 125 1 370 1 173 2 66 1 130 2 267 1 445 2 120 1 187 1 351 1 34 1 57 1 444 1 424 1 229 1 84 1 462 1 431 2 191 1 260 1 255 1 131 1 232 1 331 1 281 1 282 1 32 2 26 1 488 1 62 1 435 1 291 2 429 1 288 1 33 1 179 1 216 1 193 1 358 1 474 1 70 1 73 1 88 1 105 1 119 1 123 1 129 1 145 1 146 1 148 1 158 1 171 1 189 1 201 1 209 1 213 1 218 1 245 1 256 1 258 1 265 1 269 1 277 1 279 1 283 1 287 1 303 1 312 1 322 1 334 1 338 1 340 1 389 1 406 1 426 1 430 1 438 1 439 1 460 1 463 1 465 1 470 1 481 1 
1 217 21 1 25 1 287 1 336 1 439 1 353 1 306 1 168 2 396 1 261 1 415 1 446 1 480 1 283 1 321 2 154 1 123 2 243 1 341 2 422 1 64 1 381 2 435 2 394 2 443 1 436 2 97 1 333 1 206 1 55 1 310 1 319 1 461 1 117 1 121 1 493 2 109 1 219 1 332 1 135 1 497 1 96 1 272 1 323 1 330 1 324 1 90 1 339 1 454 1 350 1 421 2 457 1 270 2 211 1 342 1 278 1 17 1 27 1 28 1 33 1 39 1 45 1 57 1 59 1 60 1 63 1 81 1 88 1 93 1 94 1 99 1 106 1 107 1 130 1 136 1 139 1 149 1 161 1 165 1 170 1 179 1 181 1 183 1 184 1 186 1 187 1 192 1 202 1 207 1 222 1 226 1 237 1 247 1 269 1 280 1 286 1 349 1 367 1 370 1 374 1 376 1 397 1 398 1 408 1 417 1 418 1 419 1 426 1 442 1 469 1 481 1 492 1 511 1 517 1 
1 180 7 1 21 1 477 1 206 1 72 1 282 2 454 1 349 1 263 1 60 1 403 1 374 1 107 1 63 1 103 1 397 1 262 1 320 1 267 1 159 1 401 2 418 1 171 1 316 1 109 1 193 1 483 1 463 1 350 1 153 2 335 1 255 1 428 1 330 1 235 1 292 1 345 1 461 2 408 1 61 1 195 1 220 1 34 1 295 2 108 1 285 1 240 1 353 1 488 1 35 1 470 1 309 1 366 1 58 1 273 1 384 1 19 1 26 1 29 1 42 1 52 1 57 1 65 1 66 1 74 1 83 1 94 1 96 1 117 1 118 1 119 1 124 1 139 1 148 1 179 1 198 1 201 1 203 1 204 1 211 1 217 1 224 1 232 1 241 1 256 1 260 1 261 1 321 1 322 1 332 1 338 1 339 1 340 1 354 1 358 1 393 1 416 1 419 1 433 1 449 1 456 1 472 1 484 1 498 1 501 1 
1 208 120 1 131 1 149 2 461 1 167 1 407 1 193 2 145 1 168 1 301 2 334 1 209 1 499 1 162 1 173 2 442 1 222 1 183 1 475 1 480 1 404 1 74 1 62 1 311 1 425 1 36 1 462 1 263 2 487 1 400 1 450 2 253 1 465 1 97 1 472 1 424 1 72 1 119 1 313 1 463 2 307 1 207 1 101 1 340 1 370 1 42 1 490 1 29 1 135 1 408 1 318 1 366 1 314 2 182 2 84 1 437 1 153 1 443 1 383 1 258 1 26 1 31 1 55 1 59 1 69 1 79 1 100 1 107 1 125 1 154 1 166 1 189 1 206 1 212 1 215 1 220 1 235 1 251 1 271 1 274 1 290 1 299 1 304 1 309 1 310 1 317 1 326 1 346 1 348 1 349 1 356 1 358 1 364 1 388 1 412 1 423 1 449 1 459 1 468 1 477 1 489 1 
1 222 1 1 12 1 15 1 17 1 18 1 28 1 82 1 87 1 402 2 442 1 55 1 362 1 421 1 385 1 81 1 134 1 450 1 330 1 376 1 481 1 194 1 30 2 318 1 177 2 75 1 461 1 466 1 158 1 50 1 145 1 434 1 492 1 289 1 345 2 198 1 348 1 209 1 319 1 415 1 260 1 312 1 153 1 496 1 144 1 299 2 237 2 267 1 63 1 258 1 486 2 497 1 156 1 126 1 365 1 394 1 117 1 85 1 335 2 14 1 24 1 27 1 31 1 46 1 52 1 57 1 58 1 59 1 78 1 91 1 94 1 108 1 115 1 124 1 132 1 133 1 141 1 148 1 169 1 170 1 175 1 178 1 180 1 181 1 187 1 191 1 196 1 203 1 227 1 231 1 232 1 243 1 247 1 248 1 265 1 268 1 271 1 272 1 281 1 282 1 291 1 298 1 301 1 302 1 313 1 325 1 378 1 379 1 380 1 382 1 383 1 409 1 413 1 423 1 429 1 444 1 453 1 463 1 469 1 471 1 473 1 478 1 490 1 506 1 518 1 521 1 
1 215 23 2 29 2 124 2 331 1 465 1 126 1 286 1 376 1 346 1 101 2 111 1 121 1 414 2 233 1 56 1 303 1 466 1 180 1 260 1 450 1 176 1 78 2 312 1 235 2 409 1 76 1 239 1 398 1 267 1 420 1 154 1 447 1 406 1 98 2 392 1 134 1 200 1 282 1 483 1 407 1 231 2 169 1 361 1 130 1 471 1 302 1 326 1 149 1 480 1 440 1 108 1 356 1 343 1 313 1 344 1 352 1 430 1 119 1 64 1 104 1 416 1 455 1 137 1 276 1 71 1 224 2 11 1 13 1 14 1 15 1 24 1 33 1 36 1 37 1 40 1 54 1 66 1 70 1 72 1 103 1 109 1 122 1 138 1 155 1 167 1 179 1 186 1 190 1 199 1 212 1 218 1 240 1 262 1 263 1 264 1 265 1 270 1 279 1 281 1 285 1 291 1 304 1 314 1 318 1 328 1 330 1 359 1 362 1 363 1 366 1 378 1 383 1 421 1 425 1 442 1 470 1 472 1 495 1 497 1 500 1 
1 197 22 2 180 1 191 1 138 1 79 1 144 1 439 1 258 1 262 1 118 1 492 2 205 1 317 1 287 2 289 1 244 1 84 1 420 1 137 1 160 1 463 1 166 1 149 1 83 1 422 1 267 1 364 1 329 1 115 1 300 1 61 1 254 1 372 1 162 1 476 1 125 1 189 1 114 1 413 2 424 1 370 1 141 1 134 1 361 1 257 1 378 1 203 2 414 1 291 1 288 1 52 1 86 1 425 1 353 2 146 1 156 1 98 1 268 1 54 1 352 1 448 1 408 1 35 1 28 1 29 1 51 1 76 1 106 1 111 1 113 1 129 1 131 1 132 1 169 1 170 1 173 1 178 1 182 1 183 1 185 1 206 1 225 1 247 1 249 1 263 1 272 1 273 1 286 1 296 1 340 1 343 1 357 1 369 1 385 1 391 1 430 1 431 1 438 1 445 1 446 1 453 1 462 1 472 1 473 1 478 1 488 1 494 1 
1 204 17 1 23 1 25 2 323 1 421 2 133 1 262 1 449 1 84 1 483 1 496 1 34 1 482 2 55 1 54 1 293 1 41 1 68 1 485 1 234 1 217 1 441 1 164 1 177 1 443 1 77 1 459 1 454 2 190 1 291 1 267 2 81 1 341 2 198 1 100 1 108 1 492 2 136 1 96 1 361 1 257 1 65 1 6 1 8 1 39 1 53 1 58 1 64 1 119 1 130 1 141 1 143 1 153 1 159 1 183 1 196 1 201 1 203 1 209 1 215 1 241 1 243 1 249 1 250 1 260 1 266 1 276 1 277 1 278 1 282 1 295 1 300 1 325 1 332 1 364 1 366 1 368 1 376 1 380 1 383 1 388 1 393 1 406 1 408 1 423 1 433 1 439 1 440 1 446 1 451 1 455 1 456 1 463 1 468 1 473 1 484 1 506 1 521 1 
1 207 24 1 25 1 380 2 430 2 346 1 418 1 384 1 186 1 340 1 122 1 293 1 220 1 80 2 192 1 317 1 325 1 103 1 266 1 422 1 184 1 77 2 494 1 37 1 262 1 424 1 401 1 155 1 287 1 141 1 421 1 56 1 111 1 445 1 423 1 149 1 466 2 277 1 162 1 439 2 228 1 402 1 205 2 353 1 200 1 230 1 170 1 446 1 89 1 166 1 217 1 126 1 46 1 261 1 1 1 15 1 26 1 30 1 48 1 64 1 68 1 79 1 82 1 99 1 107 1 124 1 139 1 154 1 178 1 179 1 180 1 191 1 194 1 197 1 201 1 212 1 215 1 232 1 234 1 235 1 237 1 254 1 258 1 282 1 286 1 306 1 308 1 313 1 314 1 318 1 333 1 341 1 350 1 358 1 368 1 373 1 379 1 381 1 392 1 404 1 411 1 432 1 443 1 444 1 455 1 469 1 476 1 484 1 493 1 511 1 520 1 
1 204 13 1 18 1 19 1 21 1 23 1 25 1 27 1 32 1 179 1 276 1 311 1 341 1 38 1 91 1 35 1 107 1 92 1 383 1 75 1 85 1 101 1 201 1 429 1 326 2 134 1 253 1 492 1 481 1 67 2 96 1 269 1 468 1 295 1 54 1 36 1 420 1 455 1 363 2 78 1 500 1 499 2 454 1 327 1 431 1 353 1 384 1 328 1 137 1 365 1 425 1 254 1 464 2 447 1 396 1 157 1 351 1 9 1 40 1 53 1 61 1 69 1 70 1 72 1 76 1 117 1 119 1 126 1 140 1 145 1 154 1 156 1 162 1 168 1 169 1 175 1 205 1 212 1 217 1 221 1 223 1 225 1 232 1 249 1 250 1 263 1 292 1 304 1 305 1 307 1 321 1 342 1 343 1 346 1 355 1 361 1 376 1 378 1 405 1 407 1 410 1 411 1 419 1 427 1 437 1 441 1 445 1 446 1 449 1 475 1 480 1 515 1 
1 225 1 2 27 1 31 1 34 1 179 1 36 1 263 1 368 1 122 2 403 2 492 1 101 1 497 1 100 1 118 1 377 1 213 1 378 1 123 1 167 1 333 1 254 1 331 1 237 1 413 1 217 2 175 2 203 1 304 1 439 1 441 1 65 1 390 1 79 1 109 2 245 1 276 1 374 1 265 1 422 1 479 2 180 1 404 1 476 1 173 1 182 1 495 1 227 1 288 1 230 1 291 1 477 1 166 1 84 1 60 1 42 1 47 1 53 1 56 1 61 1 62 1 75 1 77 1 93 1 124 1 127 1 128 1 132 1 133 1 144 1 146 1 163 1 165 1 189 1 190 1 212 1 234 1 243 1 248 1 261 1 266 1 270 1 280 1 283 1 305 1 306 1 314 1 317 1 330 1 359 1 360 1 362 1 364 1 365 1 366 1 386 1 394 1 402 1 406 1 407 1 409 1 416 1 421 1 432 1 461 1 463 1 482 1 494 1 519 1 521 1 
1 207 8 1 22 1 28 1 34 1 35 1 64 1 484 1 253 1 71 1 94 1 413 1 81 1 443 1 268 1 416 1 230 2 83 1 425 1 492 1 270 1 156 1 175 1 186 1 63 1 400 1 498 1 362 1 349 1 435 2 279 1 76 1 204 2 244 1 407 1 75 1 198 2 82 1 456 1 383 2 118 1 455 1 281 1 449 1 111 1 477 2 271 2 80 1 366 1 322 1 462 2 347 1 142 1 478 2 39 1 214 1 264 1 228 2 283 1 457 2 316 1 1 1 2 1 11 1 13 1 20 1 23 1 30 1 56 1 65 1 73 1 79 1 89 1 91 1 92 1 108 1 120 1 121 1 127 1 136 1 144 1 149 1 151 1 154 1 157 1 169 1 176 1 203 1 207 1 211 1 219 1 239 1 252 1 259 1 285 1 290 1 320 1 327 1 352 1 361 1 377 1 388 1 418 1 420 1 432 1 439 1 452 1 454 1 483 1 488 1 490 1 496 1 
1 204 33 1 433 1 225 1 206 1 62 1 250 1 455 1 88 1 211 1 284 1 450 1 174 1 405 1 74 2 355 1 319 1 299 1 460 1 318 2 233 1 114 1 226 1 481 1 393 1 437 1 69 1 104 1 193 1 489 1 147 1 120 1 454 1 228 1 64 1 309 1 472 1 412 1 75 1 54 1 287 1 306 1 282 1 124 1 83 1 72 1 434 1 327 2 84 1 49 1 270 2 247 1 14 1 30 1 60 1 66 1 80 1 87 1 102 1 126 1 134 1 136 1 142 1 148 1 153 1 161 1 212 1 216 1 218 1 219 1 229 1 234 1 240 1 241 1 244 1 246 1 249 1 258 1 262 1 279 1 286 1 300 1 308 1 314 1 316 1 328 1 329 1 333 1 342 1 343 1 357 1 362 1 372 1 381 1 386 1 397 1 423 1 435 1 444 1 456 1 459 1 462 1 470 1 477 1 478 1 482 1 490 1 515 1 516 1 
1 197 22 1 34 1 342 1 298 1 247 2 479 2 78 1 302 1 370 1 417 1 402 1 482 1 60 1 198 1 110 2 289 1 437 1 497 1 297 1 81 1 290 1 171 1 221 1 295 1 196 1 354 1 303 1 481 2 452 1 404 1 465 1 129 1 407 1 335 1 122 1 146 1 386 2 308 2 134 1 341 1 368 1 116 1 92 1 54 1 474 1 278 1 445 1 369 2 200 1 314 1 275 1 409 2 76 1 442 1 325 1 339 1 107 1 185 1 48 1 277 2 15 1 21 1 80 1 84 1 89 1 99 1 102 1 104 1 136 1 139 1 142 1 147 1 150 1 154 1 160 1 178 1 181 1 210 1 211 1 219 1 233 1 234 1 241 1 243 1 244 1 261 1 263 1 269 1 271 1 272 1 288 1 312 1 316 1 332 1 333 1 340 1 348 1 349 1 364 1 378 1 405 1 422 1 423 1 428 1 436 1 454 1 456 1 457 1 466 1 470 1 495 1 508 1 520 1 
1 206 36 1 437 1 262 1 326 1 201 1 399 1 445 1 191 1 417 1 432 1 183 1 362 1 148 1 223 2 208 1 202 1 66 1 163 1 324 2 409 1 119 1 393 2 439 1 481 1 267 1 287 1 500 1 396 1 374 1 228 2 468 1 251 1 181 2 269 2 165 1 112 1 42 1 134 1 483 2 482 1 221 1 459 1 420 1 300 1 248 1 289 1 501 1 145 2 301 1 349 1 270 1 371 1 45 1 282 1 177 1 386 1 197 1 344 1 447 1 194 1 494 1 3 1 26 1 32 1 61 1 78 1 105 1 110 1 114 1 120 1 127 1 169 1 173 1 174 1 178 1 184 1 192 1 200 1 220 1 225 1 227 1 235 1 254 1 257 1 271 1 279 1 284 1 285 1 291 1 294 1 297 1 303 1 323 1 336 1 350 1 351 1 360 1 361 1 389 1 390 1 391 1 394 1 395 1 404 1 408 1 414 1 418 1 435 1 443 1 448 1 450 1 453 1 471 1 473 1 485 1 517 1 521 1 
1 192 1 2 3 2 4 2 13 2 310 1 92 1 207 1 111 1 493 1 303 1 89 2 381 1 346 2 305 2 289 2 487 1 241 1 410 1 148 1 333 2 61 1 141 1 480 1 114 1 196 1 57 2 317 1 409 1 467 1 472 1 153 1 100 1 272 2 115 1 471 1 110 1 297 1 122 1 159 1 240 1 95 1 107 1 146 1 263 1 408 1 445 2 74 1 185 1 178 1 356 1 44 1 68 1 389 1 318 1 48 1 176 1 449 1 332 1 424 1 248 1 129 1 239 1 190 1 450 1 203 1 179 1 154 1 440 1 45 1 9 1 10 1 18 1 30 1 34 1 73 1 79 1 81 1 82 1 84 1 97 1 103 1 119 1 132 1 137 1 155 1 156 1 164 1 168 1 175 1 225 1 229 1 245 1 269 1 278 1 285 1 287 1 307 1 314 1 324 1 329 1 339 1 388 1 393 1 403 1 413 1 423 1 429 1 438 1 453 1 454 1 455 1 458 1 459 1 462 1 483 1 497 1 500 1 
1 193 3 2 32 1 378 1 192 1 258 1 449 1 143 2 474 1 330 1 354 1 391 1 262 1 73 2 276 1 64 1 370 1 395 1 422 1 151 1 197 1 361 1 501 1 253 2 160 1 321 1 349 1 495 2 275 1 194 1 80 1 352 1 224 1 146 1 169 1 196 1 490 1 245 1 62 2 227 1 417 1 244 2 124 2 223 1 125 1 200 1 367 1 127 1 136 1 294 1 99 1 278 2 101 1 411 1 331 1 442 1 115 1 381 1 418 1 431 1 2 1 24 1 44 1 45 1 65 1 66 1 89 1 94 1 98 1 107 1 153 1 159 1 162 1 165 1 167 1 182 1 186 1 198 1 207 1 215 1 248 1 252 1 264 1 267 1 268 1 270 1 286 1 291 1 301 1 310 1 316 1 320 1 338 1 348 1 356 1 375 1 402 1 405 1 430 1 437 1 447 1 448 1 472 1 487 1 488 1 508 1 
1 210 1 1 2 1 23 1 28 1 39 1 464 1 361 2 485 1 257 2 486 1 291 2 305 1 345 1 357 1 494 1 190 1 121 1 247 1 230 1 368 2 85 1 212 1 354 1 99 1 258 1 62 1 83 1 167 1 233 1 360 1 475 1 431 1 373 1 109 1 253 1 113 2 355 1 418 1 381 1 119 1 323 1 333 1 48 1 192 1 64 1 492 2 186 1 145 1 468 1 452 2 185 1 112 1 4 1 27 1 35 1 103 1 115 1 126 1 136 1 137 1 140 1 156 1 161 1 165 1 170 1 204 1 205 1 215 1 217 1 222 1 224 1 228 1 232 1 235 1 236 1 241 1 267 1 269 1 277 1 287 1 293 1 297 1 308 1 310 1 326 1 341 1 343 1 346 1 356 1 366 1 378 1 384 1 410 1 415 1 417 1 437 1 455 1 466 1 487 1 490 1 499 1 504 1 510 1 512 1 519 1 
1 195 10 1 17 1 388 1 292 1 367 1 377 2 213 1 155 1 161 1 315 1 397 1 404 1 393 1 188 1 230 1 181 1 356 1 176 1 214 1 63 1 431 1 441 1 247 1 197 1 165 1 415 1 428 1 253 2 444 1 194 1 327 1 122 1 467 2 174 1 237 1 352 1 493 2 82 1 290 1 448 1 473 1 111 1 470 1 149 1 424 1 232 1 148 1 4 1 64 1 84 1 87 1 102 1 125 1 130 1 134 1 157 1 173 1 177 1 187 1 190 1 196 1 203 1 206 1 208 1 243 1 245 1 252 1 260 1 267 1 285 1 295 1 298 1 313 1 324 1 326 1 337 1 342 1 351 1 353 1 361 1 362 1 376 1 395 1 400 1 408 1 413 1 419 1 426 1 427 1 430 1 433 1 454 1 462 1 487 1 496 1 498 1 
1 212 20 1 22 1 40 1 457 1 474 1 322 1 365 1 136 1 410 1 462 1 270 1 223 1 324 1 372 1 291 1 429 1 312 2 235 1 188 1 199 1 435 1 194 2 331 1 92 1 288 1 335 2 376 1 243 1 112 1 159 1 232 2 175 1 461 1 108 2 381 1 453 2 137 1 298 2 193 1 278 1 286 2 265 1 342 1 285 1 85 1 99 1 190 1 134 1 122 1 62 1 451 1 41 1 55 1 68 1 78 1 93 1 95 1 104 1 115 1 124 1 127 1 132 1 172 1 174 1 178 1 187 1 192 1 201 1 202 1 206 1 226 1 230 1 242 1 249 1 261 1 275 1 281 1 284 1 297 1 308 1 313 1 317 1 334 1 341 1 351 1 378 1 384 1 385 1 411 1 413 1 420 1 423 1 427 1 433 1 449 1 460 1 463 1 464 1 470 1 480 1 488 1 520 1 
1 201 11 1 39 1 40 1 348 1 376 2 452 1 317 1 91 1 257 2 438 1 288 1 477 1 490 1 146 1 226 1 499 1 79 1 417 1 339 1 233 1 489 1 494 1 416 1 414 2 129 1 75 1 455 1 248 1 365 1 441 1 224 1 181 1 232 1 321 1 390 1 70 1 428 1 147 1 484 1 312 1 408 1 314 2 429 1 495 1 425 1 475 1 310 1 261 1 228 1 445 1 76 1 386 1 287 1 279 1 352 2 3 1 6 1 26 1 41 1 50 1 52 1 71 1 111 1 123 1 126 1 148 1 150 1 171 1 176 1 178 1 180 1 186 1 191 1 195 1 196 1 209 1 238 1 252 1 271 1 277 1 284 1 299 1 327 1 329 1 333 1 334 1 336 1 337 1 346 1 364 1 367 1 368 1 369 1 370 1 378 1 392 1 395 1 400 1 405 1 413 1 415 1 418 1 421 1 424 1 430 1 433 1 435 1 448 1 468 1 470 1 482 1 487 1 500 1 
1 197 11 1 33 1 172 1 290 2 411 1 101 1 257 1 134 1 343 2 453 2 298 2 229 1 205 1 351 1 270 1 241 1 375 1 201 1 451 1 307 1 431 1 138 1 247 1 86 1 388 2 152 1 52 1 199 1 166 1 116 1 301 1 454 1 50 2 372 1 369 1 500 1 376 1 405 1 252 1 264 1 103 1 99 1 410 1 258 2 253 1 380 1 389 1 93 1 89 1 364 1 399 1 175 1 291 1 160 1 271 1 318 1 29 1 51 1 78 1 88 1 97 1 100 1 105 1 118 1 130 1 146 1 151 1 167 1 188 1 191 1 195 1 197 1 204 1 221 1 228 1 234 1 240 1 261 1 278 1 286 1 300 1 312 1 319 1 329 1 336 1 341 1 353 1 357 1 360 1 368 1 377 1 387 1 396 1 402 1 407 1 416 1 430 1 438 1 440 1 441 1 452 1 456 1 465 1 477 1 480 1 490 1 496 1 497 1 511 1 520 1 
1 199 5 1 6 2 11 1 16 1 217 1 287 1 255 1 229 1 241 1 398 1 149 1 111 1 166 1 133 1 416 1 438 2 99 1 433 1 377 1 378 1 352 1 384 1 277 1 326 1 445 1 291 1 267 1 191 2 90 1 430 2 160 1 413 1 284 1 399 1 79 1 363 1 120 1 333 1 304 1 482 1 425 1 307 1 319 1 299 1 447 1 56 1 278 1 53 2 194 1 57 1 138 1 119 1 198 1 146 2 248 1 254 1 346 2 139 1 117 1 206 2 224 1 428 2 8 1 10 1 12 1 35 1 49 1 87 1 91 1 98 1 101 1 106 1 110 1 122 1 145 1 147 1 152 1 177 1 189 1 202 1 204 1 209 1 216 1 230 1 232 1 235 1 247 1 249 1 268 1 270 1 286 1 303 1 317 1 325 1 353 1 362 1 367 1 374 1 388 1 395 1 396 1 414 1 418 1 431 1 432 1 443 1 444 1 458 1 459 1 475 1 476 1 490 1 498 1 
1 211 1 2 2 1 12 1 14 1 19 1 22 1 24 1 38 1 40 1 42 1 272 1 444 1 377 1 294 2 265 1 214 1 183 2 95 1 112 1 297 1 401 1 182 1 245 1 236 1 365 1 50 1 364 1 143 1 166 1 476 1 175 1 148 1 222 1 371 1 92 1 122 1 139 2 96 1 490 1 393 1 210 1 320 1 433 1 421 2 340 1 474 1 247 1 268 1 400 1 224 1 501 1 49 1 129 2 52 1 188 1 312 1 237 1 485 1 211 1 239 1 461 1 451 2 396 1 241 2 261 1 7 1 18 1 33 1 56 1 59 1 63 1 66 1 87 1 93 1 99 1 101 1 116 1 118 1 121 1 133 1 151 1 165 1 192 1 202 1 215 1 225 1 227 1 232 1 242 1 249 1 270 1 279 1 282 1 289 1 291 1 301 1 309 1 311 1 317 1 323 1 325 1 336 1 341 1 348 1 350 1 353 1 361 1 367 1 374 1 380 1 386 1 397 1 410 1 418 1 419 1 426 1 436 1 438 1 443 1 450 1 457 1 467 1 470 1 471 1 495 1 
1 213 2 1 4 1 8 2 14 1 17 1 19 1 22 1 37 1 48 1 187 2 252 2 196 1 176 1 233 1 94 1 304 1 287 1 266 1 86 1 155 1 356 1 451 1 251 1 401 1 480 1 91 1 348 1 477 2 87 1 402 1 462 1 240 1 435 1 465 1 409 1 110 1 84 1 172 1 476 1 238 1 482 1 338 1 301 1 82 1 243 1 216 1 337 1 433 2 297 1 327 1 417 1 148 1 85 1 262 1 249 1 205 1 135 1 95 1 126 1 407 1 459 1 264 1 341 1 342 1 13 1 47 1 57 1 60 1 83 1 98 1 153 1 162 1 188 1 189 1 191 1 192 1 195 1 199 1 202 1 210 1 217 1 220 1 221 1 255 1 278 1 280 1 288 1 292 1 294 1 298 1 318 1 325 1 361 1 371 1 424 1 448 1 466 1 473 1 499 1 503 1 510 1 514 1 
1 213 18 1 19 1 22 2 29 1 46 2 48 1 127 2 168 1 460 1 310 1 369 1 192 1 316 1 214 2 395 1 174 1 318 1 256 1 489 1 484 2 114 1 131 1 217 1 161 1 442 1 233 1 125 1 296 1 132 1 383 1 251 2 234 2 455 1 402 2 334 1 350 1 488 1 264 1 445 2 107 1 158 1 56 1 58 1 92 1 104 1 321 1 153 1 312 2 270 1 200 1 253 1 230 1 87 1 281 1 462 1 328 1 72 1 464 1 491 1 372 1 246 1 411 1 20 1 21 1 45 1 84 1 105 1 109 1 120 1 121 1 128 1 142 1 144 1 146 1 156 1 160 1 164 1 175 1 184 1 199 1 207 1 210 1 227 1 240 1 245 1 248 1 261 1 265 1 267 1 275 1 291 1 300 1 313 1 314 1 344 1 346 1 347 1 349 1 351 1 352 1 357 1 364 1 366 1 381 1 401 1 423 1 428 1 444 1 450 1 468 1 475 1 496 1 507 1 
1 192 4 1 6 1 7 1 252 1 183 1 243 1 162 1 341 2 232 1 200 2 121 1 102 2 443 2 234 1 123 1 202 1 324 1 283 2 260 1 398 1 131 1 196 2 226 1 364 1 264 1 297 2 417 2 84 1 301 1 97 1 223 1 275 1 373 1 281 1 361 1 410 1 111 1 409 1 423 1 356 1 303 1 347 1 291 1 344 2 474 1 328 2 354 1 479 1 65 1 142 2 287 1 170 1 290 1 438 1 122 2 73 1 104 1 31 1 46 1 52 1 79 1 92 1 101 1 109 1 127 1 188 1 190 1 191 1 195 1 198 1 208 1 233 1 236 1 246 1 259 1 267 1 271 1 274 1 280 1 305 1 306 1 308 1 322 1 346 1 352 1 355 1 372 1 394 1 400 1 424 1 426 1 428 1 431 1 453 1 472 1 489 1 498 1 504 1 510 1 518 1 
1 196 5 1 6 1 12 1 31 1 46 1 48 1 284 1 296 2 150 1 141 2 242 1 178 1 342 1 334 1 224 1 129 1 485 1 471 1 413 1 232 1 457 1 336 1 281 1 236 1 199 1 195 2 126 2 267 1 186 1 244 1 320 1 220 1 107 1 218 1 481 1 56 1 468 1 145 1 355 1 447 1 483 1 395 2 390 2 371 2 249 1 332 1 384 1 453 1 156 1 289 1 190 1 123 1 97 1 194 1 101 1 15 1 21 1 27 1 29 1 45 1 51 1 73 1 83 1 84 1 91 1 92 1 108 1 110 1 125 1 157 1 164 1 167 1 172 1 182 1 183 1 188 1 233 1 241 1 247 1 256 1 260 1 268 1 280 1 286 1 298 1 300 1 305 1 317 1 348 1 349 1 362 1 368 1 398 1 400 1 401 1 429 1 438 1 441 1 442 1 449 1 487 1 490 1 491 1 497 1 
1 212 11 1 47 2 253 1 371 1 434 1 283 1 352 1 475 1 97 1 382 1 273 1 424 1 196 1 93 1 100 1 143 1 263 1 418 1 388 1 450 2 360 1 465 1 136 1 370 1 57 1 333 1 192 2 88 2 425 2 118 1 117 1 175 1 455 1 335 1 83 1 112 1 338 1 414 1 299 1 101 1 184 1 480 1 79 1 342 1 311 1 5 1 10 1 23 1 32 1 34 1 35 1 54 1 82 1 87 1 94 1 95 1 102 1 107 1 120 1 121 1 127 1 137 1 158 1 163 1 177 1 178 1 195 1 197 1 202 1 203 1 210 1 214 1 217 1 241 1 261 1 279 1 282 1 291 1 296 1 297 1 306 1 308 1 336 1 337 1 344 1 354 1 358 1 359 1 361 1 375 1 376 1 384 1 391 1 394 1 402 1 403 1 409 1 415 1 439 1 447 1 458 1 460 1 464 1 472 1 481 1 517 1 519 1 
1 214 10 1 11 1 18 1 23 1 31 1 32 1 34 1 37 1 38 1 449 1 479 1 187 2 102 1 333 1 271 1 147 1 465 1 445 1 402 2 419 1 261 1 408 1 282 1 148 1 360 1 159 1 270 1 440 2 99 2 436 1 109 1 100 1 309 1 381 1 59 1 294 2 113 1 409 1 329 2 400 1 473 1 302 1 256 1 286 1 157 1 353 2 481 1 472 1 488 1 120 2 67 1 424 2 320 1 152 1 432 2 470 1 17 1 19 1 30 1 53 1 62 1 85 1 104 1 123 1 127 1 151 1 153 1 158 1 185 1 188 1 198 1 203 1 211 1 214 1 216 1 229 1 231 1 238 1 243 1 246 1 255 1 267 1 276 1 278 1 283 1 288 1 298 1 308 1 319 1 321 1 325 1 326 1 340 1 341 1 387 1 396 1 398 1 417 1 435 1 443 1 457 1 458 1 475 1 482 1 489 1 493 1 509 1 
1 199 1 1 2 1 5 1 6 1 11 1 13 1 20 1 23 1 26 1 29 1 32 1 93 2 411 1 442 1 209 1 457 1 344 1 262 1 301 1 437 1 256 1 469 1 183 1 63 2 288 1 218 1 202 1 405 1 192 1 144 1 438 1 461 2 475 1 126 1 406 1 499 1 300 1 127 1 95 1 70 1 296 1 467 1 456 1 172 1 277 1 286 2 258 1 312 1 334 1 222 1 139 1 324 1 290 1 383 1 160 2 293 1 348 1 257 1 266 1 473 1 417 1 337 1 28 1 44 1 61 1 62 1 96 1 97 1 111 1 146 1 163 1 175 1 193 1 200 1 203 1 211 1 230 1 243 1 248 1 251 1 260 1 265 1 285 1 292 1 306 1 314 1 317 1 321 1 332 1 350 1 351 1 353 1 361 1 362 1 372 1 376 1 378 1 382 1 395 1 397 1 399 1 424 1 431 1 441 1 480 1 497 1 513 1 516 1 
1 200 18 1 19 1 30 1 33 1 47 1 50 1 52 1 320 1 97 2 214 2 344 2 379 1 250 2 485 2 390 1 316 1 93 1 165 1 191 1 405 2 417 2 59 1 251 1 234 1 416 1 334 1 475 1 458 1 273 1 442 1 293 1 161 1 380 2 194 1 447 1 100 1 499 1 331 1 424 1 208 1 403 1 383 1 400 2 386 2 245 1 162 1 493 1 310 1 371 1 222 1 406 1 296 1 275 1 350 1 362 1 7 1 22 1 35 1 36 1 48 1 67 1 90 1 92 1 96 1 98 1 110 1 120 1 140 1 142 1 144 1 148 1 163 1 168 1 171 1 176 1 179 1 181 1 189 1 217 1 233 1 239 1 253 1 255 1 256 1 265 1 282 1 295 1 304 1 308 1 351 1 355 1 357 1 361 1 368 1 385 1 393 1 399 1 402 1 454 1 456 1 463 1 471 1 481 1 495 1 496 1 
1 193 4 1 14 1 25 1 40 2 47 1 53 1 288 1 419 1 306 1 198 1 358 1 263 1 230 2 470 1 62 1 245 1 359 1 287 1 352 1 117 1 172 1 331 2 383 1 59 1 137 1 136 1 483 1 498 1 449 1 105 1 371 1 95 2 248 1 411 1 397 1 389 1 60 1 183 1 191 1 92 1 202 1 361 1 260 1 323 1 305 1 301 1 448 1 124 2 254 1 422 1 108 1 294 2 435 1 362 1 425 1 455 1 109 1 165 1 81 1 22 1 26 1 27 1 29 1 49 1 88 1 116 1 119 1 122 1 135 1 147 1 150 1 156 1 162 1 163 1 169 1 181 1 210 1 215 1 234 1 256 1 259 1 262 1 270 1 273 1 274 1 275 1 280 1 295 1 311 1 316 1 330 1 363 1 364 1 367 1 370 1 382 1 385 1 386 1 388 1 396 1 413 1 418 1 420 1 421 1 424 1 434 1 438 1 441 1 443 1 451 1 458 1 463 1 476 1 478 1 479 1 484 1 487 1 489 1 501 1 
1 198 18 1 20 1 27 1 50 1 447 1 395 1 242 2 137 1 268 1 474 1 238 2 190 1 156 1 184 1 466 1 148 1 133 1 408 1 357 1 94 1 384 1 100 1 106 1 429 1 219 2 477 1 342 1 399 1 262 1 326 1 431 1 225 1 486 1 471 1 317 1 402 1 321 2 484 1 252 2 284 1 169 2 186 1 114 2 414 1 213 1 451 1 340 1 334 1 304 1 416 1 96 1 374 1 117 2 301 1 189 1 162 1 287 1 283 2 421 1 442 2 454 2 84 1 370 1 203 1 363 1 2 1 7 1 10 1 13 1 14 1 29 1 32 1 67 1 71 1 92 1 98 1 99 1 121 1 132 1 145 1 146 1 163 1 173 1 174 1 204 1 232 1 234 1 240 1 247 1 278 1 290 1 295 1 298 1 306 1 318 1 332 1 337 1 348 1 353 1 362 1 366 1 367 1 371 1 381 1 383 1 410 1 418 1 453 1 458 1 462 1 473 1 479 1 501 1 515 1 
1 207 2 1 3 1 4 1 6 1 9 1 54 1 56 1 57 1 316 1 402 1 295 1 470 1 432 1 483 1 128 1 406 1 465 1 471 2 331 1 245 1 403 1 247 1 144 1 149 1 69 1 192 1 415 1 351 2 250 2 364 1 185 1 440 1 209 1 330 1 377 1 385 1 293 1 467 2 93 1 116 1 424 1 396 2 427 1 114 1 142 1 370 1 317 1 492 1 216 1 324 1 1 1 12 1 20 1 26 1 28 1 29 1 48 1 62 1 64 1 77 1 101 1 106 1 112 1 120 1 122 1 161 1 165 1 166 1 169 1 202 1 205 1 242 1 263 1 268 1 270 1 272 1 294 1 297 1 313 1 322 1 335 1 337 1 343 1 352 1 360 1 362 1 384 1 388 1 394 1 404 1 411 1 412 1 425 1 428 1 429 1 441 1 472 1 476 1 477 1 482 1 
1 226 5 1 8 2 18 1 23 1 27 1 35 1 38 1 57 1 93 1 305 1 256 1 364 1 500 1 288 1 186 1 493 1 439 1 90 1 318 1 362 1 297 1 380 1 442 1 117 1 443 1 267 1 342 1 331 1 230 2 66 1 215 1 212 1 426 1 266 1 384 1 226 1 474 1 495 1 302 1 501 1 146 1 265 2 187 1 229 1 492 1 329 1 498 1 4 1 26 1 37 1 49 1 65 1 72 1 81 1 103 1 104 1 107 1 110 1 112 1 125 1 133 1 141 1 152 1 156 1 160 1 179 1 184 1 195 1 199 1 204 1 210 1 220 1 223 1 233 1 245 1 247 1 260 1 276 1 287 1 294 1 307 1 311 1 328 1 339 1 340 1 343 1 348 1 355 1 363 1 371 1 378 1 381 1 385 1 390 1 394 1 402 1 403 1 404 1 424 1 425 1 430 1 432 1 446 1 454 1 483 1 486 1 487 1 490 1 494 1 
1 199 19 1 27 1 31 1 40 1 117 1 252 1 452 2 375 1 163 1 346 1 356 1 379 2 218 1 440 1 448 2 301 1 437 1 107 2 442 1 477 1 138 2 281 1 487 1 312 1 414 1 279 1 349 2 116 1 480 1 160 1 105 1 417 1 238 1 289 1 326 2 363 2 385 1 483 1 114 1 484 1 125 1 237 1 3 1 21 1 34 1 35 1 39 1 55 1 67 1 69 1 94 1 103 1 120 1 121 1 129 1 134 1 140 1 149 1 150 1 157 1 189 1 204 1 215 1 217 1 239 1 241 1 244 1 264 1 277 1 287 1 296 1 297 1 310 1 314 1 320 1 331 1 342 1 344 1 351 1 360 1 361 1 369 1 376 1 378 1 380 1 381 1 391 1 400 1 420 1 427 1 428 1 453 1 459 1 466 1 476 1 503 1 519 1 
1 185 6 1 10 1 22 1 24 1 25 1 28 1 37 1 41 2 42 1 44 1 57 1 148 1 330 1 495 2 362 2 272 1 413 1 217 1 422 1 243 1 296 1 129 1 284 1 309 1 323 1 363 1 346 2 338 1 406 1 329 1 280 2 93 2 498 1 391 1 466 1 190 2 266 1 454 1 242 1 122 1 135 2 98 1 229 1 305 1 270 1 395 1 251 1 339 1 321 1 436 2 208 1 492 1 74 1 132 2 496 1 373 1 331 2 430 1 364 1 174 1 9 1 16 1 35 1 54 1 55 1 59 1 66 1 102 1 114 1 116 1 127 1 139 1 168 1 171 1 173 1 177 1 180 1 183 1 184 1 197 1 203 1 205 1 212 1 224 1 232 1 247 1 258 1 282 1 286 1 294 1 312 1 314 1 318 1 345 1 350 1 353 1 368 1 379 1 409 1 426 1 448 1 453 1 458 1 471 1 520 1 
1 204 3 1 11 1 19 1 22 2 23 1 27 1 29 1 36 1 43 1 55 2 117 1 390 2 381 1 279 1 225 1 155 1 436 1 501 1 319 1 226 1 391 2 67 1 437 1 219 1 295 1 470 1 371 1 304 1 116 2 457 1 332 1 262 1 70 2 394 2 364 1 287 1 303 1 145 1 154 1 452 1 170 1 222 1 477 1 273 1 213 1 377 1 432 1 433 2 211 1 119 1 289 2 134 1 356 1 71 1 489 1 243 1 109 1 245 2 121 1 300 1 235 1 389 1 89 1 1 1 12 1 26 1 48 1 95 1 101 1 131 1 132 1 133 1 138 1 140 1 151 1 174 1 192 1 194 1 200 1 203 1 205 1 215 1 218 1 236 1 246 1 259 1 283 1 308 1 315 1 317 1 326 1 350 1 351 1 363 1 382 1 383 1 384 1 385 1 393 1 403 1 405 1 418 1 424 1 435 1 439 1 445 1 446 1 464 1 469 1 484 1 487 1 490 1 496 1 
1 198 1 1 7 1 10 1 12 1 16 1 17 1 26 1 30 1 36 1 37 1 41 1 42 1 420 1 345 1 434 1 311 1 136 1 304 1 205 1 148 1 320 2 303 1 374 1 353 1 471 1 165 1 456 1 212 1 104 2 69 1 387 2 70 1 196 2 324 1 73 1 460 1 120 1 348 1 382 1 404 1 138 1 289 1 334 1 287 1 231 2 339 1 229 1 142 1 232 1 397 1 412 1 342 1 134 1 155 2 363 1 241 1 421 1 325 1 238 1 337 1 226 1 308 1 414 1 333 1 206 1 381 1 262 1 141 1 260 1 32 1 33 1 43 1 59 1 65 1 72 1 93 1 98 1 102 1 105 1 108 1 115 1 129 1 143 1 158 1 177 1 190 1 201 1 224 1 242 1 244 1 245 1 255 1 256 1 268 1 271 1 273 1 278 1 295 1 301 1 323 1 355 1 365 1 366 1 373 1 379 1 389 1 400 1 402 1 405 1 406 1 408 1 409 1 429 1 443 1 447 1 466 1 478 1 480 1 482 1 483 1 485 1 487 1 489 1 
1 203 3 1 9 1 23 1 32 1 35 1 51 1 361 1 190 1 269 1 300 1 131 1 117 1 314 1 472 1 473 2 495 1 98 1 141 1 260 1 354 1 271 2 333 1 285 1 294 1 143 1 468 2 212 1 335 1 297 1 394 1 239 1 378 1 386 1 93 1 168 1 426 1 137 1 257 1 135 1 485 2 489 1 462 1 480 1 416 1 382 1 242 1 337 1 200 1 129 2 232 1 146 1 82 1 352 1 184 1 446 2 367 1 207 1 445 2 272 1 448 1 165 1 431 1 8 1 27 1 36 1 41 1 60 1 64 1 92 1 102 1 132 1 169 1 172 1 173 1 175 1 176 1 185 1 189 1 198 1 213 1 214 1 218 1 219 1 270 1 283 1 287 1 289 1 298 1 304 1 334 1 339 1 342 1 346 1 348 1 358 1 363 1 364 1 379 1 381 1 385 1 387 1 391 1 404 1 411 1 422 1 434 1 435 1 467 1 471 1 475 1 478 1 521 1 
1 200 1 1 19 1 25 1 39 1 60 1 282 1 141 1 131 1 120 2 138 1 298 1 419 1 279 1 433 1 423 1 176 1 453 1 109 2 210 1 359 1 108 1 443 1 345 1 237 1 303 2 307 1 338 1 343 1 339 1 211 1 323 1 475 1 234 2 459 1 206 1 302 1 110 1 219 1 301 1 226 2 267 1 187 1 409 1 297 1 369 1 478 1 158 1 318 1 319 1 463 1 401 1 436 1 289 1 236 1 174 1 367 1 272 1 153 1 406 2 480 1 500 1 308 1 4 1 14 1 27 1 30 1 37 1 41 1 48 1 62 1 71 1 72 1 74 1 76 1 101 1 115 1 118 1 122 1 134 1 137 1 142 1 145 1 149 1 152 1 159 1 167 1 182 1 190 1 198 1 208 1 221 1 225 1 254 1 259 1 269 1 271 1 273 1 275 1 277 1 283 1 285 1 340 1 377 1 388 1 398 1 412 1 421 1 422 1 424 1 428 1 435 1 458 1 466 1 468 1 472 1 498 1 499 1 
1 208 10 1 11 1 13 1 21 1 23 1 34 2 54 1 63 1 130 1 212 1 128 1 287 1 161 1 274 1 308 1 277 1 430 1 482 1 278 1 136 1 484 1 492 1 217 1 383 1 363 2 388 2 196 1 123 1 390 2 157 1 132 1 454 1 330 1 301 2 355 1 498 1 451 2 243 2 270 1 338 1 146 1 159 1 357 1 268 1 422 1 397 2 166 1 145 1 200 1 283 1 267 1 70 1 419 1 185 1 223 1 126 1 111 1 264 1 143 2 269 1 344 1 458 1 227 1 120 2 162 2 392 1 478 1 9 1 12 1 19 1 22 1 56 1 58 1 61 1 73 1 78 1 103 1 106 1 135 1 144 1 147 1 152 1 169 1 171 1 172 1 175 1 181 1 182 1 184 1 193 1 201 1 204 1 211 1 235 1 254 1 263 1 266 1 280 1 282 1 289 1 295 1 316 1 332 1 334 1 336 1 339 1 340 1 349 1 358 1 362 1 373 1 377 1 378 1 391 1 401 1 402 1 403 1 408 1 417 1 433 1 449 1 459 1 466 1 475 1 495 1 499 1 505 1 
1 197 20 1 21 1 22 1 25 1 32 1 40 1 425 2 148 1 197 1 501 1 110 1 172 1 409 2 449 1 71 2 357 1 329 1 451 1 149 2 106 1 262 1 333 1 117 1 343 1 137 2 431 1 126 1 247 1 348 1 228 1 284 1 412 1 96 1 494 1 201 1 272 1 203 1 371 1 368 1 398 1 291 1 378 1 305 1 124 1 470 1 303 1 206 1 199 2 455 1 278 1 276 1 79 1 393 1 212 2 430 1 89 1 312 1 363 1 158 1 218 1 100 1 402 1 4 1 12 1 18 1 33 1 44 1 94 1 98 1 107 1 108 1 113 1 121 1 139 1 140 1 141 1 184 1 190 1 209 1 216 1 224 1 225 1 227 1 230 1 234 1 236 1 254 1 264 1 273 1 289 1 298 1 322 1 350 1 352 1 355 1 369 1 374 1 387 1 395 1 413 1 417 1 419 1 432 1 439 1 447 1 448 1 450 1 464 1 484 1 488 1 489 1 496 1 502 1 
1 224 37 1 59 1 64 1 409 1 410 1 287 1 380 1 385 1 384 1 320 1 336 1 153 1 404 1 494 2 446 1 207 1 175 2 227 1 319 1 198 1 310 1 259 2 492 1 480 1 124 1 193 1 313 2 246 2 84 1 179 1 149 1 408 1 129 1 157 2 101 1 333 2 71 1 304 1 357 1 365 1 495 1 159 1 105 1 263 1 396 1 256 1 139 1 91 1 192 1 180 1 241 1 390 1 76 1 327 1 215 1 1 1 12 1 16 1 28 1 34 1 61 1 70 1 99 1 100 1 104 1 107 1 113 1 114 1 122 1 156 1 160 1 165 1 171 1 174 1 177 1 178 1 183 1 191 1 196 1 201 1 223 1 226 1 229 1 230 1 251 1 254 1 258 1 265 1 270 1 274 1 291 1 292 1 311 1 317 1 325 1 328 1 340 1 348 1 349 1 354 1 355 1 356 1 359 1 378 1 382 1 383 1 389 1 406 1 411 1 418 1 423 1 426 1 449 1 458 1 469 1 470 1 484 1 487 1 488 1 500 1 514 1 521 1 
1 211 15 1 17 1 22 1 45 1 55 1 63 2 64 1 67 1 347 2 138 1 108 1 143 1 480 1 432 1 165 1 442 1 200 1 298 1 71 1 193 1 356 1 445 1 161 1 311 2 270 2 334 1 147 1 300 1 368 1 460 1 323 1 426 2 112 1 304 1 240 1 295 1 245 1 158 2 117 1 386 1 198 1 202 1 404 1 458 1 172 1 464 1 131 1 119 1 116 1 278 1 188 1 75 2 129 1 183 1 451 1 213 1 3 1 6 1 9 1 25 1 30 1 34 1 69 1 100 1 109 1 126 1 132 1 148 1 150 1 182 1 194 1 207 1 212 1 221 1 222 1 228 1 241 1 267 1 269 1 272 1 277 1 291 1 296 1 299 1 302 1 310 1 324 1 332 1 345 1 351 1 361 1 376 1 380 1 398 1 402 1 408 1 424 1 439 1 443 1 449 1 465 1 477 1 481 1 484 1 499 1 504 1 518 1 
1 213 2 1 13 2 14 2 15 1 30 1 36 1 63 1 68 2 69 1 70 1 250 2 444 1 414 1 231 1 199 2 163 1 98 1 329 2 409 1 476 1 196 1 156 1 137 1 400 1 380 1 450 1 298 1 244 1 105 1 342 1 369 1 376 1 463 1 147 2 284 1 165 1 289 1 334 1 251 1 451 1 124 1 200 1 79 1 460 1 303 1 103 1 439 1 491 1 131 2 448 1 332 1 197 1 336 1 72 1 123 1 135 1 190 1 482 1 467 2 286 1 440 1 3 1 45 1 58 1 66 1 111 1 113 1 136 1 145 1 148 1 149 1 153 1 187 1 193 1 198 1 206 1 210 1 217 1 218 1 228 1 247 1 256 1 264 1 266 1 272 1 274 1 310 1 311 1 314 1 316 1 325 1 327 1 333 1 337 1 347 1 350 1 355 1 361 1 374 1 379 1 404 1 406 1 410 1 412 1 416 1 472 1 474 1 477 1 478 1 486 1 518 1 
1 185 6 1 14 1 23 1 25 1 27 1 28 1 37 1 50 1 71 1 249 1 251 1 427 1 273 1 402 1 277 1 313 1 76 1 244 1 274 1 404 1 226 2 314 2 354 1 103 1 423 1 97 1 466 1 467 1 225 1 278 1 197 1 220 1 109 2 438 1 230 1 335 1 324 1 481 1 338 1 483 1 108 2 480 2 173 1 81 1 320 2 345 1 459 1 360 1 141 1 497 1 117 1 125 1 365 1 417 1 7 1 10 1 12 1 30 1 34 1 60 1 64 1 66 1 83 1 84 1 126 1 135 1 136 1 148 1 155 1 168 1 178 1 196 1 201 1 205 1 236 1 272 1 300 1 316 1 328 1 383 1 390 1 425 1 439 1 440 1 442 1 452 1 456 1 458 1 460 1 464 1 476 1 485 1 499 1 500 1 
1 202 5 1 41 2 51 1 64 1 351 1 501 1 296 1 144 1 445 1 138 1 319 1 467 1 165 1 76 1 101 1 160 1 145 1 254 1 253 2 339 1 290 1 142 1 265 2 247 1 185 1 220 1 251 1 399 2 139 1 470 2 317 1 357 1 352 1 360 1 341 2 385 1 418 1 375 1 103 1 382 1 388 1 384 2 74 1 124 1 397 1 449 1 177 1 394 1 463 2 273 1 484 1 407 1 173 2 479 1 1 1 4 1 25 1 36 1 40 1 52 1 67 1 82 1 83 1 97 1 111 1 113 1 161 1 169 1 172 1 184 1 207 1 210 1 227 1 232 1 236 1 260 1 261 1 277 1 278 1 285 1 287 1 293 1 302 1 304 1 306 1 312 1 316 1 318 1 325 1 332 1 350 1 372 1 374 1 402 1 406 1 410 1 427 1 431 1 465 1 473 1 483 1 494 1 500 1 517 1 521 1 
1 205 1 1 15 2 19 1 28 1 37 2 40 1 62 1 73 1 183 1 394 2 361 1 404 1 353 1 328 1 415 1 109 1 211 1 351 1 381 1 447 2 308 2 185 1 303 1 261 1 468 1 254 1 485 1 282 1 180 1 157 1 326 1 120 1 342 1 439 1 235 2 201 1 309 1 371 1 90 1 278 1 142 1 110 2 453 1 490 1 103 1 402 1 413 1 114 1 459 1 274 1 451 1 88 1 14 1 16 1 18 1 27 1 66 1 76 1 113 1 116 1 124 1 129 1 133 1 138 1 145 1 150 1 176 1 184 1 190 1 198 1 199 1 224 1 243 1 253 1 268 1 269 1 287 1 289 1 291 1 292 1 299 1 302 1 335 1 336 1 338 1 339 1 368 1 370 1 379 1 388 1 392 1 396 1 405 1 429 1 440 1 449 1 455 1 457 1 462 1 465 1 474 1 480 1 488 1 506 1 
1 213 7 1 10 1 15 1 29 1 34 1 36 1 37 1 45 1 70 2 194 1 352 1 131 1 373 1 189 1 123 1 463 1 322 1 459 1 317 1 330 1 284 1 399 2 434 1 290 1 321 2 337 2 287 1 238 1 336 1 269 1 393 1 283 1 429 2 423 1 409 2 262 1 105 1 109 2 467 1 89 1 146 1 457 1 243 1 177 1 153 1 418 1 202 1 175 1 187 1 84 1 396 1 233 1 446 1 324 1 222 1 360 1 461 1 359 1 493 1 6 1 13 1 16 1 22 1 35 1 80 1 82 1 112 1 117 1 118 1 125 1 135 1 137 1 151 1 154 1 158 1 161 1 170 1 176 1 183 1 193 1 196 1 208 1 210 1 211 1 215 1 244 1 248 1 256 1 258 1 277 1 294 1 300 1 314 1 319 1 320 1 334 1 348 1 380 1 389 1 394 1 405 1 407 1 411 1 417 1 441 1 445 1 454 1 455 1 469 1 477 1 481 1 498 1 
1 189 22 1 30 1 36 1 38 1 45 1 69 1 72 1 73 1 238 1 386 1 446 2 147 1 249 1 399 1 355 1 425 1 460 1 108 2 314 2 169 1 429 1 438 1 112 2 227 1 369 1 142 1 444 2 441 1 146 1 228 1 486 1 409 1 110 1 343 1 489 2 304 1 170 1 175 1 416 1 205 1 414 1 347 1 126 1 472 1 86 1 222 1 332 1 290 1 301 1 466 1 257 2 115 1 292 1 95 1 114 1 497 1 465 1 272 1 439 2 288 1 350 1 273 1 422 1 315 1 3 1 5 1 14 1 31 1 34 1 66 1 74 1 84 1 106 1 128 1 162 1 163 1 198 1 209 1 210 1 211 1 225 1 232 1 233 1 236 1 260 1 282 1 283 1 296 1 338 1 344 1 383 1 388 1 423 1 431 1 443 1 450 1 462 1 464 1 480 1 484 1 490 1 500 1 508 1 511 1 
1 179 3 2 4 1 16 2 19 1 32 1 33 2 184 1 491 1 228 1 108 1 427 1 256 1 113 1 459 2 380 1 290 1 173 1 395 1 163 2 373 1 84 1 401 1 329 1 114 1 135 1 414 1 488 1 496 1 436 1 416 2 175 2 424 1 174 1 384 1 421 1 471 1 252 1 275 1 164 1 162 1 358 1 320 1 197 1 165 1 357 1 440 1 443 1 156 1 372 1 196 1 107 1 396 1 339 1 476 2 128 1 96 1 490 1 161 1 205 1 321 1 386 1 13 1 35 1 59 1 105 1 121 1 139 1 146 1 147 1 178 1 191 1 193 1 194 1 234 1 260 1 263 1 269 1 274 1 286 1 287 1 292 1 293 1 305 1 309 1 326 1 334 1 345 1 360 1 412 1 418 1 442 1 445 1 457 1 460 1 461 1 466 1 472 1 474 1 499 1 513 1 
1 205 2 1 9 2 12 1 14 1 17 1 19 1 30 2 34 1 38 1 270 1 480 2 183 1 375 1 248 1 349 1 189 2 415 1 181 1 171 2 223 1 461 2 225 1 152 1 241 2 370 1 499 1 497 1 151 1 188 1 330 1 459 1 316 1 191 1 319 1 392 1 150 2 450 1 220 1 383 1 221 1 111 1 471 1 262 1 122 1 390 1 83 2 318 1 114 1 328 1 492 1 261 2 133 1 230 1 260 1 224 1 11 1 29 1 39 1 44 1 46 1 67 1 95 1 109 1 135 1 145 1 178 1 179 1 195 1 205 1 207 1 210 1 255 1 266 1 268 1 271 1 280 1 295 1 300 1 326 1 327 1 329 1 340 1 346 1 354 1 355 1 378 1 388 1 398 1 403 1 412 1 418 1 421 1 443 1 448 1 453 1 456 1 470 1 482 1 488 1 493 1 502 1 508 1 510 1 514 1 
1 204 5 1 12 1 21 1 22 1 31 1 35 1 45 1 47 1 53 1 68 1 71 1 179 2 430 1 268 1 327 1 439 1 296 1 485 1 172 1 269 1 499 2 145 1 316 1 494 1 357 1 274 1 276 1 433 1 310 1 496 1 113 1 105 1 379 1 488 1 431 1 428 1 141 1 246 1 339 1 160 1 314 1 81 1 148 2 480 1 375 1 178 1 253 1 271 1 80 2 219 2 465 1 239 1 352 1 235 1 487 1 489 1 1 1 2 1 9 1 17 1 24 1 28 1 33 1 36 1 40 1 51 1 110 1 121 1 133 1 142 1 144 1 146 1 152 1 155 1 157 1 167 1 170 1 182 1 190 1 195 1 211 1 259 1 262 1 277 1 290 1 299 1 300 1 311 1 334 1 340 1 360 1 370 1 388 1 407 1 411 1 420 1 435 1 442 1 453 1 
1 192 6 1 13 1 15 1 19 1 33 2 36 1 41 1 79 2 497 1 231 1 333 1 106 1 211 1 413 2 405 2 159 1 213 1 292 1 395 1 304 1 222 1 105 2 110 1 225 1 342 1 431 2 171 1 300 1 387 1 407 1 352 1 368 1 313 1 325 2 328 1 257 1 278 1 408 1 337 1 445 1 143 2 449 1 286 1 114 1 261 1 370 1 133 1 347 1 422 1 199 1 319 1 276 1 284 1 210 1 200 1 239 1 127 1 423 1 436 1 434 1 20 1 37 1 38 1 75 1 118 1 137 1 149 1 154 1 161 1 165 1 169 1 174 1 175 1 189 1 190 1 195 1 203 1 204 1 205 1 207 1 215 1 236 1 240 1 243 1 245 1 248 1 258 1 271 1 279 1 283 1 303 1 320 1 329 1 340 1 348 1 359 1 362 1 366 1 377 1 378 1 379 1 392 1 420 1 421 1 427 1 429 1 448 1 460 1 465 1 466 1 477 1 484 1 494 1 498 1 508 1 
1 210 7 2 14 1 17 1 19 1 29 1 32 1 36 1 38 1 57 1 72 1 79 1 452 1 272 1 332 1 498 1 144 2 279 1 131 1 304 2 108 1 364 1 241 1 190 1 391 1 107 1 212 2 258 1 239 1 128 2 295 1 312 1 280 1 207 1 182 1 378 2 412 2 473 2 351 1 135 1 208 1 385 1 95 1 375 1 430 1 476 1 124 1 466 1 166 1 390 2 382 1 232 1 296 2 493 1 366 1 359 1 428 2 6 1 15 1 22 1 23 1 26 1 40 1 60 1 101 1 106 1 109 1 111 1 112 1 168 1 176 1 177 1 178 1 187 1 202 1 230 1 233 1 234 1 238 1 246 1 254 1 259 1 262 1 271 1 277 1 288 1 307 1 315 1 321 1 325 1 328 1 355 1 374 1 381 1 405 1 406 1 416 1 427 1 434 1 436 1 441 1 451 1 461 1 471 1 472 1 480 1 486 1 494 1 497 1 504 1 513 1 
1 201 1 1 4 1 15 1 17 1 29 1 36 1 43 1 49 1 65 1 193 2 244 1 236 1 255 1 262 1 393 1 123 2 292 1 302 1 159 1 497 1 314 1 209 2 472 1 496 2 338 1 471 1 185 1 460 2 177 1 381 1 297 1 290 2 282 1 106 1 207 1 313 1 412 1 493 1 271 1 327 1 322 1 452 1 463 1 379 1 486 2 217 1 366 1 409 1 406 1 283 2 240 2 485 1 248 1 453 1 249 2 346 1 157 1 280 1 310 1 390 1 166 1 331 1 295 2 227 2 415 1 24 1 33 1 40 1 53 1 73 1 75 1 83 1 127 1 129 1 133 1 147 1 160 1 162 1 175 1 179 1 184 1 192 1 198 1 211 1 213 1 228 1 229 1 231 1 247 1 254 1 257 1 258 1 265 1 270 1 294 1 301 1 308 1 336 1 369 1 386 1 389 1 391 1 429 1 436 1 446 1 449 1 451 1 462 1 467 1 481 1 483 1 504 1 508 1 
1 198 1 2 5 1 10 2 16 1 31 1 36 1 37 1 42 1 53 1 78 2 383 1 352 1 282 1 208 1 467 1 190 1 475 1 117 1 373 1 351 1 274 1 420 1 178 1 319 2 381 1 139 1 464 1 156 1 399 1 252 1 337 1 486 2 379 1 167 1 310 1 362 1 265 2 301 2 257 1 469 1 275 1 140 1 327 1 328 1 482 1 92 1 267 1 400 1 347 1 195 1 277 2 331 1 345 1 485 1 283 1 404 1 484 1 471 1 330 1 164 1 175 1 354 1 100 1 98 1 136 1 437 1 493 1 180 1 20 1 27 1 49 1 52 1 72 1 73 1 82 1 93 1 95 1 109 1 127 1 137 1 142 1 144 1 146 1 171 1 179 1 182 1 189 1 211 1 224 1 245 1 247 1 250 1 273 1 286 1 287 1 291 1 296 1 300 1 306 1 312 1 329 1 332 1 353 1 365 1 369 1 386 1 412 1 418 1 423 1 427 1 428 1 431 1 461 1 473 1 474 1 483 1 507 1 
1 214 1 2 7 1 12 1 19 1 24 1 25 1 28 1 31 1 32 1 35 1 37 1 49 1 51 1 58 1 69 1 75 1 77 1 470 1 161 1 226 1 296 1 122 1 350 1 211 1 115 1 370 1 436 1 184 2 109 2 169 1 432 2 224 1 232 1 365 2 407 1 218 1 441 1 165 1 139 2 374 1 156 1 114 1 173 1 258 1 375 1 309 1 305 1 119 1 311 1 269 1 246 1 116 1 452 1 497 1 447 1 291 1 463 2 310 1 329 1 438 1 462 1 15 1 38 1 40 1 43 1 50 1 52 1 72 1 76 1 89 1 113 1 117 1 133 1 134 1 136 1 141 1 142 1 157 1 187 1 189 1 206 1 210 1 222 1 241 1 244 1 245 1 256 1 271 1 286 1 287 1 290 1 300 1 308 1 315 1 316 1 326 1 335 1 337 1 357 1 372 1 379 1 395 1 398 1 404 1 405 1 409 1 426 1 439 1 448 1 457 1 478 1 484 1 485 1 501 1 518 1 
1 201 8 1 13 2 15 2 29 1 34 1 42 1 44 1 49 1 278 1 250 1 446 1 359 2 185 1 180 1 345 1 367 1 212 1 454 2 112 1 372 2 442 1 387 2 323 1 243 1 466 1 237 1 291 1 264 1 145 1 418 1 156 1 355 1 364 1 343 1 307 1 199 1 247 1 438 1 157 1 501 1 213 1 306 1 136 1 342 1 411 1 152 1 208 1 417 1 384 1 282 1 174 1 5 1 54 1 111 1 120 1 123 1 126 1 138 1 141 1 160 1 167 1 186 1 190 1 226 1 230 1 233 1 240 1 245 1 252 1 284 1 292 1 303 1 304 1 317 1 319 1 325 1 332 1 333 1 334 1 350 1 375 1 380 1 388 1 390 1 393 1 401 1 423 1 432 1 437 1 449 1 453 1 458 1 461 1 464 1 469 1 474 1 476 1 479 1 489 1 491 1 510 1 513 1 517 1 
1 217 5 1 9 1 10 1 16 1 22 1 23 1 31 1 46 1 49 1 76 1 409 1 142 1 153 1 309 1 327 1 184 1 416 1 415 1 213 1 349 1 222 1 156 1 347 1 270 2 212 1 139 1 376 1 355 1 421 1 278 2 217 1 125 1 114 1 308 1 471 1 315 2 132 1 465 1 301 1 369 2 337 2 293 1 453 1 157 1 110 1 400 1 265 1 203 1 115 2 99 1 244 1 299 2 318 1 281 1 401 1 410 1 236 1 387 1 18 1 87 1 104 1 120 1 134 1 161 1 162 1 167 1 182 1 187 1 195 1 200 1 206 1 211 1 220 1 230 1 233 1 240 1 248 1 251 1 253 1 259 1 264 1 272 1 274 1 285 1 305 1 306 1 324 1 336 1 352 1 359 1 362 1 370 1 381 1 383 1 389 1 395 1 403 1 404 1 418 1 425 1 430 1 433 1 450 1 452 1 454 1 469 1 479 1 488 1 493 1 497 1 520 1 
1 203 2 1 8 1 17 1 29 1 49 1 50 1 297 1 449 1 144 1 240 1 183 1 253 1 443 1 324 1 267 1 365 1 471 1 377 1 180 2 437 1 400 1 438 1 496 1 124 1 455 2 335 1 264 1 249 1 385 1 262 1 489 1 394 1 188 1 436 1 411 2 194 1 478 1 392 2 228 1 382 1 90 1 343 1 375 1 97 1 364 1 447 1 327 1 474 1 501 1 446 1 395 2 99 1 323 2 308 1 295 2 452 1 11 1 37 1 43 1 47 1 48 1 53 1 86 1 88 1 92 1 100 1 104 1 115 1 137 1 148 1 151 1 159 1 171 1 195 1 207 1 215 1 223 1 241 1 250 1 252 1 254 1 257 1 261 1 269 1 284 1 287 1 288 1 289 1 315 1 318 1 320 1 347 1 366 1 381 1 401 1 402 1 421 1 425 1 433 1 465 1 466 1 467 1 513 1 514 1 
1 188 1 1 11 1 13 1 20 1 37 1 53 2 74 1 279 1 381 1 363 1 357 2 446 1 429 1 201 1 129 1 424 1 447 1 442 2 188 1 406 1 177 1 315 1 212 1 226 2 229 1 131 1 151 1 500 1 439 1 132 2 91 2 198 1 196 2 125 1 350 1 349 1 384 1 124 1 319 1 147 2 386 1 182 1 104 1 477 1 351 1 278 1 461 1 428 1 134 1 339 1 153 1 160 1 234 1 497 1 407 1 473 1 318 2 117 1 289 1 485 2 25 1 26 1 46 1 57 1 87 1 92 1 123 1 162 1 167 1 180 1 191 1 192 1 200 1 215 1 220 1 237 1 241 1 244 1 248 1 249 1 250 1 257 1 260 1 273 1 282 1 298 1 304 1 307 1 324 1 331 1 335 1 348 1 361 1 388 1 395 1 402 1 412 1 419 1 432 1 440 1 441 1 448 1 453 1 457 1 463 1 483 1 
1 214 3 1 15 1 21 1 33 1 40 2 46 1 63 1 68 1 75 1 254 1 178 1 187 1 232 1 123 1 124 2 234 1 328 1 173 1 292 1 174 1 308 1 407 1 462 2 363 2 492 1 314 1 341 1 136 1 119 1 301 1 326 2 336 1 378 1 399 1 143 1 364 2 251 1 262 1 443 1 104 1 268 1 379 1 480 1 238 1 498 1 303 1 239 1 274 1 320 2 455 1 365 1 484 1 471 1 126 1 2 1 6 1 10 1 14 1 16 1 36 1 38 1 41 1 84 1 116 1 133 1 140 1 141 1 168 1 172 1 179 1 194 1 198 1 214 1 229 1 244 1 250 1 255 1 264 1 289 1 290 1 297 1 311 1 335 1 346 1 368 1 370 1 371 1 376 1 383 1 384 1 400 1 410 1 414 1 429 1 435 1 438 1 440 1 445 1 448 1 457 1 461 1 463 1 466 1 478 1 490 1 509 1 
1 233 1 1 15 1 20 1 26 1 47 1 60 1 74 1 87 1 198 2 283 1 450 1 175 1 279 1 331 2 343 1 139 1 197 2 119 1 199 1 458 1 436 1 213 1 307 1 428 1 356 1 181 1 437 1 205 1 210 2 370 2 158 1 238 1 435 1 487 2 501 1 191 1 220 1 407 1 377 2 183 1 469 1 305 1 430 1 96 1 252 2 385 1 429 1 138 1 339 1 322 1 292 1 321 1 142 1 462 2 202 1 225 2 281 1 274 1 223 2 56 1 117 1 123 1 129 1 159 1 161 1 188 1 209 1 214 1 218 1 232 1 235 1 260 1 275 1 296 1 304 1 330 1 335 1 344 1 348 1 352 1 358 1 361 1 382 1 388 1 402 1 406 1 408 1 411 1 416 1 421 1 422 1 431 1 433 1 438 1 441 1 445 1 467 1 473 1 480 1 488 1 495 1 500 1 518 1 
1 186 7 1 9 1 34 1 45 1 49 1 69 1 88 2 461 1 203 1 196 1 161 1 349 1 498 1 482 1 357 1 412 1 192 1 160 2 402 1 434 1 441 1 386 1 429 1 222 1 111 2 279 1 113 1 400 1 488 1 98 1 119 1 376 2 470 1 253 2 237 1 116 1 323 1 234 1 95 1 383 1 350 1 423 2 283 1 432 1 397 1 344 1 209 1 280 1 477 1 361 1 314 1 465 1 92 1 144 1 127 1 190 1 294 1 391 1 177 1 317 1 359 1 29 1 36 1 47 1 52 1 97 1 110 1 114 1 130 1 133 1 134 1 145 1 151 1 166 1 169 1 174 1 183 1 185 1 202 1 205 1 212 1 217 1 230 1 231 1 251 1 254 1 269 1 272 1 288 1 301 1 318 1 331 1 333 1 334 1 336 1 362 1 381 1 428 1 430 1 458 1 474 1 497 1 514 1 
1 203 1 1 2 1 34 1 38 1 40 1 44 1 48 1 50 1 57 1 83 1 91 1 115 1 245 1 482 1 233 1 186 1 213 1 493 1 465 1 188 1 190 1 125 1 418 1 261 1 325 2 417 2 347 1 134 1 335 1 287 1 96 1 246 1 447 1 284 1 152 1 463 1 301 1 102 2 133 1 229 1 488 1 254 1 253 2 310 1 248 1 401 1 146 2 258 1 413 1 273 1 434 1 323 1 135 1 191 1 267 1 441 1 442 2 326 1 3 1 9 1 16 1 23 1 24 1 36 1 51 1 52 1 56 1 58 1 65 1 87 1 88 1 130 1 137 1 142 1 147 1 148 1 167 1 169 1 172 1 173 1 182 1 183 1 199 1 201 1 206 1 220 1 231 1 241 1 250 1 252 1 255 1 265 1 266 1 270 1 283 1 296 1 300 1 303 1 324 1 327 1 344 1 356 1 358 1 362 1 379 1 385 1 403 1 406 1 457 1 460 1 476 1 478 1 485 1 489 1 495 1 
1 204 1 2 16 1 18 1 46 1 53 1 55 2 56 1 59 1 60 1 62 2 65 1 175 2 476 1 365 1 450 1 128 1 313 1 392 1 237 1 359 1 407 1 371 1 251 1 338 1 336 1 206 1 213 1 302 1 198 1 157 2 225 2 95 1 272 1 400 1 173 1 444 1 258 2 215 1 143 1 185 1 369 2 342 2 348 1 205 1 230 1 299 1 417 1 180 2 329 1 208 1 317 1 150 1 307 1 474 1 462 1 291 1 315 1 331 1 497 2 430 1 327 1 103 1 189 1 406 1 427 2 147 1 458 1 459 1 453 1 4 1 9 1 26 1 35 1 44 1 48 1 64 1 83 1 120 1 137 1 140 1 141 1 146 1 170 1 171 1 176 1 187 1 190 1 191 1 201 1 219 1 221 1 238 1 254 1 262 1 268 1 297 1 311 1 312 1 325 1 332 1 337 1 341 1 345 1 351 1 353 1 356 1 367 1 377 1 380 1 381 1 384 1 396 1 399 1 403 1 438 1 449 1 475 1 484 1 506 1 507 1 510 1 
1 203 2 1 7 1 11 1 36 1 49 1 58 1 130 2 202 1 343 1 226 1 295 1 424 1 477 1 161 1 407 1 475 1 373 1 265 1 418 1 183 1 376 1 327 1 362 1 311 1 445 1 430 1 120 2 348 1 246 2 152 1 446 1 171 1 194 1 488 1 307 1 165 1 487 2 436 1 178 2 470 1 356 1 210 1 437 1 443 1 101 1 431 2 441 2 387 1 303 1 266 2 359 1 496 1 428 1 317 1 19 1 20 1 21 1 26 1 27 1 29 1 41 1 53 1 61 1 68 1 98 1 128 1 129 1 132 1 138 1 142 1 149 1 156 1 166 1 169 1 181 1 193 1 197 1 207 1 223 1 230 1 234 1 237 1 239 1 241 1 260 1 268 1 280 1 281 1 288 1 289 1 290 1 302 1 319 1 321 1 326 1 328 1 335 1 340 1 357 1 358 1 363 1 365 1 389 1 396 1 401 1 415 1 422 1 433 1 435 1 444 1 464 1 478 1 481 1 
1 212 13 1 23 1 40 1 48 1 49 1 55 1 57 2 76 1 81 1 91 1 93 1 320 1 304 1 406 1 431 1 176 1 297 1 131 1 483 1 122 1 435 2 228 1 188 1 202 1 402 1 151 1 266 1 134 1 381 1 217 1 97 1 196 2 167 1 201 1 309 1 413 1 124 1 103 1 175 1 257 1 199 1 457 1 203 1 292 1 368 1 487 1 99 1 405 1 323 1 242 1 385 1 165 2 447 1 1 1 17 1 19 1 44 1 53 1 63 1 78 1 83 1 96 1 123 1 125 1 130 1 169 1 173 1 180 1 184 1 205 1 220 1 221 1 227 1 230 1 232 1 234 1 241 1 252 1 256 1 258 1 261 1 269 1 276 1 284 1 289 1 296 1 302 1 313 1 321 1 330 1 335 1 353 1 360 1 364 1 370 1 394 1 400 1 401 1 414 1 419 1 421 1 424 1 439 1 455 1 456 1 476 1 501 1 503 1 518 1 
1 212 18 1 26 1 32 1 34 1 48 1 58 1 68 1 77 1 90 1 92 1 489 1 464 1 462 1 322 1 430 1 294 1 468 1 191 1 275 1 180 1 159 2 498 1 102 1 472 2 428 1 344 2 183 1 189 1 398 1 306 2 276 1 494 1 220 1 367 1 227 2 374 2 364 2 418 1 473 1 179 1 360 1 378 1 105 1 403 1 106 1 416 1 372 2 162 1 352 1 404 2 164 1 13 1 19 1 24 1 27 1 55 1 56 1 95 1 117 1 123 1 127 1 135 1 140 1 150 1 152 1 160 1 167 1 176 1 178 1 185 1 192 1 214 1 223 1 243 1 246 1 252 1 265 1 267 1 291 1 299 1 301 1 323 1 340 1 346 1 354 1 359 1 362 1 379 1 380 1 383 1 394 1 395 1 396 1 399 1 420 1 422 1 429 1 438 1 445 1 454 1 457 1 475 1 484 1 502 1 515 1 
1 202 6 1 26 1 28 1 51 1 52 1 53 1 56 2 72 1 87 1 95 1 452 2 463 1 389 1 203 1 437 1 148 1 264 1 430 1 374 1 207 1 357 1 156 1 138 1 353 1 152 1 490 2 487 1 277 1 127 1 341 1 142 1 432 2 474 1 183 1 395 1 240 1 310 1 393 1 205 2 343 1 313 1 307 1 276 1 182 1 202 1 404 2 327 1 473 1 189 2 480 2 425 1 388 1 222 1 174 1 468 1 347 1 3 1 11 1 15 1 40 1 46 1 55 1 73 1 91 1 101 1 140 1 157 1 167 1 169 1 185 1 208 1 210 1 212 1 214 1 221 1 224 1 226 1 231 1 242 1 244 1 256 1 259 1 261 1 270 1 274 1 285 1 286 1 292 1 297 1 299 1 308 1 311 1 318 1 326 1 349 1 364 1 386 1 399 1 415 1 427 1 429 1 450 1 455 1 459 1 476 1 493 1 494 1 501 1 520 1 
1 200 15 1 23 1 30 2 31 1 62 1 65 1 71 1 83 1 91 1 425 1 255 2 398 1 99 1 423 1 176 2 242 2 433 1 424 1 167 1 153 1 263 1 393 1 401 2 323 1 248 1 303 1 314 1 245 1 229 1 351 1 483 1 260 1 300 1 270 2 408 1 466 1 467 1 222 1 389 1 454 2 194 1 487 1 316 1 352 1 358 1 402 1 259 1 210 1 277 1 368 1 284 1 274 1 339 1 431 1 475 1 337 1 421 1 113 1 175 1 494 1 147 1 187 1 224 1 13 1 20 1 41 1 47 1 49 1 56 1 58 1 64 1 68 1 94 1 126 1 128 1 131 1 140 1 143 1 154 1 159 1 168 1 172 1 173 1 178 1 183 1 199 1 220 1 236 1 239 1 275 1 289 1 299 1 304 1 326 1 333 1 367 1 376 1 381 1 386 1 409 1 416 1 419 1 422 1 438 1 452 1 484 1 505 1 
1 197 41 1 42 1 44 1 46 1 47 1 54 2 86 1 87 1 95 1 98 1 500 1 367 1 397 1 207 1 432 1 193 1 478 1 376 1 195 1 356 1 413 2 483 1 380 1 344 1 460 1 477 1 419 1 494 1 463 1 232 1 329 1 138 1 162 1 337 1 465 1 134 2 311 1 498 1 310 2 197 1 448 1 495 1 428 1 359 1 143 1 452 1 388 1 235 1 164 1 274 1 276 1 389 1 130 1 258 1 302 1 101 1 166 1 454 1 173 1 120 1 334 1 440 1 296 1 1 1 17 1 18 1 19 1 26 1 33 1 38 1 48 1 58 1 69 1 145 1 155 1 160 1 167 1 169 1 170 1 191 1 196 1 206 1 237 1 243 1 252 1 261 1 266 1 271 1 272 1 289 1 293 1 299 1 319 1 330 1 332 1 345 1 351 1 368 1 373 1 416 1 439 1 446 1 458 1 464 1 469 1 491 1 493 1 499 1 
1 196 1 1 13 1 18 1 20 1 32 1 35 1 40 1 53 1 54 1 56 1 58 1 68 1 83 1 373 1 489 2 178 1 450 1 461 1 471 1 196 2 302 1 204 1 161 2 201 1 342 2 247 1 501 2 347 1 136 1 221 1 191 1 198 1 327 1 235 1 394 1 474 1 363 1 447 2 133 2 232 1 276 2 353 1 285 1 149 1 229 1 469 1 427 1 312 1 473 1 432 1 362 2 301 1 128 1 378 1 266 1 278 1 207 1 10 1 28 1 46 1 69 1 70 1 87 1 131 1 138 1 139 1 147 1 183 1 186 1 202 1 206 1 208 1 211 1 214 1 216 1 236 1 246 1 249 1 254 1 259 1 268 1 283 1 287 1 290 1 314 1 315 1 318 1 322 1 325 1 346 1 349 1 357 1 404 1 407 1 413 1 418 1 435 1 437 1 458 1 459 1 464 1 482 1 487 1 490 1 503 1 
1 215 5 1 8 2 11 1 17 1 28 1 30 2 34 1 35 1 41 1 46 1 52 1 53 1 69 1 73 1 94 1 99 1 269 1 432 1 475 1 466 1 273 1 296 1 272 1 275 1 316 1 309 1 425 1 479 1 102 1 205 1 134 1 240 2 372 1 343 1 264 2 255 1 437 1 394 1 286 1 223 1 380 1 495 1 242 1 178 1 220 2 441 1 249 1 300 1 118 1 259 1 229 1 468 1 289 1 237 1 133 1 282 1 228 2 486 1 322 1 348 1 459 1 452 1 232 1 173 2 16 1 23 1 47 1 48 1 51 1 59 1 63 1 66 1 81 1 97 1 103 1 113 1 144 1 148 1 152 1 157 1 187 1 193 1 204 1 226 1 227 1 243 1 265 1 270 1 274 1 276 1 279 1 285 1 305 1 324 1 331 1 342 1 346 1 364 1 365 1 367 1 369 1 378 1 383 1 408 1 418 1 424 1 427 1 436 1 450 1 455 1 465 1 488 1 489 1 490 1 516 1 518 1 
1 201 1 2 8 1 24 1 51 2 54 1 92 2 96 1 101 1 492 2 241 1 285 1 135 1 386 1 325 1 202 1 481 1 339 1 460 1 282 1 346 1 305 1 382 1 106 1 336 1 251 1 212 1 199 1 234 1 304 1 265 2 459 1 197 1 289 1 298 1 189 1 404 1 209 1 276 1 331 1 333 1 165 1 207 1 345 1 173 1 109 1 389 1 159 1 372 1 501 1 177 1 103 1 168 1 203 1 455 1 332 1 250 1 153 1 440 1 190 1 37 1 38 1 43 1 53 1 62 1 64 1 65 1 113 1 149 1 150 1 178 1 181 1 183 1 185 1 188 1 193 1 194 1 221 1 224 1 230 1 244 1 247 1 252 1 263 1 269 1 278 1 290 1 309 1 314 1 353 1 355 1 363 1 376 1 383 1 384 1 395 1 399 1 403 1 422 1 431 1 434 1 454 1 470 1 477 1 485 1 498 1 508 1 
1 189 5 2 18 2 27 1 33 1 46 1 71 1 72 1 73 1 74 1 93 1 95 1 102 1 252 1 468 1 494 1 384 1 189 1 492 1 377 1 458 2 476 2 168 1 258 1 276 1 208 1 172 1 201 1 259 1 273 1 356 1 396 2 309 2 437 1 405 1 481 1 484 1 287 1 105 2 335 1 475 1 188 1 383 1 160 1 403 1 404 2 385 1 323 1 347 2 187 1 374 1 12 1 30 1 40 1 42 1 60 1 61 1 67 1 101 1 137 1 149 1 152 1 177 1 190 1 203 1 206 1 220 1 222 1 225 1 243 1 249 1 260 1 263 1 283 1 301 1 312 1 314 1 327 1 328 1 329 1 338 1 340 1 342 1 345 1 348 1 359 1 373 1 389 1 414 1 429 1 440 1 443 1 446 1 466 1 495 1 496 1 502 1 505 1 
1 207 8 1 10 2 19 1 20 1 30 1 37 1 50 1 51 1 64 2 88 1 89 1 197 1 407 2 477 2 309 1 321 1 181 1 389 1 223 1 180 1 186 1 174 2 220 1 450 1 426 1 172 1 338 2 432 1 194 1 163 2 360 1 485 1 416 1 149 1 324 1 378 1 156 2 356 1 175 1 115 1 203 1 198 1 107 1 185 1 395 2 288 1 140 1 412 1 423 2 136 2 373 1 487 1 216 1 214 1 218 1 363 2 147 1 228 1 403 1 497 1 337 1 469 1 215 2 281 1 371 1 343 1 117 1 255 1 14 1 15 1 38 1 44 1 54 1 60 1 69 1 86 1 87 1 106 1 137 1 138 1 177 1 219 1 236 1 244 1 245 1 263 1 268 1 295 1 300 1 301 1 302 1 358 1 375 1 380 1 388 1 396 1 409 1 411 1 427 1 429 1 433 1 446 1 458 1 466 1 515 1 516 1 
1 188 8 1 13 1 19 1 57 1 61 1 69 1 71 1 75 1 79 1 80 2 96 1 103 2 291 1 445 1 471 1 381 1 450 1 333 1 181 1 460 1 253 1 326 1 212 1 444 1 307 1 489 1 251 1 488 1 492 1 285 1 317 1 379 2 443 2 482 1 205 1 494 1 270 1 111 1 349 1 370 1 431 1 422 1 351 1 214 1 193 1 188 1 156 1 246 1 360 1 216 1 425 1 459 1 328 1 112 1 350 1 387 1 238 1 439 1 258 1 248 1 16 1 24 1 25 1 39 1 46 1 50 1 64 1 77 1 120 1 125 1 155 1 160 1 162 1 166 1 176 1 178 1 180 1 199 1 213 1 215 1 228 1 231 1 250 1 286 1 290 1 303 1 306 1 319 1 324 1 331 1 338 1 348 1 354 1 380 1 384 1 385 1 386 1 391 1 399 1 402 1 406 1 407 1 419 1 436 1 461 1 485 1 496 1 499 1 502 1 512 1 518 1 
1 196 16 1 58 1 68 1 80 1 82 1 96 1 102 1 184 1 283 1 352 2 203 1 224 1 156 2 449 1 300 1 433 1 317 1 228 1 307 1 211 1 168 1 431 1 356 1 295 1 414 1 254 1 493 1 269 1 379 1 500 1 461 1 170 1 328 1 413 1 250 1 316 1 439 1 200 1 483 1 248 1 291 1 320 1 349 1 253 1 257 1 499 2 140 1 189 1 217 1 418 1 357 1 194 1 471 1 385 1 325 1 3 1 23 1 26 1 31 1 47 1 59 1 67 1 76 1 81 1 104 1 114 1 127 1 141 1 163 1 190 1 206 1 210 1 232 1 237 1 238 1 255 1 259 1 276 1 287 1 289 1 302 1 305 1 321 1 324 1 338 1 350 1 361 1 376 1 381 1 382 1 393 1 398 1 401 1 410 1 437 1 445 1 455 1 456 1 472 1 474 1 477 1 479 1 487 1 491 1 498 1 
1 217 3 1 5 1 19 1 20 1 27 1 34 1 38 1 40 1 50 1 52 1 61 2 77 1 81 1 104 1 417 1 413 2 156 1 470 2 375 1 394 2 143 1 485 1 158 1 415 1 217 1 270 1 411 1 273 1 145 1 242 1 334 1 395 2 453 2 454 1 295 1 354 1 486 1 193 1 204 1 251 1 322 2 206 1 365 1 189 1 213 1 290 1 420 1 249 1 341 1 446 1 125 1 227 1 292 1 274 1 263 1 305 1 114 1 377 1 355 1 302 1 120 1 232 1 110 1 390 1 173 1 493 1 332 1 1 1 2 1 7 1 15 1 26 1 28 1 33 1 41 1 53 1 60 1 68 1 69 1 117 1 148 1 159 1 161 1 165 1 188 1 197 1 200 1 208 1 219 1 226 1 237 1 243 1 244 1 252 1 256 1 278 1 281 1 301 1 309 1 312 1 337 1 339 1 342 1 344 1 357 1 358 1 362 1 368 1 369 1 371 1 392 1 401 1 407 1 424 1 425 1 436 1 443 1 449 1 455 1 459 1 483 1 518 1 
1 197 8 1 27 1 30 1 32 1 44 2 57 1 66 1 70 1 72 2 76 2 77 1 81 1 170 1 485 1 397 2 284 1 349 1 480 1 207 1 451 1 206 1 377 1 379 1 423 1 153 1 142 1 290 1 391 2 143 1 229 1 213 1 264 1 331 1 446 1 141 1 429 2 151 1 453 1 468 1 303 1 171 1 495 1 159 1 215 1 299 1 241 1 120 1 234 1 461 1 209 1 395 1 168 1 274 2 313 1 283 1 276 1 214 1 138 1 499 1 374 1 404 1 11 1 15 1 29 1 36 1 52 1 64 1 68 1 109 1 124 1 133 1 155 1 199 1 204 1 221 1 231 1 237 1 240 1 252 1 256 1 262 1 265 1 277 1 289 1 314 1 319 1 328 1 348 1 351 1 352 1 376 1 409 1 410 1 414 1 431 1 434 1 458 1 482 1 490 1 507 1 514 1 517 1 
1 205 8 1 10 1 14 2 24 2 26 1 27 1 35 2 42 1 54 1 57 1 63 1 66 2 72 2 74 1 75 2 84 2 102 1 475 1 447 2 297 1 298 1 346 1 171 1 414 1 176 1 377 1 483 1 344 1 251 1 261 1 170 1 267 1 438 1 423 1 339 1 386 1 151 1 160 1 490 1 482 1 121 2 220 2 347 1 179 1 118 1 225 1 213 1 203 1 361 1 366 1 193 1 124 1 255 1 399 1 275 1 352 1 219 1 340 1 436 1 315 1 467 1 212 1 370 1 416 1 429 1 338 2 350 1 115 1 281 1 184 1 1 1 15 1 30 1 50 1 51 1 70 1 78 1 81 1 83 1 108 1 113 1 131 1 150 1 164 1 172 1 188 1 192 1 208 1 211 1 223 1 239 1 253 1 259 1 271 1 291 1 296 1 299 1 310 1 314 1 320 1 322 1 328 1 334 1 336 1 351 1 355 1 357 1 359 1 365 1 367 1 390 1 391 1 393 1 397 1 403 1 406 1 433 1 435 1 446 1 448 1 454 1 461 1 470 1 497 1 500 1 507 1 515 1 
1 217 8 2 38 2 40 1 49 1 66 1 68 1 74 2 76 1 80 1 86 1 107 1 486 1 403 1 264 1 354 1 177 1 204 2 211 2 468 1 447 1 366 1 458 1 424 1 406 1 300 1 164 1 326 1 165 1 490 1 201 1 246 1 318 1 232 1 311 1 485 1 218 1 309 1 217 1 342 1 474 2 259 2 224 1 381 1 237 1 491 1 233 2 473 1 6 1 39 1 47 1 52 1 56 1 60 1 79 1 91 1 113 1 116 1 149 1 158 1 160 1 161 1 167 1 169 1 170 1 178 1 186 1 192 1 195 1 214 1 215 1 229 1 243 1 244 1 247 1 250 1 255 1 275 1 280 1 281 1 282 1 283 1 295 1 325 1 337 1 339 1 340 1 352 1 355 1 357 1 358 1 360 1 364 1 365 1 383 1 386 1 399 1 415 1 442 1 443 1 445 1 453 1 472 1 482 1 488 1 511 1 
1 213 8 1 30 1 33 1 36 1 40 1 43 1 47 1 51 1 67 1 78 1 91 2 105 1 413 1 175 1 414 1 468 1 274 1 156 1 433 1 393 1 183 2 305 1 275 1 224 1 470 1 439 1 263 2 295 1 233 1 339 1 447 1 270 1 279 2 421 1 130 1 162 2 181 1 254 1 126 1 219 1 416 1 293 1 187 1 347 1 127 1 229 1 342 1 178 1 188 1 203 1 407 1 333 2 2 1 17 1 31 1 45 1 55 1 71 1 73 1 81 1 85 1 124 1 150 1 151 1 158 1 166 1 168 1 169 1 170 1 180 1 182 1 190 1 194 1 195 1 218 1 234 1 239 1 246 1 252 1 282 1 288 1 292 1 308 1 309 1 326 1 337 1 343 1 351 1 382 1 400 1 427 1 428 1 442 1 453 1 467 1 476 1 485 1 487 1 494 1 496 1 499 1 
1 207 1 1 9 1 13 1 17 1 39 1 42 1 44 1 48 1 53 1 70 1 76 2 85 1 105 1 230 1 171 1 186 1 381 1 150 1 338 1 408 1 177 1 444 1 476 1 351 1 205 1 175 1 210 2 412 1 152 1 421 1 203 1 154 1 392 1 416 1 328 1 484 2 417 1 276 1 264 1 319 1 376 1 179 1 439 2 208 1 389 1 184 1 185 1 450 1 336 1 330 1 298 1 268 1 187 1 462 1 222 1 491 1 130 1 455 1 220 1 440 1 349 2 243 1 307 1 348 1 375 1 196 1 261 1 250 1 7 1 8 1 10 1 18 1 59 1 60 1 75 1 81 1 115 1 116 1 119 1 182 1 211 1 234 1 300 1 304 1 310 1 311 1 314 1 316 1 317 1 323 1 332 1 341 1 359 1 365 1 366 1 379 1 385 1 387 1 390 1 397 1 398 1 401 1 407 1 423 1 433 1 434 1 437 1 442 1 472 1 479 1 483 1 488 1 489 1 494 1 501 1 514 1 515 1 
1 209 1 1 17 1 21 1 42 2 54 1 77 1 79 1 91 1 98 1 199 1 230 1 191 1 481 1 156 1 341 1 372 2 384 1 407 2 433 1 218 1 463 1 118 1 182 1 214 1 358 1 377 2 309 1 207 2 160 1 195 1 353 1 346 1 361 2 171 1 488 1 489 2 448 1 398 1 313 2 270 1 316 2 229 1 237 1 363 1 452 1 349 1 480 1 209 1 249 1 14 1 22 1 31 1 68 1 69 1 71 1 73 1 74 1 84 1 101 1 102 1 109 1 110 1 120 1 129 1 130 1 158 1 175 1 178 1 187 1 188 1 189 1 212 1 226 1 248 1 260 1 268 1 269 1 271 1 283 1 310 1 320 1 324 1 336 1 343 1 360 1 374 1 385 1 394 1 395 1 397 1 404 1 411 1 427 1 434 1 435 1 443 1 469 1 470 1 471 1 474 1 486 1 487 1 495 1 496 1 
1 217 7 1 8 1 10 1 14 1 18 1 31 1 37 1 40 1 50 1 58 2 59 1 61 1 74 1 76 1 77 1 78 1 80 1 84 1 86 1 107 1 318 1 197 1 219 1 364 1 374 1 181 1 211 1 404 1 255 1 283 1 456 1 439 1 212 1 494 1 370 1 308 1 227 1 452 2 241 1 176 1 309 1 311 1 497 1 310 1 485 1 221 1 447 1 116 1 434 1 350 1 343 1 200 1 384 1 185 1 486 1 214 1 245 1 233 1 337 1 491 2 169 2 398 1 472 1 1 1 39 1 62 1 69 1 91 1 106 1 121 1 150 1 167 1 171 1 182 1 188 1 213 1 236 1 240 1 252 1 258 1 259 1 268 1 273 1 276 1 279 1 289 1 313 1 326 1 345 1 351 1 354 1 362 1 371 1 376 1 383 1 399 1 401 1 406 1 411 1 415 1 451 1 457 1 466 1 467 1 488 1 490 1 
1 185 9 1 12 1 23 1 31 1 40 1 41 1 76 1 84 1 86 2 92 1 104 1 109 1 217 1 267 1 209 1 287 1 239 1 260 2 197 1 483 1 244 1 485 1 360 1 173 1 180 1 444 1 191 1 476 1 359 1 487 1 428 1 273 1 315 1 276 1 205 1 331 1 169 1 258 1 271 1 419 1 395 1 207 2 391 1 123 1 406 1 387 1 151 2 426 1 389 1 158 1 441 1 405 1 412 1 121 1 429 1 1 1 4 1 7 1 22 1 29 1 42 1 44 1 64 1 66 1 87 1 112 1 119 1 137 1 183 1 196 1 201 1 220 1 227 1 228 1 229 1 243 1 250 1 279 1 307 1 310 1 326 1 334 1 354 1 356 1 364 1 378 1 379 1 383 1 393 1 394 1 399 1 400 1 414 1 417 1 420 1 432 1 436 1 438 1 470 1 477 1 491 1 495 1 498 1 
1 209 6 1 10 1 12 1 22 1 38 1 46 1 59 1 61 1 63 2 70 1 84 1 91 1 114 1 395 1 374 1 271 1 352 1 299 1 484 1 369 1 325 1 312 1 328 1 261 1 307 1 220 1 272 1 256 1 237 1 300 1 424 1 490 1 381 1 152 1 241 1 384 1 153 1 408 1 170 2 234 1 167 1 496 2 288 2 238 1 452 1 267 1 196 1 449 1 154 1 422 2 197 1 124 1 483 1 361 1 134 1 247 1 1 1 2 1 5 1 7 1 24 1 48 1 57 1 62 1 74 1 89 1 110 1 112 1 117 1 157 1 160 1 162 1 166 1 168 1 172 1 175 1 195 1 201 1 213 1 217 1 223 1 252 1 258 1 278 1 284 1 290 1 321 1 323 1 335 1 337 1 368 1 372 1 379 1 393 1 404 1 415 1 419 1 425 1 433 1 438 1 457 1 461 1 462 1 473 1 480 1 485 1 
1 242 6 1 9 2 18 1 20 2 26 1 29 1 47 1 53 1 57 1 58 2 60 1 61 1 63 1 65 1 68 1 70 1 72 1 83 1 88 1 104 1 181 1 333 1 292 1 436 1 303 1 229 1 304 1 340 1 412 1 324 1 447 1 489 1 367 1 500 1 351 1 362 1 265 1 291 1 193 1 247 1 435 1 277 1 279 1 376 2 175 1 360 1 430 1 454 1 472 1 287 1 118 1 320 1 130 1 359 1 220 1 443 1 451 1 421 1 387 1 167 1 332 2 187 1 5 1 27 1 34 1 75 1 84 1 90 1 96 1 107 1 116 1 134 1 138 1 144 1 159 1 161 1 163 1 169 1 171 1 194 1 209 1 218 1 232 1 235 1 242 1 244 1 246 1 251 1 258 1 266 1 302 1 313 1 337 1 339 1 350 1 366 1 370 1 375 1 392 1 401 1 408 1 410 1 414 1 417 1 427 1 433 1 437 1 457 1 487 1 492 1 496 1 497 1 
1 195 14 1 31 1 35 1 36 1 53 1 101 1 109 1 113 1 117 1 172 1 366 1 327 1 388 1 430 1 370 1 396 1 433 2 295 2 209 1 445 1 426 2 184 1 279 1 207 1 188 1 248 1 347 1 168 1 294 1 255 1 467 2 321 1 150 2 363 1 167 1 276 1 406 1 501 1 437 1 265 1 482 1 171 1 158 1 311 1 257 1 190 1 286 1 496 1 487 1 418 1 469 1 262 1 315 1 385 1 201 1 136 1 312 1 223 2 317 1 256 1 398 1 393 2 243 1 328 1 7 1 20 1 22 1 27 1 46 1 48 1 66 1 75 1 80 1 169 1 202 1 214 1 224 1 233 1 238 1 261 1 272 1 274 1 287 1 288 1 305 1 342 1 345 1 349 1 359 1 368 1 374 1 386 1 403 1 405 1 416 1 434 1 450 1 452 1 454 1 456 1 475 1 497 1 
1 202 6 1 28 1 30 1 39 1 42 1 47 1 63 1 70 1 84 1 89 1 90 1 91 1 164 1 260 1 215 1 241 1 406 1 348 1 235 1 228 1 379 1 346 1 193 1 353 1 214 2 372 1 310 1 481 1 199 1 257 1 206 2 351 1 414 1 269 1 192 1 428 1 258 1 301 1 385 1 259 1 153 1 291 1 342 1 303 2 248 1 339 1 194 2 465 1 411 1 477 1 198 1 159 1 478 1 433 1 150 1 439 1 313 1 338 1 13 1 20 1 25 1 27 1 32 1 34 1 40 1 57 1 112 1 115 1 123 1 151 1 152 1 154 1 160 1 162 1 168 1 176 1 181 1 196 1 203 1 209 1 213 1 237 1 275 1 278 1 280 1 281 1 295 1 300 1 302 1 311 1 316 1 322 1 332 1 333 1 334 1 357 1 358 1 384 1 388 1 391 1 393 1 397 1 413 1 415 1 424 1 442 1 448 1 458 1 459 1 461 1 463 1 468 1 476 1 479 1 487 1 498 1 501 1 
1 212 3 1 4 1 6 1 14 1 15 1 25 1 28 1 37 1 47 1 54 2 64 1 66 2 67 2 74 1 94 2 99 1 107 1 108 1 156 1 419 2 200 2 352 1 416 1 347 1 341 2 239 2 252 2 377 1 384 1 366 2 321 1 398 1 501 1 432 1 356 1 220 2 373 2 399 1 441 1 383 1 479 2 318 1 390 1 174 1 262 1 433 1 406 1 413 1 259 1 427 1 278 1 246 1 122 2 309 1 182 1 222 1 131 1 351 1 216 1 171 1 329 1 19 1 36 1 39 1 50 1 53 1 56 1 59 1 61 1 85 1 86 1 93 1 105 1 113 1 126 1 139 1 141 1 181 1 189 1 212 1 256 1 257 1 260 1 263 1 266 1 276 1 280 1 281 1 301 1 306 1 308 1 313 1 319 1 326 1 343 1 365 1 400 1 402 1 403 1 420 1 429 1 440 1 442 1 447 1 452 1 457 1 473 1 475 1 484 1 492 1 499 1 505 1 517 1 
1 194 4 1 15 1 18 1 26 1 30 1 42 1 51 1 63 1 109 2 115 1 438 1 310 1 461 1 375 1 251 1 293 2 459 1 340 1 342 1 421 2 196 1 179 1 157 1 501 1 408 1 159 1 417 1 371 1 482 1 434 1 313 2 162 2 460 1 345 1 412 1 387 1 256 1 290 1 377 1 172 1 186 2 335 1 131 1 195 2 358 1 138 1 429 1 419 1 228 1 378 1 8 1 14 1 16 1 36 1 48 1 50 1 53 1 58 1 61 1 68 1 77 1 79 1 114 1 132 1 137 1 155 1 158 1 174 1 180 1 181 1 193 1 204 1 212 1 216 1 223 1 232 1 234 1 240 1 246 1 272 1 294 1 296 1 304 1 332 1 343 1 354 1 356 1 362 1 373 1 381 1 386 1 393 1 401 1 405 1 406 1 407 1 422 1 424 1 430 1 437 1 462 1 464 1 483 1 487 1 492 1 500 1 512 1 514 1 
1 199 4 1 8 1 14 1 15 1 19 1 33 1 35 2 38 1 40 1 43 1 44 1 48 1 51 2 62 1 78 1 84 1 95 1 120 2 287 1 479 1 293 2 382 1 495 1 446 1 411 1 221 1 285 1 150 1 152 1 210 1 126 1 396 1 158 1 335 1 341 1 199 1 187 1 163 1 235 1 499 1 292 1 470 1 450 1 298 1 462 1 234 1 423 1 186 1 252 1 366 2 487 1 191 1 274 1 433 1 269 1 465 1 312 1 484 1 125 1 353 1 216 1 323 1 471 1 480 1 405 1 2 1 30 1 47 1 57 1 59 1 66 1 69 1 133 1 146 1 147 1 153 1 162 1 172 1 184 1 192 1 197 1 201 1 207 1 211 1 214 1 240 1 243 1 245 1 265 1 281 1 301 1 310 1 313 1 340 1 347 1 357 1 359 1 360 1 372 1 389 1 404 1 409 1 410 1 421 1 426 1 441 1 451 1 452 1 481 1 489 1 497 1 504 1 
1 209 13 1 17 1 26 2 35 1 51 1 52 1 67 1 71 1 75 1 82 2 89 1 115 1 188 1 166 1 282 1 404 1 336 1 350 1 386 1 450 1 305 1 168 1 178 1 447 1 316 1 205 1 252 1 195 1 221 2 174 1 199 2 356 1 310 1 207 1 371 1 441 2 194 1 398 1 259 2 421 1 491 1 230 2 246 1 185 1 325 1 307 1 470 1 223 1 349 1 353 1 2 1 8 1 9 1 12 1 20 1 23 1 25 1 45 1 54 1 85 1 88 1 90 1 95 1 96 1 119 1 130 1 135 1 143 1 155 1 161 1 165 1 169 1 179 1 186 1 187 1 204 1 214 1 217 1 225 1 233 1 235 1 238 1 255 1 260 1 279 1 284 1 292 1 295 1 299 1 329 1 330 1 362 1 363 1 367 1 368 1 375 1 382 1 383 1 393 1 395 1 406 1 422 1 433 1 449 1 452 1 501 1 505 1 510 1 
1 208 15 1 30 2 37 1 41 2 57 2 68 1 69 1 71 1 73 1 81 1 87 1 88 1 89 2 95 1 109 1 116 1 308 1 247 1 190 1 428 1 344 1 346 1 443 1 166 2 442 2 208 1 187 1 244 1 492 1 168 1 472 1 407 1 164 1 500 1 401 1 462 1 157 1 370 1 317 1 479 1 170 1 233 1 193 2 130 1 213 1 255 2 242 1 426 1 189 1 481 1 227 1 396 1 165 2 326 1 144 1 348 1 294 1 3 1 8 1 12 1 20 1 21 1 22 1 27 1 29 1 33 1 35 1 44 1 74 1 108 1 111 1 139 1 159 1 161 1 175 1 194 1 204 1 219 1 220 1 221 1 225 1 239 1 254 1 257 1 258 1 265 1 277 1 285 1 303 1 306 1 324 1 334 1 343 1 352 1 366 1 371 1 384 1 395 1 402 1 408 1 415 1 416 1 427 1 429 1 452 1 458 1 486 1 498 1 
1 213 1 1 25 1 31 1 41 1 50 1 61 1 72 1 86 1 88 1 92 1 107 1 122 1 295 1 257 1 350 1 353 1 294 1 500 2 458 1 197 1 168 1 280 1 297 2 324 1 174 1 179 1 332 1 489 1 462 2 380 1 398 1 228 1 356 2 417 1 215 1 206 1 361 2 364 1 392 1 455 1 314 1 485 1 403 1 431 1 290 1 358 1 381 1 235 1 147 1 153 1 312 1 452 1 309 2 406 1 285 1 443 1 418 1 177 1 4 1 16 1 28 1 43 1 52 1 60 1 75 1 95 1 105 1 134 1 141 1 155 1 157 1 160 1 170 1 203 1 213 1 216 1 218 1 219 1 223 1 230 1 232 1 237 1 246 1 260 1 267 1 270 1 272 1 289 1 323 1 334 1 340 1 341 1 347 1 349 1 362 1 363 1 368 1 374 1 375 1 387 1 396 1 401 1 408 1 412 1 415 1 420 1 430 1 449 1 465 1 468 1 476 1 483 1 490 1 494 1 495 1 
1 198 1 1 16 1 29 1 30 1 33 1 49 1 52 2 55 1 67 1 68 1 76 1 89 1 111 1 122 1 217 1 446 1 434 1 164 1 361 1 302 1 476 1 486 1 263 2 357 2 440 1 431 1 369 1 229 1 463 1 233 1 468 1 243 2 178 1 304 1 329 2 203 1 179 1 193 1 145 1 439 1 252 2 394 1 278 2 254 1 398 1 308 1 345 1 451 1 337 1 274 1 147 1 270 1 264 1 146 1 316 1 498 1 212 1 253 1 350 1 400 1 138 2 441 1 399 1 472 1 462 1 34 1 37 1 42 1 45 1 70 1 72 1 85 1 98 1 120 1 129 1 137 1 155 1 156 1 159 1 181 1 186 1 188 1 189 1 223 1 226 1 237 1 239 1 258 1 259 1 275 1 279 1 285 1 286 1 292 1 314 1 363 1 371 1 390 1 395 1 426 1 429 1 430 1 443 1 455 1 456 1 457 1 459 1 471 1 490 1 504 1 
1 195 7 2 18 2 23 1 41 1 50 2 55 1 80 1 91 1 97 1 111 1 447 1 470 1 435 1 303 1 398 2 225 1 408 2 308 1 395 1 341 2 254 1 256 2 212 1 330 2 230 1 276 1 335 2 393 1 158 1 409 1 201 1 495 1 410 1 314 1 149 1 371 1 485 1 259 1 293 1 477 1 265 1 370 1 294 1 148 1 333 1 488 2 317 1 420 1 178 1 343 1 412 1 323 2 414 1 5 1 11 1 16 1 35 1 36 1 39 1 44 1 51 1 53 1 54 1 62 1 82 1 83 1 96 1 106 1 130 1 131 1 147 1 163 1 177 1 180 1 181 1 192 1 195 1 207 1 226 1 234 1 244 1 275 1 277 1 281 1 286 1 292 1 295 1 311 1 331 1 362 1 367 1 385 1 405 1 429 1 434 1 437 1 440 1 443 1 457 1 459 1 461 1 467 1 471 1 479 1 509 1 511 1 513 1 
1 198 19 1 24 1 59 1 67 1 77 1 81 2 93 1 100 1 418 1 363 1 406 1 273 1 202 1 450 1 331 1 306 1 185 1 288 1 195 1 324 2 480 1 409 1 495 1 458 1 317 2 134 1 312 1 478 1 329 1 339 1 332 1 413 1 194 1 281 1 466 1 414 2 280 1 308 1 298 2 180 1 252 1 219 1 380 1 149 1 490 1 456 1 139 1 216 1 410 1 447 1 173 1 474 1 279 1 453 1 368 1 193 1 1 1 4 1 8 1 12 1 16 1 21 1 35 1 50 1 76 1 94 1 98 1 130 1 159 1 177 1 179 1 188 1 191 1 208 1 229 1 232 1 248 1 251 1 268 1 271 1 274 1 282 1 286 1 289 1 295 1 303 1 314 1 316 1 336 1 346 1 354 1 360 1 374 1 376 1 386 1 404 1 428 1 449 1 461 1 463 1 464 1 468 1 496 1 506 1 510 1 
1 176 8 1 38 1 40 1 45 1 48 2 52 1 62 1 65 2 69 1 70 1 88 1 294 1 341 1 374 1 478 1 247 1 372 1 319 1 162 1 420 1 365 1 278 1 334 1 388 1 425 1 220 1 435 2 194 1 317 1 260 1 385 1 412 2 343 1 335 1 211 1 255 1 189 1 494 2 486 1 344 1 356 1 332 1 144 1 390 1 395 1 204 1 166 1 274 1 224 1 282 1 379 1 314 2 271 1 480 1 263 1 431 1 284 1 180 1 225 1 159 1 142 1 2 1 19 1 25 1 31 1 61 1 64 1 74 1 82 1 90 1 94 1 113 1 126 1 165 1 167 1 185 1 196 1 201 1 227 1 232 1 235 1 251 1 252 1 254 1 259 1 264 1 267 1 275 1 297 1 298 1 322 1 326 1 330 1 342 1 354 1 375 1 380 1 382 1 383 1 391 1 415 1 416 1 417 1 423 1 424 1 434 1 439 1 443 1 449 1 468 1 475 1 481 1 491 1 
1 187 2 1 8 1 12 1 14 1 18 1 25 2 30 1 67 1 94 2 99 1 111 1 112 1 117 1 124 1 473 1 421 1 157 1 456 1 187 1 382 1 227 1 386 1 312 1 487 1 158 1 416 2 343 1 428 1 190 1 372 1 324 1 289 1 448 1 161 1 302 2 497 1 438 2 259 1 464 1 387 1 429 1 172 2 169 1 436 2 179 1 211 2 133 1 364 1 263 1 147 1 188 1 308 2 255 1 233 1 454 1 346 1 485 1 246 1 357 1 267 1 365 1 460 1 15 1 17 1 26 1 32 1 43 1 46 1 91 1 92 1 95 1 113 1 123 1 127 1 128 1 148 1 163 1 164 1 180 1 184 1 186 1 191 1 197 1 209 1 215 1 220 1 223 1 232 1 276 1 278 1 281 1 290 1 291 1 296 1 297 1 313 1 318 1 335 1 341 1 355 1 356 1 358 1 366 1 371 1 384 1 389 1 400 1 408 1 444 1 445 1 455 1 474 1 477 1 
1 206 1 1 25 1 28 1 50 1 51 1 65 1 66 1 70 1 71 2 75 1 81 1 88 1 95 1 120 1 121 1 257 1 312 1 414 1 259 1 174 2 283 1 266 1 217 1 453 2 171 2 254 1 411 1 315 1 249 1 481 2 353 1 204 1 205 1 284 1 142 2 320 1 382 1 264 1 317 1 394 1 336 1 234 1 222 1 485 2 267 1 408 1 492 1 274 1 443 1 311 2 378 2 404 1 349 1 290 1 5 1 9 1 31 1 63 1 98 1 100 1 109 1 127 1 140 1 147 1 158 1 169 1 187 1 190 1 203 1 216 1 226 1 230 1 237 1 253 1 258 1 268 1 276 1 282 1 291 1 304 1 326 1 332 1 346 1 351 1 366 1 399 1 409 1 410 1 420 1 428 1 431 1 433 1 435 1 441 1 446 1 448 1 450 1 467 1 477 1 488 1 490 1 495 1 516 1 
1 200 3 1 50 1 62 2 67 1 86 1 88 2 194 2 240 1 416 1 218 2 229 1 312 1 492 1 171 2 397 1 203 1 300 1 281 2 274 2 268 1 319 1 221 1 499 1 284 1 497 1 500 1 353 1 378 1 459 1 142 1 219 1 386 1 332 1 468 1 350 1 197 1 406 1 461 1 214 1 178 1 385 2 452 1 186 1 351 1 301 1 276 1 226 1 257 1 293 1 331 1 400 2 357 1 471 1 13 1 29 1 31 1 35 1 40 1 44 1 58 1 63 1 65 1 70 1 94 1 121 1 134 1 136 1 138 1 151 1 164 1 166 1 179 1 198 1 200 1 209 1 213 1 236 1 243 1 288 1 316 1 318 1 352 1 356 1 367 1 375 1 376 1 382 1 390 1 404 1 418 1 420 1 426 1 430 1 433 1 437 1 451 1 462 1 467 1 473 1 476 1 481 1 507 1 
1 199 13 1 14 2 16 1 32 1 47 1 58 1 78 1 80 1 92 1 100 2 101 1 130 1 256 2 456 1 384 1 386 1 388 1 287 1 136 1 176 2 279 1 157 1 213 1 204 1 286 1 179 1 387 1 494 1 322 1 416 1 499 1 369 1 277 1 266 1 294 1 318 1 351 1 385 1 429 1 304 1 291 1 401 1 408 2 272 1 402 1 380 1 340 1 437 1 413 1 3 1 24 1 29 1 35 1 48 1 60 1 63 1 74 1 79 1 82 1 84 1 89 1 91 1 108 1 122 1 137 1 163 1 173 1 181 1 201 1 211 1 228 1 234 1 243 1 250 1 297 1 311 1 314 1 320 1 321 1 328 1 332 1 341 1 348 1 353 1 367 1 373 1 391 1 399 1 404 1 417 1 420 1 421 1 424 1 434 1 452 1 458 1 469 1 481 1 497 1 514 1 
1 195 5 1 13 1 19 2 29 1 30 1 31 1 34 1 38 1 39 1 44 1 46 1 63 1 64 1 88 1 92 1 95 1 99 2 101 1 116 1 128 1 230 1 135 1 333 1 394 2 220 1 412 2 225 1 278 1 388 2 436 1 223 1 405 1 184 1 289 1 468 1 435 1 293 1 240 1 308 1 222 1 205 1 337 1 199 1 200 1 277 1 458 1 165 1 482 1 358 1 464 1 164 1 292 1 195 1 210 1 212 1 422 1 334 1 443 1 9 1 10 1 37 1 43 1 61 1 66 1 84 1 86 1 91 1 117 1 125 1 132 1 137 1 146 1 148 1 152 1 168 1 178 1 190 1 197 1 211 1 218 1 219 1 221 1 239 1 244 1 249 1 284 1 285 1 297 1 342 1 361 1 369 1 376 1 386 1 393 1 411 1 423 1 428 1 433 1 438 1 439 1 444 1 466 1 469 1 474 1 476 1 483 1 499 1 501 1 
1 200 4 1 12 1 19 2 26 1 28 1 49 1 62 2 65 1 71 1 77 1 81 1 92 1 102 1 134 1 497 1 495 1 395 1 416 1 369 2 216 1 295 1 237 1 233 1 331 1 378 1 376 1 209 1 140 1 302 1 446 1 257 1 239 1 194 1 200 1 277 2 229 1 396 1 240 1 188 2 293 2 211 1 196 1 383 2 215 1 455 2 368 2 465 1 184 1 338 1 285 1 217 1 244 1 142 1 409 1 159 1 9 1 10 1 15 1 21 1 57 1 67 1 72 1 75 1 78 1 96 1 123 1 143 1 153 1 171 1 174 1 179 1 182 1 254 1 272 1 280 1 283 1 290 1 292 1 299 1 314 1 323 1 324 1 326 1 351 1 355 1 366 1 367 1 375 1 380 1 390 1 406 1 423 1 433 1 437 1 441 1 459 1 461 1 470 1 471 1 475 1 477 1 483 1 484 1 489 1 490 1 494 1 501 1 506 1 518 1 
1 207 4 1 7 2 14 1 32 1 41 1 44 1 53 1 57 1 64 1 67 1 83 1 85 1 89 1 100 1 104 2 118 1 133 1 450 1 419 1 187 1 320 1 331 1 345 2 369 1 371 1 282 1 140 1 199 2 446 1 248 1 454 1 297 1 420 1 473 1 146 1 225 2 253 1 390 1 445 1 219 1 422 1 214 1 338 2 280 1 261 1 299 1 393 1 311 1 308 1 439 1 288 1 403 1 273 2 175 1 207 1 457 1 337 1 339 1 437 1 356 1 318 1 158 1 310 1 3 1 8 1 9 1 13 1 19 1 23 1 26 1 36 1 37 1 38 1 42 1 71 1 72 1 84 1 132 1 144 1 170 1 182 1 194 1 200 1 204 1 205 1 211 1 212 1 215 1 224 1 230 1 232 1 243 1 260 1 267 1 271 1 275 1 277 1 312 1 313 1 314 1 323 1 334 1 342 1 352 1 354 1 355 1 359 1 368 1 370 1 383 1 387 1 405 1 407 1 409 1 415 1 436 1 456 1 461 1 469 1 484 1 485 1 501 1 516 1 518 1 
1 196 4 1 30 1 31 1 34 1 44 1 57 1 58 1 65 1 68 2 71 1 397 1 403 1 362 1 349 1 286 1 370 1 412 2 359 1 269 1 482 2 473 1 406 1 274 1 313 1 433 1 145 2 259 1 272 1 319 1 163 1 271 1 464 1 387 1 394 1 423 1 206 1 367 1 209 2 326 1 239 1 282 2 302 1 357 2 164 1 207 1 355 1 354 1 430 1 6 1 20 1 22 1 40 1 42 1 53 1 66 1 75 1 80 1 83 1 87 1 92 1 93 1 103 1 104 1 115 1 121 1 126 1 133 1 134 1 138 1 139 1 148 1 165 1 189 1 195 1 199 1 200 1 226 1 230 1 241 1 260 1 263 1 293 1 300 1 307 1 317 1 333 1 340 1 352 1 365 1 366 1 375 1 379 1 396 1 401 1 410 1 414 1 424 1 428 1 444 1 446 1 462 1 468 1 499 1 
1 204 3 1 8 1 17 1 20 1 24 1 25 1 31 1 46 1 47 1 61 2 64 1 66 1 70 1 73 1 90 1 97 1 99 1 108 1 121 1 126 2 395 1 316 1 244 1 236 1 481 1 220 2 282 1 368 1 249 1 201 1 386 1 322 1 433 1 385 1 300 1 165 1 250 1 312 2 199 2 372 2 358 1 239 1 430 2 439 1 205 1 464 1 147 1 314 1 267 1 319 1 182 2 365 1 214 1 203 1 415 2 401 1 446 2 458 2 364 1 2 1 13 1 18 1 22 1 30 1 63 1 74 1 85 1 94 1 100 1 104 1 117 1 132 1 137 1 186 1 188 1 196 1 208 1 212 1 216 1 265 1 291 1 293 1 295 1 301 1 315 1 335 1 337 1 342 1 351 1 352 1 366 1 367 1 370 1 411 1 412 1 417 1 435 1 445 1 465 1 467 1 474 1 479 1 482 1 486 1 489 1 496 1 513 1 
1 192 7 1 14 1 19 1 20 1 24 1 47 1 48 2 55 1 69 1 73 1 83 1 84 2 86 1 90 1 128 1 421 1 265 1 397 1 326 1 172 1 257 1 266 1 469 1 393 1 441 1 383 2 480 1 264 1 313 1 277 1 213 1 274 1 352 1 184 1 182 2 194 1 272 2 358 2 381 1 333 2 411 2 241 1 163 2 438 1 410 1 345 1 280 1 472 1 196 1 442 1 197 1 501 1 161 1 316 1 443 1 380 1 149 1 328 1 283 1 351 2 281 1 437 1 374 1 499 1 478 2 3 1 10 1 18 1 26 1 27 1 33 1 38 1 62 1 68 1 77 1 100 1 120 1 124 1 137 1 173 1 183 1 185 1 188 1 192 1 200 1 206 1 240 1 260 1 270 1 273 1 279 1 285 1 308 1 319 1 320 1 324 1 325 1 334 1 344 1 356 1 370 1 376 1 385 1 395 1 414 1 422 1 428 1 429 1 431 1 459 1 467 1 487 1 
1 181 83 1 104 1 106 1 135 1 136 1 294 1 231 1 460 1 470 1 419 1 173 1 367 1 181 1 187 1 495 1 311 1 224 1 447 2 443 1 269 1 343 1 357 1 449 1 239 1 330 1 265 1 244 1 218 1 341 2 205 1 283 1 192 1 325 1 363 1 445 1 411 1 348 1 313 1 255 2 143 1 305 1 365 1 358 1 203 1 478 2 296 1 309 1 19 1 34 1 42 1 56 1 61 1 63 1 68 1 89 1 93 1 96 1 97 1 98 1 131 1 141 1 166 1 168 1 172 1 178 1 189 1 200 1 216 1 219 1 225 1 233 1 236 1 267 1 268 1 293 1 299 1 340 1 346 1 359 1 364 1 373 1 378 1 379 1 388 1 394 1 395 1 404 1 405 1 418 1 425 1 430 1 440 1 454 1 455 1 457 1 468 1 479 1 483 1 484 1 492 1 499 1 508 1 510 1 512 1 
1 190 23 1 31 1 33 1 40 1 52 2 64 1 65 1 66 1 72 1 79 1 108 1 446 1 196 1 287 1 299 1 200 2 355 1 450 1 218 1 178 1 345 1 473 1 186 1 499 1 168 2 348 1 301 1 388 1 270 1 377 1 495 1 363 1 183 1 259 1 372 1 262 1 482 1 390 1 246 1 454 1 487 1 230 1 440 1 463 1 195 1 405 1 373 1 383 2 241 1 455 1 5 1 29 1 32 1 60 1 68 1 84 1 85 1 89 1 93 1 106 1 120 1 125 1 140 1 145 1 153 1 173 1 175 1 184 1 189 1 205 1 235 1 236 1 244 1 254 1 284 1 288 1 290 1 295 1 297 1 306 1 323 1 325 1 331 1 333 1 343 1 351 1 360 1 362 1 364 1 375 1 387 1 399 1 416 1 421 1 422 1 425 1 426 1 430 1 434 1 468 1 489 1 496 1 503 1 507 1 512 1 
1 212 4 1 36 1 51 2 59 1 64 1 73 1 74 1 76 1 86 1 90 1 97 1 108 1 129 1 131 2 132 1 135 1 211 1 399 1 281 1 264 1 498 1 468 1 449 2 198 1 214 2 296 1 207 2 180 1 485 1 265 1 240 1 275 1 315 1 323 1 233 1 390 2 392 1 328 1 178 1 181 1 217 1 448 1 177 2 192 1 212 1 270 1 430 1 360 1 479 1 173 1 204 1 488 1 1 1 7 1 15 1 37 1 38 1 50 1 56 1 66 1 79 1 83 1 84 1 92 1 94 1 143 1 147 1 170 1 175 1 179 1 191 1 193 1 199 1 202 1 205 1 209 1 220 1 226 1 229 1 236 1 237 1 249 1 267 1 286 1 293 1 299 1 300 1 301 1 313 1 317 1 331 1 333 1 342 1 350 1 353 1 356 1 362 1 363 1 369 1 376 1 394 1 395 1 397 1 410 1 420 1 422 1 437 1 447 1 454 1 455 1 456 1 458 1 463 1 482 1 494 1 499 1 507 1 
1 193 7 1 41 2 48 1 53 1 65 1 67 2 70 1 80 2 89 1 93 1 99 1 107 1 108 1 140 1 291 1 191 1 260 1 276 1 475 1 486 2 280 2 409 1 293 1 285 2 296 1 225 1 451 1 452 1 216 1 192 1 219 1 297 1 265 1 318 2 353 1 385 1 362 1 398 2 268 1 178 1 212 1 172 1 464 1 292 1 400 1 146 1 302 1 277 1 459 1 372 1 442 1 352 1 275 1 417 1 211 1 154 1 295 1 460 1 165 1 415 1 157 1 2 1 6 1 9 1 12 1 14 1 16 1 19 1 32 1 64 1 98 1 123 1 135 1 142 1 145 1 164 1 170 1 174 1 179 1 187 1 214 1 226 1 228 1 241 1 243 1 246 1 247 1 250 1 257 1 261 1 286 1 300 1 301 1 310 1 320 1 350 1 368 1 396 1 399 1 404 1 419 1 420 1 425 1 430 1 435 1 444 1 458 1 465 1 482 1 492 1 515 1 
1 202 16 1 24 1 29 1 31 1 55 1 59 1 73 1 81 2 87 1 91 1 124 1 129 1 355 1 367 1 188 2 377 1 220 1 391 1 433 1 389 1 429 1 446 1 390 1 164 1 416 1 344 1 384 1 270 1 373 1 449 1 256 1 273 1 241 1 235 1 453 1 314 1 462 1 398 1 393 1 195 2 337 1 482 2 153 1 166 1 253 1 181 1 296 1 264 2 387 1 358 1 203 2 192 1 154 1 193 1 216 1 238 2 268 1 346 1 9 1 13 1 14 1 18 1 35 1 36 1 50 1 56 1 67 1 79 1 83 1 101 1 117 1 136 1 191 1 226 1 236 1 245 1 279 1 282 1 285 1 286 1 294 1 303 1 364 1 369 1 397 1 400 1 420 1 427 1 430 1 432 1 434 1 435 1 444 1 459 1 464 1 468 1 477 1 479 1 486 1 517 1 
1 221 21 1 28 1 29 1 39 2 42 1 52 1 63 1 67 1 73 1 79 1 85 1 107 1 126 1 137 2 312 1 325 1 250 1 146 1 459 1 281 1 377 1 299 1 240 1 442 1 166 1 496 1 190 1 175 1 466 1 410 1 279 1 275 1 371 1 440 1 378 1 463 1 300 2 269 1 483 1 424 1 360 1 256 1 485 1 218 2 308 1 368 1 346 1 359 2 253 1 323 2 498 1 382 2 465 1 436 1 435 1 396 1 160 1 416 1 437 1 152 1 263 1 284 1 10 1 20 1 25 1 34 1 47 1 58 1 66 1 71 1 74 1 78 1 91 1 99 1 141 1 143 1 161 1 164 1 181 1 187 1 209 1 221 1 236 1 247 1 261 1 265 1 273 1 283 1 311 1 321 1 327 1 335 1 344 1 354 1 366 1 369 1 373 1 375 1 385 1 386 1 387 1 393 1 431 1 433 1 439 1 448 1 455 1 462 1 470 1 491 1 500 1 
1 185 20 2 31 1 38 1 40 1 41 1 45 1 47 2 60 1 65 1 67 1 75 1 76 1 92 2 126 1 136 1 143 1 145 1 213 2 466 1 209 1 410 1 263 1 439 1 190 1 423 1 265 1 220 1 201 1 277 1 390 1 431 1 205 2 275 1 268 1 421 1 340 1 232 1 254 1 493 1 266 1 465 1 170 1 288 1 304 2 239 1 240 1 429 1 419 1 315 1 148 2 292 1 258 1 243 1 251 1 399 1 382 1 24 1 25 1 35 1 46 1 50 1 55 1 58 1 77 1 79 1 83 1 93 1 122 1 134 1 181 1 188 1 202 1 212 1 217 1 225 1 229 1 235 1 247 1 248 1 255 1 262 1 272 1 273 1 280 1 281 1 286 1 295 1 302 1 308 1 311 1 316 1 327 1 336 1 341 1 342 1 351 1 360 1 368 1 371 1 375 1 378 1 394 1 402 1 420 1 451 1 455 1 460 1 468 1 471 1 492 1 495 1 505 1 511 1 
1 199 3 1 4 1 5 2 13 1 19 1 37 1 45 1 54 1 70 1 71 2 76 1 88 2 93 1 98 1 104 1 125 1 126 1 130 1 138 1 322 1 438 1 267 1 209 1 351 1 484 1 231 1 257 2 376 1 170 1 297 1 282 1 339 1 335 1 220 2 444 1 382 1 274 1 199 1 353 1 473 1 460 1 433 1 435 1 171 2 242 2 271 2 187 1 358 1 253 1 294 1 378 1 189 1 442 1 386 1 248 1 303 1 391 1 245 1 379 1 193 1 461 2 385 1 360 1 224 1 399 1 159 1 481 2 454 1 210 2 392 1 2 1 6 1 7 1 11 1 18 1 21 1 38 1 47 1 57 1 67 1 77 1 82 1 92 1 100 1 122 1 127 1 131 1 142 1 152 1 200 1 201 1 204 1 205 1 218 1 230 1 241 1 243 1 244 1 254 1 292 1 302 1 314 1 345 1 368 1 371 1 384 1 398 1 406 1 420 1 428 1 436 1 447 1 450 1 453 1 474 1 482 1 493 1 
1 210 5 1 9 1 21 1 23 1 39 1 40 1 43 1 48 1 49 1 54 1 58 1 62 1 64 1 68 1 79 2 97 1 127 1 146 2 220 1 459 1 466 1 223 1 338 1 178 1 313 2 325 1 399 1 478 1 420 1 471 1 335 1 435 1 259 1 307 1 311 2 424 1 411 1 281 1 349 1 318 1 329 1 372 1 327 1 495 1 235 1 347 1 275 1 438 1 386 1 187 1 266 1 351 1 285 1 453 1 499 1 251 2 242 1 159 1 316 1 448 1 205 1 455 1 348 2 339 1 457 1 403 1 352 1 482 1 416 1 265 1 3 1 17 1 19 1 20 1 22 1 25 1 27 1 29 1 37 1 45 1 56 1 70 1 71 1 72 1 87 1 92 1 101 1 107 1 130 1 134 1 137 1 149 1 170 1 180 1 192 1 207 1 208 1 214 1 231 1 237 1 243 1 247 1 252 1 256 1 263 1 283 1 309 1 312 1 331 1 344 1 379 1 380 1 387 1 408 1 412 1 417 1 431 1 440 1 449 1 460 1 477 1 484 1 501 1 506 1 
1 202 4 1 15 1 21 1 28 2 30 1 31 1 33 1 43 1 47 1 59 1 68 2 69 1 100 1 104 1 127 1 128 1 139 1 227 1 395 2 287 1 466 1 238 1 184 1 426 1 400 1 192 1 219 2 275 1 348 1 372 1 401 1 208 2 255 1 455 1 259 1 261 1 302 1 253 1 237 1 241 1 396 1 435 1 433 1 254 1 296 1 207 1 390 1 197 1 354 2 325 1 269 1 183 1 292 1 425 1 294 1 350 1 247 2 388 1 437 1 161 1 301 1 439 1 430 1 216 1 1 1 16 1 24 1 26 1 36 1 61 1 66 1 71 1 80 1 94 1 102 1 103 1 110 1 148 1 153 1 168 1 185 1 189 1 198 1 249 1 257 1 277 1 282 1 285 1 320 1 323 1 328 1 336 1 338 1 340 1 343 1 346 1 351 1 362 1 364 1 366 1 371 1 377 1 379 1 385 1 391 1 397 1 405 1 406 1 409 1 424 1 432 1 440 1 446 1 454 1 456 1 464 1 480 1 490 1 510 1 
1 196 52 1 78 2 93 1 112 1 118 2 119 1 122 1 388 1 379 1 483 1 429 1 481 1 221 1 218 2 267 1 327 1 482 1 273 1 425 1 237 1 355 1 487 1 213 1 190 1 242 1 208 1 296 1 228 1 277 2 350 1 468 1 339 1 291 2 175 1 476 1 292 1 231 1 406 1 395 1 345 1 266 1 434 1 160 1 356 2 500 1 215 2 181 1 1 1 38 1 45 1 57 1 61 1 70 1 74 1 96 1 102 1 109 1 111 1 114 1 151 1 159 1 187 1 209 1 210 1 227 1 243 1 270 1 271 1 275 1 281 1 301 1 306 1 307 1 342 1 352 1 363 1 370 1 374 1 375 1 382 1 384 1 390 1 397 1 399 1 403 1 410 1 416 1 421 1 439 1 458 1 460 1 469 1 479 1 488 1 
1 206 5 2 8 1 9 1 20 1 41 1 78 1 88 1 95 1 108 1 109 1 115 2 443 1 396 1 323 1 437 1 184 1 245 1 469 1 239 2 361 1 333 2 497 1 335 1 389 1 257 1 224 1 208 1 238 1 275 1 468 2 207 1 400 1 190 1 448 1 325 1 348 1 268 1 292 1 402 1 419 1 214 2 289 1 380 1 388 1 196 2 177 1 296 1 445 2 326 1 225 1 391 1 342 2 14 1 22 1 36 1 46 1 48 1 54 1 63 1 75 1 87 1 91 1 111 1 119 1 132 1 150 1 166 1 179 1 182 1 241 1 248 1 253 1 255 1 264 1 274 1 282 1 285 1 288 1 291 1 294 1 297 1 314 1 321 1 330 1 354 1 356 1 368 1 375 1 377 1 383 1 387 1 395 1 398 1 399 1 405 1 414 1 416 1 427 1 433 1 436 1 438 1 446 1 447 1 449 1 458 1 462 1 472 1 473 1 476 1 488 1 493 1 498 1 519 1 
1 201 5 1 7 1 10 1 12 1 18 1 46 1 54 1 78 1 85 1 92 1 94 1 97 1 112 1 116 1 122 1 145 1 386 2 376 2 420 1 306 1 373 1 216 1 244 1 478 2 424 1 387 2 248 1 270 1 415 1 324 1 389 1 315 1 322 1 401 1 399 1 323 1 346 1 493 2 356 1 154 1 219 1 309 1 353 1 186 2 362 1 157 1 351 1 326 2 200 1 181 2 316 1 254 2 394 1 2 1 9 1 16 1 19 1 21 1 47 1 60 1 66 1 67 1 79 1 96 1 101 1 103 1 119 1 134 1 147 1 155 1 159 1 184 1 187 1 190 1 205 1 207 1 210 1 231 1 234 1 240 1 246 1 247 1 260 1 271 1 278 1 287 1 308 1 325 1 339 1 343 1 347 1 354 1 366 1 384 1 403 1 404 1 410 1 435 1 439 1 445 1 462 1 465 1 466 1 480 1 514 1 
1 213 8 1 12 2 16 1 18 2 19 1 27 2 28 1 29 1 40 1 50 1 66 1 69 1 75 1 86 1 88 1 98 1 102 1 108 1 116 1 119 1 125 1 144 1 282 1 217 1 491 2 451 2 289 1 196 1 429 1 195 1 193 1 323 1 417 1 367 1 434 2 240 1 399 1 221 1 325 1 474 1 300 1 381 1 212 1 437 1 237 2 273 1 435 1 492 2 314 1 183 1 384 1 374 1 397 1 190 1 337 1 184 1 171 1 483 1 358 1 266 1 172 1 169 1 254 1 357 1 3 1 4 1 22 1 32 1 37 1 41 1 49 1 54 1 71 1 122 1 135 1 141 1 149 1 165 1 186 1 188 1 218 1 222 1 256 1 257 1 258 1 261 1 262 1 268 1 274 1 279 1 291 1 294 1 298 1 307 1 319 1 320 1 336 1 345 1 363 1 365 1 380 1 390 1 404 1 409 1 413 1 422 1 433 1 441 1 442 1 448 1 462 1 470 1 476 1 486 1 516 1 
1 206 2 1 7 1 13 1 18 1 26 1 30 1 40 1 63 1 112 1 116 1 143 1 144 1 152 1 428 1 451 1 381 1 229 2 319 1 465 2 496 1 264 1 271 2 304 1 427 1 328 1 440 1 456 1 337 1 183 1 206 1 254 1 265 1 363 1 289 1 300 1 324 1 227 1 333 1 375 1 479 1 448 1 369 1 356 1 339 1 197 1 189 1 204 2 327 1 338 1 211 1 361 1 198 1 274 2 362 1 226 1 384 1 11 1 22 1 24 1 28 1 33 1 34 1 36 1 38 1 75 1 80 1 98 1 119 1 182 1 184 1 192 1 199 1 207 1 212 1 228 1 239 1 242 1 256 1 261 1 266 1 280 1 287 1 298 1 311 1 321 1 382 1 388 1 390 1 392 1 399 1 404 1 405 1 414 1 418 1 432 1 442 1 452 1 453 1 454 1 468 1 475 1 476 1 485 1 499 1 508 1 514 1 
1 184 16 1 18 1 33 1 43 1 49 1 63 1 64 2 350 1 427 1 379 1 377 1 231 1 416 1 436 1 494 1 418 1 242 1 252 1 432 1 260 1 428 1 424 1 356 1 337 1 458 1 461 1 482 1 163 1 499 1 384 1 469 1 240 1 340 1 425 1 362 1 495 2 196 2 256 1 383 1 263 1 488 1 316 1 277 1 284 1 224 1 310 2 275 1 195 1 187 1 295 1 465 1 11 1 24 1 30 1 40 1 72 1 79 1 99 1 105 1 108 1 121 1 123 1 125 1 126 1 152 1 162 1 186 1 204 1 206 1 213 1 214 1 216 1 219 1 226 1 235 1 279 1 280 1 300 1 302 1 313 1 328 1 329 1 330 1 331 1 342 1 346 1 348 1 352 1 358 1 386 1 412 1 422 1 429 1 438 1 451 1 457 1 477 1 478 1 492 1 509 1 
1 221 4 1 21 1 29 1 31 1 36 1 52 1 58 1 71 1 77 1 83 1 84 1 85 1 86 1 97 1 104 2 105 1 106 2 107 1 111 1 113 1 120 1 411 1 374 1 255 1 407 1 435 1 243 1 382 2 217 1 259 1 301 1 358 1 377 2 215 1 349 1 467 1 267 2 399 1 443 1 481 1 483 1 357 1 325 1 279 1 262 1 163 2 248 1 283 1 270 1 390 1 221 1 310 1 294 2 172 1 226 1 459 1 266 1 359 1 10 1 19 1 34 1 40 1 42 1 50 1 57 1 60 1 69 1 94 1 126 1 188 1 199 1 219 1 220 1 224 1 232 1 234 1 247 1 251 1 264 1 269 1 278 1 281 1 282 1 289 1 333 1 334 1 340 1 341 1 345 1 373 1 375 1 394 1 418 1 425 1 426 1 432 1 464 1 466 1 470 1 473 1 482 1 484 1 488 1 489 1 497 1 498 1 
1 214 1 1 3 2 34 1 54 1 67 1 69 2 74 1 82 1 85 1 86 1 93 2 121 1 124 1 130 1 133 1 143 1 152 1 287 1 369 1 329 1 273 1 263 1 255 1 421 1 405 1 453 1 497 1 345 1 315 1 470 1 271 2 308 1 328 1 230 1 294 1 235 1 400 1 377 1 281 1 471 2 288 1 214 1 342 1 244 1 398 1 417 1 275 1 472 1 289 1 179 1 170 1 206 1 489 1 301 2 424 1 2 1 21 1 36 1 43 1 52 1 61 1 79 1 84 1 97 1 101 1 116 1 125 1 173 1 185 1 191 1 194 1 198 1 210 1 229 1 242 1 250 1 251 1 252 1 256 1 262 1 266 1 267 1 268 1 286 1 305 1 330 1 334 1 336 1 350 1 351 1 366 1 374 1 383 1 389 1 403 1 406 1 416 1 423 1 433 1 435 1 439 1 467 1 474 1 477 1 481 1 482 1 
1 195 16 1 23 1 29 1 50 1 66 1 68 1 70 2 90 1 107 1 115 1 118 1 122 1 127 1 130 1 136 1 396 1 422 1 209 1 314 2 224 1 441 1 202 1 380 1 452 1 378 1 404 1 468 1 425 1 462 1 356 1 297 1 317 1 446 1 343 1 290 1 465 1 354 1 444 1 233 1 473 2 348 1 499 2 417 1 489 1 426 1 245 1 166 2 261 1 295 1 222 1 294 1 162 1 480 1 435 1 303 1 231 1 386 1 415 1 163 1 171 1 12 1 21 1 24 1 25 1 53 1 54 1 64 1 75 1 110 1 111 1 113 1 121 1 131 1 187 1 197 1 223 1 234 1 274 1 276 1 278 1 281 1 286 1 302 1 308 1 325 1 327 1 335 1 336 1 350 1 365 1 385 1 393 1 406 1 434 1 447 1 469 1 472 1 482 1 487 1 491 1 493 1 494 1 508 1 
1 197 9 1 10 1 13 1 14 1 18 1 27 1 40 1 44 1 54 1 67 1 69 1 80 1 82 1 96 2 102 1 108 1 119 1 121 1 129 1 135 1 147 1 148 1 288 2 295 1 291 1 416 1 198 1 247 1 222 1 252 1 498 1 301 1 203 1 325 1 188 1 281 2 263 1 465 1 380 1 328 1 236 1 304 1 323 1 426 1 215 1 475 1 423 1 386 1 335 1 467 1 459 1 460 1 260 2 270 1 443 2 425 2 482 1 245 1 253 1 410 1 354 1 32 1 41 1 66 1 87 1 90 1 98 1 107 1 117 1 124 1 126 1 128 1 150 1 152 1 161 1 167 1 180 1 202 1 211 1 217 1 218 1 226 1 228 1 258 1 274 1 290 1 311 1 330 1 340 1 345 1 368 1 370 1 387 1 389 1 398 1 401 1 418 1 419 1 421 1 422 1 434 1 438 1 448 1 450 1 469 1 474 1 478 1 480 1 487 1 488 1 490 1 503 1 
1 192 19 1 31 1 41 1 46 1 47 1 55 2 61 1 73 1 79 1 88 1 91 2 103 1 109 1 113 1 145 1 150 1 492 1 370 1 461 1 261 1 278 1 464 1 200 1 236 1 449 1 479 1 252 1 257 1 290 1 440 1 270 1 307 2 475 1 351 1 455 1 264 1 269 1 369 1 412 1 177 1 360 1 291 1 199 1 356 1 482 1 173 1 441 1 428 1 474 2 170 1 255 1 2 1 17 1 22 1 38 1 50 1 60 1 69 1 82 1 85 1 96 1 99 1 105 1 110 1 116 1 119 1 125 1 171 1 190 1 208 1 210 1 221 1 224 1 232 1 259 1 263 1 268 1 271 1 275 1 280 1 281 1 294 1 308 1 314 1 318 1 321 1 326 1 339 1 345 1 359 1 363 1 366 1 377 1 379 1 404 1 411 1 414 1 415 1 421 1 451 1 465 1 472 1 486 1 489 1 498 1 501 1 512 1 
1 188 1 1 5 1 7 1 43 1 50 1 56 1 67 1 70 1 77 1 84 1 91 1 94 1 100 2 130 1 139 1 149 1 342 1 431 1 290 1 211 1 464 1 501 2 388 1 319 1 387 2 325 1 292 1 437 1 306 1 377 1 400 2 356 1 494 1 374 1 436 1 468 1 314 1 317 1 246 2 422 1 495 2 440 1 473 1 412 1 452 1 176 1 276 2 399 1 336 2 166 1 410 1 366 1 469 1 289 1 411 1 200 1 6 1 22 1 24 1 26 1 37 1 42 1 59 1 73 1 75 1 80 1 86 1 90 1 107 1 110 1 117 1 123 1 124 1 145 1 159 1 164 1 181 1 196 1 212 1 219 1 220 1 223 1 238 1 250 1 251 1 259 1 267 1 281 1 286 1 294 1 301 1 309 1 343 1 359 1 360 1 364 1 376 1 386 1 405 1 419 1 427 1 429 1 442 1 454 1 459 1 465 1 467 1 476 1 502 1 508 1 510 1 519 1 
1 208 1 2 2 1 10 1 12 1 13 1 16 1 20 1 23 1 28 1 31 1 33 1 51 1 56 1 58 1 67 2 77 1 96 1 99 1 111 2 121 2 129 1 158 1 253 1 380 1 239 2 207 1 399 1 163 1 294 1 430 1 271 1 401 1 452 1 457 1 381 1 433 1 494 1 269 2 459 1 324 1 496 1 194 1 462 1 427 1 234 1 233 2 455 1 178 1 418 2 348 1 499 1 191 2 355 2 171 1 283 1 336 1 8 1 24 1 34 1 41 1 49 1 57 1 76 1 82 1 86 1 88 1 105 1 116 1 119 1 122 1 155 1 165 1 167 1 180 1 183 1 202 1 209 1 231 1 232 1 250 1 252 1 255 1 256 1 263 1 275 1 291 1 305 1 306 1 310 1 361 1 371 1 397 1 398 1 404 1 413 1 424 1 432 1 442 1 451 1 460 1 461 1 463 1 467 1 468 1 478 1 487 1 488 1 492 1 493 1 501 1 502 1 505 1 506 1 512 1 
1 204 11 1 22 2 39 1 61 1 71 1 77 2 104 2 122 1 137 1 139 2 155 1 156 2 158 1 162 1 417 1 260 1 434 1 256 1 426 1 348 2 395 1 252 1 364 1 340 1 205 1 227 2 457 2 261 1 410 1 471 1 449 1 242 1 248 2 365 1 229 1 303 1 284 1 356 1 339 1 178 1 202 1 277 1 442 1 490 1 496 1 458 2 308 1 337 1 371 1 230 1 336 1 492 1 329 1 359 1 462 1 263 1 180 1 15 1 35 1 53 1 55 1 56 1 57 1 58 1 76 1 106 1 117 1 127 1 130 1 133 1 196 1 210 1 225 1 228 1 233 1 268 1 276 1 299 1 316 1 317 1 322 1 328 1 330 1 347 1 349 1 358 1 360 1 363 1 368 1 375 1 385 1 400 1 407 1 413 1 421 1 425 1 428 1 439 1 451 1 464 1 485 1 
1 208 3 1 16 1 19 1 21 1 32 1 77 1 83 1 96 1 99 1 110 1 119 1 124 1 126 1 134 1 137 1 144 1 293 1 279 1 355 1 405 1 290 1 492 1 166 1 225 1 285 1 204 1 357 1 410 1 270 2 303 1 296 1 202 1 391 1 362 1 429 1 361 1 304 1 337 1 339 1 265 1 229 2 435 1 345 1 431 1 269 1 291 2 224 1 248 1 231 1 333 1 424 1 466 1 408 1 179 1 252 1 488 1 4 1 23 1 40 1 50 1 52 1 109 1 130 1 132 1 143 1 145 1 161 1 171 1 172 1 177 1 197 1 214 1 221 1 222 1 256 1 259 1 266 1 271 1 288 1 309 1 312 1 329 1 334 1 342 1 364 1 366 1 371 1 374 1 382 1 383 1 398 1 401 1 403 1 414 1 420 1 423 1 437 1 444 1 450 1 456 1 458 1 473 1 475 1 495 1 498 1 500 1 521 1 
1 228 1 1 6 1 18 1 39 1 43 1 56 1 57 1 64 1 65 1 70 1 71 1 73 1 77 1 84 1 94 1 95 2 102 1 110 1 124 2 134 1 138 1 143 1 381 1 383 1 228 1 452 1 221 1 265 2 346 1 274 1 422 1 310 1 311 1 491 2 444 1 471 2 170 1 418 1 287 1 492 1 385 1 200 1 167 1 380 1 484 1 309 1 280 1 328 1 224 1 474 1 247 1 397 1 240 1 251 1 212 1 175 1 410 1 442 2 270 2 406 1 475 1 229 1 279 2 307 1 185 1 443 1 211 1 23 1 26 1 35 1 41 1 42 1 48 1 59 1 69 1 80 1 107 1 123 1 129 1 137 1 153 1 162 1 172 1 176 1 178 1 225 1 231 1 241 1 253 1 257 1 261 1 266 1 268 1 271 1 277 1 290 1 292 1 300 1 317 1 318 1 320 1 352 1 353 1 354 1 359 1 365 1 369 1 370 1 379 1 384 1 392 1 394 1 398 1 408 1 413 1 420 1 435 1 436 1 440 1 449 1 450 1 454 1 458 1 477 1 478 1 482 1 499 1 
1 202 9 2 13 1 21 1 31 1 33 1 35 1 46 1 47 1 48 1 67 1 81 1 82 1 99 1 123 1 124 2 129 1 144 1 145 1 158 2 161 1 164 1 376 1 288 1 477 1 387 1 203 1 213 1 468 1 270 2 501 1 267 1 426 1 210 1 455 1 307 1 331 1 473 2 328 1 480 1 457 2 436 1 363 1 273 1 173 1 431 1 341 1 197 1 458 2 182 1 403 1 450 1 483 1 312 1 201 1 319 2 463 1 224 1 251 1 440 1 409 1 217 1 398 1 222 1 264 1 381 1 385 1 7 1 17 1 28 1 59 1 91 1 94 1 105 1 111 1 116 1 132 1 140 1 151 1 168 1 172 1 175 1 177 1 186 1 212 1 232 1 234 1 239 1 240 1 248 1 275 1 282 1 285 1 286 1 292 1 315 1 322 1 340 1 348 1 351 1 356 1 366 1 367 1 374 1 375 1 383 1 408 1 425 1 428 1 430 1 432 1 438 1 444 1 449 1 456 1 475 1 490 1 497 1 504 1 506 1 507 1 
1 194 1 1 2 1 4 1 28 1 35 1 42 1 83 1 95 1 98 1 116 1 117 1 118 1 165 1 440 1 253 1 376 1 298 2 423 1 278 1 233 1 263 2 392 1 456 1 300 2 360 1 216 1 220 1 209 1 281 1 258 1 354 1 494 2 417 1 210 1 238 1 472 1 234 1 316 1 357 1 497 1 289 1 457 1 396 1 189 1 501 1 462 1 398 1 178 1 180 1 297 1 313 1 6 1 11 1 16 1 17 1 21 1 23 1 30 1 41 1 46 1 52 1 66 1 79 1 85 1 86 1 88 1 92 1 96 1 97 1 99 1 110 1 114 1 129 1 159 1 162 1 202 1 206 1 218 1 230 1 243 1 250 1 251 1 252 1 279 1 288 1 299 1 317 1 325 1 329 1 338 1 343 1 356 1 358 1 367 1 384 1 389 1 410 1 415 1 421 1 422 1 428 1 431 1 441 1 452 1 453 1 461 1 466 1 488 1 490 1 504 1 
1 175 8 1 9 1 10 1 26 2 28 1 50 1 65 1 102 1 103 1 106 1 108 1 118 1 123 1 124 1 125 1 141 2 383 1 280 1 284 1 226 1 273 1 449 1 359 2 399 1 362 1 406 1 491 1 444 2 322 1 208 1 228 1 376 1 205 2 294 1 342 1 297 1 369 1 451 1 248 1 313 1 249 1 277 1 207 1 236 1 408 1 409 2 446 1 302 1 348 1 463 1 343 1 311 2 238 1 287 1 326 1 187 1 221 1 193 1 484 1 258 1 328 1 3 1 14 1 15 1 34 1 40 1 56 1 62 1 72 1 81 1 89 1 98 1 111 1 116 1 119 1 134 1 140 1 149 1 166 1 169 1 220 1 223 1 227 1 241 1 254 1 272 1 276 1 295 1 310 1 332 1 341 1 349 1 353 1 363 1 400 1 401 1 416 1 432 1 447 1 453 1 466 1 486 1 490 1 515 1 
1 205 30 1 41 1 58 2 76 1 84 1 114 2 115 1 130 1 153 1 339 1 431 1 255 1 332 1 312 1 435 1 220 1 249 2 438 1 313 1 465 1 351 1 494 1 346 1 315 1 176 1 278 1 183 1 479 2 337 1 233 1 330 1 261 1 240 1 248 1 486 1 483 1 373 1 410 1 257 1 275 1 340 1 338 1 243 1 414 1 197 1 367 1 379 1 253 1 412 1 385 1 192 1 334 1 10 1 12 1 23 1 24 1 29 1 31 1 34 1 36 1 39 1 57 1 59 1 65 1 67 1 73 1 80 1 91 1 92 1 94 1 95 1 97 1 99 1 110 1 111 1 117 1 118 1 123 1 131 1 168 1 173 1 174 1 187 1 202 1 203 1 204 1 209 1 214 1 235 1 252 1 276 1 280 1 282 1 283 1 304 1 306 1 310 1 324 1 325 1 326 1 350 1 388 1 411 1 420 1 424 1 434 1 447 1 452 1 459 1 461 1 485 1 489 1 490 1 497 1 516 1 
1 213 3 1 8 1 11 2 18 1 19 2 33 1 51 1 63 1 76 1 106 1 108 1 109 1 116 2 124 1 146 1 147 1 157 1 160 1 165 1 220 1 432 2 467 1 436 1 295 2 207 1 171 2 400 2 414 2 322 1 461 1 332 1 485 1 303 1 202 1 254 1 231 2 203 2 181 1 317 1 272 1 241 1 397 1 310 1 349 1 358 1 260 1 407 1 256 1 304 2 296 1 10 1 17 1 26 1 29 1 31 1 42 1 75 1 79 1 93 1 99 1 110 1 111 1 125 1 136 1 142 1 143 1 148 1 185 1 186 1 213 1 224 1 227 1 228 1 238 1 240 1 247 1 258 1 282 1 300 1 308 1 319 1 321 1 326 1 327 1 339 1 343 1 348 1 355 1 367 1 376 1 392 1 411 1 418 1 431 1 440 1 447 1 449 1 454 1 463 1 483 1 486 1 491 1 497 1 507 1 509 1 517 1 
1 210 1 1 17 1 27 1 38 1 78 2 80 1 94 1 108 1 109 1 112 1 113 1 118 1 120 1 131 2 132 2 147 2 153 1 158 1 162 1 170 2 400 1 200 1 232 1 367 2 208 1 354 1 459 1 238 1 229 1 332 1 306 1 390 1 323 1 298 1 241 1 443 1 392 1 260 1 204 2 357 1 364 1 296 1 365 1 457 1 428 1 361 2 389 2 495 1 395 2 391 1 385 1 374 1 283 1 501 1 355 1 304 1 248 1 483 1 328 1 176 1 295 1 497 1 369 1 231 1 370 1 5 1 22 1 25 1 45 1 56 1 62 1 67 1 69 1 83 1 87 1 93 1 114 1 117 1 135 1 160 1 164 1 172 1 205 1 207 1 210 1 213 1 217 1 220 1 240 1 257 1 262 1 273 1 281 1 299 1 319 1 327 1 331 1 338 1 358 1 371 1 372 1 375 1 384 1 386 1 403 1 407 1 421 1 441 1 446 1 451 1 458 1 464 1 465 1 466 1 468 1 475 1 485 1 489 1 
1 211 11 1 12 1 22 2 25 1 46 1 49 1 55 1 57 1 68 1 70 1 79 1 103 1 104 1 118 1 121 1 130 2 139 1 143 1 153 1 156 1 217 2 214 1 332 1 255 1 276 1 424 1 312 1 257 1 407 1 406 1 430 1 342 1 297 1 205 1 411 1 175 1 461 1 179 1 259 1 238 1 467 1 326 1 472 1 350 1 360 1 362 1 336 1 231 1 500 1 425 2 379 1 453 1 388 1 491 2 466 1 208 1 423 1 311 2 363 1 435 1 181 1 44 1 52 1 65 1 67 1 73 1 89 1 92 1 98 1 109 1 116 1 122 1 140 1 164 1 165 1 166 1 171 1 213 1 225 1 229 1 237 1 240 1 241 1 243 1 246 1 247 1 253 1 258 1 260 1 267 1 270 1 313 1 315 1 322 1 334 1 337 1 349 1 353 1 358 1 367 1 368 1 376 1 377 1 387 1 391 1 402 1 403 1 433 1 434 1 436 1 445 1 446 1 455 1 470 1 473 1 477 1 481 1 482 1 496 1 
1 190 1 1 5 2 25 2 28 2 35 1 72 1 73 2 77 1 84 1 89 1 93 1 99 1 101 2 102 1 107 1 115 1 128 1 140 1 142 1 160 1 166 1 249 1 412 1 218 1 478 1 457 1 354 1 368 1 245 1 278 1 458 2 288 1 272 1 349 2 352 1 401 1 485 1 487 2 308 1 490 1 239 1 382 1 400 1 383 1 373 1 183 1 273 1 374 1 474 1 262 1 446 1 291 1 332 1 468 1 301 1 277 1 483 1 456 1 473 1 337 1 476 1 14 1 24 1 31 1 39 1 43 1 58 1 62 1 65 1 92 1 95 1 98 1 133 1 139 1 141 1 157 1 169 1 177 1 195 1 221 1 240 1 244 1 250 1 255 1 263 1 268 1 271 1 276 1 284 1 289 1 290 1 303 1 311 1 312 1 319 1 330 1 331 1 359 1 391 1 417 1 425 1 430 1 441 1 450 1 479 1 489 1 492 1 495 1 
1 205 2 1 37 1 43 1 50 1 62 1 66 1 77 1 85 1 89 1 97 1 104 2 120 1 123 1 125 1 131 2 243 1 319 1 261 1 263 1 463 1 206 1 473 1 279 2 459 1 244 1 456 1 356 1 176 1 252 2 393 1 341 2 477 1 183 1 355 2 237 1 358 1 177 1 266 2 274 1 205 2 460 1 326 1 447 1 468 1 301 1 501 1 429 1 178 1 5 1 13 1 19 1 24 1 39 1 44 1 58 1 63 1 69 1 80 1 91 1 121 1 135 1 143 1 169 1 185 1 202 1 215 1 232 1 234 1 250 1 264 1 284 1 321 1 323 1 335 1 337 1 348 1 353 1 362 1 375 1 392 1 397 1 406 1 424 1 431 1 434 1 442 1 446 1 453 1 454 1 457 1 470 1 485 1 491 1 493 1 497 1 503 1 
1 217 8 2 16 1 17 1 19 1 22 1 35 2 36 1 44 1 46 1 48 1 53 1 69 2 75 1 76 1 77 2 83 1 90 1 93 2 95 1 98 1 104 1 111 1 112 1 117 1 136 1 145 1 150 1 165 1 172 1 251 1 207 1 311 1 271 1 431 1 480 1 424 1 240 1 303 1 423 1 360 2 225 1 227 1 223 1 216 1 414 1 444 1 470 1 284 1 269 1 455 2 492 1 412 1 326 1 359 1 347 1 474 1 206 1 190 2 382 2 494 1 191 1 355 1 413 1 395 1 408 1 192 1 318 1 241 1 286 1 258 1 29 1 34 1 40 1 50 1 55 1 65 1 67 1 80 1 82 1 113 1 116 1 124 1 141 1 142 1 166 1 184 1 203 1 212 1 219 1 243 1 266 1 280 1 293 1 299 1 305 1 328 1 341 1 344 1 351 1 367 1 379 1 392 1 400 1 405 1 417 1 420 1 432 1 434 1 437 1 441 1 442 1 449 1 450 1 451 1 467 1 468 1 479 1 485 1 486 1 
1 199 10 1 14 1 30 1 40 1 43 1 49 1 66 1 95 1 98 2 109 1 114 1 133 2 161 1 169 1 171 1 174 1 365 1 481 2 482 1 364 1 275 1 232 1 329 2 281 1 207 1 391 1 402 1 375 1 227 1 225 1 261 1 372 2 411 1 404 1 249 1 306 1 455 1 363 2 215 1 465 1 497 1 456 2 400 1 265 1 279 1 500 1 376 1 313 1 236 2 177 1 319 1 338 1 194 1 5 1 36 1 45 1 56 1 65 1 74 1 75 1 81 1 93 1 96 1 105 1 119 1 165 1 184 1 218 1 228 1 230 1 247 1 252 1 253 1 256 1 258 1 264 1 282 1 287 1 296 1 301 1 307 1 333 1 345 1 359 1 366 1 374 1 378 1 393 1 395 1 396 1 405 1 406 1 414 1 427 1 429 1 444 1 454 1 458 1 459 1 468 1 485 1 486 1 494 1 
1 217 1 1 8 1 22 2 29 2 32 1 39 1 73 1 75 1 82 1 88 1 91 1 102 1 110 1 112 1 125 1 142 2 151 1 160 1 174 1 176 1 471 1 231 1 383 1 374 1 373 1 353 1 407 2 377 1 415 1 315 1 270 1 486 1 457 1 477 2 395 1 380 1 443 1 469 1 483 1 245 1 451 1 215 2 325 1 501 1 222 1 211 1 217 1 439 1 338 1 183 1 256 2 293 1 314 1 445 1 440 1 16 1 23 1 43 1 47 1 53 1 62 1 64 1 69 1 81 1 103 1 104 1 127 1 128 1 164 1 166 1 173 1 180 1 210 1 214 1 219 1 223 1 230 1 237 1 239 1 241 1 242 1 247 1 257 1 268 1 274 1 287 1 298 1 299 1 302 1 330 1 334 1 336 1 342 1 345 1 350 1 352 1 362 1 372 1 381 1 385 1 401 1 416 1 435 1 455 1 456 1 460 1 484 1 496 1 505 1 507 1 521 1 
1 207 6 1 19 1 25 1 40 1 52 1 79 1 83 1 89 1 94 2 100 1 101 1 111 1 123 1 126 1 127 1 132 1 141 1 142 1 143 1 148 1 162 1 163 1 167 1 174 1 207 1 359 1 458 2 280 1 371 2 353 1 214 1 251 1 486 1 315 1 334 1 472 1 338 1 433 1 380 1 406 1 264 2 286 1 327 1 230 1 276 1 430 1 210 1 341 2 473 2 245 1 390 2 492 2 249 1 401 1 193 2 460 1 440 1 426 1 408 1 465 2 397 1 231 1 471 1 453 1 248 1 271 1 441 1 281 1 324 1 10 1 12 1 16 1 20 1 29 1 31 1 33 1 38 1 39 1 44 1 45 1 53 1 69 1 72 1 77 1 78 1 81 1 96 1 98 1 102 1 105 1 110 1 113 1 134 1 140 1 165 1 186 1 192 1 218 1 238 1 259 1 291 1 303 1 307 1 330 1 331 1 351 1 354 1 395 1 412 1 428 1 454 1 456 1 479 1 485 1 488 1 494 1 512 1 514 1 517 1 
1 194 6 1 9 1 15 1 16 1 25 1 34 1 35 1 40 1 69 1 79 2 96 1 109 1 112 1 121 1 125 1 126 1 130 1 133 1 157 1 164 1 172 1 265 1 365 1 367 1 451 1 379 1 240 1 495 1 258 1 284 1 241 1 356 1 342 1 351 1 460 1 388 1 220 1 315 1 420 1 371 1 203 1 295 1 425 1 404 1 437 1 423 1 390 1 268 1 249 1 397 1 316 1 227 1 216 1 208 1 443 2 430 1 369 1 383 1 283 2 8 1 24 1 26 1 27 1 30 1 33 1 56 1 60 1 78 1 82 1 83 1 89 1 123 1 128 1 132 1 135 1 142 1 143 1 151 1 181 1 187 1 207 1 210 1 217 1 222 1 224 1 242 1 246 1 251 1 255 1 259 1 263 1 276 1 277 1 286 1 287 1 292 1 293 1 325 1 363 1 382 1 405 1 411 1 431 1 439 1 440 1 461 1 469 1 476 1 477 1 483 1 484 1 497 1 512 1 
1 194 1 1 13 1 24 1 30 1 31 1 35 1 69 1 74 1 83 1 85 1 87 2 93 2 96 1 104 1 115 1 128 1 129 1 142 1 163 1 167 1 345 1 326 1 339 1 244 1 440 1 442 1 471 1 298 1 346 1 330 1 344 2 213 1 296 1 189 1 499 1 282 1 402 1 501 1 208 1 466 2 467 1 390 1 216 1 485 1 252 1 182 1 16 1 23 1 29 1 33 1 45 1 62 1 88 1 95 1 105 1 111 1 121 1 127 1 130 1 148 1 159 1 162 1 177 1 231 1 253 1 265 1 267 1 294 1 295 1 304 1 310 1 328 1 354 1 356 1 365 1 385 1 389 1 391 1 394 1 411 1 413 1 416 1 429 1 437 1 441 1 444 1 454 1 456 1 460 1 484 1 487 1 488 1 491 1 517 1 
1 214 1 1 4 1 5 1 17 1 18 1 21 1 39 2 43 1 45 1 78 1 90 1 104 1 105 1 111 1 114 1 117 1 140 1 142 1 144 1 150 1 152 2 170 1 172 1 310 1 210 1 341 1 465 1 208 1 500 1 305 1 385 1 216 1 482 1 254 1 356 1 497 1 297 1 278 2 365 1 345 2 237 2 308 2 206 1 487 1 403 2 261 1 289 1 402 2 327 1 463 1 399 1 453 1 326 1 7 1 9 1 15 1 22 1 26 1 29 1 38 1 56 1 57 1 67 1 94 1 102 1 119 1 120 1 121 1 126 1 127 1 133 1 145 1 146 1 161 1 179 1 182 1 214 1 218 1 220 1 221 1 226 1 227 1 229 1 239 1 243 1 248 1 273 1 280 1 290 1 294 1 299 1 309 1 313 1 329 1 347 1 372 1 378 1 387 1 396 1 401 1 418 1 431 1 434 1 440 1 444 1 449 1 450 1 451 1 454 1 455 1 459 1 468 1 469 1 472 1 481 1 488 1 491 1 493 1 
1 194 4 1 13 1 19 1 28 2 35 1 48 1 81 1 88 1 97 1 113 1 120 1 138 2 139 2 166 1 180 1 322 1 386 1 477 1 382 1 310 1 436 1 228 1 346 1 334 1 391 1 372 1 266 1 389 1 475 1 235 1 271 2 215 1 231 1 363 1 378 1 245 1 444 1 273 1 398 1 324 1 488 1 393 1 302 2 351 1 463 1 411 1 400 2 209 1 185 1 205 1 5 1 8 1 31 1 41 1 52 1 66 1 67 1 70 1 79 1 83 1 86 1 92 1 111 1 112 1 114 1 135 1 136 1 151 1 154 1 181 1 187 1 188 1 219 1 224 1 274 1 278 1 285 1 294 1 303 1 321 1 327 1 335 1 342 1 356 1 396 1 401 1 409 1 416 1 437 1 438 1 457 1 466 1 469 1 473 1 478 1 492 1 498 1 507 1 515 1 
1 212 6 1 10 2 11 1 23 1 28 1 39 1 48 2 51 1 55 1 57 1 70 1 74 1 78 1 87 1 90 1 94 1 96 1 97 1 111 2 141 1 149 1 153 1 154 1 169 1 173 1 174 1 177 1 456 2 228 1 385 1 185 1 271 1 425 1 253 1 488 1 257 1 482 1 312 2 428 2 282 1 427 1 462 1 213 1 246 1 275 1 424 1 429 1 291 1 247 1 333 1 216 1 398 1 344 1 412 1 436 1 248 1 184 1 310 1 455 1 499 2 491 2 418 1 470 1 444 1 328 1 300 1 404 1 197 1 217 1 435 1 12 1 19 1 24 1 26 1 31 1 32 1 52 1 62 1 69 1 75 1 91 1 92 1 98 1 100 1 102 1 115 1 139 1 162 1 193 1 205 1 221 1 230 1 235 1 256 1 264 1 265 1 279 1 287 1 293 1 297 1 319 1 331 1 332 1 342 1 361 1 363 1 393 1 396 1 397 1 417 1 419 1 421 1 423 1 454 1 460 1 472 1 486 1 497 1 500 1 520 1 
1 203 3 2 11 1 20 1 33 1 53 1 58 1 65 1 77 1 84 2 86 1 106 1 109 1 112 1 118 1 134 1 135 1 139 1 149 1 151 1 153 1 183 1 394 2 460 1 324 1 235 1 465 1 283 1 498 1 299 1 462 1 330 1 251 1 249 1 433 2 451 1 453 1 250 1 362 1 298 1 385 2 315 1 339 1 355 1 413 1 437 1 349 1 390 1 194 1 226 1 441 1 475 1 277 1 26 1 39 1 50 1 60 1 62 1 67 1 68 1 73 1 74 1 82 1 95 1 122 1 130 1 141 1 152 1 154 1 175 1 176 1 202 1 217 1 222 1 230 1 237 1 239 1 247 1 253 1 263 1 267 1 289 1 290 1 291 1 300 1 308 1 331 1 334 1 337 1 347 1 358 1 368 1 388 1 389 1 391 1 395 1 408 1 411 1 418 1 421 1 449 1 470 1 471 1 481 1 493 1 496 1 501 1 
1 202 10 1 12 1 15 1 17 1 18 1 24 1 25 1 38 1 40 1 42 1 59 1 67 1 73 1 74 1 82 1 85 1 93 1 104 1 112 1 114 1 123 1 128 1 165 1 182 1 183 1 270 1 343 1 487 1 372 1 417 1 256 1 313 1 220 1 340 1 397 1 492 2 370 2 259 1 317 1 438 1 301 1 222 2 323 1 462 1 378 1 277 2 478 1 286 1 329 1 338 2 418 1 294 1 392 1 495 1 312 1 379 1 262 1 493 1 389 1 252 1 491 1 305 1 327 1 475 1 5 1 11 1 22 1 31 1 54 1 65 1 91 1 96 1 97 1 102 1 129 1 139 1 149 1 157 1 170 1 174 1 193 1 215 1 219 1 221 1 229 1 230 1 245 1 248 1 258 1 260 1 267 1 291 1 293 1 325 1 342 1 355 1 361 1 366 1 380 1 383 1 399 1 426 1 459 1 463 1 472 1 474 1 515 1 
1 216 2 1 19 1 33 1 36 1 42 1 52 1 58 1 60 1 92 1 104 1 112 1 121 2 122 1 132 1 141 1 152 2 488 1 475 1 436 2 241 1 462 1 471 1 225 1 343 2 266 1 395 1 268 1 399 1 299 2 282 1 374 1 327 1 385 1 458 2 223 1 427 1 346 1 278 1 444 1 397 1 336 1 254 1 404 1 270 1 341 1 321 1 364 1 382 2 298 1 424 1 440 1 472 1 233 1 313 1 281 1 284 1 6 1 8 1 16 1 26 1 30 1 41 1 45 1 85 1 100 1 110 1 123 1 126 1 130 1 138 1 153 1 155 1 166 1 170 1 178 1 187 1 197 1 215 1 244 1 247 1 256 1 263 1 269 1 272 1 276 1 279 1 288 1 289 1 304 1 306 1 310 1 312 1 320 1 323 1 337 1 344 1 347 1 349 1 355 1 356 1 358 1 367 1 368 1 369 1 377 1 380 1 390 1 392 1 405 1 425 1 435 1 448 1 451 1 456 1 459 1 464 1 485 1 487 1 519 1 520 1 
1 221 2 1 8 1 11 1 23 1 25 1 49 2 54 2 60 1 66 1 75 1 89 1 98 1 103 1 111 1 112 1 117 1 122 1 124 1 130 1 136 1 140 1 147 1 148 1 155 1 168 1 318 2 232 1 470 1 501 1 189 1 400 1 428 1 246 1 375 1 282 1 324 1 467 1 239 1 215 1 448 2 464 1 320 1 457 1 398 1 372 2 347 1 314 1 244 1 486 1 396 1 451 1 483 1 298 1 264 1 212 1 500 1 334 1 248 1 353 1 9 1 14 1 26 1 29 1 43 1 44 1 71 1 81 1 84 1 86 1 93 1 101 1 113 1 123 1 131 1 143 1 145 1 150 1 152 1 158 1 169 1 179 1 182 1 186 1 192 1 220 1 224 1 227 1 228 1 234 1 256 1 261 1 268 1 279 1 295 1 304 1 305 1 310 1 313 1 315 1 340 1 355 1 362 1 367 1 368 1 380 1 386 1 391 1 402 1 408 1 412 1 429 1 433 1 434 1 435 1 438 1 439 1 440 1 443 1 444 1 458 1 466 1 469 1 512 1 514 1 516 1 
1 198 13 1 43 1 44 1 48 1 70 1 78 1 87 1 88 1 92 1 95 1 103 1 105 1 111 1 118 1 123 1 130 1 135 2 144 2 159 1 287 1 234 1 214 1 432 1 414 1 242 2 401 1 484 1 363 1 223 1 457 2 422 1 261 1 474 1 417 1 433 1 500 1 339 1 291 1 424 1 492 1 278 1 435 1 393 1 299 1 371 2 194 1 337 1 309 1 279 1 302 1 211 1 485 1 222 1 200 1 319 1 271 1 24 1 46 1 49 1 51 1 52 1 54 1 90 1 102 1 107 1 109 1 113 1 114 1 126 1 128 1 138 1 139 1 146 1 153 1 156 1 182 1 201 1 219 1 226 1 236 1 270 1 283 1 292 1 323 1 329 1 336 1 344 1 348 1 366 1 368 1 380 1 381 1 384 1 410 1 431 1 450 1 453 1 459 1 479 1 481 1 483 1 491 1 
1 192 5 1 6 1 18 1 31 1 58 1 75 1 78 2 93 1 96 1 97 2 102 1 103 1 106 1 107 1 124 1 129 1 147 1 154 1 167 1 180 1 187 1 426 1 278 1 409 2 298 2 307 1 258 1 252 2 358 2 399 1 236 1 192 1 374 1 373 1 487 1 217 1 371 1 379 1 292 1 211 1 400 1 214 2 467 1 282 1 354 1 191 1 284 1 376 1 406 1 334 1 428 1 361 1 269 1 244 1 401 1 377 1 245 1 190 1 364 1 349 1 322 1 470 1 424 1 1 1 2 1 13 1 25 1 28 1 35 1 47 1 49 1 56 1 61 1 65 1 80 1 83 1 84 1 113 1 120 1 126 1 137 1 140 1 141 1 149 1 194 1 204 1 213 1 218 1 238 1 243 1 257 1 259 1 268 1 283 1 288 1 299 1 309 1 317 1 320 1 325 1 333 1 338 1 367 1 394 1 412 1 419 1 437 1 452 1 456 1 461 1 465 1 466 1 472 1 479 1 485 1 495 1 520 1 
1 216 4 1 19 1 32 1 40 1 42 1 44 1 52 1 58 1 62 2 65 1 71 1 81 1 83 1 91 1 92 1 102 1 118 1 124 1 130 1 145 1 146 1 150 1 151 1 153 1 175 2 189 1 372 1 355 1 293 1 439 1 299 1 329 2 482 1 407 1 356 1 236 1 197 1 337 1 422 1 362 1 259 1 238 1 196 1 370 1 316 1 393 1 194 1 266 2 21 1 30 1 35 1 43 1 51 1 64 1 66 1 68 1 74 1 79 1 80 1 85 1 93 1 103 1 106 1 111 1 131 1 134 1 152 1 160 1 233 1 264 1 269 1 274 1 294 1 298 1 301 1 309 1 311 1 327 1 332 1 349 1 359 1 371 1 380 1 386 1 387 1 389 1 391 1 392 1 396 1 402 1 415 1 433 1 444 1 448 1 453 1 454 1 461 1 462 1 476 1 477 1 483 1 
1 205 12 1 13 2 21 1 24 1 25 1 31 1 39 1 47 2 56 1 57 1 78 1 90 1 92 1 96 1 100 1 113 1 115 1 122 1 143 1 162 2 175 1 189 1 408 1 266 1 292 2 465 1 259 1 232 2 320 1 239 1 415 2 251 1 301 1 419 2 272 1 399 1 479 1 223 1 241 1 464 1 270 1 283 1 378 1 195 1 197 1 317 1 344 1 349 1 457 1 473 1 199 1 460 1 363 2 480 2 302 1 224 1 395 1 422 1 481 1 478 1 300 2 1 1 23 1 29 1 33 1 45 1 46 1 49 1 51 1 69 1 77 1 88 1 93 1 99 1 128 1 130 1 142 1 144 1 157 1 193 1 219 1 222 1 228 1 237 1 254 1 255 1 262 1 294 1 307 1 310 1 312 1 316 1 318 1 329 1 337 1 352 1 358 1 362 1 380 1 403 1 418 1 420 1 442 1 445 1 455 1 470 1 471 1 493 1 497 1 500 1 502 1 
1 199 5 1 15 1 16 1 19 1 23 1 33 1 41 1 42 1 50 1 53 2 55 1 59 1 69 1 91 1 119 1 140 1 142 1 143 1 144 1 149 1 169 1 175 1 189 1 486 2 285 1 485 1 491 1 369 1 453 1 433 1 413 1 316 1 404 1 401 1 303 1 431 1 370 1 483 1 419 1 288 2 250 1 315 1 219 2 387 2 398 1 224 2 232 1 424 2 408 1 292 1 489 1 463 1 498 1 3 1 26 1 39 1 44 1 48 1 49 1 63 1 82 1 88 1 96 1 109 1 110 1 122 1 127 1 139 1 148 1 154 1 178 1 187 1 227 1 228 1 234 1 240 1 241 1 243 1 246 1 248 1 261 1 270 1 301 1 320 1 331 1 338 1 339 1 347 1 355 1 378 1 379 1 382 1 396 1 400 1 405 1 442 1 451 1 452 1 454 1 464 1 470 1 477 1 492 1 515 1 
1 214 4 1 8 1 14 1 18 1 22 1 23 1 25 1 27 1 28 2 37 1 44 1 69 1 70 1 82 2 99 1 105 1 107 1 109 1 117 1 119 1 124 2 126 1 128 1 144 1 147 1 153 1 168 1 178 2 299 1 372 1 272 1 492 1 330 2 307 1 475 1 464 1 224 1 228 1 405 1 281 1 340 1 326 1 431 1 280 1 454 1 247 1 407 1 440 1 378 1 200 1 362 1 429 2 458 1 425 1 218 1 304 1 268 1 311 1 227 1 238 2 303 1 463 1 232 1 400 1 424 1 322 2 451 1 465 1 369 1 6 1 11 1 17 1 55 1 67 1 71 1 75 1 77 1 94 1 101 1 102 1 121 1 142 1 183 1 185 1 191 1 206 1 223 1 229 1 235 1 243 1 246 1 261 1 269 1 271 1 276 1 320 1 329 1 331 1 343 1 350 1 370 1 376 1 379 1 389 1 397 1 426 1 433 1 442 1 456 1 459 1 469 1 471 1 488 1 495 1 496 1 500 1 
1 200 6 2 18 2 29 1 39 1 41 1 43 1 44 2 47 1 52 1 56 1 75 1 87 1 94 1 98 1 104 1 106 1 119 2 123 1 128 1 129 1 132 2 135 1 139 1 162 1 176 1 184 1 188 1 190 1 245 2 403 1 438 1 496 1 265 1 358 1 387 1 360 1 490 1 233 1 322 1 296 1 307 2 483 1 324 1 236 1 459 1 464 1 262 1 405 1 414 1 396 1 278 1 339 2 402 1 417 1 298 1 273 1 235 1 466 1 309 1 395 2 256 1 404 1 290 1 320 2 209 1 444 1 303 1 373 1 385 1 33 1 63 1 70 1 77 1 89 1 102 1 111 1 117 1 124 1 136 1 157 1 189 1 216 1 220 1 229 1 237 1 248 1 310 1 325 1 326 1 328 1 331 1 334 1 336 1 343 1 346 1 354 1 361 1 369 1 380 1 400 1 425 1 443 1 448 1 461 1 468 1 476 1 485 1 487 1 488 1 492 1 505 1 
1 181 5 1 12 2 19 2 27 1 52 2 83 1 99 1 113 1 121 2 123 1 128 1 134 1 141 1 144 2 153 1 155 1 191 1 286 1 438 1 470 1 481 1 231 2 376 1 439 1 449 1 322 1 323 1 402 1 243 1 490 2 382 1 486 1 451 1 493 1 306 1 356 1 337 1 273 2 317 1 260 1 365 2 282 1 359 1 396 2 437 2 384 1 218 1 310 1 467 2 394 1 352 1 387 1 224 1 434 1 209 1 355 1 268 1 501 1 401 1 239 2 9 1 13 1 45 1 46 1 49 1 51 1 53 1 60 1 78 1 79 1 80 1 86 1 87 1 110 1 111 1 116 1 127 1 137 1 173 1 234 1 249 1 252 1 254 1 261 1 263 1 264 1 267 1 270 1 289 1 292 1 293 1 298 1 305 1 330 1 335 1 344 1 345 1 358 1 371 1 372 1 419 1 423 1 452 1 472 1 497 1 499 1 500 1 
1 209 8 1 38 1 40 1 41 1 49 1 51 2 53 1 64 2 67 1 71 1 77 1 88 2 91 1 95 2 100 2 112 1 116 1 121 1 135 1 139 1 141 1 151 2 153 1 155 2 190 1 338 1 305 1 487 1 469 1 221 2 303 2 332 1 219 1 352 1 324 1 366 1 310 1 298 1 271 2 339 1 319 1 417 1 401 1 381 1 447 1 250 1 388 1 431 1 341 1 277 1 484 1 294 1 414 1 268 1 233 1 346 1 405 1 336 2 434 1 501 1 12 1 20 1 21 1 24 1 29 1 32 1 43 1 45 1 69 1 72 1 75 1 99 1 115 1 119 1 129 1 138 1 161 1 163 1 203 1 204 1 205 1 224 1 229 1 235 1 246 1 251 1 257 1 259 1 272 1 279 1 295 1 326 1 334 1 355 1 362 1 371 1 379 1 383 1 389 1 439 1 444 1 445 1 463 1 468 1 472 1 478 1 480 1 483 1 486 1 489 1 494 1 503 1 513 1 
1 203 2 1 3 2 4 1 6 1 19 1 39 1 41 1 43 1 68 1 71 1 72 1 77 1 90 2 99 1 102 1 104 1 114 1 115 1 116 1 125 1 132 1 139 1 149 1 154 1 166 1 169 1 183 1 190 1 191 1 248 2 321 2 221 2 224 1 422 1 477 1 232 1 483 1 353 1 346 2 423 1 263 1 244 1 470 1 501 1 260 1 287 2 316 1 456 1 384 1 373 2 335 1 361 1 357 1 247 1 447 1 401 1 453 1 421 1 337 1 269 2 345 1 358 1 482 1 283 1 484 1 5 1 11 1 12 1 15 1 23 1 33 1 46 1 53 1 62 1 94 1 107 1 122 1 130 1 134 1 158 1 164 1 186 1 206 1 212 1 225 1 228 1 234 1 236 1 245 1 268 1 276 1 290 1 295 1 315 1 322 1 326 1 331 1 352 1 363 1 379 1 381 1 382 1 383 1 406 1 408 1 420 1 449 1 450 1 452 1 454 1 455 1 461 1 472 1 481 1 486 1 503 1 
1 175 7 1 29 1 32 1 36 2 38 1 47 1 57 1 69 1 70 1 88 1 90 2 93 1 100 1 104 1 119 1 142 1 154 1 159 1 245 1 276 1 241 1 261 1 247 1 319 1 345 1 412 1 283 2 310 1 200 1 478 1 233 1 347 1 225 1 324 2 497 2 222 1 340 1 235 1 329 1 287 1 294 1 463 1 311 1 461 1 500 1 337 1 425 1 468 1 401 1 256 1 327 1 258 1 1 1 8 1 11 1 14 1 18 1 22 1 27 1 41 1 51 1 54 1 65 1 66 1 71 1 74 1 76 1 82 1 89 1 132 1 149 1 157 1 236 1 262 1 285 1 303 1 338 1 342 1 343 1 353 1 360 1 385 1 386 1 388 1 389 1 391 1 395 1 398 1 407 1 413 1 437 1 446 1 450 1 460 1 472 1 488 1 509 1 
1 215 2 1 18 2 19 1 23 1 44 1 46 1 52 1 68 2 71 2 80 1 85 1 90 1 95 1 102 1 113 1 119 1 122 1 123 2 134 1 136 2 138 2 147 1 160 1 191 1 425 1 395 1 490 2 464 1 440 1 409 1 270 1 246 1 295 1 412 1 423 1 367 1 469 1 275 1 262 1 260 1 239 1 498 1 479 1 355 1 310 1 219 1 210 1 328 1 336 1 420 1 473 1 368 1 238 1 461 1 241 1 483 1 501 2 231 1 8 1 14 1 30 1 49 1 50 1 60 1 74 1 92 1 98 1 105 1 108 1 137 1 142 1 154 1 156 1 204 1 221 1 232 1 249 1 253 1 256 1 261 1 272 1 279 1 281 1 285 1 286 1 304 1 324 1 339 1 357 1 359 1 365 1 366 1 376 1 377 1 383 1 388 1 401 1 411 1 418 1 419 1 431 1 434 1 437 1 472 1 481 1 482 1 485 1 492 1 494 1 497 1 515 1 
1 206 2 1 11 1 15 1 16 1 22 2 30 1 33 1 38 1 41 1 50 1 51 2 65 1 67 1 70 1 71 1 80 1 106 1 114 1 120 2 134 1 135 1 141 2 152 1 160 1 161 1 165 1 171 1 188 1 193 1 198 1 401 1 399 1 431 1 319 1 377 1 362 1 247 1 307 1 334 1 350 1 327 1 493 1 326 2 421 1 322 1 409 1 381 1 214 1 242 2 245 1 428 1 338 1 386 1 253 2 496 1 283 1 221 1 234 2 389 1 337 1 6 1 17 1 23 1 39 1 55 1 63 1 86 1 88 1 107 1 132 1 136 1 137 1 139 1 140 1 147 1 206 1 222 1 228 1 231 1 233 1 250 1 260 1 274 1 287 1 299 1 313 1 325 1 330 1 342 1 347 1 348 1 353 1 372 1 373 1 374 1 379 1 424 1 434 1 446 1 463 1 464 1 494 1 506 1 508 1 510 1 
1 179 34 1 39 1 46 1 68 1 74 1 88 1 95 1 100 1 103 1 110 1 118 1 127 1 138 1 146 1 166 1 284 1 324 2 488 1 335 1 459 1 312 1 480 1 321 1 311 1 281 1 306 1 468 1 450 2 352 1 374 1 268 1 464 2 390 1 368 1 345 2 427 1 491 1 465 1 280 1 314 1 238 1 441 1 392 1 285 1 375 1 233 1 416 1 431 1 305 1 351 2 408 1 338 1 249 1 322 1 3 1 4 1 20 1 25 1 27 1 32 1 33 1 44 1 64 1 67 1 69 1 72 1 92 1 93 1 115 1 116 1 122 1 129 1 133 1 147 1 188 1 221 1 225 1 234 1 240 1 246 1 248 1 250 1 253 1 271 1 273 1 282 1 291 1 296 1 301 1 328 1 339 1 344 1 364 1 369 1 371 1 376 1 406 1 411 1 414 1 426 1 428 1 429 1 445 1 453 1 462 1 477 1 478 1 481 1 482 1 492 1 493 1 497 1 
1 204 8 1 24 1 39 1 51 1 55 1 57 1 70 1 75 1 90 1 94 1 95 1 97 1 102 1 128 1 158 1 163 1 164 1 170 1 318 2 385 1 478 1 458 1 350 1 406 2 346 1 287 1 275 1 495 1 305 1 394 2 382 1 444 1 379 1 472 1 286 1 252 1 457 1 383 1 298 1 479 1 245 1 234 1 344 2 299 1 499 1 282 1 241 2 377 1 288 1 335 1 242 1 393 1 408 1 411 1 243 1 336 1 448 1 323 2 300 1 5 1 26 1 44 1 47 1 48 1 49 1 53 1 59 1 81 1 91 1 100 1 118 1 142 1 146 1 159 1 162 1 167 1 169 1 174 1 184 1 207 1 221 1 223 1 249 1 251 1 261 1 277 1 293 1 294 1 295 1 301 1 339 1 340 1 342 1 352 1 354 1 361 1 372 1 384 1 387 1 404 1 422 1 435 1 445 1 450 1 456 1 474 1 487 1 494 1 
1 196 31 2 35 1 40 1 58 1 68 1 86 1 91 1 95 1 97 1 102 1 104 1 106 1 109 1 111 1 112 1 126 1 132 1 138 1 140 1 144 2 159 1 166 1 170 2 179 1 472 1 329 1 316 1 394 1 368 1 282 1 360 1 350 1 306 1 322 1 263 1 224 1 281 2 456 1 298 1 501 1 205 1 403 1 497 1 313 1 243 1 455 1 254 1 453 1 236 1 326 1 290 2 500 1 385 2 327 1 367 1 253 1 475 1 359 1 476 1 382 2 413 1 269 2 331 1 218 1 374 1 297 2 358 1 3 1 27 1 29 1 32 1 36 1 43 1 53 1 54 1 55 1 62 1 63 1 80 1 103 1 119 1 125 1 131 1 169 1 175 1 196 1 208 1 229 1 238 1 248 1 262 1 299 1 334 1 340 1 343 1 347 1 366 1 391 1 393 1 397 1 410 1 411 1 412 1 442 1 445 1 461 1 474 1 477 1 478 1 496 1 
1 185 2 1 4 1 14 1 21 1 36 2 100 1 107 1 110 2 129 1 131 1 133 1 142 1 154 2 164 1 171 2 242 1 427 2 270 1 291 1 498 2 205 1 459 1 438 1 231 1 345 1 474 1 432 1 343 1 417 2 213 1 464 1 301 1 227 1 488 1 349 1 282 2 324 1 268 1 493 1 369 1 326 1 434 1 362 1 329 2 311 1 266 1 477 2 310 1 360 1 456 2 285 1 5 1 27 1 42 1 46 1 47 1 58 1 60 1 61 1 67 1 80 1 101 1 108 1 121 1 123 1 124 1 136 1 147 1 155 1 169 1 189 1 196 1 199 1 260 1 296 1 304 1 319 1 348 1 358 1 361 1 365 1 382 1 386 1 387 1 396 1 399 1 405 1 416 1 422 1 425 1 428 1 437 1 442 1 444 1 461 1 468 1 472 1 473 1 483 1 489 1 503 1 519 1 
1 198 1 2 13 1 18 1 24 1 31 1 33 2 46 1 49 1 64 1 76 1 77 1 90 1 93 1 97 2 101 1 105 1 112 1 115 1 123 1 131 1 134 1 138 1 140 1 146 2 148 1 163 1 168 2 172 1 174 2 182 1 203 1 204 1 334 1 494 1 234 1 411 1 270 1 452 2 501 1 326 1 482 1 273 1 370 1 362 1 335 1 465 1 367 2 241 1 462 1 363 1 247 1 285 1 256 1 424 1 257 1 479 1 475 2 387 1 303 1 379 1 330 1 488 1 275 1 287 1 298 2 340 1 6 1 19 1 20 1 34 1 42 1 59 1 62 1 63 1 72 1 78 1 80 1 91 1 95 1 136 1 141 1 142 1 147 1 152 1 171 1 183 1 196 1 207 1 226 1 228 1 265 1 282 1 309 1 310 1 317 1 320 1 333 1 342 1 346 1 353 1 359 1 364 1 372 1 385 1 386 1 396 1 413 1 415 1 437 1 448 1 460 1 464 1 466 1 467 1 490 1 508 1 509 1 
1 204 20 1 26 1 27 1 37 1 47 2 64 1 66 1 68 1 93 1 107 1 108 1 119 2 125 1 137 1 154 1 157 1 174 1 175 1 181 1 460 1 492 1 394 1 238 1 290 1 282 1 348 1 463 1 379 1 274 1 208 2 232 1 375 1 229 1 294 1 264 2 474 1 483 2 410 1 476 1 322 1 362 1 323 1 338 2 234 1 298 1 325 1 316 1 425 1 245 1 224 1 7 1 19 1 28 1 31 1 43 1 44 1 71 1 84 1 86 1 92 1 99 1 100 1 103 1 106 1 139 1 155 1 167 1 193 1 197 1 200 1 211 1 246 1 249 1 255 1 261 1 268 1 273 1 275 1 291 1 299 1 306 1 329 1 337 1 355 1 365 1 367 1 371 1 374 1 376 1 377 1 385 1 391 1 393 1 397 1 418 1 427 1 434 1 438 1 450 1 455 1 466 1 486 1 497 1 516 1 517 1 520 1 
1 212 14 1 17 1 28 1 40 1 65 1 69 1 81 1 82 1 97 1 99 1 100 1 102 1 108 1 113 2 115 2 118 1 123 1 136 1 137 1 142 2 149 1 151 1 162 1 168 1 170 1 175 1 176 1 178 1 475 1 434 1 465 1 299 1 307 1 336 1 462 1 257 1 431 1 368 1 391 1 405 1 291 1 500 1 346 1 451 1 450 1 455 1 424 1 428 1 230 2 296 1 277 1 490 1 281 2 419 1 426 1 259 1 449 1 379 1 229 1 4 1 9 1 26 1 36 1 41 1 50 1 70 1 73 1 78 1 80 1 87 1 94 1 122 1 127 1 148 1 152 1 154 1 171 1 179 1 202 1 205 1 208 1 209 1 216 1 265 1 280 1 300 1 301 1 303 1 311 1 312 1 316 1 321 1 328 1 344 1 378 1 418 1 420 1 427 1 458 1 463 1 473 1 487 1 493 1 506 1 509 1 517 1 
1 190 12 1 18 1 39 1 56 1 62 1 81 1 83 1 85 1 93 1 103 1 112 1 124 1 149 2 150 1 151 1 168 1 171 1 172 1 179 1 180 1 181 1 206 2 376 1 358 1 471 2 281 1 250 1 339 1 292 1 284 1 362 1 261 1 315 1 278 1 412 1 414 1 377 1 236 1 323 1 430 1 330 1 211 1 306 1 349 2 244 1 235 1 322 1 448 1 310 1 338 1 427 1 484 1 498 2 432 1 344 1 479 1 366 2 238 2 13 1 43 1 51 1 66 1 75 1 97 1 100 1 107 1 109 1 128 1 138 1 148 1 160 1 203 1 207 1 209 1 241 1 249 1 255 1 283 1 301 1 305 1 327 1 337 1 356 1 361 1 369 1 373 1 379 1 390 1 393 1 407 1 408 1 411 1 413 1 416 1 418 1 447 1 451 1 457 1 470 1 512 1 517 1 
1 205 28 1 29 1 55 1 59 1 82 2 91 1 102 1 108 1 113 1 115 1 118 1 135 1 137 2 146 1 147 1 158 1 167 1 182 1 194 1 195 1 299 2 326 1 232 1 391 1 270 1 431 1 442 1 438 2 313 1 368 1 341 2 386 1 426 1 231 1 254 2 329 1 476 1 417 1 266 1 399 1 461 1 353 1 459 1 330 1 416 1 371 1 267 1 323 1 282 1 280 1 318 1 235 2 403 1 448 1 445 1 432 1 357 1 393 1 233 1 250 2 457 1 452 2 25 1 32 1 45 1 47 1 68 1 76 1 90 1 117 1 119 1 130 1 132 1 142 1 145 1 150 1 162 1 169 1 207 1 208 1 216 1 237 1 249 1 253 1 272 1 286 1 293 1 295 1 297 1 304 1 340 1 347 1 362 1 376 1 384 1 413 1 436 1 456 1 478 1 480 1 490 1 491 1 506 1 510 1 517 1 
1 169 48 1 66 1 80 1 90 2 94 1 98 1 112 2 122 1 134 1 147 2 166 1 167 1 178 1 181 1 199 1 285 1 397 1 395 2 431 1 296 1 400 2 412 1 338 1 237 1 276 1 256 1 437 1 343 1 487 1 299 1 247 1 270 1 241 1 385 1 245 1 447 2 320 1 393 1 469 1 367 1 425 1 372 1 445 2 375 1 368 1 434 1 243 1 324 1 485 1 333 1 288 1 369 1 266 1 341 2 466 1 376 1 362 1 427 2 277 1 420 1 24 1 38 1 49 1 50 1 53 1 57 1 60 1 71 1 73 1 75 1 76 1 78 1 84 1 97 1 106 1 150 1 152 1 157 1 160 1 163 1 171 1 177 1 179 1 215 1 217 1 238 1 254 1 260 1 275 1 293 1 295 1 310 1 326 1 347 1 366 1 390 1 418 1 430 1 439 1 443 1 451 1 488 1 
1 205 5 1 7 1 8 2 9 1 26 1 37 1 48 1 63 1 66 1 74 1 80 1 84 1 106 1 110 2 114 1 129 1 130 2 135 1 142 1 143 1 154 1 161 1 165 1 177 1 188 1 189 1 208 1 379 1 442 1 468 1 490 2 417 1 243 1 390 1 452 1 432 1 410 1 431 2 470 1 500 1 473 1 339 1 484 1 367 1 352 1 440 1 212 1 345 1 346 1 401 1 298 1 340 1 480 1 368 1 325 1 404 1 446 1 434 1 477 1 264 1 386 2 289 1 272 1 378 1 489 1 14 1 21 1 27 1 36 1 38 1 54 1 55 1 67 1 75 1 76 1 79 1 82 1 83 1 86 1 100 1 109 1 112 1 122 1 133 1 134 1 136 1 159 1 206 1 215 1 232 1 250 1 261 1 266 1 267 1 281 1 306 1 318 1 324 1 333 1 348 1 385 1 389 1 398 1 402 1 403 1 407 1 412 1 423 1 427 1 428 1 430 1 444 1 450 1 457 1 481 1 488 1 502 1 503 1 516 1 
1 213 8 1 12 1 42 1 60 1 64 1 65 1 67 1 68 2 81 2 85 1 86 1 88 1 102 1 105 1 109 1 114 1 126 1 127 1 134 1 142 1 143 1 153 1 165 1 187 1 211 1 289 1 426 1 365 1 288 1 403 1 300 1 333 1 491 1 417 1 351 1 325 2 283 1 494 1 276 1 382 1 444 1 347 1 248 2 461 1 298 1 500 1 329 1 246 1 413 1 319 1 293 1 309 1 360 1 225 1 373 1 310 1 5 1 6 1 15 1 21 1 22 1 28 1 30 1 33 1 34 1 35 1 37 1 62 1 70 1 91 1 97 1 113 1 120 1 121 1 136 1 138 1 146 1 154 1 161 1 166 1 175 1 197 1 224 1 233 1 235 1 237 1 256 1 269 1 290 1 316 1 317 1 318 1 323 1 331 1 343 1 362 1 369 1 377 1 381 1 383 1 392 1 401 1 408 1 409 1 410 1 431 1 443 1 449 1 453 1 495 1 498 1 504 1 511 1 
1 200 3 2 4 1 6 1 18 1 35 1 43 1 58 1 63 1 70 1 80 1 85 1 86 1 90 1 92 1 93 1 107 1 108 1 109 1 124 1 133 1 139 1 146 2 150 1 166 1 180 1 183 1 204 1 331 2 346 1 455 1 476 1 235 1 353 1 484 1 280 1 290 1 373 1 362 1 347 1 454 1 214 1 491 1 274 1 271 1 456 1 278 1 459 1 385 2 243 1 354 1 242 2 489 1 247 1 321 1 316 2 390 1 7 1 10 1 11 1 22 1 25 1 65 1 82 1 105 1 114 1 116 1 119 1 125 1 132 1 155 1 170 1 171 1 172 1 189 1 216 1 253 1 269 1 296 1 324 1 339 1 343 1 357 1 367 1 372 1 384 1 387 1 391 1 407 1 411 1 413 1 431 1 440 1 453 1 470 1 478 1 480 1 482 1 486 1 501 1 505 1 
1 193 2 1 4 1 5 2 36 1 43 1 48 1 50 2 56 2 104 1 105 1 108 1 113 1 114 1 119 2 132 1 136 1 138 1 142 2 151 2 157 1 172 1 178 1 188 1 189 2 200 1 213 1 485 1 343 1 294 1 460 1 355 1 321 2 379 1 324 1 498 1 420 1 475 1 444 1 273 1 241 1 276 1 390 2 296 1 491 1 396 1 278 1 487 1 238 1 272 1 404 1 426 1 253 1 402 1 455 2 457 1 260 1 403 1 369 1 246 2 453 1 251 1 367 1 295 1 11 1 20 1 53 1 54 1 65 1 89 1 90 1 96 1 97 1 100 1 110 1 118 1 122 1 123 1 143 1 148 1 155 1 164 1 169 1 177 1 181 1 222 1 236 1 237 1 243 1 256 1 258 1 284 1 308 1 309 1 348 1 360 1 372 1 377 1 381 1 385 1 405 1 408 1 410 1 419 1 422 1 433 1 434 1 435 1 437 1 449 1 466 1 482 1 501 1 510 1 513 1 
1 187 5 1 12 1 60 1 69 1 93 1 104 2 108 1 119 1 125 1 135 1 150 2 156 1 159 1 176 1 177 2 182 1 187 1 271 1 293 1 351 1 458 1 363 1 329 1 266 1 298 2 383 1 443 1 369 2 480 1 419 1 472 1 473 1 313 1 394 1 390 1 450 2 460 1 429 1 297 1 409 1 388 2 342 1 470 2 367 1 11 1 14 1 18 1 24 1 28 1 32 1 33 1 41 1 42 1 48 1 57 1 61 1 63 1 75 1 80 1 87 1 88 1 105 1 110 1 130 1 136 1 174 1 185 1 186 1 210 1 211 1 218 1 239 1 244 1 248 1 267 1 280 1 302 1 303 1 310 1 317 1 321 1 325 1 353 1 355 1 357 1 360 1 368 1 375 1 382 1 402 1 404 1 411 1 412 1 425 1 438 1 448 1 449 1 478 1 489 1 500 1 517 1 518 1 
1 186 4 1 5 1 6 2 25 1 49 1 59 1 104 1 105 1 120 1 122 1 128 1 135 1 143 1 144 1 149 1 152 1 167 1 175 1 179 1 180 1 181 1 183 1 360 2 376 1 404 1 384 1 387 1 368 1 306 1 253 1 467 1 326 2 270 1 382 1 415 1 255 1 366 1 378 1 483 1 217 1 262 1 401 1 260 1 410 2 337 1 405 1 296 1 313 1 466 1 495 2 478 2 271 1 412 1 365 1 442 1 361 1 439 1 263 1 461 1 273 1 493 1 470 1 443 1 279 1 13 1 21 1 37 1 47 1 54 1 68 1 100 1 121 1 125 1 131 1 138 1 140 1 155 1 194 1 207 1 209 1 213 1 220 1 224 1 243 1 249 1 269 1 286 1 293 1 307 1 311 1 319 1 321 1 332 1 333 1 344 1 363 1 364 1 374 1 386 1 390 1 411 1 420 1 427 1 428 1 446 1 450 1 463 1 485 1 513 1 
1 244 6 2 25 1 32 1 33 1 35 2 47 1 50 1 62 1 67 1 82 1 86 1 95 1 106 1 107 1 110 1 115 1 126 1 131 1 135 1 142 1 153 1 156 1 166 1 172 2 177 1 183 1 189 1 216 1 265 2 492 1 419 1 341 1 286 1 320 1 269 2 346 1 283 1 496 1 501 2 315 1 421 2 369 1 482 1 408 1 380 1 370 1 319 1 336 1 398 1 385 1 494 1 241 1 449 1 323 1 3 1 5 1 27 1 34 1 42 1 49 1 53 1 56 1 61 1 71 1 91 1 116 1 123 1 146 1 159 1 171 1 179 1 184 1 210 1 225 1 258 1 275 1 284 1 288 1 299 1 324 1 326 1 332 1 352 1 357 1 361 1 366 1 373 1 374 1 377 1 387 1 390 1 392 1 396 1 400 1 406 1 410 1 411 1 413 1 416 1 417 1 425 1 429 1 432 1 454 1 461 1 474 1 476 1 478 1 483 1 491 1 493 1 512 1 513 1 514 1 519 1 
1 204 5 1 7 1 11 1 13 1 18 1 52 1 55 1 61 1 68 1 84 1 104 1 110 1 113 1 132 2 140 1 141 1 145 2 150 2 173 1 193 1 195 1 203 1 431 1 220 1 413 1 350 1 317 1 336 1 441 1 468 1 273 1 331 1 265 1 424 1 481 1 221 1 376 1 422 2 261 2 266 1 393 1 309 1 394 1 326 1 360 1 304 1 349 1 227 1 391 1 236 1 258 2 499 1 2 1 25 1 30 1 37 1 63 1 65 1 71 1 90 1 111 1 117 1 125 1 134 1 147 1 153 1 159 1 167 1 176 1 178 1 181 1 189 1 215 1 254 1 255 1 272 1 278 1 292 1 321 1 343 1 359 1 363 1 390 1 397 1 414 1 427 1 429 1 434 1 438 1 445 1 471 1 480 1 488 1 491 1 497 1 498 1 520 1 
1 212 5 1 10 1 20 1 24 1 26 1 58 2 63 1 66 1 79 2 109 1 111 1 114 1 128 1 132 1 136 1 143 1 149 2 152 1 192 2 196 1 199 1 344 1 451 1 277 1 340 1 321 1 269 1 498 1 310 1 338 1 268 1 374 1 317 1 309 1 496 1 224 1 365 1 453 1 316 1 382 1 445 1 427 2 407 1 281 1 474 1 477 1 313 1 475 1 412 1 235 1 381 1 336 1 411 1 500 1 19 1 36 1 37 1 38 1 65 1 93 1 104 1 107 1 124 1 125 1 134 1 140 1 155 1 156 1 161 1 175 1 177 1 182 1 185 1 188 1 191 1 223 1 238 1 280 1 297 1 304 1 308 1 323 1 328 1 333 1 337 1 341 1 342 1 357 1 363 1 371 1 379 1 403 1 406 1 409 1 416 1 418 1 424 1 436 1 446 1 452 1 456 1 470 1 493 1 499 1 503 1 511 1 520 1 
1 203 2 1 6 2 12 1 27 1 33 1 52 1 72 1 73 1 78 1 90 1 96 1 101 2 104 1 109 2 112 1 116 1 117 1 120 2 129 1 134 1 138 2 144 1 146 1 147 2 148 1 167 1 169 1 170 1 179 1 185 1 218 1 259 1 478 2 356 1 457 1 492 1 363 1 436 1 495 1 416 1 410 1 381 1 500 2 392 2 483 1 282 1 221 1 420 1 494 1 301 2 433 1 355 1 456 1 313 1 263 1 266 1 464 1 319 1 429 1 239 1 450 1 468 1 23 1 28 1 39 1 49 1 60 1 86 1 88 1 92 1 95 1 98 1 103 1 115 1 124 1 130 1 142 1 156 1 161 1 168 1 171 1 181 1 187 1 194 1 216 1 252 1 256 1 258 1 260 1 285 1 290 1 294 1 302 1 304 1 309 1 316 1 318 1 331 1 333 1 335 1 349 1 358 1 360 1 370 1 393 1 403 1 406 1 440 1 446 1 451 1 470 1 477 1 485 1 490 1 
1 202 8 1 24 1 38 1 39 1 78 1 100 1 114 1 122 1 123 2 132 1 150 1 153 1 156 1 165 1 168 1 196 2 197 2 200 1 218 1 220 1 329 1 277 1 363 2 467 1 484 2 445 1 359 2 282 1 320 1 226 1 434 1 324 1 321 1 233 1 456 1 266 1 335 1 482 1 349 1 455 1 241 1 400 1 475 1 393 1 260 2 257 1 353 1 370 1 247 1 343 1 313 1 470 1 12 1 34 1 46 1 49 1 66 1 70 1 93 1 95 1 97 1 102 1 108 1 124 1 134 1 145 1 160 1 164 1 173 1 181 1 183 1 185 1 199 1 201 1 202 1 252 1 264 1 265 1 270 1 273 1 288 1 296 1 297 1 307 1 309 1 314 1 317 1 319 1 327 1 330 1 356 1 358 1 378 1 387 1 444 1 447 1 450 1 454 1 461 1 471 1 473 1 480 1 496 1 
1 206 28 1 48 1 55 1 56 1 63 1 75 1 76 1 80 1 86 1 91 1 97 1 98 1 112 1 120 1 131 1 134 1 158 1 159 1 166 1 177 1 185 2 188 1 198 1 338 1 352 2 487 1 388 1 371 1 256 1 227 1 418 1 468 1 381 2 239 1 282 1 274 1 285 1 287 1 472 1 491 1 455 1 228 1 370 1 462 2 263 1 322 1 481 1 452 1 344 1 261 1 438 1 296 1 1 1 2 1 9 1 14 1 26 1 42 1 70 1 84 1 103 1 153 1 164 1 179 1 184 1 191 1 200 1 214 1 233 1 254 1 257 1 267 1 273 1 281 1 284 1 291 1 297 1 303 1 309 1 310 1 314 1 316 1 324 1 337 1 339 1 354 1 358 1 362 1 366 1 368 1 373 1 384 1 394 1 401 1 409 1 416 1 419 1 421 1 432 1 439 1 473 1 475 1 476 1 480 1 482 1 488 1 489 1 
1 192 9 1 23 1 39 2 41 1 44 1 51 1 67 1 78 1 90 2 101 1 104 1 118 2 123 1 134 1 148 1 175 1 186 1 188 1 191 1 484 1 492 1 317 1 295 1 337 1 424 1 327 1 404 2 480 1 371 1 470 2 369 1 292 1 436 1 439 1 396 1 350 1 402 1 300 1 467 1 367 1 364 2 268 1 346 1 231 1 258 1 354 1 374 1 267 1 309 1 403 1 482 1 240 1 13 1 15 1 34 1 60 1 69 1 87 1 94 1 96 1 109 1 116 1 121 1 125 1 126 1 130 1 158 1 161 1 168 1 177 1 193 1 202 1 219 1 234 1 248 1 254 1 282 1 285 1 288 1 312 1 318 1 328 1 340 1 370 1 382 1 392 1 393 1 408 1 413 1 414 1 415 1 425 1 426 1 430 1 433 1 440 1 453 1 457 1 461 1 485 1 500 1 
1 214 4 1 7 1 15 1 30 2 41 1 45 1 47 1 48 1 52 1 78 1 84 1 98 1 106 1 110 1 111 1 129 1 140 1 147 1 151 1 155 1 158 1 164 1 165 1 166 1 191 1 192 2 193 1 195 1 197 1 203 1 206 1 219 1 300 1 326 2 448 1 367 1 334 1 333 1 318 1 444 1 409 1 496 1 388 1 330 2 480 1 225 1 395 2 469 1 366 1 293 1 276 2 471 1 370 1 226 1 337 1 435 1 419 1 227 1 273 1 309 2 452 1 460 1 351 2 350 1 5 1 6 1 20 1 27 1 42 1 62 1 64 1 68 1 74 1 83 1 97 1 102 1 118 1 136 1 156 1 160 1 170 1 179 1 182 1 187 1 196 1 212 1 216 1 231 1 240 1 247 1 266 1 270 1 274 1 286 1 290 1 329 1 338 1 345 1 348 1 353 1 361 1 363 1 368 1 369 1 375 1 381 1 396 1 403 1 405 1 418 1 423 1 436 1 440 1 447 1 458 1 465 1 473 1 479 1 481 1 483 1 499 1 
1 217 1 1 3 1 15 1 16 1 20 1 37 1 58 1 63 1 72 1 78 1 80 1 90 2 93 2 109 1 127 1 129 1 134 1 136 2 143 1 151 1 164 1 175 1 176 1 186 1 198 1 212 1 224 1 301 1 431 1 313 2 447 1 226 1 487 1 418 1 364 1 275 1 339 1 433 1 465 1 320 1 428 1 227 1 400 2 405 1 463 1 435 2 404 1 412 1 359 2 291 1 350 1 332 1 248 1 18 1 22 1 24 1 31 1 34 1 39 1 40 1 48 1 66 1 68 1 76 1 103 1 123 1 124 1 140 1 146 1 163 1 165 1 172 1 197 1 201 1 217 1 231 1 235 1 256 1 260 1 267 1 274 1 276 1 283 1 297 1 303 1 309 1 314 1 338 1 370 1 374 1 377 1 387 1 407 1 413 1 416 1 432 1 442 1 445 1 450 1 470 1 474 1 480 1 493 1 501 1 506 1 508 1 513 1 
1 211 1 1 17 1 37 1 45 1 51 1 60 1 63 1 64 1 66 2 72 2 84 1 88 2 94 1 132 1 154 1 156 1 168 1 184 1 221 1 224 1 225 1 478 1 387 2 443 1 295 2 375 1 309 1 467 1 412 2 479 1 436 1 498 1 451 2 438 1 301 1 487 1 397 1 236 1 360 2 449 2 341 1 250 1 484 1 369 1 346 1 229 1 417 1 469 1 306 1 332 1 242 1 6 1 26 1 44 1 69 1 85 1 97 1 101 1 107 1 113 1 126 1 127 1 131 1 137 1 142 1 143 1 144 1 155 1 159 1 181 1 188 1 205 1 256 1 262 1 278 1 282 1 290 1 303 1 304 1 305 1 308 1 317 1 331 1 339 1 352 1 371 1 379 1 386 1 389 1 401 1 402 1 423 1 433 1 435 1 439 1 464 1 473 1 474 1 493 1 494 1 
1 214 8 2 11 1 18 1 19 1 35 1 41 1 67 1 69 1 76 1 82 2 96 2 107 1 114 1 124 1 130 1 149 1 154 1 163 2 175 1 176 1 179 1 193 1 204 1 218 1 222 1 224 1 225 1 343 1 339 1 458 1 379 1 465 1 418 1 321 1 280 1 230 1 377 2 430 1 235 1 330 1 286 1 383 1 325 1 351 2 265 1 414 1 229 1 471 1 247 1 487 1 403 1 412 1 240 1 289 1 395 1 388 1 281 1 277 1 303 1 242 1 311 1 5 1 12 1 17 1 29 1 39 1 48 1 50 1 68 1 73 1 95 1 101 1 115 1 129 1 150 1 168 1 170 1 181 1 187 1 192 1 232 1 261 1 271 1 284 1 292 1 315 1 331 1 337 1 357 1 360 1 376 1 382 1 393 1 394 1 397 1 399 1 400 1 405 1 407 1 428 1 437 1 438 1 463 1 466 1 475 1 483 1 496 1 501 1 
1 208 4 1 10 1 18 1 33 1 36 2 37 1 39 2 45 1 68 1 76 1 77 1 87 1 95 1 101 2 104 1 106 1 119 1 121 1 125 1 150 1 165 1 168 1 182 1 183 1 193 1 222 1 367 1 294 1 403 1 491 1 494 1 486 1 500 1 353 1 453 1 287 1 275 1 393 1 477 2 298 1 329 1 343 1 336 1 493 1 346 1 239 1 384 1 385 1 465 1 261 1 392 1 357 1 400 1 300 1 406 1 309 1 434 1 7 1 42 1 46 1 70 1 71 1 82 1 105 1 115 1 133 1 143 1 154 1 159 1 163 1 170 1 176 1 187 1 191 1 192 1 197 1 200 1 205 1 234 1 244 1 260 1 279 1 280 1 283 1 302 1 307 1 314 1 320 1 323 1 347 1 356 1 362 1 368 1 378 1 381 1 394 1 410 1 417 1 419 1 420 1 442 1 443 1 444 1 447 1 468 1 474 1 485 1 496 1 504 1 
1 197 6 1 22 1 25 1 46 1 47 1 60 1 62 1 64 1 88 1 92 1 98 1 100 1 101 1 108 1 111 1 113 1 117 1 126 1 132 1 135 1 154 2 163 1 164 2 165 1 171 1 206 1 207 1 226 1 227 1 289 1 311 1 352 1 425 1 277 1 402 2 233 1 421 1 364 2 359 1 427 1 292 1 458 1 438 1 445 1 409 1 457 2 331 1 345 1 366 2 448 1 423 1 267 1 405 1 356 1 419 1 459 1 381 1 310 1 5 1 21 1 37 1 40 1 54 1 69 1 82 1 89 1 110 1 115 1 128 1 142 1 146 1 157 1 172 1 181 1 185 1 193 1 194 1 196 1 203 1 262 1 276 1 280 1 297 1 307 1 318 1 319 1 339 1 343 1 353 1 357 1 360 1 387 1 389 1 397 1 424 1 440 1 468 1 470 1 472 1 481 1 482 1 483 1 486 1 487 1 490 1 515 1 
1 189 13 1 23 1 24 1 33 1 35 1 36 2 42 1 43 1 50 1 57 2 60 2 72 1 78 1 93 1 112 1 113 1 123 2 127 1 134 1 141 1 157 1 163 1 178 1 207 2 227 1 482 1 437 1 395 1 317 1 360 1 305 1 339 1 405 1 315 1 266 1 391 1 268 1 372 1 450 1 341 2 273 1 497 1 307 1 454 2 382 1 261 1 367 1 334 1 400 2 336 1 490 1 413 1 430 1 311 1 283 1 363 1 475 1 426 2 337 1 441 1 4 1 10 1 15 1 21 1 22 1 44 1 47 1 55 1 68 1 69 1 81 1 85 1 86 1 91 1 94 1 95 1 102 1 125 1 131 1 136 1 137 1 147 1 167 1 176 1 177 1 183 1 184 1 185 1 232 1 239 1 241 1 247 1 257 1 276 1 277 1 280 1 285 1 290 1 296 1 303 1 322 1 342 1 345 1 352 1 353 1 357 1 369 1 370 1 374 1 375 1 385 1 387 1 392 1 404 1 406 1 418 1 446 1 457 1 460 1 467 1 468 1 483 1 489 1 494 1 
1 210 1 1 2 1 18 1 30 2 64 2 71 1 80 1 140 1 147 1 150 1 155 1 158 1 164 1 170 2 171 1 172 1 177 1 178 1 182 1 195 2 199 1 204 1 209 1 223 1 412 1 337 2 269 1 340 1 498 1 436 1 407 1 361 1 345 2 277 1 393 1 449 1 328 1 235 2 416 1 366 1 484 1 347 1 354 1 389 1 311 1 463 1 427 1 273 1 316 1 468 1 276 1 415 1 292 1 322 1 428 1 11 1 29 1 54 1 82 1 91 1 92 1 97 1 105 1 108 1 148 1 152 1 162 1 165 1 180 1 200 1 224 1 225 1 233 1 241 1 275 1 281 1 285 1 287 1 290 1 296 1 299 1 301 1 318 1 333 1 348 1 353 1 369 1 398 1 402 1 405 1 442 1 444 1 450 1 459 1 460 1 477 1 486 1 490 1 491 1 493 1 504 1 511 1 
1 190 25 1 43 1 44 2 45 1 51 1 52 1 64 1 65 1 81 1 84 1 89 1 99 1 100 1 101 1 107 1 110 1 146 1 171 1 176 1 187 1 191 2 192 1 193 1 197 1 206 1 209 1 302 1 313 1 392 1 440 1 281 1 433 1 277 1 374 1 262 1 404 1 342 1 494 1 331 1 371 1 499 2 367 1 405 1 355 2 380 1 363 1 345 1 372 1 236 1 260 1 234 1 319 1 432 1 423 1 464 1 268 1 364 1 347 1 241 1 361 1 282 1 325 1 422 1 481 1 12 1 14 1 15 1 22 1 23 1 27 1 29 1 33 1 34 1 42 1 47 1 48 1 58 1 62 1 73 1 76 1 90 1 95 1 106 1 117 1 121 1 125 1 128 1 129 1 130 1 136 1 156 1 160 1 162 1 166 1 174 1 199 1 211 1 227 1 230 1 242 1 280 1 284 1 288 1 296 1 311 1 314 1 324 1 327 1 340 1 349 1 351 1 356 1 384 1 424 1 427 1 437 1 471 1 
1 201 6 1 8 1 14 1 17 1 24 1 30 1 37 1 42 1 45 1 49 1 50 1 75 1 92 1 110 2 111 1 114 1 124 1 126 1 130 1 135 1 142 1 158 1 162 2 167 1 169 1 186 1 194 1 196 1 198 1 201 1 209 1 221 1 229 1 358 1 282 1 415 1 286 1 464 1 440 1 270 2 289 1 388 2 248 1 339 2 315 1 352 1 312 2 402 1 281 1 454 1 246 1 314 1 241 1 326 1 461 1 501 1 336 2 470 1 362 1 306 1 484 1 273 1 379 1 394 1 15 1 23 1 38 1 51 1 52 1 56 1 60 1 76 1 81 1 85 1 86 1 118 1 123 1 140 1 163 1 190 1 200 1 212 1 222 1 231 1 237 1 243 1 268 1 283 1 294 1 309 1 337 1 341 1 353 1 357 1 371 1 373 1 400 1 407 1 414 1 417 1 420 1 421 1 425 1 437 1 447 1 455 1 458 1 480 1 490 1 497 1 511 1 
1 214 32 1 50 2 51 1 56 1 66 2 88 1 89 1 91 1 102 1 108 1 116 1 122 1 131 1 162 1 167 1 188 1 200 2 202 1 205 1 206 1 232 1 448 1 444 1 329 1 284 1 311 1 333 1 332 1 272 1 447 2 342 1 464 1 397 1 402 1 434 1 387 1 501 1 324 2 478 2 271 1 274 1 401 1 359 1 400 1 285 1 395 2 280 1 459 1 307 1 468 2 495 1 13 1 24 1 33 1 35 1 37 1 38 1 46 1 57 1 58 1 68 1 77 1 81 1 94 1 95 1 111 1 112 1 121 1 127 1 133 1 152 1 156 1 158 1 166 1 174 1 187 1 192 1 195 1 197 1 201 1 223 1 228 1 249 1 255 1 261 1 267 1 279 1 281 1 289 1 290 1 294 1 309 1 317 1 334 1 347 1 354 1 374 1 376 1 389 1 414 1 430 1 453 1 462 1 465 1 488 1 492 1 
1 198 7 2 19 1 22 1 27 1 30 2 44 1 63 1 74 2 79 1 99 1 100 1 119 1 122 1 125 1 144 1 148 1 157 1 182 1 184 1 194 1 198 1 208 1 209 2 213 1 219 1 227 1 231 2 368 1 344 1 325 1 493 1 351 1 334 1 482 1 461 1 495 1 484 1 398 2 323 1 373 2 470 2 308 2 369 1 287 1 494 1 379 1 452 2 384 1 478 1 271 1 367 1 397 1 342 2 6 1 9 1 20 1 28 1 33 1 39 1 42 1 47 1 67 1 90 1 117 1 123 1 129 1 141 1 146 1 155 1 169 1 183 1 193 1 196 1 212 1 225 1 238 1 258 1 284 1 295 1 300 1 319 1 337 1 343 1 346 1 357 1 358 1 361 1 374 1 388 1 391 1 405 1 409 1 418 1 426 1 429 1 441 1 451 1 456 1 463 1 467 1 471 1 473 1 481 1 489 1 490 1 499 1 507 1 511 1 
1 189 8 1 12 1 19 2 48 1 52 1 66 1 82 1 86 1 138 1 159 1 160 1 168 1 176 2 189 1 190 1 194 1 203 1 208 1 218 1 226 1 232 1 411 1 468 1 267 1 482 1 323 1 362 1 341 1 329 1 432 1 361 1 376 1 388 1 262 1 356 1 385 1 412 1 478 1 238 1 491 1 249 1 353 1 477 1 278 1 275 1 297 1 397 1 439 1 386 1 288 1 312 1 303 2 387 1 441 1 5 1 20 1 42 1 51 1 63 1 68 1 72 1 73 1 76 1 80 1 98 1 100 1 104 1 114 1 132 1 140 1 141 1 142 1 144 1 145 1 188 1 197 1 198 1 214 1 247 1 265 1 271 1 286 1 289 1 300 1 307 1 314 1 330 1 337 1 340 1 344 1 355 1 363 1 364 1 383 1 393 1 400 1 402 1 409 1 410 1 446 1 457 1 474 1 476 1 485 1 494 1 497 1 
1 177 14 1 19 1 20 1 21 1 24 1 29 2 35 1 43 1 48 1 61 1 66 1 85 1 91 1 93 1 101 1 110 1 113 1 116 1 135 1 149 1 150 1 153 2 174 1 181 2 210 1 439 1 425 2 351 1 269 1 429 1 453 2 364 1 327 1 404 1 476 1 267 1 243 1 395 1 446 1 245 1 306 2 264 1 293 1 468 1 371 1 289 1 322 1 391 1 430 1 246 1 334 1 302 1 444 1 478 1 449 1 294 1 304 1 3 1 4 1 7 1 9 1 13 1 26 1 33 1 88 1 94 1 99 1 106 1 107 1 108 1 119 1 125 1 126 1 131 1 142 1 148 1 172 1 177 1 184 1 191 1 194 1 209 1 212 1 214 1 233 1 244 1 262 1 271 1 278 1 279 1 292 1 310 1 311 1 356 1 372 1 378 1 387 1 400 1 403 1 406 1 410 1 414 1 418 1 442 1 460 1 462 1 463 1 483 1 489 1 491 1 492 1 500 1 511 1 
1 225 5 1 22 1 49 1 58 2 61 1 64 1 75 1 76 1 89 1 90 1 105 1 116 1 144 2 149 1 151 1 167 1 168 1 171 1 172 1 190 1 193 2 199 1 201 1 206 1 208 2 214 1 236 1 458 1 475 1 350 1 479 1 392 1 443 1 296 1 373 1 317 1 273 1 418 2 426 1 497 1 275 1 389 1 444 1 247 1 498 2 263 1 302 1 351 1 348 1 446 1 464 1 272 1 367 1 301 1 244 1 407 1 323 1 311 1 314 2 342 1 7 1 13 1 45 1 54 1 81 1 93 1 106 1 118 1 123 1 161 1 170 1 178 1 189 1 203 1 210 1 219 1 235 1 250 1 252 1 265 1 269 1 270 1 278 1 279 1 287 1 288 1 293 1 315 1 320 1 322 1 324 1 334 1 336 1 349 1 353 1 365 1 371 1 375 1 398 1 401 1 404 1 414 1 419 1 424 1 432 1 435 1 437 1 454 1 455 1 459 1 486 1 492 1 505 1 514 1 517 1 
1 210 17 1 20 1 30 1 40 1 48 1 65 1 79 1 80 1 81 1 89 1 115 1 120 2 135 1 137 1 138 1 140 1 146 1 151 2 162 2 173 1 187 1 191 1 195 2 199 1 220 1 222 1 228 1 478 1 310 1 419 1 474 1 316 2 329 1 385 1 445 1 314 2 412 1 434 1 345 1 281 1 322 1 376 1 497 1 324 1 355 1 341 1 488 1 326 1 349 1 407 1 353 2 383 1 453 1 315 1 373 1 457 1 266 1 439 1 499 1 253 1 382 1 455 1 14 1 22 1 24 1 36 1 56 1 61 1 94 1 98 1 109 1 111 1 124 1 126 1 134 1 154 1 166 1 177 1 181 1 184 1 215 1 230 1 252 1 265 1 272 1 280 1 290 1 302 1 323 1 325 1 330 1 351 1 396 1 406 1 409 1 413 1 425 1 426 1 427 1 433 1 452 1 454 1 459 1 516 1 
1 204 15 1 24 1 27 1 40 1 49 1 70 1 82 2 87 1 97 1 101 2 132 1 134 1 135 1 142 1 145 1 146 1 153 1 155 1 165 1 169 1 175 1 179 1 223 1 227 1 308 1 382 1 447 1 427 1 446 1 275 1 415 2 328 1 462 2 464 1 386 2 474 1 361 1 435 1 496 1 358 1 419 1 303 1 242 1 377 1 283 1 432 1 398 1 436 1 381 1 423 1 401 1 421 1 478 1 375 1 482 2 466 1 491 1 4 1 19 1 22 1 30 1 37 1 46 1 50 1 58 1 80 1 85 1 86 1 108 1 114 1 121 1 122 1 139 1 152 1 166 1 170 1 171 1 172 1 173 1 192 1 201 1 224 1 251 1 273 1 288 1 314 1 332 1 342 1 346 1 348 1 352 1 357 1 364 1 373 1 385 1 387 1 397 1 400 1 410 1 412 1 422 1 458 1 477 1 480 1 481 1 485 1 494 1 
1 208 3 1 10 2 18 1 40 1 46 1 47 1 48 2 64 1 69 1 78 2 81 1 102 1 108 1 114 1 116 1 119 1 139 1 141 1 144 1 149 1 170 1 171 1 175 1 179 1 186 1 191 1 198 1 199 1 202 2 205 1 210 1 214 1 217 1 221 1 232 1 233 1 483 1 381 1 445 1 288 1 248 1 492 1 439 1 430 1 266 2 345 1 329 1 309 1 337 1 350 1 418 1 283 1 390 1 481 1 298 1 296 1 457 1 392 2 405 1 330 1 11 1 13 1 27 1 32 1 37 1 38 1 42 1 52 1 53 1 61 1 70 1 84 1 87 1 88 1 92 1 94 1 95 1 137 1 143 1 147 1 151 1 165 1 168 1 172 1 177 1 192 1 208 1 230 1 231 1 253 1 274 1 282 1 311 1 365 1 368 1 372 1 403 1 409 1 410 1 415 1 419 1 421 1 451 1 453 1 460 1 480 1 484 1 490 1 496 1 509 1 
1 209 15 1 18 1 23 1 52 1 58 2 62 1 65 1 95 1 98 2 101 1 107 1 124 1 147 2 148 1 150 1 155 1 163 1 188 2 200 2 202 1 204 1 213 2 226 1 227 1 240 1 442 1 265 1 473 1 440 1 384 1 267 2 475 1 391 1 455 1 386 1 402 1 294 1 377 1 300 2 481 1 369 1 501 1 311 1 281 1 373 1 387 1 329 1 405 1 453 2 432 2 309 1 316 1 346 1 379 1 6 1 7 1 8 1 44 1 48 1 59 1 64 1 97 1 117 1 154 1 157 1 177 1 179 1 232 1 246 1 247 1 250 1 266 1 272 1 277 1 303 1 308 1 312 1 317 1 330 1 334 1 342 1 352 1 365 1 376 1 385 1 390 1 400 1 403 1 409 1 412 1 421 1 433 1 445 1 448 1 462 1 474 1 484 1 486 1 491 1 500 1 520 1 
1 180 15 2 26 1 44 1 49 1 51 1 62 1 63 1 67 2 75 1 85 1 112 1 118 1 126 2 146 1 156 1 169 1 174 1 195 1 202 1 203 1 210 1 211 1 213 1 237 1 496 1 421 1 409 2 335 1 402 1 419 1 463 1 354 1 344 1 422 1 332 2 477 2 454 1 442 1 345 1 479 1 352 1 270 1 377 1 296 1 374 1 328 1 449 1 313 1 426 1 323 1 247 1 406 1 394 1 267 1 306 1 248 2 373 2 256 1 3 1 9 1 16 1 17 1 20 1 29 1 32 1 35 1 38 1 43 1 54 1 55 1 74 1 80 1 96 1 99 1 101 1 103 1 107 1 110 1 115 1 122 1 132 1 133 1 136 1 143 1 147 1 148 1 150 1 167 1 172 1 175 1 181 1 189 1 192 1 193 1 214 1 216 1 233 1 271 1 290 1 304 1 316 1 321 1 336 1 338 1 339 1 360 1 365 1 367 1 371 1 372 1 379 1 395 1 403 1 413 1 417 1 424 1 432 1 436 1 446 1 461 1 473 1 484 1 501 1 519 1 521 1 
1 205 8 1 13 2 23 1 24 1 31 1 36 1 41 2 52 1 71 1 72 1 82 1 86 1 115 1 124 1 135 1 138 1 140 1 152 1 157 1 174 1 180 1 187 1 189 1 197 1 208 1 238 1 397 1 308 2 452 1 291 1 354 1 421 1 448 1 395 1 340 1 414 1 464 1 364 1 304 1 432 2 426 1 315 1 480 1 295 1 360 1 346 1 409 1 342 1 286 1 389 1 341 1 374 2 352 1 262 1 387 1 457 1 444 2 279 1 428 2 37 1 38 1 61 1 64 1 75 1 84 1 88 1 89 1 97 1 102 1 104 1 107 1 110 1 117 1 127 1 134 1 141 1 147 1 173 1 186 1 215 1 228 1 237 1 246 1 268 1 277 1 284 1 293 1 299 1 302 1 362 1 383 1 384 1 390 1 402 1 415 1 424 1 442 1 449 1 456 1 470 1 482 1 483 1 488 1 493 1 496 1 
1 201 15 1 20 1 35 1 41 1 48 1 56 1 57 1 59 1 63 2 70 1 92 1 98 1 114 1 147 1 151 1 158 1 159 1 173 1 177 1 178 1 182 1 189 1 194 2 198 1 200 1 202 1 206 1 210 1 237 1 377 1 437 1 446 2 291 1 449 1 336 1 444 1 359 1 501 1 286 1 426 1 281 1 339 1 491 1 368 1 427 1 460 1 406 1 397 1 290 1 344 1 408 1 326 2 353 1 431 1 299 1 411 1 335 2 289 1 421 1 416 1 248 2 4 1 6 1 9 1 10 1 25 1 40 1 43 1 50 1 60 1 64 1 80 1 83 1 84 1 85 1 104 1 122 1 144 1 185 1 197 1 249 1 250 1 251 1 268 1 293 1 307 1 316 1 319 1 328 1 330 1 337 1 340 1 342 1 349 1 352 1 356 1 370 1 372 1 379 1 380 1 382 1 399 1 447 1 452 1 461 1 466 1 471 1 477 1 478 1 484 1 486 1 488 1 492 1 500 1 
1 183 17 1 50 1 69 2 79 1 84 1 92 1 94 2 105 1 110 1 120 1 123 1 130 1 141 1 161 2 183 1 187 1 199 1 212 1 214 2 233 1 237 1 373 1 472 1 414 1 270 1 347 1 469 1 407 1 461 1 451 1 310 1 477 1 309 1 345 1 367 1 344 1 311 1 408 2 447 2 275 1 388 1 392 1 396 1 361 1 277 1 374 1 412 1 432 1 371 2 290 1 360 1 429 1 368 1 335 2 395 1 1 1 18 1 37 1 51 1 54 1 63 1 81 1 96 1 100 1 111 1 117 1 121 1 125 1 143 1 152 1 172 1 179 1 192 1 193 1 196 1 201 1 206 1 242 1 244 1 257 1 274 1 281 1 307 1 322 1 325 1 341 1 359 1 372 1 375 1 380 1 381 1 383 1 393 1 397 1 398 1 401 1 425 1 441 1 442 1 452 1 455 1 482 1 488 1 
1 190 23 1 24 1 37 1 38 2 42 1 43 1 46 1 48 1 59 1 68 1 73 1 85 1 100 1 116 1 117 1 124 1 129 1 149 2 159 1 165 1 183 1 193 1 197 1 198 1 200 1 205 1 210 1 213 1 221 1 227 1 238 1 243 1 320 1 392 1 271 1 401 1 312 1 402 1 423 2 497 1 306 1 277 1 496 1 429 1 280 1 471 1 481 1 493 1 269 2 351 2 310 1 285 1 409 1 250 1 303 1 459 2 288 1 428 1 405 1 348 1 414 1 453 1 12 1 26 1 29 1 31 1 47 1 52 1 58 1 60 1 62 1 71 1 82 1 83 1 102 1 110 1 143 1 145 1 146 1 148 1 152 1 156 1 170 1 172 1 176 1 177 1 184 1 186 1 224 1 230 1 236 1 242 1 258 1 289 1 290 1 302 1 308 1 311 1 326 1 327 1 329 1 331 1 354 1 358 1 368 1 372 1 378 1 383 1 386 1 408 1 431 1 448 1 451 1 452 1 455 1 458 1 469 1 472 1 476 1 479 1 489 1 495 1 514 1 
1 219 2 1 7 1 12 1 23 1 39 1 40 1 45 1 47 1 57 1 78 1 82 1 92 1 98 1 105 1 106 1 118 1 119 1 136 1 147 1 152 1 156 1 163 2 164 1 168 1 169 1 171 1 178 1 183 1 187 1 197 2 212 2 225 1 233 1 241 1 243 2 245 2 347 1 377 2 437 1 407 1 467 2 436 1 411 1 433 1 287 1 320 2 282 1 274 2 477 1 440 2 276 1 330 1 392 1 381 1 297 1 464 1 317 1 435 1 311 1 483 1 364 1 321 2 491 1 5 1 17 1 29 1 35 1 41 1 50 1 55 1 75 1 80 1 86 1 88 1 113 1 128 1 146 1 151 1 166 1 181 1 185 1 192 1 194 1 201 1 203 1 215 1 223 1 261 1 264 1 273 1 298 1 301 1 306 1 322 1 327 1 339 1 349 1 355 1 360 1 378 1 379 1 388 1 394 1 398 1 409 1 412 1 422 1 431 1 439 1 445 1 446 1 452 1 472 1 479 1 485 1 490 1 519 1 
1 210 15 1 17 1 19 1 49 1 52 1 72 1 76 1 82 2 87 1 101 1 107 1 113 1 131 1 138 1 168 1 169 2 173 1 176 1 178 1 179 1 184 1 201 1 236 1 430 1 495 1 374 1 405 1 413 1 401 1 366 1 391 1 343 1 378 1 446 1 337 1 419 1 336 2 365 1 441 1 356 1 329 2 303 1 363 1 362 1 394 1 300 1 367 1 403 1 497 2 307 1 368 1 360 1 278 1 473 1 5 1 10 1 16 1 31 1 32 1 34 1 37 1 44 1 47 1 48 1 88 1 100 1 103 1 134 1 142 1 149 1 195 1 199 1 202 1 206 1 208 1 209 1 216 1 234 1 245 1 281 1 297 1 299 1 305 1 318 1 322 1 327 1 347 1 361 1 372 1 376 1 377 1 388 1 396 1 411 1 427 1 436 1 452 1 455 1 456 1 462 1 467 1 469 1 487 1 488 1 498 1 505 1 507 1 518 1 521 1 
1 191 2 1 5 2 24 1 37 1 56 2 59 2 71 2 85 1 102 1 106 1 112 1 138 1 145 1 184 1 192 1 196 1 208 1 209 2 226 1 247 1 443 1 461 1 306 1 426 2 448 1 491 1 468 1 289 1 318 2 302 1 351 1 428 1 454 1 413 1 310 1 273 1 453 1 372 1 490 1 416 1 398 1 285 2 471 1 297 2 356 1 407 2 483 1 381 1 364 1 294 1 470 1 312 1 445 1 463 1 4 1 8 1 11 1 17 1 32 1 34 1 83 1 87 1 88 1 89 1 92 1 105 1 110 1 115 1 133 1 143 1 157 1 161 1 162 1 167 1 173 1 174 1 200 1 201 1 211 1 238 1 242 1 245 1 261 1 274 1 291 1 303 1 304 1 313 1 316 1 326 1 338 1 342 1 363 1 371 1 375 1 377 1 388 1 402 1 415 1 419 1 425 1 430 1 439 1 440 1 462 1 466 1 488 1 493 1 498 1 511 1 
1 196 1 1 4 1 16 1 22 1 39 1 49 1 50 2 56 1 62 1 71 1 72 1 73 1 89 1 93 1 102 1 105 1 107 1 109 1 121 1 146 1 148 2 165 1 166 1 175 1 178 1 184 1 191 1 214 1 360 1 403 1 318 1 423 2 280 1 285 2 441 1 331 1 491 1 449 1 421 1 380 1 436 1 446 1 375 1 377 1 420 1 258 1 324 1 399 1 442 1 480 1 279 1 492 1 332 1 424 1 445 1 286 1 439 1 488 1 438 1 17 1 19 1 20 1 28 1 55 1 69 1 86 1 91 1 117 1 128 1 129 1 156 1 157 1 161 1 167 1 179 1 196 1 202 1 240 1 245 1 255 1 260 1 278 1 282 1 295 1 309 1 327 1 342 1 373 1 374 1 408 1 432 1 440 1 453 1 470 1 472 1 473 1 476 1 486 1 490 1 506 1 507 1 508 1 517 1 
1 194 4 1 46 1 49 2 51 1 58 2 61 1 77 1 83 1 90 2 103 1 120 2 122 1 123 1 126 2 128 1 155 1 159 1 160 1 163 1 164 1 174 2 180 1 185 1 189 2 202 1 479 1 282 2 484 1 365 1 339 2 410 1 364 1 409 1 398 1 462 1 387 1 318 2 450 1 366 1 440 1 293 1 438 1 263 1 470 1 266 1 319 1 464 1 390 1 292 1 444 1 12 1 18 1 36 1 41 1 43 1 45 1 85 1 87 1 92 1 95 1 96 1 99 1 102 1 107 1 108 1 111 1 114 1 116 1 129 1 148 1 157 1 162 1 167 1 169 1 176 1 195 1 220 1 221 1 238 1 239 1 281 1 295 1 301 1 302 1 303 1 307 1 312 1 325 1 331 1 336 1 340 1 369 1 375 1 391 1 418 1 420 1 424 1 425 1 431 1 456 1 457 1 458 1 468 1 469 1 472 1 475 1 481 1 483 1 498 1 502 1 
1 209 1 1 13 2 18 1 21 1 28 1 34 1 36 1 41 2 42 1 43 2 46 1 50 1 53 1 73 2 79 1 87 1 91 2 92 2 105 1 106 1 126 1 136 1 144 1 145 1 147 1 149 1 159 1 162 1 167 1 169 1 183 1 200 2 203 1 214 1 216 1 239 1 428 1 436 2 433 1 395 1 444 1 380 1 429 1 354 1 467 1 356 2 297 1 352 1 420 1 372 1 300 1 264 1 463 1 408 1 485 1 304 2 460 1 445 2 422 1 335 1 501 1 496 1 298 2 363 1 266 1 4 1 10 1 19 1 20 1 56 1 74 1 86 1 109 1 131 1 151 1 165 1 172 1 176 1 180 1 184 1 199 1 201 1 209 1 213 1 241 1 283 1 290 1 327 1 344 1 353 1 360 1 386 1 399 1 402 1 405 1 413 1 438 1 456 1 466 1 507 1 520 1 
1 194 17 1 21 2 31 1 34 1 35 1 47 1 57 1 73 1 74 1 89 1 92 1 106 1 111 1 126 1 127 1 131 1 146 1 149 1 152 2 153 1 154 1 170 1 181 1 186 1 203 1 209 2 321 2 310 1 358 1 343 1 474 1 319 1 384 1 308 2 341 1 290 1 317 1 334 1 259 1 345 1 458 1 377 1 311 1 400 1 387 1 300 1 363 1 418 1 331 1 447 1 288 1 261 1 274 1 325 1 410 1 450 1 271 1 466 1 496 1 23 1 33 1 39 1 66 1 67 1 68 1 69 1 81 1 82 1 87 1 91 1 93 1 100 1 124 1 129 1 135 1 141 1 147 1 168 1 191 1 195 1 210 1 218 1 222 1 223 1 268 1 320 1 322 1 329 1 332 1 347 1 355 1 366 1 371 1 374 1 376 1 381 1 386 1 388 1 389 1 404 1 411 1 424 1 435 1 438 1 477 1 479 1 484 1 
1 205 13 1 19 1 25 1 27 1 47 1 82 1 98 2 101 1 104 1 109 1 114 1 118 1 124 2 129 1 130 1 140 2 149 1 156 1 157 1 160 1 169 1 172 1 216 1 404 1 365 1 387 1 301 1 462 1 382 1 328 2 370 1 300 1 471 1 258 1 460 1 364 1 291 1 449 1 384 1 453 2 414 1 268 1 385 1 303 2 411 1 487 1 422 1 482 1 345 1 346 2 456 1 498 1 467 2 322 1 339 1 318 2 436 1 295 1 340 1 4 1 10 1 22 1 49 1 54 1 56 1 64 1 78 1 89 1 92 1 106 1 110 1 123 1 146 1 151 1 162 1 173 1 179 1 191 1 206 1 208 1 218 1 234 1 251 1 271 1 294 1 304 1 305 1 306 1 330 1 336 1 338 1 343 1 352 1 363 1 378 1 379 1 386 1 392 1 413 1 419 1 420 1 424 1 426 1 427 1 428 1 434 1 445 1 459 1 465 1 472 1 489 1 494 1 496 1 505 1 508 1 
1 193 18 1 21 1 50 1 54 1 55 1 60 1 69 1 77 1 116 1 118 1 121 1 127 2 133 2 144 1 145 1 155 1 163 1 170 1 177 2 185 1 194 1 198 1 205 1 210 1 222 1 243 1 293 1 472 1 492 1 468 2 454 1 342 1 461 1 357 1 383 1 426 1 298 1 498 1 494 1 330 1 480 1 388 1 387 1 411 1 430 2 362 1 266 1 354 1 288 1 320 1 316 1 420 1 460 1 466 1 347 1 436 1 473 1 340 1 9 1 12 1 13 1 24 1 25 1 27 1 52 1 56 1 57 1 64 1 71 1 75 1 84 1 95 1 97 1 107 1 108 1 120 1 148 1 153 1 154 1 157 1 162 1 164 1 176 1 183 1 186 1 187 1 199 1 212 1 214 1 220 1 225 1 226 1 269 1 283 1 296 1 299 1 312 1 313 1 326 1 327 1 343 1 344 1 349 1 360 1 369 1 373 1 374 1 377 1 381 1 384 1 392 1 395 1 397 1 402 1 409 1 415 1 424 1 427 1 449 1 455 1 467 1 469 1 476 1 497 1 514 1 515 1 518 1 
1 199 7 1 31 1 32 1 42 2 45 2 46 1 55 1 65 1 76 2 80 1 83 1 95 1 106 1 118 1 119 1 125 1 131 1 132 1 135 1 139 1 147 2 151 1 160 1 169 1 172 1 183 1 205 1 207 1 221 1 317 1 416 1 371 1 334 1 343 1 360 1 477 1 418 1 435 1 463 1 322 1 476 1 462 1 424 1 429 2 286 1 303 2 486 2 448 1 481 1 258 2 378 1 430 2 485 1 273 1 444 1 396 2 469 1 6 1 8 1 10 1 14 1 39 1 82 1 87 1 88 1 120 1 124 1 143 1 149 1 153 1 165 1 171 1 177 1 189 1 196 1 222 1 230 1 246 1 292 1 295 1 301 1 306 1 316 1 320 1 323 1 324 1 344 1 346 1 375 1 391 1 398 1 410 1 447 1 454 1 456 1 482 1 488 1 493 1 494 1 497 1 498 1 499 1 501 1 519 1 
1 210 1 1 6 1 9 1 24 2 28 1 29 1 31 1 41 1 42 1 46 2 55 1 81 1 84 1 92 1 93 2 99 1 103 1 105 1 115 1 119 1 146 1 167 1 168 1 175 1 179 1 189 1 198 1 218 2 223 1 251 1 255 1 257 2 285 2 491 1 324 1 422 2 351 1 295 1 330 1 360 2 383 1 307 1 465 2 342 1 424 1 368 1 374 1 261 1 314 1 287 1 352 1 453 1 372 2 260 1 365 1 288 1 356 1 385 1 297 1 11 1 14 1 17 1 21 1 25 1 33 1 37 1 62 1 69 1 75 1 80 1 82 1 95 1 114 1 116 1 117 1 124 1 126 1 131 1 153 1 159 1 170 1 172 1 176 1 185 1 214 1 217 1 220 1 235 1 247 1 292 1 303 1 318 1 336 1 339 1 367 1 397 1 398 1 400 1 408 1 428 1 432 1 434 1 436 1 444 1 455 1 501 1 504 1 512 1 513 1 
1 202 2 1 18 1 19 1 23 1 69 2 98 1 101 1 103 1 110 2 119 1 120 1 123 2 127 1 130 1 131 1 137 1 141 1 148 1 149 1 156 1 172 1 185 1 190 1 191 1 207 1 220 1 254 1 442 1 457 1 369 1 365 1 499 1 413 1 292 1 375 1 400 1 301 1 494 2 315 1 293 2 303 1 376 2 286 1 316 2 304 2 289 1 298 1 441 2 319 1 383 1 361 1 305 2 402 1 469 2 7 1 14 1 21 1 36 1 51 1 57 1 63 1 66 1 79 1 81 1 86 1 97 1 100 1 106 1 109 1 114 1 126 1 129 1 160 1 161 1 164 1 178 1 179 1 189 1 196 1 263 1 270 1 271 1 295 1 306 1 317 1 328 1 336 1 338 1 357 1 421 1 433 1 436 1 439 1 440 1 448 1 449 1 452 1 459 1 461 1 462 1 481 1 492 1 502 1 
1 220 3 1 4 1 20 1 25 1 29 1 30 1 51 1 57 1 64 1 65 1 78 1 98 1 115 2 119 1 129 1 143 1 155 1 159 2 163 1 170 1 171 1 195 1 197 1 199 1 214 1 216 1 221 2 232 1 258 1 333 1 346 1 379 1 400 1 351 1 469 1 369 1 385 1 371 1 459 2 375 1 378 1 410 1 268 1 479 1 399 1 487 1 454 1 491 1 309 1 414 1 432 1 355 1 366 1 308 1 296 1 500 1 305 1 319 2 438 1 281 1 11 1 13 1 15 1 27 1 32 1 43 1 52 1 55 1 60 1 73 1 76 1 77 1 88 1 90 1 94 1 103 1 113 1 120 1 123 1 125 1 136 1 137 1 139 1 152 1 172 1 185 1 200 1 204 1 210 1 220 1 225 1 228 1 251 1 277 1 286 1 303 1 304 1 306 1 316 1 322 1 327 1 336 1 338 1 340 1 343 1 345 1 350 1 352 1 393 1 404 1 415 1 420 1 428 1 437 1 458 1 464 1 465 1 466 1 476 1 485 1 494 1 495 1 496 1 501 1 521 1 
1 219 6 1 14 1 26 1 33 1 45 1 48 1 54 1 74 1 78 2 80 1 92 1 109 1 112 1 116 1 136 1 149 1 158 1 160 1 163 1 169 1 174 1 176 1 181 1 188 1 198 1 208 1 218 2 222 1 228 1 230 1 254 1 258 1 324 1 387 1 396 1 262 1 308 1 337 1 489 1 364 1 478 1 452 1 398 1 465 1 371 1 375 1 419 1 416 1 411 1 287 1 367 1 395 1 486 1 462 1 369 1 473 1 496 1 316 1 457 2 391 1 430 1 295 1 263 1 475 1 11 1 16 1 20 1 21 1 27 1 35 1 38 1 44 1 46 1 50 1 53 1 73 1 87 1 95 1 97 1 99 1 118 1 143 1 145 1 153 1 154 1 165 1 187 1 192 1 193 1 195 1 199 1 202 1 206 1 211 1 227 1 234 1 248 1 250 1 264 1 266 1 270 1 280 1 285 1 291 1 293 1 313 1 320 1 331 1 345 1 355 1 356 1 358 1 365 1 377 1 390 1 432 1 435 1 439 1 466 1 492 1 494 1 495 1 502 1 506 1 509 1 520 1 
1 192 8 1 15 1 27 1 31 1 32 1 33 1 39 1 41 1 49 1 55 1 58 1 63 1 64 1 68 1 75 1 78 1 82 1 87 1 89 1 118 1 120 1 141 1 156 1 173 1 185 1 194 1 199 1 216 1 232 1 236 1 244 1 261 1 449 2 500 1 493 1 454 1 350 1 370 1 384 1 339 1 367 1 386 1 413 1 482 1 457 2 440 2 456 1 444 1 297 1 265 1 277 1 407 1 298 1 472 1 375 1 378 1 419 1 291 1 301 1 4 1 7 1 21 1 23 1 30 1 37 1 57 1 79 1 81 1 93 1 108 1 146 1 153 1 157 1 171 1 191 1 198 1 203 1 226 1 229 1 237 1 269 1 279 1 292 1 322 1 323 1 346 1 351 1 383 1 388 1 398 1 399 1 403 1 430 1 431 1 438 1 442 1 445 1 448 1 452 1 465 1 492 1 513 1 516 1 521 1 
1 201 4 1 6 1 16 1 18 2 27 1 28 2 35 1 40 1 53 1 57 1 69 1 98 1 107 1 111 2 126 2 129 1 130 1 145 1 146 1 155 1 157 1 159 1 163 1 167 2 174 1 197 1 203 1 216 1 220 1 222 1 238 1 252 1 261 1 360 1 496 1 351 1 477 1 437 1 481 1 379 1 319 1 388 1 377 1 342 1 346 1 270 1 366 1 472 1 440 1 279 1 434 1 397 2 491 1 359 1 384 1 325 1 274 1 363 1 439 1 408 1 14 1 30 1 31 1 34 1 38 1 59 1 67 1 77 1 102 1 103 1 104 1 120 1 137 1 148 1 160 1 162 1 173 1 179 1 184 1 186 1 195 1 259 1 268 1 271 1 278 1 290 1 316 1 321 1 332 1 338 1 343 1 348 1 365 1 372 1 392 1 393 1 423 1 428 1 429 1 430 1 433 1 442 1 451 1 455 1 460 1 486 1 489 1 490 1 500 1 508 1 509 1 512 1 519 1 
1 204 17 1 25 1 36 1 46 1 49 1 50 1 51 1 67 1 85 1 87 1 97 1 101 2 108 1 110 1 112 1 126 1 131 1 139 1 142 1 144 2 154 1 160 1 166 1 178 2 187 1 206 2 211 1 237 1 253 1 347 1 489 2 405 1 345 1 394 1 460 1 455 1 398 1 425 1 478 2 408 1 290 2 447 2 302 1 424 1 438 1 476 1 324 1 482 1 432 1 484 1 474 1 416 1 283 1 397 2 330 2 3 1 14 1 18 1 22 1 30 1 41 1 61 1 68 1 71 1 86 1 89 1 129 1 151 1 156 1 174 1 176 1 183 1 190 1 195 1 221 1 248 1 261 1 288 1 315 1 316 1 323 1 329 1 370 1 375 1 388 1 409 1 427 1 429 1 440 1 445 1 451 1 458 1 463 1 467 1 
1 187 6 1 35 1 44 1 48 1 60 2 73 2 83 2 86 1 94 1 102 2 117 1 118 1 127 1 139 1 140 1 142 1 143 1 146 1 148 1 154 1 164 1 165 2 176 1 179 1 194 1 217 2 218 1 227 1 242 1 262 1 356 1 366 1 327 1 404 1 417 1 447 1 466 1 332 1 355 1 458 2 480 1 427 1 494 1 315 1 375 1 317 1 430 1 452 1 342 1 483 1 393 1 297 1 468 1 16 1 25 1 29 1 30 1 50 1 55 1 56 1 69 1 82 1 92 1 96 1 101 1 108 1 122 1 124 1 138 1 145 1 180 1 183 1 205 1 207 1 221 1 236 1 238 1 239 1 272 1 276 1 290 1 292 1 299 1 306 1 307 1 322 1 335 1 337 1 347 1 359 1 361 1 387 1 396 1 407 1 411 1 416 1 443 1 448 1 462 1 464 1 465 1 471 1 477 1 488 1 489 1 491 1 497 1 506 1 519 1 
1 202 7 1 13 1 18 2 22 1 33 1 49 1 55 1 60 1 62 1 94 2 95 1 100 1 131 1 133 1 139 1 146 1 148 1 150 1 153 1 156 1 174 2 182 1 186 1 190 2 191 1 204 1 209 1 210 1 215 1 218 1 220 1 221 1 230 1 239 1 241 2 252 1 253 1 256 1 477 1 448 1 495 1 386 1 434 1 433 1 451 1 407 1 454 1 347 1 430 1 268 1 385 1 301 1 425 1 327 1 486 1 309 1 295 1 362 1 305 1 384 1 1 1 2 1 3 1 12 1 16 1 32 1 35 1 67 1 71 1 78 1 92 1 99 1 117 1 120 1 154 1 157 1 164 1 165 1 175 1 211 1 224 1 242 1 261 1 270 1 299 1 310 1 311 1 330 1 333 1 336 1 346 1 359 1 377 1 381 1 383 1 399 1 401 1 403 1 410 1 429 1 440 1 455 1 457 1 463 1 474 1 476 1 482 1 497 1 500 1 502 1 
1 221 25 1 27 1 29 1 30 1 31 1 32 2 39 1 47 1 52 1 60 1 66 1 67 1 83 1 87 1 92 1 109 1 115 1 116 1 130 1 131 1 138 1 147 1 150 1 156 2 166 1 209 1 223 1 229 1 236 1 237 1 242 2 243 1 498 2 343 1 302 1 462 2 465 2 468 1 485 1 310 2 364 1 335 1 365 1 439 1 378 1 394 1 312 1 387 2 326 1 373 2 477 1 497 1 416 1 457 1 486 1 493 1 449 1 433 1 495 1 355 2 271 1 4 1 41 1 42 1 43 1 50 1 51 1 54 1 70 1 96 1 125 1 129 1 136 1 140 1 142 1 157 1 161 1 172 1 180 1 184 1 185 1 195 1 211 1 215 1 222 1 225 1 234 1 269 1 272 1 315 1 332 1 341 1 342 1 350 1 351 1 356 1 368 1 385 1 397 1 402 1 423 1 426 1 428 1 434 1 437 1 446 1 451 1 473 1 478 1 488 1 496 1 504 1 
1 206 11 1 14 1 31 1 36 1 48 1 58 1 67 1 79 1 89 1 112 1 132 1 143 1 144 1 146 1 151 1 179 1 186 1 193 1 195 1 196 1 201 1 204 1 219 1 223 1 230 1 232 1 255 1 260 1 266 1 447 1 409 1 388 2 486 1 355 1 327 1 296 1 495 1 346 1 278 1 329 2 365 1 319 1 457 1 320 1 497 1 321 1 454 1 490 1 491 1 487 1 270 1 381 1 315 2 336 1 411 1 341 1 311 1 8 1 29 1 41 1 47 1 52 1 59 1 64 1 74 1 78 1 93 1 94 1 100 1 104 1 113 1 114 1 128 1 131 1 140 1 153 1 157 1 160 1 163 1 165 1 173 1 177 1 187 1 189 1 197 1 206 1 233 1 244 1 245 1 254 1 263 1 302 1 310 1 335 1 343 1 344 1 370 1 386 1 394 1 395 1 402 1 410 1 412 1 414 1 416 1 435 1 443 1 462 1 465 1 482 1 484 1 511 1 
1 207 1 1 2 2 14 1 34 1 39 2 65 1 67 1 75 1 79 1 84 1 101 1 106 1 119 1 122 1 137 1 140 1 145 1 149 1 160 1 162 2 164 1 175 1 189 1 197 2 203 2 217 2 219 1 231 1 237 1 247 2 444 2 313 1 368 1 420 2 410 1 330 2 460 2 422 2 387 1 446 1 428 1 419 1 481 1 366 1 362 2 453 1 3 1 4 1 20 1 25 1 26 1 38 1 40 1 42 1 66 1 70 1 74 1 77 1 87 1 91 1 95 1 102 1 113 1 156 1 186 1 190 1 193 1 212 1 213 1 216 1 238 1 256 1 262 1 267 1 274 1 287 1 310 1 329 1 341 1 344 1 352 1 363 1 374 1 375 1 376 1 413 1 415 1 417 1 426 1 439 1 442 1 443 1 456 1 463 1 466 1 486 1 489 1 508 1 512 1 
1 222 2 2 17 1 26 2 36 1 37 2 39 1 44 1 46 1 50 1 54 1 62 1 67 1 70 2 78 1 86 2 98 2 105 1 107 1 111 1 113 1 126 1 141 1 142 1 144 1 152 1 156 1 159 1 160 1 164 2 165 2 166 2 177 1 185 1 186 1 191 1 199 1 204 1 205 1 209 1 210 1 216 1 233 2 243 1 246 1 263 1 268 1 319 1 443 1 378 1 467 1 375 1 426 1 422 1 355 1 471 1 490 1 439 1 411 1 477 1 361 1 464 1 491 1 434 1 347 1 5 1 7 1 23 1 30 1 35 1 41 1 47 1 48 1 57 1 59 1 65 1 69 1 82 1 92 1 97 1 101 1 125 1 139 1 150 1 172 1 188 1 192 1 195 1 221 1 224 1 238 1 259 1 261 1 266 1 287 1 312 1 314 1 325 1 329 1 358 1 359 1 363 1 395 1 402 1 437 1 438 1 459 1 461 1 474 1 486 1 496 1 499 1 501 1 510 1 518 1 
1 213 1 1 3 2 16 1 36 2 46 1 54 1 65 2 79 1 82 1 115 1 116 1 129 1 137 1 147 2 154 2 157 2 162 1 175 1 178 1 182 2 183 1 188 1 196 2 213 1 215 1 216 1 234 1 235 1 247 1 254 1 267 1 334 2 445 1 454 2 344 1 440 1 274 1 485 1 398 1 277 1 309 1 451 1 416 2 414 1 385 1 474 1 314 1 358 2 501 1 397 1 282 1 439 2 429 1 386 1 417 1 337 1 9 1 13 1 14 1 28 1 29 1 38 1 39 1 45 1 51 1 64 1 66 1 78 1 80 1 81 1 84 1 99 1 109 1 113 1 128 1 136 1 150 1 152 1 160 1 164 1 165 1 173 1 193 1 201 1 227 1 236 1 237 1 243 1 255 1 259 1 263 1 278 1 280 1 305 1 325 1 330 1 345 1 365 1 366 1 375 1 379 1 395 1 406 1 432 1 444 1 448 1 450 1 457 1 463 1 470 1 476 1 490 1 491 1 502 1 506 1 513 1 
1 182 2 1 9 1 14 1 22 1 26 1 40 2 48 1 62 1 65 1 66 1 68 1 76 1 81 1 93 1 101 1 116 1 133 1 137 1 139 2 170 1 173 1 191 1 193 1 211 1 214 1 234 1 238 1 440 1 415 1 355 1 443 1 454 1 421 1 441 1 477 1 361 1 470 1 324 1 330 1 403 2 424 1 472 1 312 1 425 1 430 1 362 1 402 1 457 1 327 1 408 1 435 1 501 2 1 1 7 1 23 1 29 1 31 1 38 1 59 1 70 1 71 1 72 1 86 1 91 1 99 1 118 1 121 1 125 1 135 1 146 1 168 1 186 1 196 1 199 1 209 1 218 1 239 1 242 1 265 1 267 1 276 1 288 1 304 1 320 1 351 1 353 1 365 1 367 1 371 1 375 1 376 1 380 1 385 1 395 1 398 1 407 1 410 1 434 1 464 1 466 1 481 1 492 1 504 1 
1 197 9 1 12 1 18 1 27 1 53 1 56 1 63 1 72 1 73 1 76 1 92 1 101 1 103 1 107 1 115 1 128 1 136 2 144 1 150 1 153 1 157 1 166 1 168 1 173 1 182 1 194 1 195 2 205 1 214 1 216 1 218 1 224 1 230 1 231 1 233 1 238 1 250 1 257 1 314 1 420 1 429 1 410 1 353 1 332 1 309 1 375 1 367 1 365 1 431 1 341 1 471 1 306 1 274 2 307 1 330 1 305 1 489 1 413 1 501 1 391 1 291 1 280 1 4 1 31 1 57 1 64 1 66 1 68 1 83 1 88 1 114 1 139 1 145 1 146 1 171 1 181 1 201 1 206 1 221 1 222 1 240 1 248 1 297 1 312 1 317 1 347 1 348 1 374 1 380 1 381 1 401 1 409 1 411 1 452 1 455 1 461 1 469 1 472 1 482 1 500 1 513 1 517 1 519 1 
1 209 3 2 19 1 22 1 24 1 67 1 72 1 74 1 79 1 83 1 89 1 90 1 98 1 99 1 107 1 108 2 111 1 122 1 126 1 129 1 131 1 132 2 137 1 139 1 147 1 154 2 165 1 174 1 206 1 213 1 222 1 234 1 248 2 254 1 263 1 271 1 273 2 353 1 321 1 363 1 324 1 389 1 388 1 392 1 431 1 343 2 326 1 413 1 281 1 344 1 348 1 484 1 336 1 350 1 414 1 470 2 361 1 378 1 434 1 369 1 393 1 346 1 327 1 18 1 28 1 51 1 57 1 69 1 71 1 77 1 86 1 97 1 101 1 118 1 128 1 151 1 153 1 158 1 159 1 177 1 182 1 190 1 200 1 224 1 225 1 241 1 246 1 250 1 269 1 292 1 312 1 317 1 340 1 347 1 374 1 380 1 394 1 400 1 405 1 416 1 425 1 438 1 442 1 456 1 463 1 472 1 474 1 509 1 517 1 
1 202 38 1 41 1 51 1 56 1 77 1 83 1 96 1 101 1 109 1 111 1 142 1 143 1 145 1 146 1 148 1 149 1 151 1 155 1 157 1 169 1 176 1 183 1 199 1 202 1 205 1 225 1 228 1 236 1 238 1 240 1 246 1 459 1 477 1 307 1 474 2 348 1 468 2 425 1 472 1 409 1 320 1 371 1 318 2 401 1 500 1 276 1 419 1 490 1 494 1 341 1 277 1 356 1 460 1 361 1 380 1 483 1 482 1 378 1 346 1 8 1 9 1 16 1 44 1 50 1 57 1 66 1 90 1 98 1 110 1 119 1 126 1 127 1 129 1 136 1 150 1 160 1 162 1 166 1 206 1 210 1 217 1 231 1 288 1 313 1 332 1 360 1 385 1 386 1 387 1 395 1 402 1 408 1 413 1 422 1 431 1 454 1 458 1 475 1 487 1 489 1 503 1 
1 189 3 1 17 1 18 2 30 1 34 1 35 1 41 1 68 1 79 1 80 1 96 1 97 1 99 1 100 2 102 1 103 1 108 1 112 1 115 1 118 1 127 1 132 1 143 1 161 2 172 1 178 1 198 1 210 1 212 1 214 1 224 2 231 1 248 1 275 1 396 1 498 1 478 1 471 1 372 1 448 1 440 1 329 1 437 1 492 1 427 1 406 1 408 1 443 1 370 1 380 1 447 1 376 2 379 2 359 1 337 1 465 1 15 1 16 1 22 1 32 1 54 1 60 1 95 1 101 1 106 1 114 1 120 1 130 1 131 1 158 1 163 1 168 1 169 1 173 1 179 1 186 1 193 1 197 1 225 1 229 1 230 1 265 1 272 1 296 1 322 1 328 1 335 1 338 1 339 1 340 1 354 1 362 1 388 1 401 1 402 1 419 1 423 1 430 1 432 1 
1 223 2 2 8 1 9 1 15 1 33 1 38 2 47 1 55 1 67 1 72 1 83 2 97 1 98 1 117 1 133 1 134 1 135 2 139 1 143 1 146 1 150 2 155 1 163 1 168 1 173 1 184 1 185 2 196 1 207 1 210 1 219 1 221 1 227 1 229 1 231 1 232 1 246 1 247 1 262 1 271 1 275 1 417 1 462 1 349 1 438 1 359 1 314 2 485 1 409 1 472 1 429 1 345 1 398 1 358 2 494 2 391 1 317 1 287 1 471 1 5 1 14 1 25 1 32 1 42 1 45 1 61 1 66 1 70 1 73 1 75 1 79 1 81 1 108 1 124 1 127 1 136 1 149 1 165 1 179 1 202 1 230 1 242 1 244 1 260 1 311 1 323 1 327 1 337 1 342 1 356 1 371 1 372 1 375 1 402 1 418 1 423 1 437 1 444 1 447 1 466 1 484 1 493 1 
1 223 18 1 19 1 26 1 38 1 41 2 44 1 47 1 67 1 68 1 70 1 72 1 74 1 80 1 85 1 86 2 88 1 100 1 120 1 126 2 129 1 134 1 160 1 167 1 169 1 173 1 181 2 186 1 188 1 189 1 194 1 208 1 213 1 214 1 236 1 249 1 268 1 327 1 492 1 488 1 489 1 498 1 311 1 389 1 319 1 388 1 452 1 403 1 406 1 464 1 469 1 458 2 423 1 432 2 5 1 32 1 40 1 46 1 49 1 54 1 58 1 64 1 73 1 102 1 107 1 116 1 119 1 130 1 152 1 156 1 158 1 182 1 218 1 226 1 237 1 238 1 251 1 263 1 271 1 282 1 306 1 329 1 334 1 339 1 343 1 347 1 352 1 364 1 367 1 386 1 387 1 402 1 408 1 422 1 435 1 436 1 450 1 451 1 457 1 466 1 470 1 474 1 487 1 494 1 497 1 501 1 
1 210 4 1 11 1 36 1 45 1 61 1 63 1 66 1 81 1 88 1 90 1 91 1 111 2 117 1 118 1 128 1 133 1 145 1 156 1 164 1 165 2 174 2 176 1 188 1 216 1 244 1 251 1 263 1 421 1 490 1 308 1 428 1 450 1 455 1 399 1 464 2 338 1 386 1 469 2 456 1 372 1 382 1 430 2 453 1 483 1 391 1 396 1 457 1 434 1 407 1 330 1 296 1 395 1 412 1 448 2 479 1 286 1 314 1 316 1 15 1 25 1 30 1 37 1 39 1 48 1 53 1 80 1 101 1 114 1 115 1 123 1 126 1 139 1 144 1 153 1 155 1 167 1 183 1 186 1 187 1 196 1 199 1 228 1 234 1 237 1 238 1 262 1 324 1 328 1 329 1 363 1 364 1 373 1 381 1 389 1 393 1 414 1 449 1 460 1 467 1 471 1 476 1 481 1 499 1 500 1 
1 199 1 1 4 1 9 1 13 1 20 2 62 2 81 1 82 1 91 1 125 1 128 1 136 1 139 1 143 2 165 1 168 1 178 1 193 1 201 1 209 1 213 1 227 1 234 1 247 1 251 1 273 1 471 1 341 1 434 1 371 1 476 1 401 1 322 1 388 1 490 1 468 1 326 1 491 1 416 1 369 1 407 1 350 1 420 1 483 1 337 1 370 2 344 1 470 1 423 2 290 1 327 1 472 1 380 1 400 1 390 1 419 1 464 1 393 1 475 1 495 1 365 1 443 1 427 1 5 1 26 1 35 1 49 1 51 1 52 1 57 1 67 1 78 1 94 1 110 1 119 1 120 1 135 1 146 1 154 1 155 1 160 1 169 1 175 1 181 1 207 1 215 1 219 1 228 1 229 1 230 1 232 1 239 1 261 1 271 1 287 1 289 1 292 1 294 1 310 1 318 1 319 1 325 1 368 1 373 1 374 1 397 1 402 1 418 1 422 1 429 1 436 1 447 1 467 1 479 1 481 1 487 1 492 1 497 1 500 1 501 1 
1 229 1 1 10 1 17 1 20 1 25 1 36 1 50 1 51 1 52 1 61 1 86 1 90 1 104 1 109 1 128 1 132 2 139 1 142 1 145 1 148 1 157 1 159 2 167 1 176 1 178 1 186 1 193 1 201 1 203 2 207 2 208 1 219 1 227 1 232 1 233 1 239 1 242 1 245 1 260 1 274 1 485 1 312 1 347 1 332 1 429 1 362 1 500 1 425 1 363 1 307 1 476 2 318 1 497 1 320 1 404 2 389 1 409 2 351 1 482 1 471 1 417 1 385 1 328 1 474 1 398 1 422 1 327 1 379 1 334 1 11 1 13 1 22 1 23 1 29 1 30 1 44 1 94 1 107 1 110 1 119 1 120 1 122 1 127 1 130 1 146 1 150 1 156 1 158 1 160 1 161 1 171 1 199 1 211 1 222 1 231 1 234 1 246 1 249 1 252 1 285 1 294 1 324 1 329 1 350 1 353 1 361 1 371 1 396 1 440 1 443 1 450 1 451 1 494 1 507 1 508 1 511 1 512 1 519 1 
1 230 12 1 17 1 25 1 27 2 30 1 37 1 39 1 54 1 66 1 74 1 82 1 83 1 85 1 101 1 102 1 123 1 129 1 136 1 137 2 138 1 147 1 153 1 180 1 183 1 186 1 187 1 189 1 195 1 202 1 203 1 204 2 206 1 209 1 220 1 221 1 222 1 232 1 233 1 248 1 252 2 271 1 411 2 335 1 482 1 431 1 383 1 450 1 487 1 349 1 317 1 494 2 486 1 405 1 475 1 388 1 298 1 409 1 484 1 291 1 10 1 20 1 29 1 32 1 33 1 48 1 53 1 56 1 62 1 67 1 76 1 88 1 110 1 111 1 128 1 131 1 144 1 149 1 151 1 156 1 166 1 169 1 170 1 176 1 201 1 205 1 223 1 226 1 241 1 251 1 278 1 283 1 285 1 289 1 311 1 314 1 315 1 319 1 327 1 328 1 338 1 339 1 351 1 352 1 361 1 375 1 378 1 386 1 389 1 414 1 416 1 441 1 454 1 471 1 479 1 489 1 505 1 
1 231 5 1 12 1 16 1 17 1 26 1 36 1 51 2 53 1 58 2 67 1 75 1 82 2 83 1 90 1 91 1 106 1 108 1 114 1 131 1 139 1 140 1 156 1 162 1 171 1 179 2 184 1 191 1 197 1 198 2 200 1 212 1 217 1 230 1 240 1 241 1 264 1 433 1 469 1 349 1 472 2 454 1 347 1 464 2 327 2 473 1 405 1 446 1 441 2 354 1 369 2 351 1 350 1 492 2 487 1 498 2 294 1 462 1 479 1 7 1 13 1 19 1 25 1 35 1 54 1 63 1 65 1 66 1 76 1 80 1 92 1 100 1 103 1 110 1 113 1 135 1 145 1 148 1 169 1 188 1 189 1 208 1 225 1 228 1 233 1 253 1 256 1 282 1 285 1 301 1 302 1 314 1 318 1 321 1 340 1 341 1 342 1 363 1 366 1 368 1 386 1 406 1 407 1 412 1 413 1 421 1 427 1 428 1 432 1 443 1 451 1 459 1 461 1 463 1 471 1 474 1 490 1 502 1 504 1 
1 190 7 1 18 1 20 1 37 1 47 1 52 1 58 1 62 1 68 1 71 1 75 1 80 1 92 1 98 1 108 1 129 1 131 1 132 1 145 1 155 1 163 1 168 1 175 1 179 1 186 1 189 1 201 1 208 1 234 1 327 1 390 1 406 1 359 1 431 2 454 2 296 1 403 2 360 1 434 1 409 1 299 1 457 1 400 1 350 1 322 1 432 1 303 1 397 1 298 1 386 1 353 1 494 2 492 1 2 1 11 1 39 1 44 1 45 1 85 1 87 1 95 1 116 1 123 1 134 1 141 1 173 1 174 1 214 1 217 1 222 1 227 1 232 1 235 1 244 1 305 1 332 1 340 1 342 1 355 1 363 1 371 1 375 1 385 1 416 1 436 1 453 1 456 1 469 1 470 1 474 1 486 1 487 1 498 1 503 1 517 1 
1 192 1 1 10 1 15 1 23 1 27 1 44 1 65 1 100 1 102 1 105 1 122 1 125 1 135 1 143 2 148 1 164 1 192 1 201 1 204 1 205 1 210 1 222 1 234 1 247 1 250 2 251 2 258 2 482 1 484 1 333 1 454 1 290 1 450 1 315 1 404 1 369 1 287 1 389 1 429 1 351 1 367 1 372 1 358 2 455 1 334 1 417 1 362 1 421 1 365 1 336 1 331 2 492 1 359 2 474 1 390 1 4 1 13 1 14 1 24 1 30 1 36 1 39 1 40 1 43 1 55 1 66 1 73 1 86 1 97 1 101 1 124 1 126 1 134 1 139 1 144 1 149 1 151 1 166 1 182 1 198 1 199 1 220 1 223 1 230 1 231 1 261 1 281 1 282 1 283 1 291 1 299 1 302 1 317 1 345 1 375 1 387 1 423 1 435 1 440 1 442 1 464 1 467 1 470 1 479 1 481 1 488 1 495 1 498 1 504 1 515 1 518 1 
1 210 5 1 6 1 22 1 30 1 44 2 54 1 55 2 71 1 80 1 101 1 118 1 133 1 137 1 175 1 178 1 185 1 195 1 202 1 217 1 227 1 233 1 244 1 245 1 251 1 257 1 259 1 279 1 326 1 392 1 332 1 347 1 465 2 372 1 449 1 327 1 432 1 346 1 331 2 407 1 448 1 316 1 431 2 467 1 319 1 433 2 425 1 325 1 300 1 427 1 415 2 301 1 499 2 309 1 363 1 293 1 297 2 438 1 354 2 459 1 442 1 355 1 338 1 400 1 497 1 446 2 9 1 14 1 26 1 31 1 33 1 37 1 41 1 46 1 47 1 52 1 62 1 77 1 83 1 84 1 97 1 105 1 126 1 127 1 128 1 142 1 143 1 144 1 146 1 157 1 158 1 161 1 166 1 179 1 199 1 209 1 216 1 224 1 236 1 260 1 323 1 375 1 385 1 390 1 394 1 399 1 420 1 422 1 452 1 453 1 457 1 462 1 474 1 486 1 496 1 517 1 
1 203 1 1 2 1 16 1 17 1 20 1 26 1 31 2 33 1 37 1 39 1 45 1 47 1 49 1 51 1 57 1 58 1 63 1 64 1 67 1 69 1 75 1 92 1 103 1 115 1 117 1 122 1 133 1 141 1 149 1 157 1 165 1 168 1 188 1 197 2 198 1 202 1 205 1 222 1 228 1 235 1 248 1 258 1 261 1 277 1 285 1 467 1 330 1 419 1 359 1 369 2 446 1 441 1 442 1 398 1 500 1 411 1 299 1 423 1 371 1 356 1 420 1 444 1 476 2 374 2 406 1 365 2 487 1 480 1 492 1 331 1 482 1 338 1 300 1 387 1 11 1 14 1 18 1 23 1 25 1 40 1 42 1 60 1 61 1 65 1 73 1 74 1 77 1 83 1 84 1 87 1 100 1 106 1 118 1 152 1 154 1 176 1 177 1 179 1 183 1 200 1 231 1 238 1 269 1 270 1 280 1 297 1 298 1 306 1 318 1 342 1 360 1 378 1 383 1 385 1 390 1 430 1 434 1 436 1 439 1 445 1 455 1 458 1 462 1 491 1 495 1 
1 226 1 1 12 1 13 1 25 1 31 1 35 1 44 1 45 1 55 1 57 1 60 1 76 1 104 1 116 2 128 1 136 1 146 1 157 1 159 2 166 1 173 1 192 2 202 1 210 1 212 1 236 1 241 1 247 1 254 1 256 1 258 1 348 1 463 1 493 1 501 1 454 1 430 1 420 2 446 1 400 1 437 1 440 1 456 1 407 1 352 1 374 1 322 2 399 2 296 1 396 1 16 1 38 1 49 1 54 1 81 1 87 1 91 1 94 1 111 1 118 1 132 1 141 1 151 1 164 1 167 1 186 1 189 1 217 1 221 1 223 1 232 1 238 1 240 1 264 1 272 1 275 1 289 1 293 1 295 1 298 1 324 1 328 1 335 1 345 1 355 1 360 1 385 1 403 1 405 1 409 1 410 1 433 1 441 1 448 1 450 1 451 1 455 1 464 1 474 1 482 1 484 1 489 1 492 1 511 1 512 1 
1 204 18 1 24 1 29 1 31 1 38 1 39 1 40 2 52 1 61 1 63 2 64 1 66 1 71 1 88 1 101 1 102 1 130 1 134 1 151 1 153 1 154 1 157 1 161 1 167 1 181 1 211 1 212 1 227 1 229 1 233 1 237 1 245 1 250 1 259 1 479 1 458 1 337 1 498 1 303 1 495 1 398 1 485 1 421 1 327 1 403 1 361 2 467 1 344 1 308 1 368 1 399 1 480 1 383 1 309 1 440 1 470 1 16 1 21 1 48 1 65 1 67 1 68 1 74 1 87 1 89 1 94 1 95 1 98 1 99 1 106 1 108 1 114 1 125 1 128 1 156 1 173 1 184 1 186 1 195 1 234 1 236 1 247 1 280 1 282 1 288 1 298 1 322 1 326 1 343 1 348 1 357 1 362 1 367 1 381 1 382 1 391 1 392 1 423 1 426 1 429 1 459 1 462 1 463 1 511 1 512 1 515 1 
1 193 1 1 13 1 38 1 43 1 46 2 51 1 55 1 73 1 75 1 76 1 77 1 82 2 107 1 108 1 121 1 125 1 131 1 158 1 160 1 161 1 164 1 194 1 203 2 206 1 213 1 245 1 246 1 254 1 264 2 280 1 285 1 457 1 374 1 424 1 439 1 460 1 419 1 488 1 379 2 340 2 480 1 393 2 500 2 431 1 332 1 446 1 343 2 427 1 440 1 327 1 375 1 468 1 357 1 370 1 325 1 368 1 11 1 17 1 19 1 28 1 36 1 58 1 79 1 84 1 89 1 94 1 100 1 102 1 105 1 116 1 130 1 135 1 141 1 159 1 165 1 173 1 181 1 184 1 197 1 212 1 220 1 224 1 226 1 230 1 231 1 234 1 239 1 243 1 247 1 253 1 263 1 265 1 311 1 319 1 321 1 323 1 338 1 361 1 401 1 409 1 412 1 422 1 429 1 451 1 453 1 461 1 476 1 499 1 502 1 505 1 506 1 
1 218 9 2 25 2 31 1 32 1 35 1 42 2 44 1 46 1 47 1 51 1 68 1 84 1 85 1 93 1 105 1 106 1 117 1 119 1 133 1 143 1 150 2 159 1 160 1 164 2 173 1 183 1 188 1 204 1 207 1 225 1 244 1 245 1 255 1 262 1 273 1 282 1 356 2 353 1 325 1 443 1 406 1 464 2 489 1 342 1 366 1 407 1 441 1 501 2 486 1 433 1 473 2 365 1 415 1 384 1 429 1 497 1 436 1 449 1 483 1 303 1 375 1 465 1 317 1 3 1 8 1 17 1 29 1 30 1 39 1 41 1 48 1 50 1 53 1 69 1 70 1 74 1 83 1 96 1 109 1 130 1 131 1 138 1 151 1 153 1 162 1 178 1 184 1 185 1 201 1 206 1 222 1 250 1 261 1 285 1 292 1 293 1 310 1 329 1 332 1 337 1 347 1 352 1 371 1 376 1 389 1 390 1 395 1 412 1 416 1 428 1 444 1 447 1 450 1 456 1 462 1 470 1 480 1 481 1 484 1 485 1 519 1 
1 201 12 1 27 1 43 1 76 1 80 1 82 1 89 1 90 1 95 1 107 1 117 1 122 1 134 1 143 1 146 1 149 1 150 1 151 1 161 1 189 1 191 2 192 1 208 1 223 1 229 1 231 1 252 1 259 1 499 1 424 1 462 1 377 1 438 1 390 1 333 1 326 1 407 1 427 1 430 1 302 1 350 1 459 1 366 1 388 1 392 1 476 1 458 1 411 2 307 1 413 1 397 1 429 1 1 1 16 1 19 1 21 1 34 1 49 1 55 1 69 1 74 1 77 1 85 1 97 1 111 1 123 1 126 1 127 1 135 1 147 1 165 1 166 1 179 1 188 1 195 1 218 1 227 1 237 1 257 1 258 1 262 1 265 1 274 1 280 1 291 1 295 1 308 1 334 1 335 1 339 1 344 1 351 1 352 1 369 1 379 1 381 1 386 1 389 1 408 1 439 1 446 1 474 1 495 1 
1 177 5 1 23 1 32 1 33 1 55 1 56 1 59 1 86 1 111 1 121 2 122 2 127 1 132 1 134 1 135 2 143 1 164 1 177 1 190 1 212 1 215 1 224 1 237 1 252 1 256 1 259 2 286 1 355 1 497 1 368 1 456 1 499 1 490 1 459 2 406 1 476 1 410 2 484 2 328 1 481 1 424 2 393 2 431 2 389 1 492 1 347 1 359 1 467 1 9 1 16 1 18 1 20 1 21 1 24 1 42 1 73 1 77 1 99 1 137 1 138 1 140 1 142 1 175 1 179 1 183 1 185 1 195 1 202 1 209 1 210 1 216 1 238 1 244 1 245 1 261 1 288 1 291 1 294 1 302 1 305 1 319 1 325 1 330 1 336 1 343 1 348 1 354 1 374 1 400 1 414 1 428 1 439 1 464 1 465 1 485 1 493 1 510 1 521 1 
1 213 1 1 2 1 41 1 48 2 54 2 57 2 65 1 91 1 96 1 118 1 124 1 125 1 127 1 129 1 133 1 140 1 147 1 149 1 156 2 157 1 158 1 162 1 168 1 185 1 196 1 198 1 206 1 214 1 228 1 237 1 242 1 250 1 283 1 399 1 423 1 494 1 485 1 484 1 459 2 366 1 337 1 319 1 406 1 438 1 400 2 412 1 334 1 441 1 346 1 351 1 453 1 462 1 476 1 330 1 490 1 9 1 19 1 39 1 49 1 59 1 60 1 62 1 75 1 82 1 121 1 144 1 151 1 153 1 160 1 161 1 180 1 181 1 182 1 190 1 191 1 202 1 220 1 233 1 234 1 255 1 280 1 281 1 293 1 298 1 310 1 313 1 321 1 353 1 364 1 370 1 378 1 382 1 390 1 408 1 409 1 417 1 421 1 429 1 436 1 446 1 451 1 470 1 475 1 487 1 492 1 496 1 504 1 514 1 
1 198 19 2 22 1 27 2 34 1 38 1 59 1 63 1 70 1 81 1 82 2 87 2 94 1 106 1 107 1 111 1 118 2 125 1 135 1 143 1 155 1 158 1 159 1 170 2 171 1 179 1 199 1 214 1 223 1 226 2 244 1 255 1 258 1 261 1 266 1 329 1 372 2 323 1 459 1 409 1 320 1 297 1 418 1 340 1 405 1 306 1 392 1 424 1 420 1 363 1 400 1 445 1 435 1 300 1 401 1 385 1 403 1 313 1 359 1 8 1 9 1 18 1 23 1 24 1 32 1 43 1 56 1 57 1 58 1 64 1 67 1 78 1 104 1 110 1 119 1 123 1 127 1 128 1 138 1 141 1 146 1 168 1 180 1 187 1 196 1 197 1 202 1 209 1 210 1 235 1 251 1 252 1 257 1 259 1 288 1 292 1 299 1 302 1 304 1 310 1 327 1 346 1 349 1 353 1 354 1 362 1 364 1 380 1 407 1 413 1 415 1 432 1 439 1 450 1 465 1 469 1 475 1 486 1 487 1 491 1 504 1 505 1 
1 201 4 1 8 1 20 1 50 1 52 2 55 1 56 1 62 1 73 1 79 1 81 2 84 1 99 1 101 1 140 1 142 1 143 1 144 1 149 1 150 1 151 1 164 1 170 1 171 1 180 1 194 1 207 1 210 1 214 1 216 1 222 1 238 1 241 1 243 1 260 1 268 1 279 1 284 1 288 1 342 1 328 1 421 1 412 1 437 1 429 1 488 1 336 1 461 1 371 2 368 1 377 2 472 1 463 2 480 1 477 1 397 1 384 1 298 2 434 1 311 2 440 1 462 1 476 1 409 1 12 1 13 1 17 1 24 1 31 1 53 1 61 1 70 1 76 1 83 1 90 1 92 1 95 1 109 1 121 1 130 1 176 1 201 1 204 1 213 1 221 1 230 1 231 1 232 1 256 1 276 1 303 1 315 1 332 1 343 1 346 1 356 1 364 1 367 1 373 1 380 1 389 1 402 1 404 1 425 1 430 1 447 1 467 1 483 1 491 1 
1 207 13 1 38 1 40 1 48 1 49 1 51 2 60 1 65 1 66 1 82 1 87 1 95 1 109 1 125 2 136 1 143 1 147 1 158 1 167 1 168 1 172 1 181 1 203 2 215 1 236 1 248 1 250 2 253 1 258 1 262 1 265 1 286 2 295 1 302 1 471 1 441 1 333 1 476 1 412 1 383 1 388 2 433 1 309 1 340 1 418 1 359 1 424 1 378 1 334 1 483 1 443 1 9 1 24 1 39 1 42 1 44 1 53 1 59 1 61 1 89 1 93 1 97 1 129 1 130 1 133 1 134 1 141 1 151 1 183 1 209 1 219 1 221 1 222 1 225 1 229 1 249 1 273 1 287 1 298 1 299 1 300 1 303 1 313 1 323 1 329 1 344 1 346 1 353 1 366 1 374 1 381 1 396 1 409 1 410 1 416 1 423 1 425 1 449 1 459 1 475 1 479 1 492 1 498 1 499 1 519 1 
1 199 17 1 18 1 38 1 44 2 46 2 66 1 70 1 71 1 102 1 109 1 112 1 122 1 128 2 167 2 171 1 180 1 184 1 186 1 187 1 189 2 194 1 196 1 202 1 203 1 205 2 206 1 211 1 212 1 215 2 228 1 241 1 253 2 256 1 259 1 262 1 282 1 284 1 296 2 333 1 304 1 445 1 493 1 499 2 423 1 359 1 461 1 361 1 395 1 490 1 426 1 437 1 449 1 487 1 368 2 421 1 9 1 11 1 29 1 43 1 49 1 52 1 54 1 58 1 65 1 68 1 88 1 129 1 153 1 154 1 177 1 190 1 195 1 248 1 287 1 288 1 289 1 294 1 297 1 316 1 329 1 330 1 353 1 371 1 393 1 401 1 404 1 410 1 412 1 414 1 438 1 460 1 469 1 473 1 476 1 489 1 498 1 517 1 
1 212 17 2 18 1 21 1 29 2 37 1 47 1 53 1 86 2 93 1 108 1 116 1 136 1 141 1 145 1 184 1 186 2 188 1 190 1 193 1 202 1 207 1 209 2 210 1 245 1 284 1 287 1 387 1 436 1 459 2 410 1 397 1 400 1 457 1 412 1 363 1 366 1 331 1 372 1 432 1 430 1 303 1 450 1 467 2 419 2 421 1 476 1 359 2 382 1 326 2 361 2 481 1 5 1 23 1 28 1 45 1 70 1 74 1 79 1 96 1 97 1 98 1 99 1 109 1 123 1 135 1 140 1 142 1 163 1 167 1 171 1 175 1 177 1 181 1 189 1 200 1 203 1 206 1 217 1 231 1 244 1 249 1 256 1 265 1 266 1 285 1 295 1 297 1 304 1 335 1 352 1 354 1 356 1 365 1 381 1 394 1 404 1 413 1 435 1 437 1 453 1 458 1 472 1 492 1 493 1 500 1 518 1 
1 208 1 1 9 1 10 1 13 1 22 1 31 1 39 1 55 1 63 1 65 1 70 1 80 1 98 1 101 1 106 1 110 1 116 1 132 1 138 1 145 2 153 1 154 1 167 2 183 1 191 2 202 1 212 1 223 1 224 1 228 1 242 2 249 1 253 1 254 1 255 1 286 1 287 1 295 1 421 1 465 1 470 1 416 1 386 1 414 1 391 1 375 2 347 1 345 1 441 1 382 1 353 1 460 2 364 1 305 1 456 1 493 1 7 1 18 1 21 1 32 1 37 1 46 1 50 1 52 1 72 1 75 1 78 1 79 1 83 1 84 1 92 1 104 1 112 1 119 1 137 1 142 1 143 1 155 1 165 1 170 1 184 1 207 1 235 1 236 1 297 1 303 1 322 1 327 1 340 1 341 1 342 1 374 1 377 1 398 1 435 1 436 1 440 1 445 1 450 1 468 1 480 1 484 1 486 1 487 1 492 1 497 1 515 1 
1 221 2 1 4 1 5 1 15 1 28 2 39 1 46 1 49 1 51 1 55 1 57 1 58 1 61 1 66 1 67 2 76 1 83 2 86 1 89 1 92 1 100 1 119 1 132 1 141 1 149 1 156 1 157 2 159 1 173 1 174 1 185 1 191 1 204 1 220 2 225 1 226 1 238 1 255 1 259 1 262 1 266 1 286 1 367 1 384 1 419 1 383 1 487 1 388 1 433 1 360 2 429 1 323 1 341 1 440 1 359 1 398 1 345 1 372 2 421 1 13 1 29 1 41 1 48 1 64 1 82 1 91 1 96 1 103 1 104 1 107 1 120 1 122 1 138 1 142 1 143 1 150 1 161 1 176 1 190 1 192 1 201 1 202 1 207 1 208 1 231 1 248 1 252 1 257 1 283 1 304 1 307 1 340 1 377 1 387 1 389 1 394 1 400 1 409 1 412 1 416 1 435 1 454 1 456 1 458 1 463 1 469 1 477 1 480 1 483 1 498 1 501 1 
1 203 9 1 16 1 20 1 30 1 38 1 54 1 60 1 66 1 82 1 93 1 99 1 100 1 107 1 126 1 130 2 135 1 137 1 143 1 149 1 168 1 182 2 188 1 191 1 232 1 237 1 238 1 250 1 264 1 267 1 292 1 297 1 354 2 438 1 397 1 405 1 420 1 369 1 376 1 413 1 362 1 331 1 387 1 303 1 501 2 432 1 402 1 346 1 384 1 351 1 480 1 350 2 493 1 7 1 8 1 29 1 70 1 73 1 74 1 94 1 95 1 104 1 106 1 117 1 119 1 146 1 147 1 155 1 158 1 177 1 215 1 220 1 228 1 239 1 244 1 247 1 252 1 268 1 283 1 285 1 293 1 295 1 304 1 336 1 342 1 353 1 365 1 390 1 394 1 400 1 403 1 411 1 422 1 424 1 436 1 449 1 458 1 468 1 474 1 481 1 487 1 498 1 500 1 
1 207 10 1 12 2 16 1 30 1 38 1 40 1 51 1 63 1 64 1 66 2 68 1 71 1 74 1 89 1 94 1 98 1 108 1 117 1 119 2 127 1 147 1 158 1 163 1 164 1 170 1 175 1 192 1 193 1 194 1 196 2 205 1 227 1 236 2 240 1 247 1 249 1 255 2 257 2 259 1 284 1 289 1 291 1 299 1 302 1 382 1 467 1 459 1 339 1 362 1 472 1 350 1 425 1 344 1 359 1 355 1 388 1 499 2 392 1 493 1 408 1 422 1 313 1 366 1 389 1 453 1 384 1 479 1 18 1 19 1 25 1 39 1 47 1 80 1 85 1 92 1 105 1 124 1 128 1 144 1 173 1 178 1 182 1 198 1 207 1 215 1 222 1 225 1 226 1 230 1 242 1 250 1 252 1 258 1 260 1 296 1 297 1 300 1 310 1 328 1 330 1 356 1 357 1 361 1 371 1 372 1 380 1 386 1 390 1 391 1 398 1 400 1 401 1 412 1 413 1 423 1 433 1 441 1 444 1 445 1 451 1 457 1 469 1 471 1 486 1 
1 205 1 1 13 1 17 1 19 2 35 1 47 1 49 1 58 1 63 1 64 1 69 1 70 1 76 1 80 1 81 2 95 1 102 1 117 1 126 1 133 1 146 2 154 1 159 1 164 1 170 2 171 1 193 1 218 1 237 1 244 1 253 2 259 2 298 1 420 1 411 1 438 1 407 1 336 1 332 1 459 1 365 1 413 1 384 1 305 1 387 1 433 1 374 1 483 1 441 1 499 1 486 1 341 1 364 1 381 1 396 1 458 1 487 1 361 1 426 1 474 2 7 1 8 1 12 1 18 1 28 1 30 1 34 1 56 1 65 1 73 1 85 1 88 1 90 1 98 1 112 1 121 1 131 1 169 1 180 1 186 1 187 1 199 1 204 1 209 1 219 1 220 1 226 1 243 1 250 1 255 1 260 1 272 1 295 1 299 1 301 1 302 1 309 1 328 1 333 1 334 1 349 1 352 1 363 1 368 1 372 1 376 1 380 1 390 1 403 1 405 1 419 1 429 1 432 1 454 1 456 1 464 1 468 1 472 1 481 1 497 1 
1 194 7 1 10 1 40 2 42 1 57 1 60 1 62 1 68 1 84 1 90 1 102 1 107 1 111 1 123 1 140 1 181 1 185 1 196 1 201 1 202 1 230 1 259 2 260 1 266 1 273 1 300 1 304 1 348 1 457 1 444 1 420 1 486 1 349 1 483 1 376 2 337 2 366 1 351 1 368 1 436 2 310 1 438 1 448 1 500 1 421 1 327 1 378 1 387 2 379 1 391 2 460 1 435 1 487 1 4 1 8 1 16 1 22 1 24 1 34 1 35 1 51 1 52 1 77 1 86 1 101 1 106 1 118 1 157 1 162 1 175 1 187 1 195 1 208 1 226 1 249 1 255 1 271 1 284 1 293 1 314 1 317 1 341 1 342 1 346 1 347 1 364 1 369 1 381 1 382 1 392 1 406 1 410 1 411 1 416 1 418 1 427 1 431 1 463 1 474 1 475 1 495 1 496 1 498 1 507 1 509 1 510 1 
1 217 4 1 17 2 20 1 26 1 37 1 57 1 85 1 96 2 128 1 152 1 161 1 171 1 176 1 195 1 201 1 203 1 208 1 216 1 226 1 233 1 237 2 243 1 247 1 250 1 273 1 295 1 399 2 434 1 400 1 346 1 357 1 373 1 492 1 391 1 380 1 469 2 477 1 311 1 376 2 446 1 350 1 421 2 378 1 366 2 393 1 450 1 308 2 435 1 439 1 430 1 3 1 12 1 13 1 15 1 24 1 33 1 35 1 51 1 53 1 55 1 58 1 73 1 83 1 86 1 105 1 120 1 124 1 141 1 150 1 162 1 169 1 186 1 206 1 211 1 248 1 255 1 257 1 259 1 260 1 265 1 278 1 287 1 334 1 339 1 344 1 352 1 370 1 371 1 382 1 383 1 386 1 392 1 395 1 396 1 415 1 419 1 426 1 428 1 452 1 460 1 462 1 472 1 480 1 489 1 494 1 496 1 
1 196 3 1 11 2 20 1 23 1 28 1 46 1 47 1 66 1 85 1 90 1 93 1 94 1 97 1 105 1 106 1 112 1 116 1 123 1 148 1 160 2 165 1 166 1 189 1 193 1 194 2 200 1 207 1 230 1 234 1 249 1 258 1 273 1 275 1 281 1 292 1 359 1 471 2 333 1 492 1 429 1 442 1 358 1 489 2 470 1 495 1 311 1 435 2 467 1 478 1 386 1 407 1 395 2 496 1 427 1 365 1 477 1 384 1 425 2 7 1 9 1 21 1 24 1 34 1 40 1 60 1 81 1 88 1 115 1 137 1 150 1 153 1 176 1 178 1 191 1 216 1 221 1 228 1 229 1 236 1 245 1 246 1 252 1 265 1 301 1 313 1 321 1 338 1 341 1 342 1 347 1 353 1 360 1 396 1 399 1 420 1 444 1 445 1 456 1 457 1 459 1 463 1 464 1 472 1 484 1 493 1 498 1 509 1 510 1 
1 203 5 1 17 1 18 1 38 2 64 1 66 1 67 1 74 2 86 1 87 1 89 1 114 1 124 1 126 1 127 1 128 1 130 2 134 1 136 1 145 1 157 1 163 1 173 1 181 2 235 2 240 1 244 2 254 2 260 1 261 1 279 1 289 1 306 2 377 1 415 2 362 1 372 2 427 1 404 1 449 1 370 1 360 1 384 2 428 1 482 1 340 1 336 1 487 1 456 1 345 1 347 1 498 1 486 1 375 1 459 1 489 1 439 1 355 1 460 1 413 1 357 1 22 1 33 1 37 1 42 1 44 1 51 1 53 1 54 1 56 1 63 1 82 1 84 1 97 1 111 1 120 1 139 1 146 1 152 1 158 1 160 1 170 1 184 1 214 1 219 1 226 1 242 1 247 1 292 1 309 1 315 1 316 1 339 1 348 1 354 1 356 1 363 1 364 1 365 1 369 1 373 1 378 1 382 1 388 1 391 1 395 1 398 1 403 1 416 1 417 1 433 1 446 1 450 1 461 1 467 1 473 1 491 1 494 1 511 1 519 1 
1 212 5 1 27 1 37 1 54 1 62 1 74 1 84 1 86 1 95 1 101 1 103 2 104 1 110 1 113 1 114 1 120 1 125 2 140 1 152 1 165 1 188 1 194 1 212 1 218 1 219 1 223 1 224 2 226 1 228 1 241 1 242 1 246 1 260 1 266 1 271 1 273 1 286 1 289 1 297 1 484 1 394 2 417 1 354 1 402 1 489 1 358 1 340 1 350 1 491 1 427 1 320 1 446 1 315 1 475 1 392 1 8 1 10 1 13 1 21 1 28 1 48 1 77 1 102 1 107 1 111 1 148 1 161 1 164 1 181 1 189 1 190 1 205 1 214 1 220 1 221 1 222 1 225 1 233 1 234 1 251 1 304 1 308 1 346 1 348 1 352 1 360 1 362 1 365 1 368 1 375 1 410 1 418 1 424 1 434 1 438 1 442 1 443 1 447 1 456 1 461 1 477 1 485 1 493 1 495 1 496 1 499 1 520 1 
1 217 9 1 22 1 23 2 26 1 40 1 45 1 50 1 56 1 69 1 79 1 82 1 83 1 84 1 92 1 97 1 99 2 114 1 119 1 121 1 123 1 136 1 155 2 156 1 165 1 170 1 181 1 182 1 183 1 195 1 196 1 198 1 199 1 204 1 208 1 212 1 219 1 229 1 239 1 246 1 247 1 250 1 254 1 267 2 305 1 432 1 367 1 406 1 351 1 429 1 356 1 411 2 375 2 359 1 463 1 453 1 399 1 384 1 471 1 416 1 347 1 464 1 479 1 4 1 24 1 28 1 41 1 42 1 61 1 70 1 71 1 109 1 112 1 113 1 115 1 122 1 143 1 162 1 168 1 169 1 180 1 186 1 187 1 191 1 194 1 205 1 210 1 215 1 222 1 237 1 266 1 268 1 269 1 280 1 291 1 294 1 295 1 303 1 317 1 318 1 322 1 328 1 345 1 350 1 358 1 363 1 374 1 376 1 389 1 398 1 402 1 450 1 480 1 482 1 488 1 500 1 508 1 515 1 
1 200 2 2 24 1 28 1 34 1 53 1 64 1 70 2 84 1 94 1 99 1 110 1 114 1 118 1 131 2 136 1 140 1 148 2 165 1 168 2 172 2 175 1 193 1 198 1 201 1 204 1 227 1 229 1 230 1 231 1 234 1 238 1 242 1 246 1 248 1 254 1 268 1 278 1 296 2 306 1 307 1 392 1 408 1 381 1 428 1 448 1 391 1 378 1 412 1 452 1 400 1 410 1 485 1 461 1 397 1 426 2 442 1 409 1 377 1 407 1 488 1 347 1 340 1 330 1 7 1 14 1 20 1 48 1 57 1 60 1 69 1 71 1 79 1 89 1 93 1 97 1 112 1 119 1 127 1 133 1 145 1 146 1 154 1 159 1 173 1 190 1 207 1 216 1 232 1 237 1 241 1 247 1 266 1 277 1 282 1 290 1 325 1 355 1 360 1 361 1 371 1 375 1 387 1 390 1 398 1 413 1 429 1 443 1 463 1 471 1 501 1 508 1 509 1 512 1 517 1 519 1 
1 204 1 1 2 1 11 1 16 1 29 1 30 1 44 2 45 1 48 1 50 2 55 1 61 1 68 1 81 1 100 1 116 1 118 1 122 1 125 1 128 1 130 1 131 1 132 1 138 2 145 1 166 1 169 1 172 1 183 2 185 1 201 1 233 2 236 1 247 1 250 1 267 1 272 1 281 1 429 1 391 1 350 1 363 1 459 1 404 1 433 1 417 1 376 1 405 1 386 1 313 1 498 1 416 1 457 1 314 2 387 1 427 1 358 1 422 1 384 1 451 1 347 1 492 1 484 2 7 1 13 1 18 1 25 1 38 1 46 1 62 1 73 1 83 1 93 1 103 1 107 1 136 1 148 1 164 1 173 1 186 1 191 1 207 1 223 1 242 1 252 1 256 1 270 1 273 1 274 1 354 1 366 1 368 1 369 1 372 1 382 1 392 1 394 1 396 1 399 1 410 1 445 1 450 1 456 1 462 1 475 1 517 1 520 1 
1 215 1 1 3 2 10 1 21 1 28 1 30 1 69 2 72 1 80 1 82 1 93 1 97 1 108 1 113 2 119 1 121 2 137 1 139 1 140 1 148 2 167 1 168 1 169 1 176 1 185 1 186 1 203 1 209 1 215 1 216 1 219 1 220 1 221 1 225 2 232 1 243 1 269 1 295 1 303 1 312 1 483 1 486 1 472 1 382 1 407 1 352 1 394 1 479 1 417 1 371 1 389 1 413 1 433 1 391 1 492 1 354 1 499 2 326 1 405 1 447 1 402 1 314 1 432 1 454 2 347 1 8 1 14 1 23 1 24 1 29 1 33 1 43 1 44 1 50 1 59 1 95 1 114 1 117 1 120 1 122 1 130 1 136 1 142 1 155 1 172 1 181 1 187 1 200 1 250 1 256 1 261 1 275 1 294 1 297 1 307 1 317 1 318 1 331 1 345 1 357 1 359 1 364 1 369 1 395 1 404 1 412 1 428 1 431 1 438 1 441 1 460 1 464 1 471 1 473 1 478 1 482 1 505 1 506 1 510 1 
1 203 1 1 6 1 9 1 23 1 28 2 38 1 45 2 65 1 72 2 76 2 79 1 82 1 89 1 91 1 98 1 125 1 127 1 129 2 138 1 144 1 153 1 158 2 161 1 177 1 187 1 201 1 233 1 238 2 239 2 258 1 271 1 273 1 277 2 279 1 312 2 313 1 376 2 453 1 377 1 457 1 346 1 381 1 316 1 455 1 434 1 351 1 401 1 317 1 474 2 371 1 389 2 461 1 383 2 349 1 417 1 318 1 354 1 500 1 400 1 436 2 360 1 448 2 3 1 17 1 20 1 22 1 30 1 33 1 35 1 37 1 40 1 50 1 55 1 61 1 62 1 71 1 75 1 100 1 102 1 103 1 108 1 109 1 112 1 126 1 128 1 133 1 135 1 136 1 147 1 151 1 160 1 221 1 222 1 225 1 228 1 232 1 236 1 240 1 270 1 282 1 283 1 305 1 350 1 405 1 414 1 419 1 420 1 426 1 446 1 450 1 458 1 460 1 466 1 475 1 481 1 490 1 495 1 
1 206 12 1 15 2 21 1 24 1 43 1 76 1 86 2 88 1 93 1 109 1 115 1 118 1 131 1 142 1 146 1 152 1 157 1 169 1 177 1 178 1 179 1 184 1 192 1 208 1 217 1 230 1 233 1 239 1 244 1 259 1 265 1 268 2 285 1 309 1 481 1 392 1 415 1 460 1 430 1 499 2 398 1 456 1 356 1 468 1 423 1 427 1 497 1 420 1 442 1 500 1 350 1 419 1 493 1 358 1 501 1 63 1 81 1 84 1 87 1 100 1 138 1 166 1 172 1 187 1 197 1 227 1 238 1 264 1 267 1 282 1 296 1 308 1 326 1 335 1 346 1 352 1 353 1 367 1 369 1 371 1 382 1 391 1 396 1 397 1 403 1 404 1 407 1 413 1 414 1 450 1 464 1 465 1 473 1 480 1 483 1 505 1 
1 204 16 1 21 1 27 1 36 1 50 1 56 1 59 1 78 1 79 1 98 1 101 1 106 1 113 2 123 1 126 1 138 1 139 1 148 1 152 1 155 1 167 1 179 1 190 1 192 1 197 1 203 1 206 1 213 2 219 1 231 1 239 2 242 1 256 1 259 2 261 1 279 1 286 1 314 1 361 1 465 1 471 1 455 1 389 1 469 1 359 1 492 1 381 1 398 2 425 1 487 2 445 1 497 1 460 1 354 1 480 1 437 1 413 1 401 1 457 1 434 2 393 1 366 2 355 1 404 1 3 1 13 1 20 1 23 1 37 1 38 1 41 1 57 1 67 1 71 1 72 1 73 1 84 1 112 1 119 1 128 1 132 1 146 1 163 1 191 1 207 1 212 1 220 1 222 1 243 1 245 1 250 1 257 1 260 1 263 1 264 1 298 1 308 1 347 1 368 1 369 1 371 1 379 1 382 1 388 1 392 1 397 1 407 1 417 1 443 1 456 1 472 1 478 1 505 1 520 1 
1 203 1 1 3 1 11 1 12 1 31 1 33 1 40 1 45 1 58 1 59 1 73 1 75 1 91 1 93 1 94 1 105 1 106 1 118 1 124 1 127 1 128 2 129 1 131 1 158 1 161 1 170 1 185 1 191 1 195 1 218 1 219 1 223 1 230 1 238 1 248 1 254 1 257 1 265 1 277 1 282 1 291 1 314 1 458 1 359 1 465 1 354 1 348 1 474 1 428 1 320 1 367 1 411 1 478 1 496 1 483 1 419 1 332 1 356 1 444 1 364 1 453 1 341 1 376 1 398 1 351 1 10 1 15 1 16 1 20 1 28 1 35 1 44 1 47 1 48 1 52 1 55 1 63 1 69 1 85 1 112 1 137 1 142 1 163 1 165 1 167 1 189 1 205 1 212 1 215 1 221 1 226 1 234 1 242 1 259 1 273 1 274 1 285 1 305 1 310 1 313 1 322 1 324 1 352 1 365 1 370 1 378 1 384 1 390 1 401 1 406 1 416 1 418 1 421 1 422 1 426 1 435 1 446 1 447 1 449 1 452 1 466 1 476 1 479 1 488 1 497 1 498 1 
1 204 7 1 11 1 22 1 25 1 28 1 29 1 37 2 40 1 46 1 50 1 60 1 66 1 78 1 86 1 88 2 110 1 114 1 120 1 133 1 136 1 143 2 148 1 175 1 187 2 202 2 209 1 224 1 250 2 251 1 252 2 255 2 275 2 281 1 314 1 494 1 453 1 361 1 391 1 499 2 378 1 360 1 463 1 475 1 480 2 367 1 433 1 491 1 322 1 381 1 498 1 394 1 482 1 339 1 478 1 445 1 372 1 383 1 5 1 6 1 10 1 16 1 24 1 30 1 33 1 49 1 58 1 62 1 73 1 87 1 91 1 97 1 100 1 130 1 132 1 160 1 165 1 191 1 211 1 212 1 220 1 223 1 229 1 231 1 249 1 258 1 280 1 283 1 287 1 310 1 313 1 348 1 353 1 356 1 359 1 365 1 366 1 380 1 389 1 396 1 404 1 407 1 418 1 425 1 427 1 436 1 442 1 446 1 459 1 476 1 484 1 487 1 500 1 
1 201 15 1 26 1 29 1 37 1 47 1 63 1 66 1 69 1 73 1 78 1 80 1 83 2 88 1 112 1 129 1 132 1 137 1 138 1 154 1 161 1 166 2 174 1 176 1 188 1 196 1 198 1 200 1 212 1 217 1 220 1 232 1 252 1 254 1 259 1 260 2 263 1 268 1 270 1 278 1 286 1 294 1 454 1 422 1 479 1 475 1 405 1 476 1 467 1 386 1 433 1 398 1 463 1 432 1 446 1 388 1 436 1 457 1 431 1 341 1 397 1 438 1 408 1 358 1 1 1 12 1 46 1 54 1 75 1 85 1 94 1 99 1 105 1 108 1 120 1 139 1 153 1 170 1 171 1 173 1 183 1 204 1 216 1 221 1 229 1 235 1 245 1 280 1 282 1 290 1 293 1 328 1 332 1 370 1 381 1 384 1 419 1 421 1 423 1 424 1 441 1 465 1 470 1 477 1 482 1 484 1 486 1 489 1 493 1 495 1 499 1 514 1 
1 196 2 1 16 1 23 1 24 1 27 1 48 1 52 1 54 1 56 1 64 2 69 1 72 2 77 1 89 2 95 1 106 1 117 1 131 1 136 1 187 1 191 1 194 2 210 1 217 1 221 1 225 1 247 1 248 2 256 1 268 1 275 1 281 1 295 1 309 1 317 1 416 1 360 1 458 1 378 2 451 1 436 1 493 1 393 1 452 1 408 1 324 1 457 1 444 2 453 1 431 1 440 1 487 1 427 1 447 1 498 1 370 2 449 1 366 1 21 1 36 1 41 1 61 1 75 1 80 1 87 1 109 1 113 1 133 1 139 1 143 1 149 1 153 1 165 1 186 1 189 1 192 1 193 1 205 1 228 1 238 1 254 1 257 1 261 1 272 1 329 1 334 1 351 1 369 1 383 1 384 1 402 1 417 1 418 1 441 1 467 1 489 1 491 1 492 1 495 1 496 1 501 1 
1 191 9 1 26 2 41 1 45 1 50 1 58 2 62 1 75 2 77 1 90 1 104 1 118 1 120 1 186 1 197 2 201 1 213 1 214 2 219 1 221 1 227 1 248 2 254 2 268 1 274 1 431 1 444 1 397 1 379 1 440 1 354 1 388 1 398 1 454 2 498 1 499 1 328 1 406 1 441 1 403 1 430 1 380 1 336 1 478 1 353 1 335 1 323 1 11 1 19 1 24 1 27 1 34 1 54 1 55 1 81 1 94 1 95 1 106 1 116 1 133 1 145 1 151 1 154 1 160 1 170 1 174 1 182 1 207 1 215 1 216 1 218 1 243 1 263 1 283 1 290 1 294 1 307 1 322 1 331 1 337 1 352 1 362 1 369 1 399 1 420 1 436 1 450 1 457 1 460 1 462 1 469 1 479 1 484 1 492 1 495 1 506 1 
1 220 2 1 5 1 9 1 12 1 13 1 23 1 36 1 44 1 75 1 82 1 90 1 96 1 101 1 107 2 133 1 138 1 147 1 152 1 168 1 170 1 182 1 189 1 193 2 194 1 195 1 200 1 201 1 203 1 206 1 208 1 222 1 231 1 237 1 239 1 255 1 257 1 280 1 284 1 288 2 318 1 482 1 418 2 389 1 486 1 450 1 381 1 385 1 378 1 464 1 408 1 471 1 356 1 496 1 360 1 370 1 375 1 454 2 358 1 411 1 476 1 334 1 3 1 16 1 20 1 25 1 27 1 51 1 59 1 68 1 100 1 109 1 119 1 129 1 163 1 166 1 172 1 197 1 230 1 238 1 246 1 248 1 249 1 254 1 260 1 262 1 265 1 276 1 289 1 300 1 310 1 317 1 321 1 326 1 340 1 351 1 355 1 367 1 369 1 390 1 399 1 402 1 405 1 417 1 426 1 452 1 473 1 511 1 
1 199 1 1 26 1 32 1 42 1 57 1 62 1 66 1 70 1 85 1 87 2 91 1 92 1 95 1 98 1 103 1 122 1 127 2 142 1 145 2 151 1 152 1 153 1 159 1 171 1 185 1 195 1 202 2 206 1 208 1 209 1 217 1 235 1 236 1 238 1 243 1 295 1 301 1 321 1 385 1 419 1 360 1 410 1 429 1 373 1 395 1 358 1 399 1 423 1 352 1 375 2 362 1 412 2 405 1 370 1 369 1 2 1 6 1 10 1 11 1 16 1 18 1 21 1 22 1 39 1 48 1 64 1 96 1 112 1 116 1 125 1 135 1 136 1 141 1 149 1 174 1 186 1 188 1 212 1 219 1 228 1 239 1 257 1 262 1 264 1 277 1 286 1 290 1 297 1 336 1 357 1 363 1 396 1 397 1 401 1 414 1 422 1 433 1 453 1 454 1 473 1 484 1 513 1 521 1 
1 213 2 1 4 2 15 2 16 1 24 1 26 1 39 2 44 1 51 1 55 1 59 1 64 1 72 1 75 1 87 1 104 1 117 1 125 1 128 2 130 1 152 1 154 1 162 1 178 1 182 1 184 1 187 1 194 1 196 1 198 2 201 2 204 1 210 1 214 1 221 1 234 2 239 1 251 1 258 1 261 1 264 1 272 1 274 1 320 1 429 1 479 1 456 1 367 1 492 1 446 1 451 2 407 1 434 1 480 1 357 2 417 1 493 1 413 1 344 1 363 1 439 1 408 1 471 2 375 1 345 1 40 1 43 1 70 1 86 1 88 1 92 1 101 1 105 1 106 1 113 1 124 1 135 1 139 1 169 1 199 1 211 1 213 1 217 1 222 1 232 1 238 1 257 1 279 1 281 1 288 1 317 1 335 1 336 1 340 1 358 1 364 1 374 1 384 1 395 1 397 1 409 1 420 1 431 1 454 1 477 1 481 1 501 1 504 1 507 1 510 1 
1 212 17 1 33 1 38 1 64 1 80 2 92 2 102 1 106 1 116 1 123 1 140 1 145 1 148 1 149 1 151 1 153 1 156 1 159 1 161 1 177 1 206 1 211 1 212 2 227 1 232 1 235 1 254 1 263 1 286 1 290 1 291 1 384 1 471 1 401 1 387 1 415 1 413 1 497 1 332 1 390 1 369 1 326 1 331 1 421 1 463 1 423 1 404 1 354 1 405 1 494 2 22 1 24 1 29 1 32 1 47 1 48 1 49 1 54 1 69 1 71 1 73 1 81 1 85 1 93 1 100 1 110 1 139 1 141 1 152 1 158 1 167 1 169 1 179 1 185 1 189 1 194 1 200 1 215 1 239 1 246 1 252 1 270 1 271 1 280 1 293 1 311 1 329 1 333 1 342 1 359 1 362 1 366 1 367 1 377 1 394 1 409 1 411 1 412 1 419 1 435 1 438 1 444 1 469 1 473 1 485 1 489 1 498 1 507 1 
1 211 1 1 10 1 23 2 30 1 34 2 39 1 47 1 58 1 61 2 74 1 89 2 92 1 105 1 110 1 124 1 137 1 139 1 151 1 152 2 168 1 172 1 174 1 175 1 180 1 181 1 193 1 200 2 203 1 204 1 205 1 209 1 216 2 218 1 224 2 233 1 239 1 245 2 267 1 274 1 280 1 286 1 292 1 299 2 313 1 325 1 439 1 445 1 429 1 419 2 477 1 337 2 466 1 354 1 471 1 474 1 438 1 332 1 17 1 28 1 42 1 43 1 54 1 63 1 77 1 78 1 84 1 94 1 97 1 98 1 111 1 114 1 115 1 120 1 129 1 131 1 135 1 160 1 169 1 170 1 194 1 196 1 197 1 210 1 217 1 247 1 250 1 256 1 289 1 315 1 322 1 335 1 341 1 353 1 383 1 393 1 394 1 395 1 411 1 427 1 428 1 431 1 434 1 452 1 453 1 456 1 465 1 468 1 486 1 491 1 494 1 510 1 
1 203 2 1 10 1 15 1 17 1 19 1 34 1 37 2 43 1 49 1 69 1 79 1 82 1 83 1 86 1 87 1 93 1 94 1 97 1 100 1 118 1 148 1 150 1 154 1 178 1 181 1 185 1 186 1 198 1 200 1 203 1 223 1 237 1 265 1 266 1 268 1 272 1 274 1 278 1 280 1 281 1 283 2 284 1 286 1 289 1 290 1 305 1 490 1 391 1 369 1 494 2 445 1 431 1 407 1 440 2 334 1 360 1 437 1 340 1 456 1 385 1 441 1 395 2 439 1 449 1 22 1 23 1 24 1 36 1 45 1 71 1 78 1 92 1 103 1 145 1 146 1 158 1 170 1 171 1 182 1 190 1 208 1 221 1 232 1 247 1 248 1 249 1 251 1 253 1 256 1 260 1 277 1 282 1 295 1 300 1 367 1 383 1 402 1 404 1 409 1 410 1 422 1 428 1 448 1 451 1 458 1 469 1 
1 192 7 1 13 2 18 1 20 1 22 1 34 1 50 1 51 2 74 1 78 1 80 1 83 1 89 1 105 1 106 1 112 1 116 1 118 1 139 1 142 1 154 1 157 1 159 1 165 1 166 1 168 1 171 1 183 1 199 1 231 1 240 1 243 1 255 2 281 1 293 1 296 1 321 1 491 1 388 1 455 1 487 1 424 2 483 1 439 1 447 1 425 1 452 1 335 1 339 1 337 1 466 1 418 1 5 1 9 1 10 1 30 1 37 1 60 1 69 1 72 1 81 1 94 1 103 1 108 1 109 1 133 1 149 1 155 1 163 1 175 1 180 1 194 1 201 1 207 1 219 1 223 1 245 1 259 1 276 1 279 1 282 1 288 1 303 1 304 1 310 1 319 1 366 1 374 1 383 1 391 1 396 1 405 1 413 1 417 1 443 1 465 1 468 1 470 1 492 1 
1 199 2 1 9 1 31 1 54 2 60 1 62 1 68 1 71 2 77 1 84 1 93 1 99 1 120 1 126 2 128 1 148 1 157 1 163 1 176 2 185 1 190 2 198 1 203 1 204 2 209 1 212 1 215 1 221 1 228 1 234 1 236 1 239 1 241 1 242 1 249 2 268 2 276 1 295 1 458 1 385 2 367 1 379 1 398 1 481 1 362 1 371 1 463 1 382 1 407 1 393 1 358 2 484 1 390 1 456 1 12 1 20 1 37 1 40 1 45 1 46 1 78 1 80 1 83 1 103 1 123 1 155 1 164 1 167 1 181 1 188 1 191 1 193 1 206 1 224 1 247 1 254 1 264 1 269 1 270 1 278 1 279 1 281 1 291 1 297 1 298 1 320 1 325 1 340 1 399 1 429 1 442 1 450 1 451 1 455 1 461 1 476 1 482 1 483 1 487 1 493 1 500 1 516 1 518 1 
1 197 26 1 27 1 29 1 41 1 59 1 62 1 67 1 75 1 78 1 83 1 112 1 127 2 140 1 169 1 180 1 184 1 193 2 205 1 208 1 209 1 224 2 227 1 241 1 248 1 256 1 258 1 264 2 269 2 272 1 273 1 279 1 287 1 294 1 311 1 488 1 337 1 439 2 355 1 475 1 397 1 474 1 365 1 472 1 493 1 400 1 485 1 430 1 461 1 383 1 1 1 9 1 18 1 22 1 30 1 35 1 57 1 90 1 95 1 99 1 123 1 129 1 151 1 155 1 157 1 159 1 163 1 173 1 177 1 178 1 195 1 200 1 221 1 236 1 239 1 242 1 245 1 255 1 266 1 271 1 293 1 298 1 303 1 331 1 332 1 333 1 338 1 356 1 363 1 364 1 372 1 381 1 382 1 390 1 394 1 401 1 417 1 422 1 452 1 454 1 471 1 512 1 514 1 516 1 
1 217 15 1 21 1 25 1 30 1 35 1 41 1 44 1 56 1 57 2 59 1 60 1 62 2 82 1 83 1 90 2 93 1 102 1 108 1 115 1 128 1 132 1 135 1 136 1 166 1 203 1 213 2 218 1 229 1 232 1 251 1 254 1 285 2 286 2 287 1 299 1 302 1 325 1 396 1 363 1 488 1 397 2 430 2 401 1 411 1 458 1 444 1 428 1 417 1 402 1 455 1 432 1 10 1 11 1 17 1 22 1 23 1 61 1 88 1 91 1 101 1 105 1 127 1 141 1 142 1 148 1 155 1 171 1 173 1 178 1 183 1 184 1 192 1 193 1 194 1 197 1 212 1 220 1 226 1 227 1 247 1 252 1 261 1 313 1 321 1 330 1 339 1 344 1 349 1 357 1 358 1 364 1 370 1 374 1 391 1 410 1 416 1 420 1 424 1 459 1 468 1 482 1 484 1 490 1 499 1 510 1 518 1 520 1 
1 205 14 1 16 1 26 1 40 1 52 1 63 1 71 1 76 1 81 1 102 1 107 1 117 2 125 1 128 1 129 1 132 1 169 1 170 1 171 1 172 1 173 1 196 1 225 1 226 1 234 1 243 2 251 1 265 1 273 1 281 1 286 1 290 1 304 1 317 1 325 1 326 1 456 1 358 1 387 2 496 2 473 1 429 1 495 2 378 1 439 1 384 1 417 2 355 1 477 1 395 1 433 1 435 1 462 1 404 1 390 1 421 1 6 1 8 1 18 1 21 1 27 1 32 1 38 1 55 1 58 1 67 1 70 1 73 1 83 1 85 1 93 1 99 1 112 1 119 1 121 1 131 1 133 1 168 1 183 1 190 1 216 1 217 1 240 1 254 1 263 1 267 1 275 1 284 1 291 1 296 1 319 1 330 1 350 1 359 1 361 1 364 1 367 1 372 1 391 1 392 1 393 1 438 1 474 1 484 1 486 1 493 1 494 1 499 1 504 1 
1 219 3 1 9 1 10 1 12 1 26 1 35 1 40 2 42 1 47 1 53 1 54 1 64 1 65 1 68 1 69 2 80 1 102 1 105 1 111 2 117 1 127 1 134 1 139 2 151 2 154 1 164 1 183 1 210 1 212 1 224 1 234 1 260 1 285 1 292 1 297 1 298 1 307 1 431 1 373 1 464 2 408 1 499 1 386 1 376 1 437 1 338 1 460 1 496 1 501 1 446 1 412 1 383 1 369 1 368 1 377 1 366 1 403 1 15 1 18 1 23 1 33 1 37 1 38 1 45 1 71 1 85 1 91 1 98 1 119 1 137 1 141 1 142 1 156 1 176 1 189 1 205 1 211 1 216 1 219 1 220 1 231 1 266 1 304 1 325 1 330 1 375 1 392 1 395 1 396 1 407 1 411 1 414 1 427 1 429 1 432 1 441 1 449 1 456 1 466 1 469 1 471 1 474 1 478 1 515 1 521 1 
1 215 4 1 7 1 12 1 14 1 28 1 50 1 52 1 55 1 56 1 58 1 64 1 70 1 71 1 99 1 107 1 129 1 134 1 169 1 178 1 182 1 187 1 189 1 200 1 205 1 224 1 230 1 235 1 237 1 254 1 257 1 271 2 281 1 285 1 294 1 297 1 322 1 327 1 383 2 491 1 410 1 498 2 361 1 429 1 456 1 384 1 336 1 475 1 494 1 450 1 474 1 368 1 386 2 400 1 417 1 393 2 9 1 17 1 25 1 44 1 45 1 65 1 67 1 75 1 77 1 79 1 85 1 91 1 109 1 115 1 119 1 124 1 125 1 136 1 139 1 156 1 157 1 164 1 172 1 177 1 184 1 194 1 196 1 203 1 234 1 238 1 242 1 278 1 292 1 304 1 306 1 320 1 342 1 364 1 379 1 382 1 385 1 396 1 399 1 409 1 414 1 415 1 416 1 426 1 433 1 437 1 446 1 447 1 453 1 455 1 457 1 470 1 478 1 482 1 493 1 495 1 
1 191 4 1 9 2 11 1 16 1 27 1 29 2 38 1 44 2 53 1 65 1 72 1 87 1 92 1 103 1 121 1 122 1 127 2 129 1 147 1 148 1 151 1 159 1 197 1 201 1 202 1 205 1 221 1 243 1 245 2 246 2 253 1 267 1 282 1 321 1 328 1 372 1 490 1 409 1 383 1 375 1 496 1 444 1 357 1 370 1 342 1 451 1 345 1 378 1 431 1 377 1 428 1 384 1 422 2 399 1 492 1 373 1 14 1 22 1 59 1 74 1 84 1 88 1 89 1 90 1 94 1 95 1 116 1 130 1 138 1 145 1 158 1 174 1 182 1 195 1 220 1 265 1 268 1 276 1 288 1 292 1 299 1 315 1 324 1 326 1 336 1 355 1 365 1 367 1 404 1 408 1 421 1 424 1 435 1 436 1 464 1 468 1 474 1 477 1 478 1 485 1 486 1 501 1 505 1 508 1 510 1 
1 213 6 1 12 1 17 1 26 1 52 1 69 1 71 1 75 1 89 1 93 1 102 1 112 1 123 1 131 1 161 2 162 1 163 1 172 1 186 1 196 2 199 1 202 1 207 1 217 1 218 1 219 1 228 1 230 1 233 2 245 1 249 2 268 1 274 1 285 1 296 1 304 1 308 1 321 1 334 1 376 1 456 1 435 1 433 1 500 1 417 1 499 1 346 1 442 1 338 1 408 1 340 1 377 1 407 1 22 1 39 1 45 1 46 1 48 1 53 1 67 1 74 1 82 1 86 1 91 1 109 1 113 1 128 1 146 1 149 1 153 1 157 1 158 1 177 1 188 1 194 1 238 1 243 1 252 1 255 1 258 1 259 1 260 1 266 1 293 1 302 1 323 1 324 1 335 1 341 1 358 1 374 1 392 1 394 1 395 1 398 1 402 1 403 1 410 1 414 1 420 1 426 1 445 1 446 1 459 1 463 1 471 1 479 1 519 1 
1 234 9 1 11 1 16 1 49 1 55 1 64 1 65 1 75 2 80 1 83 1 86 2 98 1 99 1 104 1 114 1 126 1 134 1 136 1 144 1 153 1 154 1 155 1 163 1 164 1 169 1 173 1 188 1 190 1 195 1 197 1 198 1 200 1 216 1 223 1 224 1 230 1 231 2 241 1 249 1 261 1 271 1 276 1 280 1 289 1 294 1 305 2 326 2 328 1 330 1 418 1 435 1 429 1 427 1 430 1 444 1 491 1 440 1 344 1 419 1 472 1 388 1 448 1 379 1 342 1 1 1 7 1 43 1 45 1 53 1 58 1 59 1 71 1 84 1 93 1 107 1 110 1 111 1 116 1 117 1 138 1 172 1 174 1 184 1 186 1 191 1 206 1 208 1 219 1 222 1 227 1 233 1 235 1 236 1 245 1 265 1 277 1 291 1 321 1 345 1 360 1 364 1 371 1 378 1 380 1 383 1 396 1 415 1 433 1 438 1 441 1 454 1 468 1 477 1 499 1 503 1 510 1 515 1 
1 215 17 1 18 1 19 1 24 1 49 1 53 1 62 1 66 1 67 1 72 1 82 1 93 1 104 2 109 2 112 1 119 1 135 1 136 2 148 1 154 1 169 1 176 1 177 1 178 1 185 2 196 1 200 1 201 1 206 2 208 1 210 1 219 1 222 1 279 1 286 1 287 1 333 1 336 1 379 1 426 1 374 1 363 2 433 1 391 1 411 1 406 1 380 1 400 1 495 2 368 1 417 1 344 1 356 1 12 1 13 1 25 1 27 1 41 1 74 1 76 1 103 1 105 1 106 1 149 1 167 1 171 1 189 1 192 1 198 1 224 1 225 1 243 1 250 1 255 1 259 1 260 1 263 1 276 1 282 1 290 1 307 1 330 1 351 1 362 1 365 1 386 1 448 1 455 1 458 1 459 1 500 1 
1 210 4 1 11 1 26 1 38 1 45 1 62 1 64 1 66 1 73 1 77 1 79 1 88 1 90 1 98 1 102 1 109 1 111 1 119 1 128 1 136 1 147 1 148 1 150 1 154 1 163 1 164 1 169 1 180 1 184 1 188 1 194 2 196 1 208 1 211 1 225 1 227 1 230 1 233 2 245 1 252 2 255 1 262 1 303 1 318 1 328 1 375 1 340 1 360 1 438 1 397 1 495 1 401 2 420 1 465 1 487 2 406 1 400 1 468 1 474 1 363 1 490 1 19 1 22 1 27 1 40 1 60 1 65 1 67 1 74 1 107 1 110 1 117 1 152 1 160 1 170 1 192 1 199 1 201 1 202 1 213 1 222 1 226 1 229 1 243 1 248 1 258 1 276 1 278 1 282 1 292 1 306 1 308 1 331 1 383 1 387 1 389 1 405 1 416 1 423 1 426 1 433 1 449 1 454 1 470 1 478 1 482 1 485 1 493 1 499 1 
1 195 13 1 19 1 28 1 33 1 48 1 58 1 109 1 117 1 121 1 133 1 146 1 155 1 163 1 169 1 185 1 193 1 198 1 205 1 211 1 219 1 231 1 244 1 255 1 256 1 290 2 295 1 297 1 308 1 309 1 311 1 327 1 336 1 339 1 364 1 461 1 423 1 426 1 462 1 453 1 457 1 434 1 392 1 490 1 485 2 373 1 414 1 355 1 467 2 14 1 24 1 25 1 27 1 31 1 38 1 54 1 60 1 66 1 67 1 69 1 78 1 79 1 80 1 94 1 96 1 103 1 110 1 122 1 125 1 137 1 140 1 149 1 156 1 159 1 166 1 187 1 202 1 203 1 209 1 223 1 232 1 236 1 245 1 252 1 260 1 274 1 276 1 283 1 284 1 300 1 301 1 322 1 324 1 329 1 368 1 376 1 396 1 416 1 418 1 422 1 429 1 442 1 445 1 452 1 454 1 456 1 482 1 489 1 497 1 502 1 
1 189 12 2 14 1 26 2 32 2 34 1 38 1 49 1 51 2 73 2 89 1 97 1 107 1 113 1 120 2 122 1 127 2 129 1 140 2 166 1 174 2 178 2 181 1 186 1 196 1 209 2 210 2 217 1 226 1 230 2 236 1 239 1 244 1 254 1 268 1 273 1 275 1 280 1 301 1 304 1 317 1 319 1 485 1 427 1 415 1 363 1 428 1 397 1 401 1 342 1 372 1 399 1 430 1 409 1 413 1 380 1 499 1 434 1 478 1 4 1 33 1 42 1 44 1 46 1 48 1 54 1 93 1 112 1 125 1 130 1 133 1 146 1 156 1 168 1 175 1 219 1 233 1 246 1 267 1 269 1 283 1 300 1 305 1 307 1 326 1 336 1 353 1 364 1 371 1 373 1 375 1 385 1 400 1 403 1 406 1 414 1 425 1 449 1 455 1 461 1 464 1 476 1 488 1 490 1 501 1 511 1 
1 205 4 2 5 1 14 1 25 1 26 1 38 1 44 1 49 1 52 1 53 1 58 1 60 1 64 1 71 1 74 1 80 1 85 1 93 2 100 2 110 1 111 1 119 1 121 1 151 2 157 1 161 1 168 1 172 1 179 1 215 1 232 1 234 1 235 2 238 1 244 1 256 1 258 1 263 1 265 1 291 1 296 1 335 1 337 1 341 1 426 1 365 1 452 1 440 1 500 1 432 1 441 1 405 1 435 1 496 1 437 1 472 1 442 1 378 1 473 2 376 1 411 2 384 1 34 1 37 1 43 1 61 1 65 1 101 1 103 1 107 1 118 1 129 1 134 1 136 1 138 1 142 1 146 1 150 1 155 1 164 1 177 1 182 1 183 1 185 1 198 1 200 1 202 1 205 1 219 1 230 1 240 1 242 1 245 1 250 1 251 1 267 1 277 1 283 1 284 1 287 1 300 1 302 1 305 1 307 1 325 1 334 1 350 1 366 1 391 1 396 1 408 1 416 1 429 1 436 1 438 1 450 1 465 1 466 1 475 1 484 1 494 1 
1 202 1 1 19 1 22 1 30 1 46 2 66 1 68 1 76 1 85 1 87 1 90 1 94 1 97 1 101 1 104 1 114 1 127 1 129 1 130 1 140 1 158 1 168 1 185 1 186 2 204 1 210 1 214 1 221 1 227 1 228 1 249 1 254 1 257 1 267 1 274 2 290 2 387 1 490 1 460 1 379 1 442 1 487 1 446 1 464 1 393 2 395 1 352 1 494 1 399 1 435 1 498 1 434 1 388 1 397 1 430 1 5 1 23 1 31 1 34 1 37 1 42 1 59 1 60 1 111 1 113 1 120 1 121 1 124 1 141 1 149 1 152 1 161 1 167 1 170 1 193 1 194 1 198 1 203 1 212 1 213 1 218 1 229 1 235 1 255 1 256 1 260 1 263 1 268 1 278 1 289 1 293 1 296 1 351 1 375 1 401 1 403 1 412 1 422 1 423 1 438 1 450 1 475 1 477 1 489 1 504 1 
1 187 12 1 23 1 30 1 39 1 51 2 55 1 56 2 67 1 91 1 96 2 99 1 109 1 124 1 129 1 144 1 180 2 183 1 191 1 202 2 208 1 219 1 222 1 235 1 243 1 245 1 246 1 271 1 274 1 280 1 289 1 303 1 324 1 337 1 338 1 460 2 474 1 490 1 428 2 417 1 497 1 351 1 494 1 424 1 500 1 492 1 386 1 387 1 366 1 394 1 4 1 22 1 50 1 53 1 61 1 76 1 90 1 92 1 107 1 139 1 145 1 148 1 175 1 186 1 188 1 195 1 201 1 207 1 216 1 236 1 253 1 256 1 257 1 268 1 269 1 292 1 297 1 306 1 331 1 360 1 369 1 375 1 376 1 388 1 390 1 393 1 405 1 411 1 420 1 433 1 434 1 435 1 467 1 478 1 491 1 495 1 505 1 516 1 
1 189 2 1 18 1 27 1 29 2 42 1 64 1 66 1 72 1 83 1 85 1 102 1 121 1 126 1 136 2 139 1 141 1 150 1 157 1 164 1 180 1 181 2 197 1 198 1 201 2 204 1 211 1 229 1 231 2 232 1 239 1 241 1 243 1 246 1 254 1 255 1 264 1 277 1 300 1 301 1 308 1 324 1 335 1 470 1 427 2 392 1 467 1 421 1 449 1 399 1 481 1 474 1 476 1 493 1 472 1 473 1 401 1 348 1 477 1 387 1 457 2 351 1 499 1 3 1 5 1 12 1 22 1 62 1 70 1 77 1 93 1 99 1 103 1 114 1 118 1 147 1 153 1 156 1 159 1 160 1 176 1 177 1 195 1 224 1 230 1 260 1 261 1 271 1 285 1 288 1 310 1 313 1 337 1 369 1 371 1 380 1 406 1 422 1 425 1 429 1 441 1 447 1 458 1 459 1 498 1 501 1 
1 203 6 1 7 1 9 1 23 1 30 1 33 1 40 2 47 2 61 1 62 2 82 1 102 1 109 1 113 1 119 1 124 1 130 1 144 1 145 1 152 1 165 1 169 1 180 1 182 1 186 1 196 1 197 2 202 1 207 1 211 1 213 1 217 1 223 1 226 1 228 1 242 1 244 1 255 2 260 1 263 1 268 1 274 1 275 1 286 1 294 1 302 1 306 1 314 1 336 1 367 1 399 1 499 1 473 1 430 1 379 2 421 1 348 1 435 1 436 1 453 1 466 2 372 1 416 1 1 1 28 1 34 1 42 1 45 1 50 1 51 1 65 1 78 1 89 1 96 1 100 1 101 1 128 1 131 1 140 1 149 1 155 1 194 1 205 1 235 1 240 1 257 1 262 1 266 1 295 1 296 1 297 1 305 1 309 1 315 1 370 1 381 1 388 1 390 1 393 1 394 1 396 1 408 1 410 1 427 1 437 1 438 1 439 1 463 1 464 1 479 1 501 1 502 1 505 1 509 1 517 1 
1 211 12 1 16 2 36 1 51 1 70 2 76 1 80 1 83 1 86 1 92 1 97 1 100 1 103 2 109 1 111 1 118 1 120 1 148 1 175 1 187 1 198 1 212 1 213 1 231 1 232 1 246 1 248 1 256 1 264 1 266 1 270 1 281 1 283 1 286 1 293 1 300 1 308 1 310 1 311 1 312 1 313 1 398 2 406 1 500 1 438 2 413 1 370 1 372 1 448 1 477 1 436 1 423 1 397 1 384 1 415 1 391 1 353 1 463 2 434 1 389 1 441 1 491 1 487 1 424 2 7 1 15 1 50 1 71 1 87 1 122 1 125 1 152 1 163 1 181 1 184 1 186 1 192 1 200 1 203 1 209 1 210 1 228 1 234 1 249 1 254 1 265 1 273 1 274 1 278 1 291 1 305 1 307 1 316 1 350 1 390 1 416 1 417 1 427 1 430 1 439 1 440 1 467 1 475 1 489 1 494 1 499 1 513 1 519 1 
1 184 1 1 16 1 19 1 29 1 45 1 49 1 55 1 64 1 68 1 93 1 94 1 101 1 112 1 119 1 124 1 140 1 141 1 148 2 149 1 151 1 158 1 162 1 163 2 168 1 206 1 238 1 247 1 274 1 275 1 288 1 305 1 317 1 345 1 346 1 450 2 351 1 497 1 468 1 459 1 412 1 487 1 410 1 397 1 475 1 448 1 432 2 372 1 443 1 402 2 447 1 481 1 12 1 14 1 28 1 38 1 41 1 48 1 52 1 58 1 60 1 65 1 69 1 75 1 80 1 88 1 90 1 103 1 105 1 108 1 133 1 155 1 166 1 170 1 174 1 188 1 200 1 204 1 211 1 214 1 224 1 231 1 240 1 263 1 273 1 289 1 293 1 308 1 309 1 318 1 381 1 389 1 413 1 414 1 417 1 428 1 442 1 484 1 496 1 514 1 
1 201 21 1 27 1 36 1 39 1 41 1 61 2 78 1 86 1 88 1 91 1 105 1 106 1 108 1 112 2 113 1 123 1 131 1 137 1 148 1 156 1 170 1 173 2 184 1 189 1 191 1 204 1 208 2 218 1 221 1 239 1 277 1 282 1 283 1 305 1 314 1 471 1 412 2 405 1 455 1 395 1 450 1 449 1 404 2 428 2 458 1 462 1 482 1 6 1 16 1 19 1 26 1 28 1 38 1 50 1 52 1 67 1 69 1 97 1 100 1 118 1 125 1 163 1 168 1 172 1 186 1 190 1 220 1 232 1 238 1 245 1 248 1 256 1 295 1 304 1 331 1 356 1 358 1 373 1 375 1 385 1 387 1 389 1 401 1 411 1 415 1 416 1 433 1 447 1 461 1 468 1 495 1 497 1 500 1 508 1 
1 219 26 1 27 1 50 1 56 1 76 1 84 1 88 1 91 1 105 1 109 1 114 1 123 1 125 1 126 1 132 1 149 1 150 1 155 1 172 1 200 1 202 1 203 1 218 1 223 1 224 1 225 1 238 1 241 1 262 1 274 1 280 1 283 1 284 1 292 1 302 2 303 1 306 1 309 1 312 1 315 1 420 2 431 1 484 1 395 1 443 1 398 1 448 1 486 2 481 2 494 1 435 1 362 2 419 1 466 2 412 1 2 1 9 1 13 1 33 1 39 1 48 1 55 1 62 1 63 1 68 1 71 1 73 1 85 1 106 1 117 1 142 1 143 1 157 1 158 1 169 1 177 1 193 1 260 1 267 1 281 1 310 1 314 1 332 1 342 1 347 1 383 1 385 1 393 1 403 1 415 1 422 1 423 1 442 1 469 1 489 1 490 1 497 1 499 1 500 1 501 1 504 1 
1 219 8 2 11 2 12 1 25 1 34 1 46 1 59 2 73 1 74 1 81 1 83 1 88 1 98 1 105 1 112 1 117 1 119 1 120 1 132 1 133 1 139 2 147 1 148 1 152 1 160 1 169 1 179 1 182 1 201 2 212 1 215 1 224 2 227 2 235 1 237 1 238 1 247 2 250 1 258 1 260 1 263 1 281 1 283 1 285 1 294 1 302 1 305 1 310 1 314 1 317 1 344 1 345 1 348 1 470 1 472 1 380 1 465 1 433 1 387 1 436 1 358 1 482 1 453 2 21 1 39 1 43 1 44 1 50 1 55 1 56 1 61 1 63 1 70 1 93 1 99 1 108 1 109 1 111 1 114 1 131 1 135 1 138 1 141 1 146 1 149 1 157 1 166 1 175 1 178 1 232 1 239 1 262 1 267 1 272 1 282 1 292 1 320 1 322 1 338 1 343 1 359 1 363 1 382 1 390 1 401 1 411 1 451 1 461 1 462 1 477 1 503 1 508 1 
1 209 30 1 31 1 41 1 43 1 45 2 47 1 53 1 57 1 65 1 73 1 75 1 79 1 80 1 83 1 96 1 98 1 106 2 109 1 116 1 120 1 139 1 143 1 148 1 173 1 195 1 196 1 201 1 211 1 222 2 229 1 233 1 243 1 244 1 253 1 258 1 288 1 313 1 323 1 343 1 491 1 422 1 427 1 445 1 495 1 451 1 380 1 404 2 379 1 450 2 361 1 441 1 353 2 378 1 425 1 405 1 387 1 365 1 480 1 501 1 478 1 469 1 402 1 36 1 50 1 51 1 59 1 68 1 86 1 90 1 108 1 110 1 124 1 132 1 136 1 137 1 138 1 150 1 155 1 165 1 177 1 191 1 197 1 202 1 217 1 226 1 230 1 240 1 242 1 245 1 255 1 260 1 269 1 278 1 282 1 291 1 292 1 299 1 304 1 306 1 309 1 315 1 317 1 321 1 358 1 376 1 377 1 383 1 385 1 400 1 401 1 406 1 411 1 418 1 421 1 432 1 440 1 444 1 462 1 465 1 473 1 499 1 
1 202 9 1 26 1 27 1 31 2 33 1 34 1 54 2 64 1 74 1 97 1 100 1 113 1 119 1 122 1 123 1 125 1 131 1 132 1 143 1 147 1 152 1 177 1 178 1 187 1 197 1 209 1 213 1 221 1 228 1 236 1 239 2 245 1 273 1 274 1 284 1 291 1 300 1 321 1 347 1 352 2 471 2 410 2 404 1 465 2 437 1 484 1 406 2 474 2 393 2 464 1 377 1 421 1 453 1 489 1 442 1 8 1 11 1 13 1 21 1 43 1 46 1 47 1 48 1 55 1 58 1 62 1 83 1 93 1 95 1 102 1 133 1 142 1 165 1 168 1 172 1 174 1 198 1 200 1 205 1 215 1 224 1 229 1 230 1 231 1 233 1 238 1 253 1 272 1 281 1 294 1 295 1 297 1 298 1 302 1 307 1 315 1 318 1 326 1 341 1 356 1 358 1 378 1 395 1 420 1 440 1 443 1 447 1 458 1 462 1 469 1 477 1 485 1 488 1 518 1 
1 202 5 1 10 2 38 1 41 1 42 1 51 1 65 1 72 1 83 1 107 1 110 1 137 1 149 2 158 1 159 1 167 1 171 1 173 1 189 1 213 1 223 1 231 1 243 1 244 1 253 1 256 1 283 1 286 2 302 2 309 1 313 1 314 1 316 1 317 1 321 1 325 1 326 1 498 1 410 1 463 1 457 1 426 1 383 1 404 1 432 1 414 1 447 1 433 1 475 1 441 1 11 1 12 1 15 1 24 1 27 1 53 1 69 1 78 1 96 1 105 1 114 1 115 1 121 1 128 1 129 1 136 1 145 1 151 1 152 1 165 1 178 1 180 1 194 1 202 1 222 1 234 1 247 1 276 1 293 1 295 1 299 1 308 1 312 1 365 1 384 1 389 1 393 1 429 1 437 1 439 1 440 1 446 1 455 1 458 1 466 1 469 1 478 1 481 1 490 1 492 1 501 1 506 1 
1 220 7 1 11 1 18 1 20 1 37 1 42 1 52 1 67 1 76 1 85 1 86 1 107 1 137 1 141 1 144 1 150 1 162 2 164 1 171 1 174 2 175 1 184 1 190 1 195 1 199 1 214 1 220 1 232 2 239 1 260 1 265 1 267 2 268 1 270 1 272 1 286 1 293 1 303 1 308 1 316 1 330 1 332 1 340 1 482 1 483 1 445 1 404 1 391 1 424 2 477 1 367 1 471 1 397 1 428 1 490 1 434 1 441 1 356 1 487 1 5 1 10 1 34 1 51 1 56 1 60 1 64 1 68 1 69 1 71 1 78 1 81 1 102 1 109 1 110 1 130 1 135 1 136 1 170 1 185 1 186 1 187 1 192 1 196 1 206 1 215 1 236 1 248 1 254 1 261 1 284 1 288 1 311 1 322 1 335 1 366 1 389 1 399 1 401 1 405 1 409 1 412 1 420 1 433 1 442 1 444 1 455 1 467 1 469 1 479 1 493 1 496 1 503 1 
1 206 8 1 12 1 16 2 23 1 24 1 30 1 40 1 43 1 49 1 51 1 61 1 63 1 70 1 90 1 94 1 99 1 103 1 104 1 106 1 120 1 123 1 125 2 129 1 136 1 150 2 152 1 154 1 155 1 158 1 160 1 161 1 163 1 174 1 179 1 181 1 190 1 195 1 220 1 229 1 236 1 249 1 250 1 253 2 258 1 265 1 275 1 287 1 291 2 310 1 315 1 317 1 322 1 338 1 355 1 394 1 421 1 488 1 395 1 473 1 467 1 359 1 368 1 431 1 389 1 495 1 414 1 462 1 370 1 22 1 28 1 41 1 42 1 69 1 92 1 93 1 115 1 121 1 130 1 132 1 139 1 142 1 151 1 166 1 167 1 180 1 182 1 186 1 208 1 221 1 228 1 232 1 237 1 245 1 261 1 267 1 277 1 296 1 299 1 303 1 308 1 318 1 330 1 349 1 353 1 364 1 390 1 397 1 430 1 437 1 443 1 450 1 480 1 487 1 494 1 
1 198 2 1 5 1 22 1 42 1 58 1 67 1 68 1 69 1 73 1 77 1 79 1 88 2 91 1 97 1 106 1 126 2 130 1 132 1 137 2 140 1 153 1 156 1 164 1 167 1 171 1 197 1 209 1 228 1 256 1 290 1 306 1 308 1 324 2 335 1 460 2 454 1 386 1 484 1 367 1 408 1 463 1 472 2 372 2 459 1 385 2 419 1 359 1 458 1 3 1 14 1 19 1 20 1 23 1 31 1 37 1 46 1 50 1 56 1 84 1 94 1 100 1 107 1 109 1 110 1 119 1 122 1 199 1 213 1 215 1 217 1 219 1 227 1 229 1 230 1 233 1 235 1 240 1 259 1 289 1 303 1 313 1 323 1 331 1 360 1 403 1 407 1 411 1 412 1 436 1 448 1 449 1 455 1 470 1 476 1 483 1 491 1 495 1 510 1 518 1 519 1 
1 209 10 1 25 1 57 1 77 1 98 1 113 1 121 1 125 1 134 1 138 1 139 2 140 1 144 1 147 1 153 1 156 1 170 1 174 1 189 2 194 1 197 1 203 1 208 1 233 1 240 1 254 1 271 2 277 2 285 2 307 1 309 1 312 1 315 1 319 1 322 1 323 1 329 2 332 1 351 1 419 1 470 1 500 1 387 1 498 1 440 1 473 1 392 1 494 1 403 2 455 1 390 1 360 1 27 1 28 1 33 1 53 1 65 1 67 1 90 1 92 1 94 1 104 1 107 1 110 1 119 1 130 1 155 1 163 1 167 1 171 1 172 1 184 1 186 1 191 1 195 1 204 1 220 1 221 1 222 1 235 1 247 1 261 1 270 1 310 1 324 1 331 1 336 1 349 1 352 1 353 1 362 1 363 1 372 1 382 1 401 1 402 1 426 1 437 1 441 1 444 1 475 1 476 1 477 1 486 1 489 1 492 1 513 1 
1 199 19 1 20 2 23 2 57 1 66 1 75 1 81 1 85 2 91 1 93 1 94 1 99 1 115 1 117 1 137 1 145 2 156 1 163 1 168 2 175 1 178 1 195 1 203 1 221 2 225 2 229 1 234 1 245 1 263 1 276 1 277 1 284 1 285 2 287 1 293 1 295 1 297 1 298 1 299 2 301 1 303 1 307 1 310 1 316 1 317 1 356 1 357 1 421 1 492 1 477 1 397 1 404 1 362 1 491 1 400 1 482 1 390 1 484 1 367 1 1 1 12 1 16 1 30 1 35 1 53 1 69 1 80 1 86 1 96 1 103 1 109 1 112 1 118 1 122 1 136 1 140 1 160 1 161 1 165 1 173 1 176 1 190 1 199 1 205 1 218 1 246 1 265 1 266 1 270 1 313 1 318 1 325 1 332 1 351 1 399 1 414 1 417 1 449 1 452 1 453 1 471 1 472 1 498 1 508 1 511 1 514 1 
1 202 1 1 2 1 12 1 17 1 22 1 42 1 53 1 54 1 72 1 73 1 75 1 96 1 104 1 105 1 115 1 117 1 142 1 145 1 147 1 160 1 167 1 172 1 175 2 194 1 203 1 204 1 212 1 216 2 218 1 226 2 230 1 244 1 246 1 249 1 251 1 257 1 258 2 263 1 284 1 301 2 308 1 314 1 318 1 320 1 322 1 323 1 327 1 339 1 358 1 423 1 412 1 418 2 403 1 467 2 482 1 388 1 466 1 476 1 472 1 443 1 459 1 372 1 434 1 405 1 468 1 498 1 406 2 435 2 419 1 35 1 39 1 46 1 59 1 61 1 77 1 79 1 95 1 110 1 113 1 122 1 128 1 141 1 146 1 161 1 163 1 198 1 214 1 215 1 220 1 227 1 229 1 243 1 248 1 253 1 256 1 275 1 287 1 288 1 307 1 309 1 311 1 337 1 344 1 357 1 367 1 389 1 394 1 398 1 410 1 429 1 433 1 455 1 464 1 485 1 506 1 
1 207 9 1 10 1 12 1 30 1 31 1 32 1 41 1 42 2 51 1 57 1 65 1 74 1 91 1 109 1 113 2 116 1 125 2 126 1 151 1 154 1 164 1 171 2 189 1 197 1 216 1 231 1 232 1 236 1 240 1 246 1 259 1 270 1 272 1 274 1 275 1 289 2 298 1 299 2 304 1 316 1 318 1 334 1 352 1 436 1 442 1 418 1 443 1 429 1 394 1 447 1 391 1 499 1 378 1 383 1 399 1 388 1 479 1 2 1 14 1 16 1 34 1 36 1 39 1 43 1 48 1 49 1 53 1 55 1 56 1 61 1 70 1 71 1 88 1 90 1 106 1 134 1 162 1 183 1 185 1 194 1 202 1 204 1 208 1 217 1 224 1 235 1 249 1 265 1 281 1 282 1 290 1 303 1 311 1 332 1 364 1 373 1 377 1 397 1 400 1 402 1 404 1 412 1 416 1 456 1 462 1 466 1 476 1 477 1 483 1 488 1 508 1 514 1 520 1 
1 220 9 1 16 1 29 1 36 1 39 1 56 1 57 1 60 1 62 2 83 1 94 1 100 2 117 1 137 1 143 1 152 1 154 1 155 1 164 1 168 1 172 1 184 1 190 1 193 1 200 1 204 1 205 1 206 1 208 1 210 1 213 1 233 1 236 1 249 1 256 1 266 1 269 2 272 1 281 1 285 1 302 1 303 1 308 1 323 1 329 1 350 2 359 1 472 2 452 1 491 2 446 1 475 1 426 1 499 2 484 2 439 1 368 1 397 1 423 1 398 1 434 1 449 1 366 1 418 1 393 1 463 1 459 1 464 1 466 1 442 1 2 1 30 1 35 1 37 1 43 1 47 1 52 1 55 1 58 1 59 1 67 1 80 1 86 1 91 1 92 1 96 1 107 1 114 1 121 1 123 1 125 1 127 1 141 1 142 1 149 1 174 1 177 1 187 1 191 1 196 1 209 1 212 1 222 1 228 1 244 1 276 1 289 1 295 1 309 1 321 1 325 1 338 1 358 1 378 1 390 1 416 1 441 1 470 1 473 1 480 1 482 1 486 1 494 1 496 1 
1 184 3 1 16 1 20 1 23 1 24 1 34 2 47 1 58 1 61 2 62 1 64 1 67 2 68 1 88 1 89 2 100 1 104 2 113 1 118 1 128 1 140 1 141 1 154 1 166 1 172 1 176 2 182 1 188 1 191 2 205 1 215 1 220 1 221 2 230 1 232 1 249 1 253 1 254 1 263 1 274 1 281 1 286 1 295 1 299 1 312 1 324 1 331 1 338 2 339 1 341 1 475 1 443 2 470 1 433 1 424 1 450 1 457 1 421 1 377 1 396 1 501 1 481 1 464 1 368 2 460 2 420 1 422 1 1 1 9 1 15 1 18 1 30 1 57 1 60 1 63 1 65 1 94 1 102 1 123 1 125 1 126 1 142 1 150 1 153 1 160 1 163 1 168 1 179 1 183 1 197 1 216 1 218 1 219 1 224 1 236 1 250 1 255 1 269 1 270 1 279 1 283 1 284 1 304 1 308 1 310 1 323 1 330 1 351 1 358 1 401 1 452 1 455 1 472 1 476 1 483 1 484 1 489 1 519 1 
1 202 6 1 15 1 24 2 31 1 46 1 48 1 51 1 59 1 60 1 62 1 63 1 81 1 85 1 87 1 89 2 96 2 114 1 125 1 130 1 138 1 163 1 171 1 176 1 186 1 189 1 223 2 225 1 229 2 232 1 237 1 244 1 248 1 250 1 252 1 255 1 261 1 267 1 300 1 304 1 317 1 340 1 457 1 447 2 415 1 436 1 413 1 422 1 419 1 450 1 456 1 500 1 475 1 493 1 481 1 10 1 11 1 12 1 14 1 17 1 19 1 22 1 28 1 32 1 35 1 38 1 45 1 50 1 57 1 65 1 95 1 97 1 101 1 110 1 115 1 140 1 141 1 144 1 149 1 161 1 164 1 201 1 205 1 216 1 236 1 240 1 278 1 279 1 294 1 295 1 296 1 305 1 308 1 313 1 324 1 330 1 331 1 332 1 334 1 337 1 341 1 356 1 361 1 369 1 391 1 398 1 401 1 410 1 416 1 424 1 438 1 442 1 468 1 469 1 472 1 482 1 512 1 
1 218 5 1 6 2 21 1 29 1 34 1 44 1 45 1 48 1 69 1 72 1 84 2 87 1 89 1 93 1 107 1 129 1 130 1 138 1 140 1 163 1 171 1 176 1 179 1 181 1 195 2 212 1 216 1 219 1 249 1 252 1 255 1 258 1 259 1 267 1 268 1 273 1 280 1 285 1 287 2 291 1 304 1 307 1 330 1 342 1 352 1 453 1 494 1 495 1 411 1 477 1 418 1 405 1 470 1 372 1 400 1 366 1 398 1 376 1 1 1 8 1 10 1 18 1 20 1 35 1 64 1 83 1 94 1 101 1 109 1 110 1 112 1 120 1 137 1 153 1 158 1 165 1 180 1 199 1 204 1 206 1 238 1 241 1 242 1 243 1 261 1 263 1 271 1 272 1 299 1 302 1 308 1 309 1 317 1 318 1 335 1 338 1 354 1 375 1 394 1 395 1 407 1 415 1 425 1 476 1 482 1 492 1 499 1 503 1 
1 214 1 1 8 1 14 1 20 1 21 2 27 1 28 1 36 1 81 1 82 1 109 1 110 1 118 1 120 2 122 2 161 1 196 1 208 2 216 1 224 1 229 2 231 1 249 1 252 1 260 1 263 1 265 1 269 1 291 1 292 1 294 1 299 1 303 1 305 1 306 2 316 2 320 1 333 1 344 1 362 1 365 1 471 1 424 1 486 1 425 1 422 1 408 1 428 1 371 1 464 1 412 1 7 1 19 1 30 1 32 1 35 1 42 1 50 1 58 1 64 1 80 1 87 1 112 1 117 1 124 1 130 1 131 1 135 1 137 1 138 1 145 1 149 1 152 1 157 1 160 1 164 1 166 1 176 1 185 1 188 1 199 1 203 1 210 1 217 1 222 1 254 1 271 1 283 1 297 1 312 1 318 1 325 1 328 1 342 1 355 1 368 1 375 1 381 1 409 1 413 1 429 1 432 1 436 1 443 1 447 1 462 1 463 1 495 1 
1 213 9 1 20 1 41 1 43 1 65 1 66 1 85 1 96 1 99 1 117 1 137 1 140 1 144 1 153 1 169 1 171 2 179 1 199 1 203 1 205 2 210 1 211 1 214 1 215 1 223 1 224 1 228 1 230 1 232 1 235 1 238 1 246 1 249 1 261 1 262 1 273 1 285 1 301 1 310 1 317 1 318 1 324 1 329 1 346 1 355 1 357 1 359 1 493 1 465 1 398 1 409 1 406 1 476 1 1 1 11 1 13 1 19 1 21 1 26 1 45 1 47 1 48 1 57 1 58 1 93 1 98 1 101 1 109 1 123 1 127 1 132 1 133 1 135 1 138 1 166 1 167 1 170 1 172 1 175 1 186 1 187 1 189 1 206 1 213 1 243 1 258 1 272 1 278 1 289 1 296 1 315 1 322 1 325 1 327 1 332 1 335 1 360 1 370 1 381 1 415 1 421 1 423 1 438 1 442 1 444 1 468 1 481 1 491 1 500 1 511 1 
1 202 3 1 12 1 23 1 24 1 35 1 38 1 42 2 68 1 70 1 80 1 95 1 98 1 128 1 135 2 138 1 145 1 173 1 199 1 201 1 203 1 207 1 209 1 210 1 211 1 216 1 235 1 245 1 246 1 249 1 258 1 269 1 289 1 290 1 293 1 296 1 298 2 305 1 333 1 334 1 338 1 356 1 362 1 363 2 459 1 500 1 499 1 398 1 477 1 445 1 492 1 483 1 422 1 9 1 10 1 19 1 32 1 33 1 45 1 46 1 52 1 56 1 62 1 74 1 89 1 99 1 107 1 116 1 118 1 123 1 125 1 136 1 143 1 146 1 147 1 151 1 159 1 163 1 172 1 184 1 186 1 187 1 188 1 215 1 222 1 224 1 228 1 241 1 247 1 267 1 280 1 283 1 304 1 309 1 312 1 316 1 340 1 366 1 394 1 397 1 404 1 405 1 410 1 420 1 441 1 448 1 454 1 480 1 491 1 503 1 513 1 518 1 521 1 
1 199 4 1 19 1 38 2 46 1 50 1 66 1 71 1 76 1 86 2 93 2 116 1 126 1 133 1 135 2 136 1 154 1 157 1 160 1 168 1 171 1 179 1 192 1 193 1 204 1 210 1 214 1 215 2 217 1 223 1 226 1 235 1 242 1 259 1 260 1 261 1 274 1 280 1 283 2 285 1 287 2 302 1 323 1 325 1 327 1 333 1 496 1 458 1 442 1 432 1 452 1 426 1 468 2 427 1 448 1 408 1 493 1 497 1 413 1 387 1 406 1 1 1 9 1 16 1 17 1 20 1 31 1 45 1 61 1 68 1 82 1 83 1 101 1 107 1 134 1 142 1 144 1 145 1 165 1 186 1 194 1 201 1 208 1 212 1 224 1 230 1 231 1 252 1 256 1 292 1 305 1 308 1 312 1 313 1 315 1 316 1 320 1 321 1 322 1 344 1 345 1 364 1 373 1 374 1 396 1 399 1 430 1 433 1 437 1 450 1 461 1 490 1 
1 195 2 1 4 1 16 1 18 1 22 1 23 1 25 1 28 1 31 1 38 1 41 1 53 1 58 1 59 1 78 1 80 1 84 1 90 2 105 1 109 1 114 1 118 1 124 1 127 1 137 1 160 1 171 1 185 2 190 1 192 1 205 1 217 1 221 1 222 1 224 1 255 1 262 1 276 1 280 2 290 1 308 1 320 2 322 1 323 1 335 1 347 1 356 1 415 1 482 1 374 1 371 1 455 2 451 1 472 2 397 2 420 1 462 1 460 1 456 1 6 1 8 1 11 1 24 1 26 1 45 1 57 1 74 1 79 1 86 1 89 1 95 1 117 1 136 1 138 1 139 1 150 1 159 1 165 1 193 1 220 1 223 1 225 1 230 1 245 1 264 1 268 1 294 1 306 1 317 1 319 1 331 1 346 1 367 1 391 1 407 1 413 1 416 1 419 1 429 1 432 1 463 1 465 1 478 1 485 1 487 1 488 1 498 1 
1 186 6 1 11 2 39 1 48 1 52 2 53 1 56 1 57 1 63 1 68 1 74 1 93 1 104 1 121 1 123 1 127 1 136 1 145 1 163 1 178 2 179 1 188 2 189 1 209 1 222 1 223 1 232 1 237 1 246 2 257 1 260 1 261 1 275 1 280 1 287 1 296 2 313 1 314 1 329 1 366 1 370 1 484 1 403 1 398 1 418 1 467 1 471 1 421 1 451 1 486 1 473 2 443 1 491 1 415 1 385 1 396 2 434 1 388 1 21 1 49 1 58 1 60 1 89 1 107 1 114 1 124 1 126 1 130 1 146 1 147 1 149 1 162 1 164 1 171 1 190 1 195 1 196 1 201 1 206 1 219 1 226 1 233 1 238 1 243 1 250 1 254 1 272 1 277 1 281 1 284 1 291 1 298 1 303 1 306 1 311 1 315 1 316 1 337 1 341 1 345 1 406 1 444 1 459 1 464 1 483 1 493 1 498 1 
1 204 14 1 17 1 31 1 44 1 46 1 50 1 77 1 85 2 96 2 101 1 102 1 113 2 119 1 129 1 130 1 138 2 141 1 143 1 148 1 149 1 176 2 182 1 185 1 187 2 190 1 193 1 210 1 230 1 232 1 250 1 253 1 258 2 276 1 279 1 285 1 286 1 295 2 299 1 301 2 308 2 318 1 335 1 341 1 346 1 347 1 348 1 357 2 360 1 365 1 486 1 422 1 445 2 415 1 397 2 446 1 463 1 427 1 471 1 444 1 381 1 440 1 438 1 1 1 6 1 37 1 51 1 55 1 73 1 84 1 116 1 122 1 171 1 177 1 181 1 195 1 200 1 202 1 205 1 213 1 214 1 237 1 241 1 243 1 245 1 246 1 247 1 249 1 263 1 277 1 303 1 304 1 312 1 330 1 332 1 358 1 373 1 376 1 377 1 412 1 416 1 423 1 424 1 426 1 437 1 451 1 457 1 474 1 482 1 492 1 511 1 519 1 
1 200 16 1 42 1 51 1 62 1 75 1 77 1 83 1 94 1 100 1 104 1 120 2 141 1 144 1 152 1 169 1 173 1 177 1 189 1 194 1 197 2 212 1 213 1 235 2 238 1 239 1 242 1 243 2 246 1 267 2 306 1 323 1 333 1 335 1 340 1 478 1 492 1 407 1 404 1 439 1 419 1 436 2 426 1 390 1 449 2 416 1 438 1 2 1 8 1 24 1 33 1 64 1 67 1 99 1 103 1 121 1 133 1 140 1 145 1 156 1 200 1 208 1 217 1 222 1 233 1 240 1 251 1 256 1 279 1 280 1 296 1 308 1 341 1 349 1 361 1 369 1 372 1 411 1 429 1 433 1 440 1 451 1 452 1 453 1 459 1 469 1 487 1 489 1 493 1 495 1 503 1 506 1 515 1 
1 215 22 2 23 2 27 1 35 1 39 1 58 1 64 1 84 1 96 2 97 1 103 1 108 1 114 1 116 1 129 1 139 1 153 1 156 1 161 1 171 1 173 1 177 1 186 1 189 1 201 1 203 1 219 1 223 1 232 1 243 1 244 2 246 1 249 1 258 1 287 2 288 1 290 1 304 1 338 1 370 1 421 1 404 2 419 2 428 1 399 1 493 1 424 1 379 1 500 1 376 1 467 1 490 1 482 1 499 1 9 1 10 1 15 1 20 1 26 1 47 1 48 1 68 1 71 1 73 1 81 1 113 1 118 1 125 1 128 1 150 1 157 1 164 1 166 1 176 1 200 1 206 1 216 1 217 1 225 1 230 1 234 1 235 1 251 1 254 1 256 1 269 1 273 1 274 1 280 1 293 1 297 1 300 1 310 1 324 1 328 1 331 1 336 1 369 1 422 1 423 1 430 1 432 1 438 1 442 1 454 1 456 1 473 1 495 1 511 1 520 1 
1 212 13 1 16 1 46 1 61 1 73 1 78 1 79 1 81 1 84 1 87 1 107 1 112 1 121 1 154 1 176 1 187 1 201 1 206 1 210 1 226 1 240 1 251 1 259 1 260 1 261 1 262 1 265 1 270 1 273 1 290 1 291 1 300 2 308 1 310 2 322 1 323 2 324 1 335 1 339 1 378 2 412 1 403 1 479 1 496 1 380 1 497 1 473 1 454 1 495 1 460 2 481 1 389 1 10 1 22 1 41 1 53 1 85 1 104 1 117 1 123 1 125 1 129 1 132 1 135 1 137 1 141 1 145 1 146 1 150 1 151 1 156 1 163 1 166 1 171 1 174 1 215 1 224 1 230 1 238 1 246 1 250 1 252 1 257 1 264 1 269 1 271 1 272 1 277 1 282 1 284 1 285 1 286 1 309 1 311 1 333 1 341 1 343 1 344 1 349 1 365 1 366 1 406 1 413 1 420 1 435 1 438 1 447 1 448 1 452 1 458 1 467 1 474 1 489 1 493 1 516 1 
1 202 3 1 8 1 9 1 12 2 29 1 30 1 44 1 45 2 46 1 71 1 86 1 91 2 94 1 99 1 112 1 117 2 135 1 147 1 152 2 166 1 167 1 168 1 176 1 189 1 195 1 208 1 210 1 216 1 218 1 236 1 239 1 259 2 276 2 302 1 305 2 306 2 312 1 314 2 317 1 333 1 336 1 342 1 365 1 374 1 430 1 496 1 436 1 411 1 406 1 487 1 378 1 473 1 396 2 415 1 4 1 7 1 19 1 22 1 26 1 32 1 34 1 43 1 53 1 55 1 61 1 70 1 89 1 98 1 102 1 106 1 108 1 114 1 128 1 132 1 134 1 139 1 142 1 161 1 170 1 172 1 193 1 199 1 201 1 206 1 209 1 227 1 234 1 242 1 249 1 254 1 269 1 272 1 291 1 304 1 310 1 340 1 344 1 352 1 372 1 407 1 408 1 434 1 442 1 445 1 453 1 460 1 467 1 469 1 491 1 495 1 
1 204 12 1 35 1 43 2 47 1 48 1 59 1 63 1 87 1 90 2 103 1 107 1 108 1 109 1 113 2 120 1 121 1 141 1 144 1 145 1 155 1 156 2 157 1 161 1 177 1 189 1 200 1 202 1 208 1 227 2 240 1 242 1 243 1 245 1 248 2 251 1 254 1 263 1 292 1 296 2 308 1 311 1 314 1 333 1 335 1 336 1 353 1 363 1 417 1 458 1 467 1 428 1 426 1 431 1 495 1 452 1 488 1 459 2 409 1 11 1 20 1 21 1 36 1 46 1 66 1 67 1 80 1 93 1 149 1 151 1 160 1 172 1 186 1 199 1 206 1 212 1 214 1 217 1 225 1 249 1 250 1 256 1 261 1 266 1 300 1 301 1 325 1 352 1 361 1 372 1 396 1 413 1 415 1 451 1 469 1 472 1 476 1 480 1 486 1 498 1 521 1 
1 227 12 1 14 1 15 2 31 1 35 1 41 1 47 1 65 1 68 1 81 2 89 1 96 1 100 1 104 1 121 1 131 2 132 1 135 1 145 1 147 1 158 1 182 1 185 1 191 1 193 1 211 1 216 1 249 1 257 1 260 1 262 1 267 1 270 1 274 1 275 1 297 1 305 1 306 1 311 1 318 1 320 2 322 1 332 1 335 1 342 1 352 1 361 1 375 2 376 1 448 1 493 1 404 1 437 1 405 1 466 1 464 1 465 1 496 1 450 1 474 2 387 1 389 1 11 1 20 1 29 1 30 1 34 1 38 1 42 1 44 1 45 1 55 1 60 1 61 1 67 1 69 1 78 1 80 1 101 1 115 1 140 1 146 1 176 1 181 1 192 1 207 1 221 1 228 1 237 1 247 1 248 1 255 1 282 1 287 1 294 1 308 1 317 1 337 1 353 1 362 1 394 1 413 1 415 1 418 1 454 1 457 1 482 1 484 1 490 1 518 1 
1 229 6 1 12 1 20 1 23 1 56 1 61 2 79 1 82 1 83 1 89 1 105 2 106 1 108 1 119 1 129 1 147 1 150 1 155 1 169 1 172 1 179 1 185 1 189 1 202 1 205 1 206 1 207 1 211 1 214 1 227 1 233 1 235 1 242 1 260 1 263 1 276 2 281 1 290 2 305 1 321 1 329 1 337 1 338 1 343 1 346 2 352 1 374 1 452 1 486 1 494 1 442 1 380 1 407 1 448 1 451 1 381 1 492 1 470 1 498 1 415 1 432 1 445 1 446 2 29 1 33 1 62 1 64 1 65 1 71 1 74 1 80 1 84 1 92 1 96 1 112 1 115 1 116 1 137 1 140 1 148 1 149 1 160 1 165 1 175 1 192 1 193 1 196 1 197 1 200 1 208 1 219 1 226 1 243 1 245 1 248 1 255 1 271 1 292 1 316 1 334 1 389 1 396 1 408 1 409 1 411 1 427 1 428 1 435 1 449 1 464 1 502 1 505 1 519 1 520 1 
1 188 1 1 2 1 6 2 33 2 46 1 56 2 60 1 69 1 71 1 77 1 99 1 101 1 125 1 128 1 133 1 139 1 151 1 158 1 159 1 162 1 165 1 177 1 178 1 217 1 232 1 251 1 253 1 275 1 276 1 280 1 306 1 321 1 338 1 341 1 351 1 352 1 375 1 379 1 480 1 422 1 464 2 446 1 463 1 455 1 498 1 421 2 433 1 423 1 403 1 406 1 388 1 383 1 386 1 442 1 430 1 14 1 18 1 21 1 22 1 29 1 32 1 48 1 61 1 70 1 75 1 85 1 93 1 96 1 104 1 105 1 129 1 135 1 148 1 153 1 185 1 186 1 187 1 188 1 190 1 191 1 194 1 245 1 246 1 272 1 273 1 274 1 295 1 296 1 303 1 304 1 318 1 337 1 345 1 404 1 408 1 414 1 432 1 450 1 453 1 454 1 456 1 477 1 485 1 493 1 499 1 512 1 
1 196 1 1 14 1 18 1 26 2 40 1 41 1 42 1 44 1 54 1 63 1 64 1 74 1 82 1 83 1 88 1 95 1 105 1 110 1 112 1 116 1 125 1 139 1 153 1 154 1 162 1 165 1 166 1 196 1 200 1 219 1 220 1 222 2 229 1 240 1 241 1 248 1 250 1 268 1 304 1 311 1 314 1 316 1 318 1 322 1 372 1 379 1 478 2 465 1 411 1 495 1 491 1 492 1 455 1 4 1 6 1 11 1 15 1 33 1 37 1 50 1 58 1 60 1 61 1 65 1 81 1 86 1 87 1 91 1 93 1 98 1 106 1 121 1 177 1 188 1 197 1 212 1 214 1 224 1 228 1 246 1 254 1 256 1 266 1 273 1 279 1 289 1 292 1 297 1 299 1 305 1 319 1 330 1 346 1 348 1 366 1 367 1 389 1 391 1 395 1 416 1 424 1 426 1 430 1 434 1 453 1 468 1 469 1 473 1 480 1 493 1 494 1 502 1 
1 198 2 1 3 1 8 1 9 1 16 1 22 1 53 1 64 1 65 1 73 1 81 1 87 1 102 1 122 1 130 1 131 1 145 2 146 1 147 1 156 2 173 1 175 2 182 1 186 2 195 1 202 1 203 2 212 1 216 1 219 1 230 1 239 1 240 1 255 1 279 1 299 1 300 1 303 1 313 1 329 1 421 1 491 1 450 1 463 1 417 1 435 1 490 1 439 1 407 1 456 1 24 1 29 1 55 1 57 1 63 1 69 1 90 1 106 1 111 1 123 1 129 1 132 1 150 1 154 1 164 1 179 1 192 1 197 1 204 1 215 1 223 1 227 1 245 1 289 1 294 1 305 1 306 1 308 1 312 1 315 1 316 1 330 1 334 1 351 1 358 1 387 1 388 1 423 1 434 1 446 1 457 1 460 1 467 1 469 1 472 1 478 1 483 1 496 1 514 1 
1 221 4 1 5 1 7 1 8 1 22 1 23 1 24 2 28 1 34 1 36 2 50 1 55 1 56 1 57 1 67 1 78 1 83 1 91 1 103 1 120 1 135 2 139 2 141 2 155 1 165 1 168 1 173 1 177 1 179 1 202 1 215 1 227 1 239 1 256 1 258 1 259 1 282 1 289 1 297 1 301 1 314 2 318 1 330 1 333 1 334 2 335 1 354 1 361 1 380 1 467 1 485 1 486 2 411 1 496 1 408 1 426 1 431 1 454 1 441 1 427 1 456 2 494 1 471 1 412 1 393 2 398 1 12 1 29 1 30 1 32 1 58 1 63 1 69 1 72 1 76 1 86 1 89 1 96 1 101 1 102 1 110 1 114 1 115 1 123 1 129 1 136 1 151 1 157 1 164 1 166 1 185 1 196 1 197 1 199 1 212 1 236 1 244 1 246 1 247 1 262 1 266 1 287 1 306 1 320 1 326 1 327 1 328 1 337 1 339 1 350 1 352 1 387 1 415 1 420 1 425 1 436 1 443 1 446 1 457 1 479 1 482 1 484 1 493 1 507 1 508 1 521 1 
1 221 5 2 7 2 9 1 15 1 17 1 27 1 33 1 34 1 47 1 52 1 58 1 60 1 69 1 73 2 77 1 85 1 88 1 103 1 113 1 114 1 116 1 120 1 133 1 144 1 153 1 154 1 155 1 195 1 197 1 216 1 228 1 235 1 242 1 254 1 255 1 262 1 263 1 266 1 291 1 296 1 301 1 302 1 303 1 304 1 307 1 308 2 310 1 312 1 325 1 332 1 334 1 335 1 342 1 347 1 420 1 498 1 425 1 499 1 468 1 455 1 487 1 428 1 412 2 450 1 401 1 494 1 1 1 42 1 44 1 53 1 59 1 63 1 89 1 93 1 102 1 105 1 119 1 124 1 130 1 147 1 150 1 152 1 165 1 167 1 171 1 188 1 202 1 209 1 213 1 222 1 232 1 244 1 256 1 317 1 319 1 320 1 324 1 354 1 398 1 411 1 414 1 422 1 445 1 447 1 478 1 485 1 506 1 
1 218 10 1 15 1 18 1 24 1 29 1 59 1 61 1 69 1 73 1 81 1 87 1 90 1 95 1 103 1 106 1 118 1 119 1 129 1 132 2 133 1 138 1 143 1 147 1 165 1 166 1 169 1 171 1 181 1 183 1 184 2 186 1 194 1 202 1 203 2 210 1 213 2 217 1 228 1 236 1 239 1 255 1 258 1 260 1 266 1 271 1 281 1 295 1 322 1 323 1 327 1 329 2 357 2 371 1 469 1 455 1 456 1 463 1 434 1 474 1 483 1 487 1 422 1 494 1 461 1 459 1 460 2 501 1 414 1 454 1 396 1 22 1 31 1 44 1 56 1 57 1 60 1 63 1 65 1 92 1 105 1 112 1 113 1 127 1 139 1 145 1 149 1 158 1 163 1 177 1 180 1 198 1 205 1 206 1 211 1 214 1 230 1 240 1 242 1 267 1 272 1 275 1 284 1 286 1 287 1 288 1 334 1 341 1 349 1 350 1 352 1 398 1 417 1 419 1 420 1 427 1 430 1 435 1 481 1 482 1 485 1 488 1 
1 194 13 1 16 1 24 2 38 2 39 1 45 1 56 2 65 1 70 1 76 1 77 1 88 1 91 1 102 1 109 1 123 1 130 1 132 1 133 1 138 1 147 1 148 1 152 2 158 1 159 1 182 1 200 1 209 1 211 2 236 1 240 2 242 1 262 1 266 1 271 1 279 1 284 1 300 1 307 1 312 1 319 1 333 1 334 2 344 1 357 1 380 1 466 1 483 1 422 1 427 1 441 1 440 1 488 1 437 1 424 1 2 1 19 1 35 1 37 1 48 1 57 1 82 1 83 1 97 1 98 1 105 1 110 1 118 1 121 1 128 1 134 1 145 1 155 1 161 1 171 1 187 1 190 1 198 1 204 1 205 1 216 1 226 1 247 1 253 1 254 1 255 1 268 1 275 1 278 1 282 1 283 1 292 1 303 1 306 1 338 1 412 1 425 1 442 1 445 1 462 1 474 1 475 1 502 1 504 1 
1 211 3 1 12 1 18 2 64 2 80 1 85 2 86 1 94 1 105 1 115 1 117 1 121 1 130 1 133 1 137 1 144 1 152 2 161 2 166 1 192 2 194 1 195 1 205 1 216 1 226 2 234 1 236 1 242 1 244 1 252 1 254 1 255 1 256 1 261 1 267 2 269 1 287 1 299 1 302 1 304 1 305 2 312 1 325 1 332 2 343 1 344 1 345 1 351 1 352 1 358 1 369 1 378 1 475 1 432 1 433 1 389 1 428 1 390 2 463 1 434 1 423 1 473 1 480 2 397 1 404 1 10 1 13 1 17 1 46 1 54 1 65 1 68 1 112 1 125 1 136 1 141 1 145 1 148 1 151 1 159 1 172 1 181 1 190 1 202 1 204 1 213 1 217 1 221 1 225 1 229 1 230 1 237 1 240 1 265 1 275 1 278 1 285 1 301 1 311 1 339 1 349 1 382 1 383 1 415 1 420 1 427 1 450 1 458 1 486 1 490 1 494 1 520 1 521 1 
1 207 7 1 19 1 43 1 46 2 53 1 67 2 73 1 97 1 99 1 118 1 129 1 133 1 134 2 141 1 149 1 150 1 151 1 161 1 172 1 179 1 196 1 215 2 222 1 224 1 227 1 233 2 236 1 246 1 256 1 263 1 268 2 274 1 278 1 280 1 282 1 292 1 297 2 301 1 303 1 319 1 321 1 328 1 337 1 343 1 360 1 361 1 371 1 380 1 478 1 468 1 414 1 476 1 491 1 449 1 451 1 10 1 18 1 28 1 32 1 36 1 40 1 47 1 57 1 59 1 66 1 74 1 76 1 78 1 79 1 85 1 88 1 90 1 104 1 119 1 140 1 154 1 169 1 184 1 198 1 199 1 235 1 248 1 249 1 250 1 254 1 262 1 264 1 276 1 308 1 316 1 344 1 346 1 382 1 396 1 403 1 441 1 456 1 475 1 488 1 492 1 497 1 499 1 
1 196 6 1 7 1 11 1 24 1 40 1 46 1 57 1 63 1 97 1 98 1 99 1 102 1 104 1 112 1 115 1 144 1 151 1 152 1 171 2 182 1 185 1 200 1 231 1 238 1 244 1 274 1 278 1 281 1 285 1 293 1 303 1 313 1 314 2 316 1 322 1 347 1 356 1 375 1 378 1 387 1 482 1 500 1 392 2 498 1 483 1 472 1 401 1 447 1 493 1 423 1 480 1 459 1 5 1 9 1 25 1 39 1 64 1 69 1 75 1 82 1 86 1 94 1 103 1 122 1 130 1 157 1 159 1 167 1 180 1 184 1 190 1 193 1 196 1 198 1 211 1 226 1 229 1 234 1 254 1 279 1 282 1 291 1 292 1 296 1 301 1 310 1 318 1 339 1 348 1 349 1 354 1 355 1 360 1 379 1 381 1 397 1 400 1 428 1 436 1 439 1 440 1 441 1 444 1 448 1 451 1 463 1 470 1 496 1 499 1 503 1 519 1 
1 194 4 1 14 2 23 1 35 1 45 1 52 2 56 1 63 2 67 2 69 1 78 1 81 2 82 1 107 1 120 1 129 1 136 1 141 1 142 2 144 1 146 1 149 1 156 1 171 1 178 2 179 1 180 1 184 1 201 1 211 1 213 1 214 2 215 1 241 1 252 1 280 1 284 1 285 1 292 1 325 1 329 1 332 1 358 1 359 1 373 1 387 2 420 2 467 1 451 2 395 1 488 1 397 1 429 1 423 1 454 2 39 1 60 1 72 1 85 1 109 1 112 1 126 1 132 1 135 1 150 1 153 1 154 1 186 1 208 1 210 1 216 1 217 1 218 1 242 1 244 1 261 1 286 1 287 1 291 1 294 1 302 1 303 1 304 1 311 1 317 1 322 1 330 1 344 1 346 1 347 1 351 1 356 1 362 1 424 1 436 1 446 1 457 1 462 1 465 1 469 1 474 1 476 1 478 1 490 1 
1 203 9 1 12 1 15 1 19 1 41 1 62 1 63 2 81 1 91 1 108 2 115 1 144 1 147 1 151 1 164 1 171 1 176 1 182 1 207 1 209 1 218 1 230 1 237 1 242 1 249 1 261 1 273 1 277 1 279 1 300 1 305 2 306 1 311 1 312 1 313 1 318 1 327 1 338 1 347 1 355 1 361 1 394 1 418 2 395 2 449 1 478 1 399 1 445 1 400 1 447 2 482 1 458 1 494 1 5 1 6 1 14 1 31 1 39 1 53 1 61 1 65 1 67 1 82 1 105 1 109 1 119 1 129 1 133 1 149 1 172 1 173 1 180 1 184 1 187 1 190 1 198 1 203 1 206 1 213 1 235 1 252 1 257 1 289 1 303 1 308 1 315 1 328 1 331 1 332 1 342 1 364 1 370 1 381 1 404 1 426 1 432 1 438 1 440 1 441 1 450 1 460 1 463 1 465 1 477 1 509 1 
1 193 7 1 10 1 15 1 19 1 20 1 30 1 67 1 78 1 87 2 93 1 112 1 125 1 142 1 147 1 167 1 171 1 185 1 201 1 220 2 228 1 232 1 238 1 241 2 246 1 247 1 248 1 274 1 286 1 292 1 295 1 303 1 309 1 311 1 315 1 340 1 345 1 358 1 389 2 500 1 459 1 443 1 470 1 433 1 428 1 482 1 465 1 426 1 498 1 3 1 8 1 33 1 45 1 74 1 80 1 107 1 117 1 154 1 165 1 170 1 174 1 175 1 186 1 190 1 212 1 217 1 223 1 230 1 255 1 256 1 263 1 289 1 305 1 306 1 312 1 316 1 332 1 333 1 336 1 419 1 447 1 449 1 455 1 458 1 460 1 461 1 464 1 466 1 475 1 476 1 477 1 487 1 488 1 496 1 503 1 
1 203 1 1 6 1 37 1 39 2 43 1 48 1 68 1 75 1 82 1 97 1 98 1 111 1 118 2 127 1 136 1 139 1 144 1 174 1 182 1 188 1 190 1 202 1 209 1 210 1 218 1 221 1 228 1 231 1 265 1 274 1 280 1 290 2 293 2 306 1 316 1 320 1 329 1 334 2 343 2 353 2 362 1 383 2 429 1 489 1 454 1 399 1 443 1 395 1 460 1 420 1 404 1 499 2 23 1 27 1 32 1 40 1 56 1 63 1 85 1 106 1 109 1 115 1 116 1 119 1 121 1 123 1 134 1 145 1 158 1 176 1 183 1 203 1 206 1 208 1 220 1 223 1 227 1 236 1 246 1 260 1 263 1 279 1 298 1 326 1 332 1 344 1 346 1 350 1 354 1 426 1 430 1 439 1 462 1 464 1 466 1 469 1 471 1 476 1 478 1 482 1 488 1 492 1 507 1 516 1 
1 191 2 1 6 2 15 1 17 1 18 1 26 2 29 1 63 2 65 1 73 1 74 2 87 1 100 1 101 1 107 2 126 1 131 1 134 2 137 1 152 1 184 2 195 1 202 2 203 1 206 1 215 1 218 1 233 1 243 1 249 1 264 1 267 1 309 2 313 1 318 1 344 1 356 1 361 1 391 1 488 1 499 1 432 1 475 1 435 1 442 1 500 1 436 1 456 1 460 1 478 1 491 2 439 1 479 2 20 1 35 1 39 1 51 1 53 1 59 1 60 1 75 1 95 1 96 1 113 1 115 1 140 1 142 1 146 1 156 1 165 1 180 1 189 1 222 1 227 1 228 1 248 1 268 1 274 1 286 1 299 1 301 1 302 1 312 1 325 1 326 1 330 1 336 1 346 1 360 1 365 1 368 1 378 1 399 1 421 1 423 1 430 1 440 1 452 1 457 1 470 1 484 1 487 1 496 1 509 1 
1 185 1 1 8 1 12 1 13 1 23 1 41 1 50 1 52 2 58 1 62 1 77 1 80 1 87 2 97 1 104 2 107 2 108 1 115 1 116 1 127 1 129 1 135 1 138 1 149 2 150 1 163 1 171 2 175 1 177 1 186 1 191 1 194 2 199 1 210 2 224 2 227 1 230 1 234 2 237 1 244 1 246 1 253 1 261 1 279 1 298 1 307 2 323 1 327 2 332 1 343 1 349 1 350 1 356 1 390 1 391 2 393 1 441 1 452 1 493 1 456 1 443 1 446 1 497 1 501 1 478 1 404 1 402 1 466 1 16 1 24 1 39 1 43 1 45 1 47 1 55 1 68 1 84 1 86 1 88 1 96 1 102 1 113 1 123 1 124 1 126 1 139 1 140 1 142 1 151 1 176 1 178 1 184 1 198 1 243 1 256 1 268 1 270 1 271 1 272 1 275 1 291 1 306 1 308 1 313 1 324 1 326 1 333 1 336 1 353 1 365 1 381 1 398 1 419 1 421 1 427 1 429 1 436 1 494 1 499 1 509 1 516 1 
1 217 11 1 14 1 24 1 26 1 34 1 39 1 48 1 59 2 69 1 75 1 77 1 103 2 118 1 122 1 124 1 135 1 145 1 149 1 151 1 158 1 167 1 187 1 194 1 195 2 214 1 223 1 246 1 257 2 261 1 276 1 279 1 288 1 304 1 331 1 363 1 371 2 376 2 385 1 499 1 473 1 450 1 429 1 437 1 401 1 469 1 426 2 422 1 449 1 448 1 10 1 16 1 46 1 47 1 54 1 57 1 74 1 93 1 94 1 96 1 104 1 125 1 137 1 143 1 176 1 181 1 182 1 183 1 190 1 192 1 204 1 205 1 217 1 224 1 239 1 249 1 265 1 281 1 297 1 306 1 307 1 312 1 315 1 318 1 323 1 328 1 333 1 334 1 337 1 340 1 342 1 346 1 369 1 377 1 379 1 388 1 399 1 403 1 405 1 432 1 435 1 447 1 451 1 456 1 462 1 463 1 477 1 478 1 480 1 483 1 484 1 489 1 
1 216 1 1 8 1 9 1 22 1 27 1 43 1 57 1 64 1 67 2 73 1 91 1 99 1 108 2 132 1 137 1 139 1 153 1 165 1 170 1 178 1 179 1 185 1 186 1 210 1 226 1 234 1 235 1 236 1 244 1 245 1 263 2 264 2 271 1 284 1 292 1 296 1 299 1 302 1 311 1 319 1 321 1 330 1 331 2 339 1 341 1 343 1 347 1 348 1 355 1 359 1 362 1 370 2 372 2 387 1 390 1 501 1 495 1 492 1 469 1 497 1 496 1 431 1 480 1 449 1 456 2 466 2 454 1 2 1 17 1 26 1 37 1 48 1 55 1 109 1 112 1 113 1 119 1 142 1 144 1 149 1 150 1 162 1 174 1 183 1 193 1 203 1 206 1 218 1 227 1 229 1 240 1 246 1 256 1 258 1 267 1 280 1 315 1 316 1 323 1 324 1 356 1 361 1 368 1 389 1 436 1 441 1 446 1 448 1 475 1 478 1 481 1 484 1 494 1 
1 222 1 1 17 1 21 2 30 1 47 1 51 1 68 1 96 1 98 1 113 1 114 1 118 1 120 1 123 1 125 1 126 1 127 2 143 2 144 1 157 1 166 1 167 1 182 1 183 1 187 1 192 1 217 1 235 2 240 1 250 1 252 1 261 1 264 1 271 1 277 1 281 1 287 1 289 1 301 1 315 1 316 2 317 1 319 1 321 1 329 1 347 2 350 1 362 1 365 1 367 1 368 1 371 1 383 1 436 1 461 1 489 1 497 1 470 1 455 1 499 2 474 1 453 2 447 1 2 1 9 1 20 1 26 1 52 1 54 1 66 1 70 1 78 1 84 1 106 1 112 1 147 1 151 1 159 1 162 1 164 1 165 1 198 1 211 1 231 1 238 1 246 1 248 1 257 1 258 1 262 1 272 1 300 1 303 1 308 1 310 1 311 1 336 1 360 1 364 1 384 1 385 1 395 1 400 1 405 1 408 1 410 1 419 1 438 1 444 1 446 1 452 1 458 1 465 1 478 1 490 1 493 1 496 1 507 1 521 1 
1 208 5 1 17 1 39 1 46 1 47 1 58 1 73 2 75 2 76 1 83 1 89 1 109 1 120 1 126 1 142 1 146 1 147 1 148 1 152 1 153 1 156 1 161 1 162 1 168 1 181 1 186 1 189 1 191 1 200 1 209 1 251 1 260 1 279 1 288 2 289 1 294 1 306 2 310 1 323 1 335 1 341 1 343 1 345 1 346 1 361 1 374 1 391 1 393 1 481 1 451 1 444 2 440 1 498 1 468 1 434 1 4 1 15 1 19 1 22 1 55 1 56 1 93 1 96 1 97 1 102 1 105 1 110 1 114 1 115 1 131 1 133 1 141 1 143 1 150 1 151 1 154 1 185 1 204 1 227 1 245 1 253 1 262 1 266 1 286 1 307 1 312 1 321 1 322 1 329 1 334 1 355 1 359 1 369 1 394 1 396 1 402 1 403 1 404 1 445 1 457 1 472 1 506 1 516 1 
1 208 17 2 19 1 21 1 28 1 36 1 48 1 54 1 56 2 71 1 83 1 86 1 87 1 91 1 93 1 126 1 132 2 143 1 149 1 151 1 157 1 161 2 170 2 171 1 173 1 176 1 182 2 187 1 189 1 193 1 210 2 221 1 225 2 228 1 230 2 234 1 254 1 259 1 260 1 280 1 284 1 286 1 288 1 294 2 295 1 299 1 306 1 311 1 314 1 330 1 334 1 338 1 339 1 359 1 365 1 391 1 491 1 495 1 498 1 483 1 443 1 454 1 408 1 456 1 444 1 7 1 24 1 43 1 45 1 51 1 52 1 61 1 64 1 89 1 95 1 111 1 115 1 120 1 130 1 144 1 163 1 168 1 175 1 192 1 194 1 217 1 227 1 233 1 236 1 237 1 240 1 242 1 258 1 274 1 293 1 301 1 302 1 303 1 341 1 352 1 361 1 389 1 398 1 405 1 417 1 448 1 450 1 478 1 484 1 489 1 496 1 497 1 500 1 504 1 
1 204 1 1 12 1 19 1 20 2 27 2 33 1 48 1 49 1 66 1 77 1 86 1 92 1 98 2 124 1 133 1 138 1 149 1 152 1 162 1 173 1 178 1 188 1 189 1 192 1 195 1 196 1 197 1 198 1 200 1 211 1 216 1 234 1 240 1 247 1 249 1 275 1 280 1 295 1 314 1 316 1 325 1 331 1 339 2 341 1 345 1 384 1 389 1 396 1 497 1 498 1 493 1 441 1 483 1 489 1 408 1 431 1 485 1 477 1 466 1 424 1 2 1 3 1 7 1 18 1 50 1 52 1 67 1 85 1 87 1 94 1 95 1 106 1 107 1 112 1 114 1 117 1 121 1 125 1 137 1 159 1 164 1 168 1 177 1 181 1 182 1 199 1 212 1 222 1 226 1 238 1 246 1 266 1 273 1 276 1 290 1 298 1 303 1 317 1 323 1 330 1 343 1 349 1 351 1 352 1 355 1 358 1 363 1 364 1 436 1 440 1 446 1 447 1 478 1 480 1 481 1 495 1 499 1 503 1 513 1 
1 225 3 1 11 1 17 1 20 1 29 2 33 1 38 1 49 1 50 2 54 2 58 1 59 1 68 1 72 1 74 1 91 1 95 1 98 1 133 1 151 1 176 1 180 1 181 2 194 1 195 1 214 1 223 1 229 2 233 1 234 1 242 1 243 1 247 1 259 1 272 1 302 1 309 1 313 1 331 1 348 2 352 1 395 1 484 1 480 1 487 1 460 1 12 1 13 1 35 1 41 1 46 1 53 1 56 1 60 1 64 1 67 1 70 1 73 1 87 1 88 1 90 1 105 1 120 1 124 1 146 1 172 1 187 1 190 1 211 1 215 1 226 1 231 1 236 1 244 1 250 1 253 1 256 1 267 1 268 1 270 1 275 1 276 1 277 1 278 1 280 1 296 1 310 1 320 1 322 1 327 1 336 1 358 1 361 1 399 1 418 1 437 1 439 1 451 1 456 1 461 1 471 1 475 1 478 1 481 1 493 1 497 1 
1 202 13 2 27 1 35 2 56 1 59 1 96 1 103 1 104 1 110 1 125 1 136 1 137 1 148 1 166 1 181 2 194 1 203 1 209 1 212 1 214 1 223 1 227 1 228 1 249 1 251 1 272 2 278 1 284 2 289 1 295 1 321 1 333 1 358 2 360 1 371 1 375 1 380 1 443 2 494 1 449 1 473 1 435 1 412 1 467 1 434 1 427 1 6 1 40 1 53 1 60 1 63 1 67 1 78 1 86 1 92 1 93 1 102 1 109 1 118 1 120 1 150 1 152 1 157 1 164 1 171 1 172 1 191 1 211 1 219 1 220 1 224 1 237 1 241 1 242 1 243 1 262 1 266 1 288 1 302 1 304 1 308 1 315 1 336 1 341 1 343 1 350 1 357 1 388 1 396 1 399 1 405 1 414 1 432 1 439 1 444 1 451 1 452 1 476 1 486 1 503 1 506 1 518 1 521 1 
1 195 4 1 17 1 22 1 28 1 35 1 38 1 43 1 64 1 69 1 70 1 72 1 74 1 83 1 96 2 97 2 102 1 103 2 108 1 114 1 123 1 131 1 158 1 176 1 179 1 183 1 186 1 192 1 194 1 211 1 214 1 216 1 223 2 225 1 232 1 237 1 255 1 265 1 281 2 285 1 308 1 312 1 316 1 325 1 332 1 349 2 352 2 353 1 354 1 355 1 359 1 373 1 374 2 378 1 387 1 393 1 395 1 463 1 490 1 407 1 406 1 15 1 19 1 20 1 33 1 39 1 59 1 60 1 65 1 71 1 84 1 86 1 100 1 113 1 116 1 122 1 128 1 132 1 133 1 140 1 143 1 152 1 153 1 154 1 160 1 162 1 202 1 215 1 230 1 238 1 254 1 260 1 296 1 298 1 299 1 313 1 315 1 318 1 327 1 335 1 361 1 368 1 380 1 391 1 399 1 418 1 438 1 444 1 446 1 456 1 466 1 487 1 495 1 498 1 500 1 515 1 
1 176 13 1 21 1 37 1 46 1 55 1 56 2 80 2 95 1 103 1 115 1 122 1 134 1 141 1 157 1 164 1 193 1 194 1 196 1 207 1 216 1 225 1 229 1 230 1 232 1 241 1 242 1 247 1 249 1 264 1 282 1 283 1 295 1 302 1 312 1 313 1 319 1 323 1 325 1 342 1 349 1 352 1 360 1 365 1 378 1 492 1 407 1 488 1 452 1 412 1 489 1 406 1 479 1 497 2 459 1 410 1 422 1 3 1 5 1 11 1 34 1 38 1 41 1 45 1 63 1 64 1 74 1 75 1 81 1 84 1 118 1 121 1 127 1 136 1 140 1 149 1 151 1 154 1 161 1 175 1 176 1 179 1 186 1 192 1 204 1 214 1 224 1 227 1 231 1 235 1 253 1 274 1 288 1 304 1 314 1 322 1 328 1 339 1 344 1 355 1 368 1 396 1 398 1 400 1 403 1 434 1 436 1 448 1 454 1 467 1 473 1 476 1 505 1 
1 188 9 1 17 1 23 1 30 1 55 1 56 1 59 1 62 1 66 2 82 1 88 1 93 1 95 1 110 1 115 1 118 1 119 1 120 1 125 1 128 1 132 1 137 1 150 1 165 1 168 1 172 1 178 1 189 1 202 2 228 1 243 1 245 1 276 1 278 1 284 1 287 1 291 1 293 1 294 1 310 1 321 1 338 1 339 1 347 1 353 2 360 2 367 1 369 1 376 1 380 1 404 1 405 1 488 1 468 1 460 1 485 1 438 1 467 1 496 1 470 1 484 1 10 1 22 1 25 1 32 1 35 1 64 1 69 1 71 1 73 1 81 1 90 1 92 1 105 1 109 1 114 1 121 1 123 1 135 1 147 1 149 1 157 1 158 1 174 1 176 1 197 1 201 1 217 1 219 1 220 1 230 1 237 1 239 1 271 1 283 1 305 1 317 1 341 1 345 1 352 1 371 1 375 1 409 1 436 1 445 1 465 1 475 1 490 1 495 1 500 1 505 1 513 1 520 1 
1 224 3 1 24 2 28 1 30 1 36 1 38 1 49 1 73 1 80 1 84 1 88 1 89 1 90 1 93 1 94 1 104 2 111 1 113 2 124 1 156 1 170 1 172 1 177 2 190 1 193 1 219 1 231 1 238 1 239 1 246 1 248 1 250 2 262 1 266 1 279 1 280 1 286 1 288 1 291 1 292 1 304 1 307 1 311 1 313 1 324 1 327 1 329 1 336 1 373 1 379 1 382 1 404 1 405 1 498 1 456 1 485 1 486 1 408 1 9 1 34 1 35 1 46 1 75 1 79 1 100 1 105 1 107 1 112 1 121 1 136 1 163 1 171 1 198 1 208 1 211 1 213 1 225 1 227 1 233 1 265 1 272 1 283 1 295 1 315 1 316 1 318 1 333 1 357 1 365 1 370 1 376 1 412 1 432 1 442 1 449 1 452 1 458 1 460 1 473 1 484 1 502 1 507 1 512 1 513 1 
1 188 2 1 27 1 28 1 31 1 40 1 45 1 54 1 58 1 69 1 80 1 98 1 112 1 116 1 121 1 127 2 131 1 133 2 164 1 168 1 175 1 178 1 191 1 192 1 201 1 202 1 217 1 245 1 246 2 253 1 263 1 264 1 272 1 276 1 303 1 311 1 319 1 320 1 322 1 324 1 333 1 336 1 357 1 366 1 369 1 383 1 400 1 401 1 407 1 486 1 435 1 474 1 449 1 452 1 444 1 443 1 482 2 441 2 498 1 423 1 471 1 467 2 12 1 24 1 26 1 32 1 39 1 43 1 64 1 67 1 70 1 90 1 101 1 117 1 124 1 125 1 130 1 148 1 165 1 166 1 184 1 187 1 197 1 208 1 212 1 214 1 223 1 247 1 251 1 258 1 275 1 278 1 292 1 294 1 335 1 342 1 346 1 376 1 379 1 380 1 398 1 411 1 419 1 445 1 484 1 488 1 505 1 
1 206 4 1 8 1 15 1 23 1 24 2 30 1 38 2 39 1 40 1 49 1 51 1 54 1 66 1 68 2 69 1 71 1 75 2 76 1 82 1 86 1 127 1 128 1 135 1 143 1 166 1 168 2 189 2 199 1 200 1 215 1 224 1 229 1 243 2 244 1 247 1 252 1 268 1 275 1 277 1 281 2 282 1 284 1 295 1 296 1 311 1 335 1 341 1 367 1 377 1 490 2 436 2 477 1 464 1 414 1 497 1 482 1 448 1 421 1 413 1 418 1 459 1 475 1 468 2 463 1 469 1 432 1 13 1 19 1 29 1 35 1 53 1 62 1 64 1 84 1 98 1 104 1 108 1 122 1 131 1 136 1 149 1 153 1 182 1 212 1 219 1 222 1 235 1 236 1 239 1 241 1 242 1 248 1 256 1 264 1 273 1 288 1 290 1 294 1 297 1 301 1 324 1 325 1 327 1 334 1 355 1 366 1 379 1 406 1 440 1 442 1 443 1 452 1 454 1 473 1 491 1 
1 207 4 1 5 1 14 1 22 1 40 1 44 1 46 1 51 1 69 1 86 1 127 1 128 1 139 1 145 1 146 1 159 1 161 1 163 1 164 1 165 1 169 1 206 1 211 1 216 2 220 1 252 1 254 1 260 1 269 1 273 1 293 2 299 1 311 1 323 1 334 1 348 1 353 2 354 1 405 1 494 1 471 2 474 1 453 1 496 1 447 1 475 1 12 1 13 1 34 1 42 1 48 1 58 1 71 1 73 1 89 1 106 1 108 1 117 1 122 1 131 1 137 1 142 1 150 1 152 1 167 1 188 1 203 1 212 1 214 1 217 1 228 1 236 1 237 1 240 1 241 1 257 1 266 1 268 1 272 1 288 1 297 1 298 1 305 1 309 1 312 1 327 1 331 1 336 1 346 1 360 1 364 1 368 1 398 1 435 1 436 1 442 1 452 1 465 1 473 1 478 1 481 1 482 1 493 1 515 1 518 1 521 1 
1 207 24 1 41 1 46 1 50 1 55 1 57 1 85 1 87 2 107 1 119 1 122 1 131 1 139 2 140 1 148 1 156 1 161 1 172 1 176 1 182 1 202 1 205 1 219 1 236 1 245 1 248 1 255 1 256 1 261 1 268 1 270 1 282 2 287 1 292 2 304 1 310 2 317 1 322 1 331 1 338 1 342 2 365 1 376 1 381 1 383 1 454 1 468 1 487 1 485 1 463 1 493 1 464 1 417 1 431 1 19 1 22 1 33 1 34 1 44 1 59 1 65 1 69 1 75 1 79 1 90 1 104 1 113 1 114 1 134 1 138 1 160 1 169 1 170 1 179 1 180 1 184 1 199 1 201 1 203 1 208 1 213 1 215 1 216 1 217 1 249 1 254 1 265 1 273 1 302 1 305 1 325 1 326 1 333 1 344 1 349 1 351 1 352 1 357 1 373 1 379 1 384 1 408 1 414 1 416 1 421 1 448 1 480 1 498 1 503 1 511 1 515 1 
1 201 2 1 18 1 19 1 25 1 37 1 64 1 68 1 81 2 82 1 91 1 104 1 112 1 115 1 117 1 121 1 127 1 129 2 134 2 137 2 160 1 161 1 169 1 173 1 175 1 183 1 198 1 199 1 208 1 210 1 216 1 219 1 225 1 226 2 227 1 231 1 236 1 239 1 246 1 279 1 294 1 296 1 297 1 299 1 311 1 323 2 333 1 348 1 349 2 350 1 360 1 366 1 375 1 383 1 384 2 403 1 405 1 497 1 455 1 442 1 482 1 435 2 420 1 477 1 494 1 445 1 427 1 22 1 28 1 59 1 66 1 71 1 77 1 78 1 83 1 88 1 125 1 138 1 148 1 155 1 178 1 187 1 189 1 203 1 211 1 215 1 240 1 242 1 248 1 268 1 283 1 290 1 291 1 298 1 301 1 303 1 313 1 325 1 343 1 355 1 357 1 361 1 372 1 386 1 407 1 413 1 415 1 416 1 422 1 423 1 436 1 437 1 438 1 451 1 464 1 484 1 489 1 495 1 
1 196 14 1 31 2 35 1 36 1 47 1 52 1 62 1 74 1 80 2 92 1 95 1 99 2 106 1 107 2 111 1 120 1 128 1 133 1 175 1 184 1 192 1 203 1 212 1 218 1 230 1 249 1 250 1 259 1 262 1 273 1 274 1 292 1 302 1 304 1 308 1 313 1 316 1 324 1 325 1 341 1 347 1 364 1 369 1 409 1 474 1 470 1 478 1 481 1 462 1 449 1 421 1 486 1 418 1 1 1 5 1 13 1 16 1 19 1 22 1 23 1 29 1 40 1 43 1 44 1 45 1 57 1 68 1 100 1 119 1 153 1 162 1 163 1 165 1 180 1 198 1 205 1 208 1 209 1 213 1 217 1 223 1 225 1 239 1 243 1 253 1 255 1 269 1 275 1 283 1 295 1 299 1 303 1 311 1 315 1 328 1 348 1 366 1 370 1 375 1 377 1 378 1 412 1 451 1 459 1 463 1 475 1 484 1 491 1 492 1 501 1 507 1 
1 190 2 1 30 2 31 1 45 2 53 1 58 1 61 1 64 1 71 1 76 1 77 1 106 1 109 1 111 1 119 1 127 1 128 2 131 1 169 1 170 2 175 1 188 1 194 1 196 1 208 1 227 1 244 1 246 1 247 1 255 1 260 1 271 1 274 1 300 1 340 1 354 1 356 1 385 1 388 1 409 1 475 1 462 1 498 1 491 1 441 1 494 1 461 2 453 1 446 1 448 1 12 1 39 1 47 1 89 1 95 1 103 1 108 1 115 1 117 1 137 1 139 1 151 1 154 1 160 1 164 1 176 1 201 1 218 1 223 1 233 1 234 1 237 1 238 1 268 1 279 1 282 1 293 1 298 1 314 1 315 1 323 1 333 1 334 1 336 1 341 1 348 1 359 1 380 1 384 1 403 1 411 1 417 1 459 1 463 1 467 1 469 1 480 1 485 1 496 1 
1 215 1 1 2 1 6 1 11 2 16 1 18 1 20 1 21 1 26 1 29 1 43 1 59 1 74 1 78 1 82 1 86 1 107 1 138 2 143 1 152 1 158 1 177 1 191 2 216 1 231 1 233 1 240 2 272 1 286 2 291 1 308 2 315 1 325 1 341 1 347 1 364 1 370 1 371 1 372 1 376 1 379 1 488 1 442 1 445 2 455 1 500 2 496 2 450 2 443 2 42 1 45 1 53 1 94 1 97 1 110 1 114 1 116 1 119 1 124 1 125 1 129 1 136 1 160 1 167 1 190 1 205 1 223 1 241 1 244 1 250 1 256 1 260 1 269 1 295 1 306 1 334 1 337 1 349 1 350 1 365 1 367 1 377 1 378 1 383 1 387 1 412 1 416 1 420 1 426 1 444 1 453 1 472 1 492 1 494 1 504 1 
1 192 5 1 24 1 30 1 36 1 45 1 47 1 56 1 58 1 65 1 76 1 77 2 86 1 96 1 104 1 109 1 111 1 112 1 120 1 130 2 132 1 133 1 135 1 144 1 145 1 148 1 155 1 159 1 201 1 209 1 220 1 231 1 245 1 250 1 257 1 261 1 264 1 267 1 271 2 280 1 300 1 310 1 312 1 320 1 346 1 373 1 495 1 446 1 452 1 456 1 1 1 2 1 27 1 35 1 46 1 71 1 81 1 90 1 98 1 99 1 118 1 124 1 129 1 141 1 150 1 151 1 157 1 168 1 177 1 180 1 182 1 204 1 208 1 217 1 219 1 222 1 225 1 265 1 268 1 274 1 282 1 284 1 291 1 297 1 301 1 305 1 308 1 317 1 331 1 334 1 339 1 340 1 342 1 347 1 349 1 361 1 362 1 364 1 370 1 372 1 381 1 411 1 412 1 415 1 424 1 431 1 441 1 453 1 496 1 
1 203 1 1 38 1 39 1 41 1 45 1 49 1 51 2 55 1 56 2 61 1 72 1 85 1 92 2 93 1 107 1 112 1 121 1 125 1 143 1 153 1 157 1 158 1 163 1 167 1 185 1 188 1 194 1 196 1 204 2 209 1 211 1 212 1 226 1 265 1 271 1 277 1 281 1 285 1 309 1 312 1 313 1 314 1 324 1 331 1 332 2 334 1 336 1 338 1 344 1 377 1 382 1 411 1 496 1 458 1 468 1 478 1 490 2 462 1 431 1 429 1 482 1 8 1 18 1 26 1 42 1 54 1 67 1 68 1 75 1 115 1 117 1 129 1 133 1 138 1 148 1 173 1 175 1 183 1 217 1 228 1 233 1 243 1 269 1 294 1 308 1 316 1 320 1 322 1 328 1 330 1 347 1 348 1 359 1 385 1 400 1 414 1 428 1 443 1 445 1 450 1 481 1 485 1 501 1 505 1 509 1 510 1 514 1 
1 211 2 1 5 1 10 1 18 1 24 1 27 1 33 1 41 1 42 1 53 1 73 1 75 1 85 1 92 1 94 1 96 1 106 1 118 1 125 1 128 1 155 1 162 2 165 1 183 1 185 1 222 1 225 1 227 1 238 2 241 1 254 1 257 1 295 1 297 1 322 2 328 1 337 1 360 2 361 1 362 1 365 1 371 1 391 2 409 1 413 1 475 1 498 1 483 1 430 1 490 1 6 1 12 1 26 1 36 1 39 1 45 1 47 1 48 1 57 1 58 1 63 1 69 1 77 1 78 1 83 1 86 1 100 1 101 1 132 1 140 1 154 1 156 1 159 1 170 1 181 1 184 1 191 1 199 1 206 1 207 1 208 1 210 1 219 1 224 1 230 1 235 1 237 1 252 1 277 1 280 1 305 1 309 1 317 1 318 1 320 1 340 1 352 1 378 1 402 1 404 1 425 1 447 1 450 1 457 1 464 1 467 1 468 1 479 1 485 1 486 1 492 1 520 1 
1 217 1 1 4 1 8 1 19 1 54 1 57 1 66 1 67 1 99 1 115 1 120 2 121 1 136 1 140 1 146 1 151 1 191 2 192 1 207 1 215 1 217 1 224 1 229 1 239 1 240 1 243 1 249 1 261 1 262 1 269 1 275 1 280 1 287 1 290 1 299 2 301 1 315 1 317 1 323 1 326 2 337 1 350 1 357 1 358 1 360 1 364 1 373 1 374 2 471 1 457 1 496 1 479 1 474 1 487 1 470 1 5 1 13 1 26 1 27 1 34 1 43 1 48 1 68 1 88 1 95 1 98 1 105 1 116 1 143 1 159 1 161 1 183 1 189 1 195 1 199 1 214 1 222 1 228 1 238 1 241 1 250 1 255 1 276 1 304 1 306 1 314 1 319 1 325 1 370 1 385 1 392 1 395 1 398 1 408 1 444 1 451 1 462 1 464 1 481 1 485 1 513 1 520 1 
1 196 5 1 10 1 18 1 30 1 31 1 34 1 39 1 64 1 83 1 107 1 127 1 129 1 136 1 148 1 152 1 179 1 199 1 210 1 214 1 220 1 251 1 253 1 256 1 269 2 273 1 280 1 287 1 288 2 295 1 302 1 304 1 305 1 315 1 339 1 350 2 363 1 370 1 384 1 390 2 393 1 412 1 472 1 495 1 447 1 489 1 481 1 470 1 475 1 458 1 4 1 12 1 21 1 36 1 44 1 57 1 61 1 79 1 80 1 96 1 115 1 120 1 125 1 131 1 132 1 133 1 142 1 143 1 144 1 146 1 147 1 164 1 165 1 169 1 175 1 191 1 197 1 207 1 216 1 228 1 233 1 252 1 255 1 260 1 286 1 307 1 314 1 321 1 324 1 331 1 336 1 344 1 353 1 355 1 368 1 375 1 383 1 385 1 387 1 415 1 425 1 427 1 445 1 454 1 459 1 483 1 488 1 508 1 509 1 
1 195 9 1 12 1 18 1 26 2 29 1 32 2 33 1 48 2 58 1 64 1 77 1 86 1 98 1 111 1 112 1 117 1 121 2 123 1 130 1 139 1 146 1 157 1 197 1 200 1 217 2 229 1 240 1 243 1 244 1 245 1 251 1 272 1 279 1 285 1 289 1 296 1 298 1 299 1 300 1 301 1 305 1 306 2 325 1 332 1 345 1 346 1 353 1 356 1 359 1 363 1 371 1 374 1 380 2 382 1 409 1 413 1 461 1 498 1 485 1 478 1 470 1 434 1 5 1 14 1 16 1 21 1 24 1 30 1 35 1 45 1 57 1 66 1 78 1 80 1 87 1 90 1 95 1 122 1 133 1 141 1 150 1 159 1 160 1 163 1 167 1 171 1 183 1 184 1 222 1 233 1 241 1 242 1 259 1 283 1 294 1 317 1 319 1 335 1 352 1 367 1 394 1 395 1 411 1 422 1 438 1 447 1 450 1 452 1 453 1 458 1 474 1 479 1 489 1 514 1 
1 207 24 1 26 1 31 1 33 1 35 1 41 1 57 1 62 1 67 1 76 1 80 1 105 1 116 2 134 1 136 1 158 1 161 1 165 1 188 1 190 1 191 1 197 1 218 2 232 1 243 1 253 1 255 1 258 2 269 2 270 1 281 1 303 1 312 1 319 1 335 2 352 1 363 1 364 1 366 1 368 1 372 1 380 1 385 1 386 1 396 1 405 1 452 1 426 2 448 1 496 1 485 1 486 1 4 1 11 1 13 1 38 1 65 1 66 1 90 1 94 1 96 1 98 1 102 1 121 1 123 1 139 1 141 1 142 1 153 1 155 1 159 1 167 1 202 1 204 1 214 1 240 1 248 1 275 1 278 1 280 1 286 1 290 1 302 1 317 1 323 1 327 1 330 1 340 1 343 1 345 1 350 1 374 1 384 1 412 1 421 1 454 1 455 1 459 1 481 1 488 1 491 1 498 1 501 1 521 1 
1 213 6 1 23 1 33 1 51 1 66 1 72 1 75 1 80 1 91 2 98 1 104 2 108 1 109 1 122 1 137 1 146 1 159 1 167 1 172 1 175 1 179 1 197 1 199 1 229 1 232 1 240 1 247 2 251 2 278 1 280 2 287 1 294 1 298 1 315 1 323 1 325 1 340 1 347 1 360 1 362 1 380 1 387 1 389 1 390 1 408 1 480 1 484 1 499 1 426 1 457 1 476 1 466 2 492 1 458 1 488 1 497 1 463 1 11 1 15 1 28 1 29 1 32 1 37 1 38 1 40 1 44 1 50 1 69 1 76 1 83 1 85 1 112 1 129 1 134 1 135 1 157 1 164 1 183 1 195 1 211 1 224 1 226 1 263 1 267 1 276 1 277 1 285 1 289 1 297 1 303 1 319 1 339 1 343 1 350 1 367 1 372 1 374 1 382 1 394 1 412 1 429 1 432 1 439 1 450 1 459 1 462 1 472 1 477 1 478 1 479 1 486 1 500 1 510 1 519 1 
1 218 6 1 25 1 28 1 31 1 33 1 40 1 43 1 53 1 54 2 56 1 59 1 77 1 88 1 94 1 98 1 110 1 116 1 145 1 148 1 152 1 155 1 157 1 164 1 172 1 175 1 183 1 186 1 188 1 189 1 192 2 193 1 205 1 207 1 218 1 223 1 251 1 257 1 258 1 264 1 272 1 290 1 292 1 293 2 295 1 297 1 328 2 344 1 347 2 355 2 363 1 366 1 374 1 386 1 401 1 474 1 432 1 1 1 3 1 15 1 20 1 45 1 49 1 51 1 55 1 57 1 60 1 63 1 66 1 70 1 95 1 101 1 107 1 119 1 121 1 129 1 133 1 137 1 149 1 162 1 169 1 174 1 200 1 219 1 229 1 232 1 238 1 243 1 244 1 252 1 254 1 255 1 256 1 302 1 309 1 319 1 331 1 335 1 364 1 372 1 381 1 390 1 416 1 433 1 450 1 460 1 468 1 473 1 477 1 478 1 486 1 498 1 507 1 
1 215 7 2 10 1 12 1 15 1 16 1 22 2 28 1 31 1 34 1 36 1 45 1 47 1 53 2 57 1 68 2 76 1 97 1 98 1 101 1 105 1 129 1 149 1 150 1 155 1 158 1 159 2 172 2 179 1 183 1 193 1 198 1 199 1 206 1 210 1 229 1 237 2 264 1 266 1 272 1 275 1 281 1 286 1 303 1 307 2 316 1 328 1 352 1 366 1 384 1 489 1 483 1 477 1 454 1 462 1 488 1 13 1 21 1 30 1 59 1 60 1 72 1 86 1 87 1 107 1 116 1 140 1 141 1 143 1 156 1 163 1 166 1 173 1 186 1 194 1 204 1 215 1 217 1 223 1 233 1 239 1 246 1 250 1 252 1 274 1 296 1 297 1 318 1 341 1 345 1 365 1 383 1 386 1 418 1 420 1 426 1 433 1 434 1 451 1 453 1 457 1 467 1 482 1 503 1 
1 191 12 1 60 1 65 1 70 2 104 1 115 1 118 2 124 1 149 1 158 1 159 1 163 1 166 1 178 1 189 1 207 1 209 1 212 1 214 1 230 2 238 1 243 1 244 1 245 1 250 2 256 1 270 1 298 1 304 1 311 2 338 1 340 1 342 1 354 1 362 1 369 1 373 1 377 1 383 1 392 1 396 2 422 2 423 1 457 1 462 1 491 1 476 1 486 1 500 1 497 1 463 1 437 1 495 2 487 1 435 1 501 2 460 1 2 1 5 1 25 1 26 1 43 1 48 1 51 1 62 1 69 1 84 1 122 1 126 1 132 1 141 1 156 1 185 1 193 1 201 1 223 1 235 1 239 1 255 1 267 1 269 1 289 1 306 1 314 1 317 1 322 1 334 1 336 1 339 1 358 1 372 1 381 1 391 1 393 1 415 1 425 1 432 1 434 1 458 1 461 1 464 1 471 1 477 1 478 1 496 1 498 1 
1 202 6 1 14 1 59 1 72 1 77 1 93 2 100 1 120 1 154 1 155 1 162 1 183 1 186 1 201 1 204 2 208 1 210 2 219 2 229 1 231 1 240 1 245 1 265 1 276 1 280 1 286 1 290 1 292 1 307 1 308 1 309 1 312 1 315 1 320 1 337 1 341 1 345 2 352 1 369 1 372 1 383 1 386 1 403 1 412 1 471 1 449 1 468 1 474 1 500 1 498 1 488 1 434 1 477 1 491 1 490 1 464 1 445 1 460 1 11 1 16 1 34 1 43 1 44 1 61 1 73 1 80 1 81 1 83 1 97 1 101 1 104 1 111 1 113 1 117 1 124 1 144 1 151 1 161 1 176 1 206 1 207 1 211 1 216 1 218 1 232 1 239 1 249 1 255 1 256 1 264 1 283 1 305 1 318 1 326 1 333 1 346 1 347 1 379 1 385 1 387 1 395 1 420 1 438 1 454 1 459 1 462 1 465 1 472 1 480 1 510 1 514 1 
1 219 6 2 13 1 18 1 27 1 43 1 45 1 47 2 79 1 81 2 88 1 90 1 94 1 96 1 99 1 115 1 119 1 124 1 130 1 154 1 155 1 160 1 171 1 183 2 187 1 189 1 200 1 207 1 225 1 231 1 244 2 247 1 250 1 253 1 269 1 279 1 308 1 311 1 317 1 331 1 335 1 341 1 344 2 349 2 355 1 366 1 374 1 377 1 384 1 387 1 392 1 500 2 431 2 433 1 490 2 429 1 468 1 494 1 462 1 461 1 12 1 38 1 50 1 51 1 59 1 61 1 66 1 83 1 91 1 111 1 128 1 131 1 134 1 137 1 139 1 147 1 163 1 166 1 167 1 178 1 201 1 204 1 211 1 216 1 227 1 255 1 258 1 260 1 263 1 267 1 283 1 291 1 293 1 306 1 313 1 326 1 327 1 348 1 379 1 389 1 417 1 451 1 455 1 457 1 481 1 483 1 491 1 507 1 
1 230 2 1 25 1 34 1 44 1 45 1 58 1 75 2 76 1 88 1 90 1 91 1 108 2 109 1 115 1 121 1 130 1 133 1 144 1 146 1 150 1 153 1 164 1 174 1 183 1 193 2 215 1 220 1 237 1 246 1 247 1 253 1 257 2 271 1 273 1 277 1 281 1 285 1 291 1 292 1 296 1 301 1 307 1 310 1 312 1 323 1 324 1 326 1 332 1 334 1 337 1 361 1 390 1 393 1 396 1 417 1 428 1 498 1 486 1 470 1 457 2 465 1 492 1 487 1 461 1 482 1 13 1 22 1 29 1 40 1 52 1 59 1 64 1 74 1 80 1 82 1 89 1 96 1 97 1 103 1 104 1 120 1 124 1 126 1 127 1 139 1 155 1 161 1 176 1 180 1 187 1 201 1 217 1 218 1 235 1 263 1 264 1 266 1 280 1 289 1 290 1 294 1 304 1 311 1 329 1 333 1 340 1 342 1 345 1 354 1 360 1 366 1 370 1 373 1 395 1 423 1 443 1 462 1 476 1 479 1 481 1 489 1 493 1 
1 199 10 1 30 1 33 2 47 2 62 1 67 1 68 1 79 1 81 1 90 1 93 1 94 1 96 1 97 1 117 1 118 1 137 1 138 2 142 1 149 1 162 1 172 1 178 1 179 1 208 1 227 1 230 1 237 1 241 1 249 1 256 2 257 2 261 1 265 1 266 1 272 1 279 2 288 1 292 1 299 1 306 1 315 1 321 1 330 1 331 2 337 1 341 1 343 1 346 1 376 1 380 1 418 1 475 1 493 1 461 1 494 1 464 1 440 1 480 1 496 1 3 1 9 1 12 1 20 1 22 1 25 1 31 1 41 1 43 1 45 1 46 1 60 1 86 1 91 1 121 1 125 1 126 1 132 1 140 1 141 1 143 1 144 1 166 1 173 1 210 1 211 1 223 1 234 1 250 1 262 1 263 1 276 1 287 1 296 1 347 1 356 1 369 1 374 1 381 1 385 1 393 1 394 1 472 1 479 1 485 1 489 1 492 1 503 1 
1 201 3 1 20 1 23 1 25 2 34 1 41 1 42 1 43 1 46 1 58 1 65 1 68 1 79 1 80 2 94 2 95 1 98 1 105 1 106 1 125 1 126 1 129 1 146 1 161 1 164 1 166 1 169 1 175 1 192 1 193 1 196 1 200 1 201 1 207 1 209 1 210 1 211 2 218 1 225 1 245 1 273 1 274 1 282 1 284 2 286 2 290 1 293 2 319 1 320 1 321 1 327 1 333 1 335 1 350 1 356 1 377 1 383 1 397 1 401 1 411 1 417 1 428 2 493 1 491 1 479 1 461 1 487 1 463 1 433 1 438 1 475 1 6 1 10 1 31 1 47 1 51 1 55 1 73 1 76 1 83 1 90 1 102 1 108 1 131 1 139 1 145 1 148 1 167 1 170 1 174 1 179 1 181 1 188 1 199 1 212 1 213 1 247 1 248 1 252 1 262 1 275 1 305 1 313 1 324 1 326 1 416 1 432 1 462 1 464 1 467 1 470 1 481 1 500 1 517 1 
1 206 7 1 39 1 54 2 59 1 63 1 70 1 84 2 91 1 97 2 99 1 100 1 101 1 104 1 120 1 155 1 170 2 188 1 204 1 208 1 209 1 211 1 232 1 236 1 240 1 242 2 244 2 246 1 260 1 264 1 278 2 284 1 286 1 299 1 302 1 310 1 313 1 319 1 331 1 342 1 348 2 354 1 369 1 379 1 387 1 394 1 409 1 424 1 489 2 492 1 469 1 480 1 462 1 448 1 451 1 1 1 16 1 21 1 23 1 24 1 33 1 35 1 36 1 47 1 60 1 68 1 85 1 88 1 115 1 144 1 149 1 154 1 156 1 162 1 166 1 168 1 175 1 217 1 222 1 225 1 238 1 243 1 251 1 258 1 261 1 271 1 276 1 283 1 295 1 304 1 333 1 352 1 366 1 370 1 374 1 380 1 391 1 396 1 403 1 407 1 423 1 426 1 431 1 441 1 455 1 467 1 479 1 483 1 487 1 497 1 507 1 
1 224 3 2 4 1 9 1 37 1 47 1 48 1 49 2 63 2 66 1 79 1 98 1 106 1 111 1 113 1 118 2 119 1 120 1 122 1 137 1 138 1 144 1 147 1 149 1 162 1 178 1 184 2 188 1 192 1 220 1 225 1 232 1 248 1 253 1 266 1 267 1 283 1 286 2 291 1 297 1 301 1 304 1 312 1 313 1 318 1 319 1 332 1 336 1 338 1 351 1 354 1 363 1 380 1 387 1 392 1 428 1 431 1 482 1 479 1 448 1 488 1 462 2 453 1 6 1 12 1 27 1 32 1 43 1 44 1 45 1 67 1 86 1 87 1 90 1 94 1 104 1 109 1 112 1 116 1 117 1 123 1 131 1 132 1 134 1 135 1 145 1 151 1 153 1 157 1 172 1 187 1 190 1 193 1 214 1 223 1 226 1 239 1 242 1 259 1 263 1 288 1 303 1 308 1 323 1 334 1 337 1 339 1 344 1 349 1 355 1 360 1 369 1 373 1 424 1 425 1 441 1 467 1 481 1 496 1 499 1 504 1 508 1 514 1 518 1 
1 212 1 1 10 1 11 1 29 1 37 1 53 1 64 1 75 1 80 1 91 1 92 1 114 1 121 1 126 1 150 1 153 2 163 1 195 1 196 1 204 1 207 1 210 1 211 1 221 1 228 1 234 1 239 1 263 1 266 1 270 1 274 1 279 1 280 1 284 1 296 1 306 1 314 1 316 2 324 1 340 1 341 1 343 1 347 1 355 1 360 1 362 1 371 1 385 1 387 1 399 1 403 1 421 1 427 1 497 1 459 1 478 2 480 1 488 1 438 1 482 1 481 1 3 1 4 1 5 1 15 1 23 1 24 1 57 1 65 1 81 1 102 1 108 1 112 1 113 1 118 1 127 1 129 1 133 1 141 1 144 1 158 1 159 1 169 1 172 1 174 1 175 1 181 1 187 1 199 1 200 1 206 1 214 1 218 1 255 1 258 1 267 1 272 1 287 1 309 1 326 1 344 1 376 1 381 1 382 1 405 1 425 1 426 1 435 1 443 1 449 1 469 1 472 1 479 1 485 1 491 1 
1 204 6 1 7 1 9 1 16 1 21 1 25 1 26 2 36 2 44 1 49 1 57 1 90 1 95 2 117 1 127 1 129 2 134 1 145 1 147 1 148 1 149 1 153 1 156 1 158 1 164 1 169 1 172 1 183 1 188 1 224 1 225 2 240 1 248 1 257 1 272 1 295 1 305 1 306 1 307 2 332 1 336 1 337 1 342 1 343 1 346 1 350 1 360 2 382 1 394 1 403 1 408 1 412 2 426 1 474 1 486 1 13 1 14 1 37 1 39 1 45 1 54 1 63 1 65 1 66 1 79 1 89 1 94 1 100 1 109 1 113 1 131 1 138 1 143 1 144 1 152 1 157 1 165 1 177 1 186 1 187 1 202 1 214 1 226 1 238 1 254 1 261 1 268 1 278 1 285 1 299 1 300 1 301 1 317 1 325 1 335 1 344 1 375 1 379 1 385 1 396 1 410 1 434 1 464 1 467 1 501 1 
1 190 1 1 22 1 26 2 54 1 62 2 63 1 66 1 77 1 80 1 84 1 87 1 90 1 94 1 109 1 117 1 130 2 134 1 145 1 155 1 161 1 166 1 170 1 182 1 183 1 186 2 220 1 223 1 226 1 231 1 240 1 248 1 251 1 253 2 255 1 256 1 291 1 299 1 305 2 314 2 319 1 320 1 346 1 347 1 351 1 361 1 364 1 373 2 376 1 394 1 398 1 409 2 492 1 475 1 486 1 499 1 468 1 465 1 455 1 450 1 476 1 16 1 24 1 38 1 48 1 81 1 82 1 101 1 105 1 107 1 115 1 136 1 147 1 151 1 165 1 172 1 209 1 219 1 224 1 243 1 249 1 258 1 259 1 278 1 280 1 284 1 287 1 294 1 300 1 302 1 318 1 321 1 335 1 342 1 357 1 366 1 383 1 389 1 390 1 395 1 397 1 401 1 405 1 406 1 410 1 412 1 441 1 493 1 498 1 
1 209 6 1 10 1 14 1 20 1 28 1 37 1 38 1 39 1 55 1 61 1 63 1 83 1 87 1 90 1 94 1 97 1 101 1 103 1 118 1 133 1 136 1 139 1 145 1 149 1 151 1 153 1 161 1 179 1 184 1 195 2 210 1 230 1 245 1 248 1 263 1 276 1 288 1 296 1 298 1 316 1 327 1 333 1 342 1 353 1 378 1 386 1 396 1 426 1 481 1 489 1 487 2 500 1 438 1 453 1 477 2 4 1 8 1 9 1 16 1 34 1 41 1 42 1 85 1 100 1 106 1 112 1 117 1 121 1 127 1 132 1 135 1 142 1 164 1 175 1 180 1 182 1 189 1 198 1 199 1 204 1 205 1 214 1 227 1 232 1 233 1 238 1 260 1 267 1 270 1 277 1 299 1 334 1 346 1 354 1 356 1 358 1 369 1 372 1 402 1 412 1 450 1 455 1 475 1 502 1 505 1 
1 208 7 1 45 1 47 2 51 1 55 1 72 1 76 1 84 1 85 1 87 1 109 1 121 1 130 2 139 1 147 1 148 1 169 1 185 1 194 1 195 1 204 1 209 2 222 1 226 1 229 1 251 1 252 1 260 1 264 1 277 1 286 1 292 1 294 1 302 1 304 1 305 1 319 1 326 1 339 1 347 2 372 1 373 1 406 1 431 1 434 1 437 1 479 1 488 1 452 1 4 1 16 1 19 1 25 1 31 1 40 1 46 1 48 1 52 1 57 1 89 1 90 1 93 1 96 1 98 1 115 1 116 1 134 1 151 1 155 1 159 1 166 1 182 1 187 1 206 1 215 1 218 1 227 1 253 1 254 1 262 1 270 1 274 1 298 1 309 1 313 1 325 1 332 1 337 1 342 1 343 1 346 1 364 1 367 1 374 1 375 1 391 1 398 1 404 1 412 1 421 1 427 1 453 1 476 1 487 1 491 1 
1 219 3 1 22 1 26 1 31 1 33 2 35 1 39 1 60 1 71 1 74 1 76 2 79 1 88 1 105 1 106 1 111 1 112 2 114 1 119 1 126 1 136 1 138 1 146 1 149 1 177 1 190 1 195 1 216 1 223 1 236 1 237 1 239 1 241 1 251 1 263 1 267 1 270 1 271 2 290 1 306 1 308 1 324 1 326 1 327 1 328 1 330 2 332 1 362 1 373 1 382 1 394 1 486 1 485 1 479 1 493 1 474 1 484 1 500 2 14 1 16 1 17 1 25 1 32 1 36 1 53 1 63 1 68 1 70 1 72 1 84 1 95 1 99 1 129 1 134 1 145 1 150 1 152 1 157 1 163 1 179 1 187 1 196 1 210 1 222 1 226 1 248 1 250 1 259 1 261 1 269 1 287 1 292 1 293 1 295 1 346 1 347 1 354 1 389 1 393 1 402 1 403 1 423 1 440 1 444 1 445 1 481 1 509 1 517 1 
1 207 7 1 8 1 17 1 30 1 40 1 54 2 59 1 61 1 71 1 77 1 99 1 102 1 112 1 126 1 141 1 145 1 154 1 160 1 161 1 166 1 167 1 177 1 178 1 180 1 186 1 193 1 199 1 211 1 232 1 233 1 242 1 248 2 252 1 262 2 263 1 271 1 272 1 276 1 288 1 289 1 290 1 296 1 301 1 320 1 321 1 327 2 337 1 342 1 358 1 372 1 386 1 399 1 430 1 497 1 488 2 4 1 6 1 10 1 14 1 32 1 46 1 72 1 74 1 88 1 89 1 103 1 120 1 127 1 140 1 148 1 149 1 165 1 170 1 179 1 181 1 187 1 213 1 220 1 223 1 224 1 229 1 250 1 251 1 259 1 264 1 266 1 281 1 285 1 300 1 347 1 352 1 353 1 354 1 373 1 389 1 391 1 394 1 401 1 409 1 439 1 450 1 451 1 452 1 463 1 471 1 489 1 501 1 
1 200 10 1 32 1 35 1 43 1 45 1 76 1 84 1 91 1 92 1 94 2 101 1 115 1 120 1 123 2 126 1 139 1 158 1 160 1 178 1 184 1 201 1 218 1 230 1 236 1 249 1 251 1 259 2 272 1 283 2 287 1 291 1 294 1 297 1 300 1 304 1 321 1 327 1 342 1 347 1 352 1 354 1 355 1 383 1 386 1 395 1 401 1 408 2 414 1 478 1 495 1 499 1 451 2 447 1 1 1 4 1 5 1 9 1 19 1 34 1 46 1 52 1 55 1 57 1 59 1 75 1 81 1 88 1 90 1 122 1 131 1 135 1 153 1 167 1 171 1 173 1 175 1 180 1 235 1 246 1 282 1 288 1 303 1 313 1 319 1 320 1 333 1 337 1 345 1 358 1 362 1 368 1 388 1 389 1 391 1 397 1 416 1 432 1 433 1 436 1 444 1 453 1 463 1 471 1 473 1 494 1 497 1 
1 207 10 1 11 1 28 1 29 1 38 1 41 1 50 1 55 1 56 1 58 2 60 1 61 1 70 1 85 1 88 2 92 2 124 2 139 1 143 1 145 1 147 1 163 1 165 2 180 1 209 1 211 1 216 1 242 1 243 1 251 1 259 1 286 1 287 1 307 1 311 1 315 1 336 1 342 1 343 1 353 1 361 1 362 1 369 1 379 1 380 1 394 1 412 1 415 1 493 1 458 2 484 1 456 1 461 1 5 1 14 1 26 1 30 1 52 1 72 1 77 1 79 1 110 1 111 1 112 1 119 1 120 1 153 1 154 1 161 1 162 1 174 1 175 1 191 1 192 1 193 1 203 1 204 1 225 1 228 1 231 1 237 1 244 1 246 1 262 1 263 1 269 1 274 1 285 1 309 1 318 1 329 1 340 1 348 1 350 1 355 1 364 1 367 1 374 1 376 1 386 1 407 1 409 1 410 1 444 1 510 1 519 1 
1 212 13 1 26 1 28 1 32 1 36 1 51 2 60 1 66 1 77 1 87 1 89 1 94 1 105 2 117 1 124 1 125 1 131 1 134 1 139 1 140 1 151 1 156 1 159 2 165 1 171 1 177 1 179 2 215 1 216 1 226 1 238 1 250 1 270 1 272 1 276 1 280 1 291 1 297 1 348 1 350 1 360 1 361 1 363 2 371 1 392 1 393 1 395 1 400 1 403 2 408 1 415 2 499 1 493 1 444 1 481 1 495 1 452 1 480 1 4 1 5 1 33 1 39 1 47 1 48 1 54 1 57 1 64 1 70 1 76 1 78 1 103 1 107 1 110 1 113 1 126 1 127 1 129 1 187 1 194 1 210 1 212 1 228 1 265 1 268 1 269 1 281 1 283 1 309 1 311 1 316 1 328 1 353 1 356 1 366 1 383 1 409 1 417 1 429 1 434 1 450 1 473 1 485 1 491 1 492 1 501 1 
1 217 11 1 20 1 25 1 43 1 48 1 71 1 76 2 93 1 105 1 112 1 115 1 147 1 158 1 165 1 168 2 175 1 182 1 183 1 186 1 194 1 202 1 212 1 214 1 224 1 234 1 237 1 238 1 244 2 245 1 252 1 253 1 257 1 262 1 269 2 287 1 305 1 317 1 320 2 321 1 331 1 335 1 337 1 372 1 399 2 400 1 408 1 443 1 500 1 496 1 487 1 494 2 480 1 458 1 6 1 9 1 19 1 23 1 29 1 33 1 37 1 47 1 50 1 94 1 130 1 134 1 137 1 143 1 144 1 164 1 166 1 176 1 180 1 181 1 187 1 190 1 196 1 204 1 211 1 221 1 228 1 231 1 258 1 271 1 277 1 291 1 303 1 307 1 325 1 352 1 355 1 358 1 367 1 371 1 389 1 398 1 403 1 404 1 415 1 419 1 439 1 441 1 442 1 452 1 461 1 476 1 511 1 
1 211 11 1 25 2 33 1 38 1 39 1 40 2 45 1 47 1 50 2 54 1 65 2 70 1 73 1 80 1 94 1 105 1 118 1 136 1 140 1 151 2 177 1 209 1 210 2 219 1 221 1 229 1 239 1 241 1 250 1 251 1 253 2 271 1 295 1 298 1 316 1 318 1 326 1 327 1 352 1 355 1 368 1 372 2 379 1 391 1 412 1 415 2 427 1 476 1 446 1 453 1 452 1 491 1 462 1 3 1 19 1 21 1 24 1 31 1 34 1 63 1 75 1 77 1 89 1 90 1 96 1 106 1 110 1 130 1 138 1 152 1 172 1 191 1 196 1 201 1 202 1 203 1 218 1 225 1 242 1 248 1 255 1 262 1 264 1 287 1 300 1 303 1 307 1 312 1 336 1 340 1 376 1 384 1 386 1 399 1 406 1 408 1 417 1 420 1 439 1 479 1 489 1 490 1 493 1 494 1 503 1 
1 204 4 1 6 1 8 2 10 1 14 1 22 1 25 1 26 1 33 1 65 2 69 1 75 1 76 2 85 1 87 1 88 1 94 1 107 1 108 1 122 1 126 1 135 1 136 1 138 2 141 1 144 1 158 1 168 1 173 1 211 1 237 1 238 1 240 1 245 2 249 1 251 1 269 1 283 1 286 2 287 1 288 1 290 1 306 1 309 1 319 1 324 1 333 1 343 1 362 1 372 1 379 2 380 1 395 1 414 1 416 1 445 1 453 1 489 1 496 1 499 1 490 1 17 1 31 1 32 1 34 1 60 1 63 1 82 1 99 1 103 1 104 1 109 1 131 1 137 1 149 1 151 1 171 1 172 1 174 1 198 1 200 1 216 1 219 1 220 1 230 1 236 1 243 1 248 1 267 1 292 1 294 1 308 1 314 1 317 1 318 1 334 1 336 1 354 1 382 1 383 1 390 1 397 1 398 1 401 1 404 1 448 1 477 1 493 1 497 1 503 1 505 1 516 1 
1 198 4 1 11 1 15 1 16 1 17 1 20 1 30 1 34 1 39 1 47 1 52 1 56 1 58 1 74 2 84 1 87 1 88 1 92 1 95 1 100 2 109 2 110 1 111 1 114 1 117 1 123 1 127 1 128 1 140 2 174 1 196 1 197 1 210 2 225 1 234 2 240 1 246 2 254 1 264 2 265 1 268 1 276 1 313 1 320 1 328 1 348 1 354 1 361 1 364 2 389 1 391 2 398 1 410 1 420 1 441 1 458 2 486 1 456 1 497 1 5 1 6 1 41 1 53 1 64 1 68 1 120 1 142 1 147 1 151 1 158 1 168 1 169 1 170 1 208 1 221 1 224 1 228 1 233 1 245 1 257 1 277 1 280 1 291 1 296 1 309 1 317 1 334 1 345 1 349 1 353 1 366 1 375 1 384 1 392 1 396 1 401 1 418 1 421 1 449 1 484 1 502 1 506 1 
1 204 5 1 6 2 19 1 31 1 43 1 57 1 61 2 65 1 71 1 99 1 113 1 130 1 142 1 148 1 151 1 154 1 187 2 202 1 208 1 209 1 224 1 229 1 234 1 244 1 250 1 257 1 266 1 276 1 279 2 286 1 305 1 311 1 314 2 337 1 347 1 348 1 350 1 369 1 378 1 379 1 396 1 409 1 414 1 422 1 432 1 433 1 456 1 466 1 463 1 489 2 498 1 18 1 24 1 39 1 41 1 45 1 49 1 62 1 68 1 78 1 80 1 84 1 88 1 89 1 109 1 119 1 131 1 145 1 153 1 159 1 186 1 190 1 194 1 205 1 215 1 242 1 247 1 259 1 262 1 265 1 271 1 288 1 327 1 338 1 357 1 368 1 375 1 389 1 397 1 400 1 405 1 411 1 446 1 484 1 492 1 493 1 497 1 499 1 511 1 
1 181 19 1 32 1 36 1 40 1 41 1 54 1 57 1 68 1 73 1 80 1 87 1 106 1 116 1 140 1 142 2 144 1 160 1 163 1 168 1 195 1 207 1 217 1 226 2 231 1 237 1 243 1 245 1 251 1 255 1 262 2 267 1 286 1 291 1 298 1 308 1 320 1 327 1 345 1 349 1 362 1 373 2 388 1 391 1 396 1 397 1 403 1 408 1 413 1 427 1 498 1 492 1 481 1 475 1 499 1 491 1 21 1 27 1 28 1 34 1 44 1 52 1 67 1 69 1 70 1 74 1 82 1 85 1 93 1 107 1 123 1 125 1 128 1 129 1 148 1 151 1 165 1 166 1 170 1 175 1 181 1 184 1 197 1 212 1 214 1 215 1 244 1 256 1 259 1 279 1 297 1 302 1 317 1 333 1 339 1 341 1 357 1 359 1 379 1 392 1 407 1 434 1 447 1 496 1 
1 210 9 1 10 1 11 1 12 2 15 1 18 1 28 2 29 1 30 1 37 1 40 1 53 2 71 1 78 1 90 1 93 1 100 1 104 1 105 1 112 1 122 1 123 1 128 1 136 1 141 1 166 1 201 2 207 1 215 2 220 1 230 1 252 1 254 1 279 1 282 1 285 1 299 1 306 1 322 1 334 1 348 2 349 1 352 2 363 1 364 1 378 1 382 1 384 1 396 1 415 2 436 1 494 1 456 1 469 1 464 2 5 1 7 1 39 1 48 1 50 1 68 1 76 1 86 1 97 1 101 1 118 1 131 1 147 1 159 1 164 1 165 1 173 1 175 1 181 1 188 1 197 1 198 1 202 1 206 1 211 1 216 1 221 1 225 1 231 1 271 1 278 1 281 1 288 1 291 1 295 1 300 1 308 1 310 1 312 1 314 1 315 1 321 1 329 1 342 1 343 1 356 1 369 1 380 1 387 1 391 1 400 1 417 1 418 1 421 1 423 1 424 1 437 1 440 1 443 1 453 1 465 1 502 1 506 1 512 1 
1 191 44 1 46 1 48 2 49 1 58 1 67 2 68 1 70 1 71 1 74 1 108 1 117 1 126 1 143 1 153 2 154 1 168 1 177 1 179 1 184 1 187 1 193 1 195 1 207 1 219 1 226 2 246 1 266 1 271 1 312 1 320 1 324 2 335 1 352 1 370 1 371 1 379 1 388 1 390 2 399 1 432 1 441 2 501 1 458 1 472 1 23 1 32 1 57 1 81 1 82 1 114 1 122 1 132 1 146 1 155 1 160 1 162 1 163 1 171 1 175 1 181 1 186 1 192 1 208 1 210 1 220 1 235 1 241 1 247 1 263 1 264 1 267 1 278 1 281 1 283 1 288 1 290 1 294 1 303 1 327 1 329 1 351 1 372 1 373 1 377 1 389 1 396 1 402 1 403 1 412 1 413 1 419 1 425 1 428 1 440 1 454 1 473 1 509 1 
1 188 11 1 12 1 19 1 38 1 42 2 45 1 61 2 63 1 81 1 82 1 84 1 87 1 97 2 99 1 101 1 113 1 114 2 116 1 125 1 132 1 143 1 158 1 161 1 162 1 165 1 205 2 209 2 211 1 222 1 224 1 235 2 244 1 261 1 265 1 278 1 311 1 320 1 328 1 342 1 362 1 369 1 377 1 379 1 395 1 405 1 408 1 416 1 422 1 438 1 443 1 445 1 490 1 495 1 23 1 36 1 46 1 72 1 86 1 98 1 118 1 120 1 122 1 123 1 124 1 133 1 154 1 167 1 169 1 189 1 192 1 195 1 197 1 219 1 239 1 245 1 246 1 247 1 248 1 249 1 259 1 262 1 273 1 286 1 306 1 317 1 322 1 326 1 330 1 340 1 359 1 363 1 373 1 375 1 394 1 398 1 403 1 407 1 409 1 410 1 421 1 440 1 444 1 453 1 461 1 485 1 491 1 497 1 499 1 
1 210 9 2 22 1 44 2 46 2 52 1 66 1 74 1 82 1 86 1 93 1 107 2 108 1 128 1 131 2 144 1 148 1 157 1 172 1 178 1 181 1 184 1 192 1 197 1 203 1 214 1 219 1 228 1 237 2 239 1 242 2 247 1 250 1 255 2 258 1 269 1 279 1 294 1 303 1 310 1 314 1 317 1 318 1 320 1 340 1 346 1 351 2 353 1 365 1 398 2 410 1 414 1 433 1 437 1 445 1 446 1 496 1 468 1 15 1 29 1 31 1 39 1 40 1 51 1 58 1 61 1 62 1 78 1 79 1 85 1 88 1 110 1 111 1 147 1 154 1 167 1 168 1 174 1 188 1 190 1 201 1 212 1 213 1 223 1 234 1 241 1 251 1 284 1 286 1 290 1 299 1 323 1 326 1 334 1 359 1 373 1 376 1 380 1 381 1 415 1 416 1 421 1 425 1 438 1 441 1 450 1 452 1 459 1 487 1 497 1 
1 204 4 1 15 1 22 1 24 1 26 1 27 1 32 2 34 1 37 1 46 1 58 2 62 1 67 1 85 2 98 2 99 1 107 1 117 1 130 1 136 1 141 1 147 1 193 1 213 1 230 2 233 1 243 1 250 1 256 1 260 1 262 1 266 1 268 1 271 2 272 1 283 1 284 2 285 1 288 1 313 2 319 1 321 2 322 2 357 1 375 1 383 1 385 1 390 2 393 1 397 1 400 1 411 1 425 1 494 1 498 1 499 1 457 1 2 1 36 1 38 1 40 1 43 1 56 1 60 1 75 1 86 1 96 1 102 1 109 1 118 1 140 1 142 1 149 1 154 1 161 1 165 1 170 1 174 1 176 1 178 1 180 1 181 1 183 1 190 1 192 1 197 1 217 1 221 1 238 1 239 1 257 1 275 1 282 1 301 1 304 1 323 1 324 1 330 1 337 1 339 1 340 1 368 1 374 1 378 1 380 1 405 1 409 1 420 1 422 1 427 1 451 1 462 1 463 1 465 1 469 1 502 1 
1 199 10 1 30 1 34 1 36 1 37 1 45 1 50 1 53 1 57 1 68 1 87 2 89 1 102 1 112 1 125 1 135 2 141 1 148 1 149 1 160 1 162 1 166 1 175 2 176 1 183 1 203 1 207 1 213 1 214 2 221 1 222 1 239 1 242 1 264 1 279 1 285 1 314 1 316 1 328 1 331 1 349 1 358 1 370 2 380 1 381 1 384 1 385 1 398 1 412 1 415 1 436 1 494 1 495 1 493 1 474 1 466 1 467 1 2 1 24 1 32 1 33 1 40 1 42 1 74 1 75 1 95 1 97 1 101 1 106 1 107 1 126 1 130 1 140 1 142 1 145 1 146 1 172 1 177 1 181 1 191 1 197 1 206 1 233 1 238 1 246 1 247 1 249 1 256 1 258 1 263 1 266 1 273 1 287 1 288 1 329 1 334 1 338 1 341 1 354 1 355 1 357 1 360 1 363 1 392 1 422 1 428 1 432 1 437 1 482 1 492 1 502 1 
1 212 10 2 18 2 36 1 55 1 64 1 114 1 128 1 130 1 133 1 154 1 167 1 173 1 174 1 176 2 183 2 197 1 203 1 204 2 213 1 220 1 221 1 255 1 262 1 279 1 288 1 293 1 300 1 308 1 315 1 324 1 327 1 329 1 332 1 334 1 336 1 364 1 370 1 382 1 383 2 385 1 394 1 395 1 397 2 400 1 407 1 416 1 442 1 447 1 448 1 450 1 491 1 461 1 477 1 4 1 11 1 14 1 21 1 27 1 32 1 37 1 38 1 46 1 56 1 72 1 78 1 95 1 106 1 118 1 126 1 136 1 142 1 149 1 164 1 166 1 177 1 178 1 180 1 186 1 189 1 193 1 202 1 209 1 219 1 235 1 244 1 249 1 252 1 253 1 257 1 269 1 274 1 284 1 291 1 301 1 304 1 307 1 309 1 312 1 316 1 326 1 333 1 340 1 361 1 374 1 380 1 388 1 396 1 402 1 404 1 457 1 464 1 465 1 509 1 
1 211 15 1 22 2 26 1 36 2 44 1 52 1 55 1 63 1 75 1 95 1 136 1 148 1 162 1 163 2 166 2 167 1 171 1 173 1 177 1 187 1 188 2 191 1 202 1 209 1 214 1 220 1 229 2 239 1 241 1 244 1 259 1 261 2 262 2 267 1 268 1 272 1 279 1 284 1 290 1 299 1 305 1 312 1 314 1 316 1 319 1 320 1 340 1 345 2 354 1 363 1 364 1 419 1 423 1 426 1 429 2 454 1 467 1 492 1 458 1 38 1 48 1 54 1 74 1 77 1 84 1 88 1 89 1 92 1 96 1 114 1 116 1 117 1 120 1 126 1 127 1 140 1 155 1 174 1 182 1 208 1 211 1 223 1 230 1 236 1 252 1 266 1 271 1 278 1 286 1 303 1 307 1 321 1 334 1 372 1 378 1 382 1 383 1 390 1 394 1 399 1 418 1 425 1 428 1 456 1 464 1 478 1 501 1 509 1 
1 213 20 2 22 1 56 1 67 1 70 1 90 1 93 1 103 2 110 1 125 1 128 1 134 1 138 2 155 1 163 2 166 2 173 2 178 2 186 2 193 1 202 1 215 1 227 1 229 1 238 1 254 1 265 2 278 2 289 1 292 1 304 1 317 1 320 1 329 1 331 1 349 1 357 1 369 1 377 1 391 1 417 1 420 1 423 1 442 2 444 1 447 2 451 1 457 1 475 1 496 1 491 1 478 1 471 1 480 1 1 1 4 1 11 1 40 1 47 1 53 1 54 1 57 1 58 1 62 1 66 1 69 1 72 1 85 1 91 1 99 1 100 1 104 1 108 1 119 1 124 1 133 1 142 1 143 1 150 1 151 1 164 1 165 1 171 1 176 1 187 1 207 1 224 1 233 1 240 1 247 1 252 1 260 1 264 1 275 1 287 1 299 1 301 1 302 1 314 1 327 1 338 1 345 1 353 1 354 1 375 1 387 1 392 1 398 1 407 1 421 1 426 1 468 1 504 1 515 1 
1 213 17 1 19 1 32 1 39 1 49 1 66 1 72 1 74 1 75 1 77 2 78 1 93 1 101 1 102 1 105 1 121 1 132 1 143 1 145 1 148 1 156 1 159 1 162 1 171 1 174 1 194 1 201 1 204 1 209 1 213 1 229 1 234 1 247 2 260 2 275 1 286 1 292 1 293 2 294 2 295 1 299 2 303 1 304 1 308 1 312 1 348 1 357 1 360 1 362 1 368 1 377 2 385 1 389 1 392 1 405 1 409 1 434 1 475 1 469 1 472 1 470 1 492 1 482 1 2 1 9 1 12 1 28 1 37 1 40 1 47 1 61 1 67 1 97 1 100 1 107 1 119 1 126 1 127 1 135 1 139 1 144 1 161 1 169 1 176 1 181 1 185 1 186 1 188 1 193 1 231 1 238 1 239 1 255 1 259 1 270 1 283 1 289 1 297 1 307 1 318 1 331 1 336 1 338 1 345 1 371 1 373 1 413 1 414 1 420 1 422 1 423 1 427 1 453 1 461 1 473 1 497 1 
1 217 2 1 11 1 12 1 14 1 21 1 22 1 23 1 37 1 50 1 64 1 70 1 71 1 76 1 82 2 99 1 102 1 105 1 121 1 130 1 140 1 143 1 147 1 159 1 174 1 178 1 179 1 184 1 191 1 206 1 214 1 215 1 224 1 245 1 253 1 255 1 256 1 264 1 269 2 275 1 290 1 300 2 305 1 308 1 315 1 316 1 333 1 343 1 344 2 357 2 363 2 370 1 375 2 385 2 393 1 394 1 402 1 406 1 426 1 427 1 492 2 466 1 496 1 480 1 470 1 3 1 6 1 7 1 25 1 44 1 53 1 72 1 77 1 80 1 92 1 146 1 148 1 150 1 162 1 177 1 180 1 183 1 198 1 205 1 230 1 231 1 237 1 241 1 263 1 279 1 298 1 306 1 313 1 314 1 321 1 376 1 382 1 391 1 392 1 407 1 424 1 461 1 465 1 
1 203 1 1 26 1 27 2 28 1 29 1 44 1 48 1 55 2 75 1 78 2 88 1 91 1 100 1 106 1 108 1 121 1 132 1 147 2 155 1 160 1 170 1 172 1 198 1 199 1 209 1 212 1 216 1 233 1 235 1 246 1 250 1 256 1 296 1 298 1 311 1 314 1 330 1 340 1 385 1 398 1 414 2 421 1 428 1 429 1 430 1 431 1 442 1 456 1 467 1 470 1 464 1 468 1 474 1 8 1 16 1 18 1 35 1 77 1 81 1 83 1 85 1 89 1 105 1 109 1 116 1 119 1 127 1 128 1 135 1 136 1 162 1 167 1 169 1 179 1 189 1 190 1 194 1 197 1 203 1 204 1 217 1 221 1 223 1 243 1 245 1 259 1 270 1 273 1 283 1 290 1 308 1 309 1 329 1 341 1 349 1 351 1 369 1 392 1 402 1 426 1 444 1 452 1 459 1 460 1 495 1 499 1 521 1 
1 212 18 1 23 1 25 1 28 1 36 2 44 1 49 1 50 1 65 1 84 1 89 2 90 2 93 1 96 1 112 1 122 1 124 1 125 2 126 1 144 1 158 1 162 1 163 1 167 1 183 1 184 1 185 1 186 1 205 1 207 1 222 2 240 2 252 1 255 1 257 1 261 1 267 2 277 1 283 1 292 1 294 1 296 1 332 1 340 1 349 1 356 1 370 1 413 1 414 1 417 1 425 1 426 1 428 1 432 1 433 2 445 1 470 1 492 1 1 1 6 1 21 1 31 1 37 1 40 1 43 1 58 1 74 1 76 1 82 1 116 1 121 1 132 1 137 1 145 1 151 1 152 1 153 1 190 1 201 1 234 1 237 1 242 1 249 1 250 1 259 1 265 1 268 1 286 1 287 1 289 1 291 1 306 1 312 1 321 1 351 1 352 1 353 1 361 1 366 1 386 1 390 1 393 1 396 1 419 1 423 1 427 1 429 1 431 1 454 1 465 1 476 1 484 1 496 1 512 1 
1 192 10 1 23 2 27 1 28 2 31 1 66 1 71 1 73 2 75 1 82 1 84 2 92 1 97 1 99 1 113 1 126 1 141 1 145 1 166 1 168 1 174 1 181 1 182 1 192 1 193 1 198 1 206 1 225 1 231 1 243 1 250 1 253 1 257 1 288 1 296 2 310 1 318 1 319 1 325 1 329 1 347 2 354 1 357 1 362 1 372 1 380 1 382 1 385 1 387 1 404 1 409 1 411 1 423 1 426 1 431 1 448 1 475 1 479 1 470 2 17 1 25 1 29 1 32 1 35 1 44 1 56 1 57 1 88 1 89 1 119 1 128 1 142 1 162 1 170 1 185 1 196 1 200 1 207 1 216 1 227 1 235 1 237 1 264 1 266 1 269 1 271 1 274 1 283 1 289 1 301 1 305 1 307 1 311 1 336 1 346 1 366 1 370 1 389 1 391 1 396 1 413 1 414 1 440 1 441 1 454 1 464 1 471 1 492 1 497 1 499 1 
1 202 13 1 14 1 34 2 42 1 50 1 70 1 83 1 96 1 130 1 134 1 137 1 138 1 143 1 160 1 161 1 187 1 191 1 193 1 194 1 199 1 201 2 204 1 220 1 232 1 233 1 234 1 238 1 240 1 244 1 248 1 252 1 270 1 278 1 279 2 280 1 283 2 291 2 310 1 322 1 333 2 343 1 353 1 362 1 363 1 366 1 378 1 380 2 409 1 411 1 427 1 430 1 450 2 461 1 495 1 499 1 480 1 478 1 21 1 44 1 53 1 63 1 68 1 72 1 76 1 85 1 94 1 99 1 100 1 121 1 128 1 144 1 149 1 156 1 163 1 171 1 186 1 192 1 200 1 205 1 226 1 260 1 265 1 272 1 285 1 288 1 293 1 304 1 307 1 313 1 315 1 335 1 341 1 346 1 360 1 371 1 379 1 392 1 393 1 412 1 418 1 419 1 426 1 431 1 435 1 456 1 457 1 463 1 467 1 
1 207 6 1 11 1 15 1 20 1 28 1 30 1 38 1 49 1 53 1 54 1 59 1 76 1 79 1 86 1 91 1 92 1 99 1 119 1 122 1 135 1 145 1 146 1 154 2 155 1 158 1 159 1 169 1 176 1 178 2 181 1 184 1 191 1 193 1 201 1 205 1 207 1 225 1 227 1 228 1 258 2 261 1 267 2 276 1 286 2 291 1 300 1 316 1 317 1 339 1 351 1 353 2 367 1 378 1 381 1 392 1 429 1 436 1 499 1 488 1 472 1 17 1 21 1 25 1 46 1 70 1 73 1 74 1 80 1 87 1 101 1 125 1 138 1 143 1 152 1 160 1 161 1 171 1 189 1 224 1 234 1 255 1 260 1 262 1 265 1 268 1 293 1 295 1 315 1 319 1 326 1 328 1 342 1 352 1 370 1 390 1 391 1 398 1 406 1 410 1 427 1 450 1 454 1 456 1 460 1 462 1 495 1 496 1 498 1 
1 192 3 1 11 1 12 1 21 1 29 1 30 1 33 2 58 1 62 1 72 1 76 1 81 1 85 1 98 1 101 1 128 1 145 1 146 1 148 1 149 1 164 1 172 1 180 2 194 1 210 1 216 1 240 1 254 1 256 1 265 1 326 1 328 1 346 2 350 2 360 1 362 1 378 1 386 1 395 1 397 2 401 1 423 2 448 1 455 1 460 1 467 1 479 1 478 1 501 1 4 1 5 1 7 1 15 1 20 1 38 1 42 1 49 1 61 1 64 1 66 1 67 1 77 1 80 1 87 1 89 1 103 1 104 1 114 1 134 1 152 1 156 1 167 1 168 1 171 1 182 1 187 1 189 1 205 1 206 1 214 1 227 1 245 1 250 1 253 1 260 1 261 1 269 1 272 1 277 1 278 1 314 1 317 1 333 1 342 1 354 1 361 1 392 1 393 1 404 1 500 1 
1 189 10 1 40 1 43 2 55 1 59 2 71 2 72 1 73 1 75 1 83 1 98 1 109 1 118 2 156 1 159 1 170 1 172 1 180 1 187 1 189 1 195 2 216 1 221 1 223 1 226 1 248 2 253 1 255 2 270 1 286 1 287 1 289 1 293 1 299 2 303 1 307 1 319 1 340 2 345 1 356 1 360 2 371 1 374 1 377 1 383 1 390 1 403 1 406 1 408 2 455 1 457 1 461 1 466 1 495 1 496 1 468 1 6 1 48 1 65 1 82 1 87 1 90 1 111 1 114 1 127 1 131 1 132 1 138 1 139 1 157 1 161 1 162 1 175 1 205 1 230 1 235 1 249 1 256 1 264 1 279 1 280 1 285 1 296 1 308 1 320 1 344 1 347 1 355 1 375 1 376 1 382 1 405 1 414 1 418 1 425 1 431 1 432 1 433 1 435 1 464 1 
1 206 3 1 10 1 15 1 34 1 39 1 42 1 52 1 65 2 74 1 96 1 97 1 101 1 103 1 108 1 110 1 111 1 126 1 132 1 134 1 142 1 150 1 151 2 158 1 161 1 166 1 173 1 174 1 198 1 201 1 211 1 218 1 220 1 222 1 231 1 234 2 236 1 237 1 250 1 256 2 265 1 267 1 275 2 280 1 290 1 315 1 339 1 348 1 360 1 369 2 384 1 388 1 399 1 406 1 409 2 411 1 417 1 427 1 428 1 436 1 453 1 461 1 467 1 474 1 501 1 28 1 32 1 45 1 50 1 66 1 119 1 125 1 128 1 129 1 137 1 140 1 141 1 144 1 146 1 154 1 162 1 171 1 175 1 176 1 181 1 194 1 196 1 204 1 228 1 229 1 230 1 252 1 300 1 302 1 304 1 326 1 328 1 331 1 335 1 337 1 349 1 364 1 367 1 381 1 418 1 424 1 458 1 473 1 497 1 500 1 510 1 
1 183 1 1 12 1 14 1 24 1 55 1 83 1 90 1 100 1 104 1 118 1 139 1 151 1 155 1 161 1 177 1 196 1 199 1 210 1 224 1 226 1 246 1 257 1 259 2 260 1 278 1 279 2 283 1 306 2 316 1 352 1 385 1 396 1 397 1 409 1 432 1 450 1 459 1 472 2 488 1 476 1 9 1 17 1 18 1 26 1 29 1 33 1 63 1 69 1 75 1 85 1 86 1 99 1 113 1 133 1 134 1 136 1 150 1 158 1 159 1 179 1 181 1 182 1 187 1 193 1 247 1 249 1 252 1 256 1 273 1 284 1 295 1 298 1 301 1 303 1 321 1 325 1 327 1 333 1 350 1 353 1 354 1 355 1 364 1 373 1 376 1 377 1 381 1 382 1 390 1 393 1 414 1 434 1 454 1 474 1 479 1 501 1 
1 215 27 1 43 1 54 1 57 1 59 1 63 1 68 1 73 2 84 1 91 1 94 1 107 2 111 1 122 1 123 1 127 1 140 1 157 1 175 1 183 1 187 1 189 1 195 1 197 1 211 1 215 2 216 1 221 1 223 2 233 1 235 2 250 1 252 1 272 1 274 2 280 1 289 1 300 1 307 1 345 1 351 1 358 1 363 1 365 1 379 1 392 1 398 1 406 1 413 1 419 1 420 1 421 1 429 1 459 1 460 1 461 1 462 1 463 2 6 1 25 1 30 1 37 1 38 1 44 1 45 1 48 1 69 1 78 1 102 1 109 1 113 1 115 1 135 1 145 1 153 1 156 1 172 1 174 1 184 1 191 1 192 1 208 1 213 1 219 1 220 1 225 1 229 1 244 1 251 1 271 1 278 1 284 1 285 1 291 1 294 1 319 1 328 1 334 1 339 1 357 1 362 1 389 1 394 1 431 1 487 1 517 1 
1 216 1 1 8 1 22 1 30 1 40 1 52 1 58 1 59 2 64 1 77 1 78 1 82 1 83 1 86 1 87 1 89 1 100 1 105 1 106 1 122 1 132 1 148 1 157 2 163 1 165 2 177 1 178 1 180 1 186 1 208 2 224 1 227 1 247 1 250 1 255 1 270 1 273 1 276 1 277 1 280 1 281 1 297 1 307 2 310 1 316 1 322 1 324 2 325 1 326 1 349 1 353 2 355 1 366 1 371 1 372 1 383 1 408 1 410 2 419 1 427 1 458 1 474 1 484 1 11 1 20 1 29 1 39 1 48 1 56 1 62 1 65 1 81 1 113 1 126 1 127 1 135 1 146 1 184 1 191 1 193 1 218 1 221 1 232 1 235 1 245 1 265 1 279 1 282 1 283 1 303 1 311 1 313 1 330 1 333 1 336 1 359 1 393 1 402 1 426 1 440 1 441 1 463 1 472 1 476 1 500 1 
1 217 7 1 18 1 22 1 25 1 28 1 37 1 40 1 54 1 65 1 76 1 82 1 96 2 114 1 117 1 124 1 126 1 139 1 157 1 167 1 172 1 178 1 186 1 202 1 203 1 215 1 222 1 246 1 256 1 262 1 263 1 272 1 275 1 277 1 280 1 283 2 296 1 303 1 313 1 330 1 337 1 342 1 345 1 351 1 357 2 360 1 362 2 370 2 389 1 420 1 451 1 459 1 465 1 469 2 474 1 489 1 2 1 3 1 6 1 12 1 14 1 19 1 27 1 30 1 31 1 41 1 51 1 53 1 59 1 66 1 71 1 77 1 81 1 106 1 110 1 112 1 151 1 158 1 160 1 181 1 183 1 185 1 189 1 195 1 196 1 197 1 198 1 199 1 204 1 229 1 247 1 248 1 251 1 252 1 255 1 273 1 274 1 299 1 304 1 306 1 307 1 316 1 359 1 363 1 364 1 377 1 382 1 399 1 415 1 423 1 427 1 430 1 434 1 471 1 482 1 519 1 
1 208 3 2 7 1 12 1 22 1 43 1 54 1 55 1 65 2 81 2 88 1 96 1 97 1 100 1 110 1 130 1 136 1 137 1 141 1 147 1 158 2 161 1 166 2 173 1 174 1 178 2 191 1 199 1 211 1 215 1 242 1 249 1 256 1 261 1 283 1 291 2 332 1 342 2 345 1 346 1 356 1 358 1 371 2 375 1 376 1 387 1 396 1 403 1 487 1 29 1 31 1 32 1 39 1 49 1 58 1 73 1 83 1 90 1 116 1 120 1 132 1 151 1 156 1 164 1 172 1 182 1 204 1 207 1 221 1 222 1 224 1 226 1 235 1 243 1 251 1 267 1 298 1 308 1 313 1 315 1 322 1 323 1 325 1 352 1 362 1 374 1 381 1 405 1 407 1 409 1 410 1 424 1 441 1 443 1 451 1 459 1 468 1 477 1 478 1 493 1 501 1 
1 210 3 1 23 1 25 1 38 1 41 1 44 1 48 1 51 1 58 1 60 1 87 1 93 1 97 1 100 1 110 2 128 1 153 1 160 2 165 1 173 1 175 1 188 1 204 1 206 1 219 1 239 1 240 1 254 1 264 1 271 1 275 2 281 1 285 1 304 2 314 2 317 1 326 1 330 1 334 1 339 1 344 1 345 1 353 2 378 2 385 1 398 1 408 1 410 1 413 1 419 1 424 1 427 1 435 1 439 1 455 1 461 1 468 1 471 1 472 1 483 1 476 1 4 1 17 1 71 1 74 1 77 1 83 1 85 1 91 1 106 1 113 1 130 1 134 1 138 1 147 1 157 1 159 1 185 1 202 1 203 1 217 1 225 1 226 1 228 1 236 1 242 1 266 1 270 1 274 1 278 1 283 1 284 1 286 1 288 1 292 1 302 1 305 1 332 1 333 1 335 1 372 1 375 1 386 1 390 1 421 1 469 1 520 1 
1 207 1 1 12 1 21 1 28 1 42 1 45 1 53 1 55 1 56 1 66 1 83 1 94 1 98 1 101 1 103 1 109 1 143 1 159 1 160 1 165 1 182 1 184 1 185 1 186 1 193 1 203 1 205 2 207 1 214 1 219 1 221 1 230 1 238 1 242 1 261 1 280 1 282 1 309 1 318 1 319 1 330 1 334 1 348 1 354 1 362 1 363 1 364 1 387 1 394 1 409 1 410 1 414 1 418 1 420 1 430 1 431 1 436 1 449 1 458 1 459 1 463 1 476 1 483 1 488 1 497 1 5 1 11 1 34 1 47 1 50 1 54 1 65 1 67 1 93 1 96 1 118 1 120 1 129 1 135 1 154 1 164 1 166 1 171 1 222 1 227 1 252 1 275 1 294 1 295 1 297 1 305 1 312 1 314 1 342 1 343 1 347 1 358 1 386 1 388 1 392 1 397 1 402 1 406 1 413 1 437 1 480 1 502 1 503 1 
1 205 9 1 15 1 31 1 35 1 48 1 49 1 71 1 77 2 81 1 93 1 103 2 112 1 115 1 126 1 150 1 173 1 203 1 206 1 209 1 213 1 237 1 257 1 264 1 280 1 281 2 287 2 292 1 293 1 294 1 296 1 297 1 299 1 319 1 322 1 345 1 360 1 367 1 388 1 423 1 426 1 436 1 445 1 469 1 474 1 475 1 480 1 6 1 33 1 47 1 57 1 59 1 61 1 72 1 85 1 92 1 95 1 97 1 111 1 119 1 125 1 132 1 134 1 151 1 153 1 154 1 161 1 179 1 190 1 194 1 217 1 222 1 236 1 247 1 251 1 256 1 260 1 266 1 271 1 279 1 290 1 298 1 317 1 318 1 329 1 341 1 357 1 358 1 361 1 363 1 365 1 377 1 390 1 392 1 393 1 403 1 405 1 429 1 438 1 444 1 462 1 471 1 483 1 485 1 487 1 511 1 
1 220 2 1 8 1 15 1 21 1 27 1 35 1 36 2 45 1 49 2 58 1 61 1 63 1 88 1 91 1 94 1 99 1 104 2 119 1 127 1 166 1 174 1 177 2 182 1 197 1 204 2 211 1 219 1 228 2 236 1 243 2 246 1 248 1 257 1 263 1 266 1 267 1 270 1 272 1 275 1 296 1 306 1 307 1 326 1 332 1 345 1 347 1 355 1 359 1 365 1 368 1 401 1 409 1 412 1 425 1 427 1 437 2 456 1 486 1 479 1 10 1 14 1 28 1 37 1 46 1 59 1 70 1 71 1 75 1 80 1 102 1 106 1 115 1 130 1 131 1 135 1 144 1 148 1 155 1 157 1 165 1 172 1 179 1 190 1 192 1 201 1 203 1 220 1 231 1 240 1 245 1 254 1 265 1 301 1 309 1 319 1 324 1 335 1 337 1 343 1 351 1 353 1 358 1 361 1 380 1 391 1 392 1 396 1 423 1 424 1 426 1 446 1 473 1 481 1 484 1 488 1 510 1 512 1 
1 203 9 1 22 1 36 2 66 1 67 1 87 1 99 1 119 1 128 1 129 1 139 2 140 2 148 1 152 2 173 1 185 1 191 1 198 1 202 1 216 2 220 2 226 1 234 2 235 1 236 1 237 1 239 1 240 1 261 1 264 2 276 1 307 1 317 1 318 1 321 1 341 1 352 1 373 1 381 2 388 1 391 1 394 1 395 1 413 1 417 1 421 1 434 2 441 1 458 1 464 1 466 1 488 1 7 1 13 1 15 1 18 1 19 1 29 1 31 1 37 1 57 1 64 1 65 1 71 1 84 1 89 1 92 1 94 1 155 1 159 1 162 1 165 1 182 1 196 1 201 1 203 1 209 1 213 1 215 1 217 1 245 1 267 1 313 1 316 1 333 1 334 1 335 1 339 1 344 1 354 1 370 1 382 1 384 1 390 1 393 1 396 1 397 1 398 1 400 1 401 1 402 1 410 1 423 1 424 1 426 1 457 1 473 1 480 1 481 1 510 1 
1 191 8 2 9 1 14 1 35 2 38 2 51 1 54 1 73 1 101 1 120 2 122 1 124 1 142 1 154 1 160 1 169 2 191 1 199 1 202 1 205 1 208 1 226 1 238 1 243 1 252 1 260 1 279 1 283 1 289 1 303 1 310 1 313 1 319 1 324 1 361 1 375 1 394 2 405 1 419 1 431 1 433 1 438 1 439 1 463 1 466 1 477 1 482 1 21 1 57 1 58 1 85 1 86 1 106 1 112 1 119 1 127 1 138 1 140 1 144 1 150 1 173 1 175 1 178 1 188 1 189 1 224 1 247 1 248 1 254 1 280 1 282 1 285 1 297 1 317 1 321 1 336 1 346 1 355 1 383 1 418 1 421 1 423 1 429 1 430 1 432 1 434 1 445 1 469 1 504 1 
1 208 14 1 26 1 28 1 30 1 40 1 49 1 53 1 61 1 65 1 66 1 69 1 70 1 72 2 78 2 79 1 89 1 97 2 108 1 113 1 122 1 128 1 129 1 139 1 158 1 166 1 175 1 191 2 201 1 211 1 215 1 223 1 224 1 244 1 251 1 256 1 265 1 287 1 289 1 290 1 296 1 302 1 316 1 318 2 324 1 352 1 380 1 387 2 389 1 397 1 402 1 423 1 430 1 432 1 434 1 443 1 444 1 458 1 460 1 464 1 476 1 484 1 483 1 1 1 19 1 21 1 23 1 34 1 44 1 46 1 55 1 64 1 74 1 76 1 81 1 90 1 116 1 149 1 152 1 159 1 196 1 209 1 213 1 218 1 221 1 222 1 225 1 233 1 240 1 241 1 291 1 300 1 301 1 306 1 310 1 315 1 356 1 362 1 368 1 377 1 381 1 396 1 401 1 411 1 414 1 427 1 475 1 478 1 494 1 498 1 501 1 505 1 510 1 
1 195 29 1 34 1 37 1 38 2 39 1 52 1 54 1 72 1 102 1 103 1 113 1 119 1 124 1 131 2 138 1 147 2 150 1 156 1 176 2 191 1 195 1 218 1 222 1 232 1 241 1 242 1 247 1 257 1 263 1 269 1 293 1 299 1 315 1 329 1 345 1 348 1 350 2 363 1 364 1 375 1 399 1 413 1 420 1 434 1 437 1 443 1 449 1 6 1 9 1 11 1 16 1 25 1 26 1 53 1 56 1 70 1 75 1 82 1 94 1 122 1 129 1 132 1 133 1 157 1 172 1 181 1 184 1 188 1 197 1 199 1 201 1 211 1 224 1 229 1 235 1 240 1 252 1 259 1 272 1 279 1 280 1 285 1 291 1 302 1 304 1 314 1 324 1 354 1 367 1 385 1 397 1 401 1 402 1 410 1 417 1 419 1 422 1 428 1 429 1 431 1 433 1 439 1 477 1 478 1 485 1 488 1 513 1 
1 231 4 1 8 1 9 1 19 2 24 1 32 2 38 1 39 1 47 1 49 1 67 1 71 1 83 1 91 1 92 1 105 1 109 1 118 1 121 1 134 1 137 2 141 1 144 2 148 1 150 1 155 1 159 1 160 1 176 1 181 1 183 1 190 1 197 1 205 1 217 1 221 1 223 1 230 1 235 1 236 1 240 2 255 1 262 1 264 1 275 1 281 1 282 1 285 1 287 1 308 1 318 1 322 1 349 1 351 1 355 1 359 1 360 1 370 1 374 1 389 1 391 1 392 1 408 2 409 1 412 1 417 1 429 1 433 1 434 1 459 1 479 1 488 1 3 1 35 1 37 1 45 1 54 1 59 1 64 1 78 1 100 1 108 1 110 1 138 1 142 1 143 1 147 1 156 1 157 1 158 1 165 1 172 1 199 1 201 1 213 1 214 1 222 1 229 1 244 1 246 1 257 1 266 1 268 1 273 1 288 1 310 1 313 1 319 1 329 1 331 1 334 1 339 1 340 1 362 1 364 1 365 1 372 1 378 1 383 1 385 1 393 1 410 1 425 1 455 1 472 1 485 1 493 1 505 1 509 1 511 1 517 1 
1 210 6 1 9 1 11 1 27 1 30 1 32 1 39 2 52 1 57 1 59 1 61 1 72 1 95 1 98 1 99 1 106 1 109 1 115 1 116 1 145 1 150 1 153 1 156 1 166 1 169 1 171 1 173 1 177 1 187 1 192 1 194 1 197 1 199 1 206 2 216 1 220 1 241 1 248 1 250 1 265 1 275 1 279 1 280 1 291 1 297 1 304 1 305 1 313 1 317 1 328 1 355 1 368 1 385 1 386 1 389 1 400 1 401 1 418 1 425 1 474 1 475 1 480 1 484 1 15 1 36 1 40 1 60 1 64 1 73 1 82 1 83 1 88 1 107 1 112 1 121 1 125 1 134 1 135 1 140 1 170 1 179 1 188 1 190 1 196 1 204 1 217 1 224 1 227 1 229 1 230 1 237 1 244 1 252 1 296 1 301 1 315 1 329 1 357 1 361 1 363 1 371 1 382 1 396 1 420 1 428 1 432 1 476 1 
1 192 6 1 15 1 36 1 45 1 50 2 58 1 61 1 67 1 73 1 83 1 89 1 103 1 112 2 116 1 122 1 147 1 165 1 168 1 188 1 196 1 197 1 208 1 211 1 213 1 221 2 223 1 226 1 231 1 233 1 235 1 252 1 264 1 274 1 282 1 285 1 293 2 294 1 309 1 312 2 329 1 350 1 353 1 357 1 359 1 362 2 371 1 402 1 406 1 423 1 439 1 442 1 471 1 480 1 483 1 487 1 494 1 485 2 7 1 14 1 21 1 27 1 32 1 33 1 57 1 63 1 68 1 69 1 70 1 76 1 80 1 84 1 93 1 96 1 98 1 120 1 135 1 136 1 140 1 148 1 156 1 177 1 179 1 180 1 241 1 242 1 243 1 245 1 254 1 268 1 277 1 288 1 291 1 300 1 307 1 318 1 319 1 321 1 323 1 331 1 332 1 342 1 348 1 363 1 378 1 383 1 394 1 396 1 397 1 400 1 407 1 408 1 412 1 413 1 447 1 448 1 462 1 477 1 518 1 
1 219 14 1 32 1 42 1 48 1 52 1 56 2 65 2 74 1 79 1 82 1 83 1 88 2 104 1 107 1 108 1 110 1 114 1 115 1 125 1 127 1 130 1 131 2 142 1 145 1 170 1 173 1 180 1 188 1 192 1 210 1 214 1 253 1 257 1 267 1 271 1 277 1 281 1 289 1 294 1 311 1 330 1 340 2 341 1 383 1 401 1 406 1 407 1 411 1 421 1 422 1 439 1 484 2 15 1 16 1 39 1 64 1 72 1 84 1 92 1 102 1 105 1 111 1 116 1 136 1 154 1 163 1 169 1 171 1 174 1 175 1 176 1 178 1 186 1 189 1 194 1 199 1 216 1 220 1 223 1 228 1 236 1 240 1 248 1 260 1 291 1 293 1 309 1 325 1 335 1 339 1 353 1 360 1 370 1 380 1 384 1 385 1 414 1 417 1 418 1 419 1 430 1 434 1 443 1 452 1 476 1 481 1 482 1 491 1 492 1 
1 211 17 1 29 2 42 1 58 1 76 1 82 2 83 2 101 1 107 1 110 1 114 1 126 1 129 1 143 2 169 1 177 1 178 1 187 1 192 2 195 1 228 1 257 2 261 1 266 1 267 1 268 1 282 1 291 1 304 1 305 1 308 1 313 1 322 1 350 2 366 1 371 1 372 1 379 1 383 2 407 1 408 1 413 1 422 1 426 1 429 1 435 1 436 1 439 1 447 1 477 1 496 1 4 1 20 1 22 1 60 1 71 1 81 1 113 1 124 1 138 1 144 1 153 1 160 1 168 1 170 1 175 1 176 1 183 1 196 1 197 1 206 1 213 1 229 1 231 1 238 1 242 1 245 1 251 1 263 1 269 1 270 1 284 1 286 1 295 1 300 1 303 1 319 1 326 1 332 1 335 1 358 1 362 1 377 1 387 1 403 1 418 1 423 1 424 1 495 1 503 1 513 1 520 1 
1 208 7 1 20 1 28 1 40 1 61 1 79 1 90 2 94 2 95 1 97 1 98 1 104 1 115 1 118 1 122 1 130 1 141 1 150 1 173 2 181 1 185 1 189 1 196 1 210 1 214 1 222 1 225 1 226 1 227 1 255 1 260 1 268 1 282 1 283 1 287 1 298 1 301 1 304 1 305 1 308 1 316 2 320 1 328 1 339 2 343 1 347 1 348 1 355 1 376 1 384 1 385 1 402 1 411 1 419 1 426 1 429 1 431 1 437 2 444 1 473 1 484 1 12 1 17 1 41 1 42 1 43 1 45 1 52 1 57 1 60 1 63 1 64 1 69 1 100 1 106 1 111 1 113 1 117 1 119 1 121 1 139 1 158 1 159 1 162 1 180 1 186 1 194 1 202 1 207 1 229 1 249 1 275 1 278 1 280 1 284 1 294 1 295 1 300 1 302 1 318 1 329 1 356 1 370 1 373 1 392 1 394 1 404 1 432 1 438 1 453 1 470 1 476 1 494 1 518 1 520 1 521 1 
1 198 6 1 16 1 18 1 23 1 25 1 27 1 50 1 54 1 77 1 79 1 91 1 92 1 94 1 105 1 113 1 127 2 142 1 155 1 164 1 182 1 183 1 186 1 201 1 204 1 205 1 239 1 251 1 278 1 290 1 296 1 311 1 330 1 331 1 356 1 377 1 386 1 390 1 394 1 405 1 406 1 415 1 423 1 425 1 427 1 433 1 434 1 438 1 440 2 465 1 469 1 475 1 478 1 482 1 496 1 5 1 31 1 36 1 41 1 44 1 68 1 69 1 74 1 78 1 86 1 90 1 101 1 110 1 112 1 114 1 131 1 150 1 151 1 156 1 159 1 162 1 167 1 178 1 180 1 181 1 193 1 194 1 198 1 210 1 211 1 218 1 222 1 234 1 244 1 245 1 246 1 249 1 250 1 257 1 265 1 267 1 285 1 310 1 317 1 341 1 353 1 361 1 370 1 385 1 388 1 392 1 393 1 408 1 420 1 422 1 477 1 481 1 508 1 516 1 
1 203 1 1 5 2 13 1 25 2 37 1 45 1 50 1 63 1 65 1 76 2 79 1 87 1 96 1 100 2 105 1 113 2 117 1 125 1 157 1 158 1 192 1 211 1 213 1 261 1 264 2 273 1 278 1 291 1 307 2 308 1 309 1 353 1 393 1 398 1 401 1 405 1 420 1 425 1 432 2 437 1 446 1 448 2 472 1 498 1 8 1 12 1 15 1 28 1 51 1 54 1 57 1 64 1 68 1 85 1 92 1 101 1 112 1 122 1 135 1 138 1 141 1 156 1 160 1 169 1 171 1 173 1 196 1 204 1 215 1 222 1 230 1 235 1 237 1 247 1 255 1 263 1 265 1 269 1 275 1 282 1 288 1 298 1 306 1 319 1 320 1 325 1 340 1 343 1 347 1 350 1 358 1 363 1 373 1 375 1 396 1 400 1 412 1 421 1 429 1 430 1 440 1 445 1 493 1 521 1 
1 200 3 1 28 1 41 1 45 1 48 1 74 1 77 1 97 2 109 1 110 1 116 1 128 1 163 1 173 1 194 1 195 2 199 2 207 1 211 2 230 1 250 1 268 1 270 1 275 1 279 1 280 1 293 1 294 1 298 1 327 1 335 1 339 1 340 1 343 1 344 1 355 1 374 1 382 1 404 1 409 2 417 2 418 1 427 1 428 2 446 1 452 1 12 1 29 1 36 1 37 1 42 1 46 1 47 1 52 1 60 1 63 1 76 1 89 1 100 1 101 1 108 1 114 1 125 1 126 1 131 1 135 1 149 1 159 1 166 1 167 1 168 1 169 1 205 1 209 1 220 1 229 1 231 1 233 1 235 1 241 1 248 1 251 1 263 1 271 1 283 1 314 1 331 1 341 1 350 1 354 1 369 1 378 1 387 1 390 1 398 1 406 1 445 1 491 1 498 1 503 1 
1 203 17 1 50 1 71 1 77 1 110 1 112 1 114 2 123 1 153 2 165 2 168 1 172 2 183 2 185 1 192 1 201 1 212 1 213 1 214 1 222 1 228 1 236 1 240 1 245 1 248 1 250 1 251 1 258 1 260 1 263 1 268 1 270 1 280 1 309 1 318 1 328 1 334 1 337 1 347 1 352 1 359 1 362 2 371 1 381 1 382 1 388 1 394 2 400 1 414 1 426 1 427 1 431 1 445 1 449 1 456 1 458 1 13 1 21 1 52 1 85 1 99 1 106 1 115 1 129 1 145 1 158 1 170 1 174 1 180 1 181 1 188 1 209 1 217 1 218 1 231 1 237 1 242 1 265 1 271 1 287 1 295 1 296 1 308 1 320 1 326 1 344 1 357 1 367 1 368 1 376 1 409 1 413 1 422 1 428 1 434 1 438 1 443 1 452 1 485 1 490 1 495 1 502 1 516 1 
1 213 21 1 29 1 31 2 32 2 34 1 35 1 36 1 42 2 59 1 60 1 62 1 67 1 69 1 78 1 89 1 102 2 103 1 105 1 124 1 131 1 132 1 153 2 160 1 163 1 164 1 165 1 175 1 178 2 185 2 188 1 193 1 206 1 217 1 220 1 223 1 241 1 251 1 256 1 276 1 278 1 283 2 284 1 285 1 287 1 293 1 306 1 307 1 312 1 313 1 316 1 324 1 335 1 344 1 359 1 368 1 373 1 379 1 381 1 397 1 405 1 423 1 429 1 432 1 436 1 449 1 457 1 459 1 460 2 462 1 499 1 26 1 117 1 120 1 121 1 140 1 143 1 146 1 155 1 162 1 173 1 182 1 192 1 194 1 199 1 201 1 234 1 237 1 238 1 245 1 259 1 261 1 262 1 272 1 280 1 288 1 294 1 297 1 299 1 300 1 320 1 321 1 328 1 354 1 358 1 365 1 372 1 388 1 393 1 413 1 415 1 418 1 430 1 443 1 448 1 455 1 463 1 485 1 496 1 
1 197 4 1 11 1 26 2 40 1 43 2 56 1 60 1 75 1 81 1 82 1 83 1 92 1 106 1 107 1 146 1 152 2 185 1 195 1 200 1 204 1 216 1 228 1 235 1 247 1 262 1 267 1 288 1 298 1 300 1 302 1 303 1 315 1 320 1 324 1 330 1 345 1 364 1 367 1 369 1 374 1 378 1 389 1 395 1 401 1 411 1 430 1 431 1 439 1 442 1 443 1 455 1 15 1 20 1 23 1 33 1 54 1 78 1 86 1 97 1 99 1 147 1 151 1 158 1 162 1 174 1 181 1 184 1 191 1 201 1 207 1 217 1 219 1 225 1 226 1 231 1 244 1 250 1 257 1 277 1 293 1 299 1 307 1 309 1 319 1 329 1 332 1 334 1 339 1 355 1 371 1 373 1 375 1 380 1 381 1 383 1 398 1 402 1 410 1 429 1 436 1 445 1 446 1 448 1 473 1 482 1 489 1 495 1 499 1 503 1 506 1 507 1 
1 206 13 1 23 2 24 1 33 1 39 1 42 1 45 1 68 1 69 2 79 1 96 1 98 1 99 1 103 1 105 1 114 1 129 2 133 1 155 1 161 1 162 1 167 2 169 1 175 1 205 1 212 1 217 1 220 1 228 1 232 1 235 1 256 1 259 2 265 1 275 1 277 2 282 2 284 2 294 1 318 1 325 2 327 2 334 1 343 1 344 1 350 1 358 1 365 1 379 1 383 1 384 1 385 1 391 1 403 1 410 1 412 1 414 1 428 1 430 1 444 2 450 1 454 1 455 1 484 1 31 1 35 1 60 1 73 1 80 1 81 1 97 1 111 1 112 1 125 1 135 1 142 1 158 1 176 1 178 1 196 1 199 1 200 1 202 1 226 1 230 1 236 1 240 1 255 1 257 1 260 1 261 1 278 1 281 1 306 1 308 1 326 1 332 1 342 1 347 1 356 1 362 1 381 1 387 1 395 1 397 1 415 1 441 1 445 1 480 1 487 1 515 1 
1 197 13 1 20 1 35 1 41 2 45 1 60 1 62 2 65 1 69 1 99 1 101 1 108 1 122 1 127 1 128 1 135 1 140 1 141 1 148 1 155 2 161 2 171 1 179 1 185 1 202 1 216 2 220 1 234 1 235 1 249 1 266 1 267 1 268 1 280 1 289 1 307 1 332 2 338 2 339 1 352 1 356 1 365 1 375 1 377 1 381 1 397 1 400 1 416 1 420 1 426 2 441 1 443 1 452 1 455 1 464 1 467 1 8 1 19 1 21 1 30 1 38 1 48 1 56 1 67 1 90 1 92 1 103 1 113 1 115 1 125 1 131 1 146 1 164 1 173 1 189 1 193 1 212 1 247 1 260 1 261 1 285 1 287 1 292 1 305 1 309 1 314 1 319 1 320 1 321 1 334 1 344 1 349 1 357 1 366 1 373 1 374 1 376 1 401 1 404 1 406 1 412 1 461 1 465 1 486 1 491 1 493 1 
1 187 5 1 29 1 32 1 62 1 77 1 79 1 82 2 87 1 94 1 116 2 118 1 145 1 154 1 162 1 163 1 194 1 200 1 217 1 219 1 224 1 240 1 243 1 247 1 253 1 254 1 261 1 263 1 307 1 317 1 322 1 332 2 333 1 335 1 342 1 369 1 375 1 376 1 378 1 383 1 397 1 406 1 410 1 415 2 417 1 419 1 422 1 430 1 444 1 446 1 453 1 458 1 460 1 467 1 486 1 488 1 17 1 20 1 24 1 36 1 43 1 46 1 50 1 56 1 63 1 68 1 103 1 105 1 111 1 113 1 117 1 128 1 138 1 141 1 172 1 177 1 184 1 193 1 203 1 221 1 227 1 228 1 241 1 244 1 255 1 260 1 267 1 270 1 286 1 294 1 305 1 306 1 309 1 320 1 348 1 355 1 362 1 382 1 389 1 392 1 394 1 398 1 400 1 414 1 416 1 426 1 433 1 449 1 462 1 465 1 492 1 503 1 
1 194 5 1 26 1 29 1 35 1 38 1 72 1 76 1 78 1 80 1 82 1 84 1 88 1 93 2 104 1 114 1 130 1 132 1 135 1 151 1 157 1 167 1 171 1 176 1 181 1 198 2 203 1 230 1 238 1 239 1 247 1 249 2 267 1 268 1 281 1 286 1 291 1 293 1 315 1 316 1 325 1 344 1 348 1 369 1 375 1 395 1 397 1 398 1 401 1 405 2 409 1 412 1 423 1 426 1 434 1 440 1 447 1 475 1 19 1 20 1 30 1 40 1 46 1 52 1 55 1 81 1 86 1 91 1 109 1 117 1 118 1 122 1 133 1 156 1 166 1 169 1 170 1 174 1 179 1 183 1 191 1 195 1 199 1 201 1 206 1 218 1 233 1 236 1 256 1 257 1 265 1 266 1 278 1 280 1 300 1 304 1 317 1 340 1 349 1 350 1 388 1 400 1 402 1 432 1 441 1 446 1 448 1 452 1 453 1 459 1 463 1 468 1 
1 204 24 1 36 1 57 1 60 1 62 1 67 1 81 1 89 1 91 1 96 1 99 1 126 1 142 1 145 1 159 1 184 1 192 1 199 1 204 2 208 2 214 1 219 1 226 1 231 1 238 2 255 1 256 1 267 2 276 1 278 1 283 2 289 1 308 1 312 1 318 1 320 1 321 1 334 2 343 1 354 1 358 1 360 1 379 1 380 1 384 1 389 1 392 1 399 1 400 1 401 1 407 1 408 1 414 1 418 1 421 1 427 1 429 1 448 1 449 1 454 1 489 1 6 1 27 1 43 1 47 1 51 1 66 1 75 1 80 1 102 1 106 1 115 1 119 1 124 1 151 1 156 1 160 1 164 1 182 1 212 1 218 1 249 1 250 1 252 1 257 1 284 1 285 1 297 1 298 1 301 1 302 1 305 1 307 1 317 1 325 1 345 1 359 1 370 1 371 1 377 1 404 1 411 1 422 1 424 1 426 1 436 1 465 1 480 1 490 1 507 1 513 1 
1 198 1 1 7 1 28 1 34 2 45 1 55 1 56 1 78 1 79 2 106 2 108 1 122 1 132 1 133 1 139 1 141 1 148 1 155 1 158 2 162 1 180 1 183 2 202 1 218 1 232 2 239 1 259 1 286 2 292 1 293 1 298 2 303 2 304 1 313 2 315 2 318 2 321 1 333 1 336 1 341 1 345 1 346 1 361 1 362 2 368 1 374 1 384 1 393 2 394 1 396 1 398 2 423 1 436 1 441 1 443 1 446 1 449 1 454 1 464 1 465 1 492 1 2 1 8 1 42 1 49 1 66 1 67 1 70 1 72 1 77 1 99 1 105 1 111 1 120 1 134 1 137 1 140 1 142 1 154 1 165 1 195 1 219 1 224 1 235 1 257 1 270 1 279 1 290 1 297 1 309 1 319 1 331 1 332 1 337 1 339 1 347 1 350 1 352 1 365 1 380 1 388 1 389 1 395 1 401 1 433 1 448 1 452 1 461 1 463 1 493 1 500 1 501 1 503 1 508 1 516 1 518 1 
1 216 34 1 39 1 46 1 60 1 66 1 88 1 99 1 106 1 117 1 124 1 125 2 132 1 150 1 172 1 176 1 181 1 187 1 188 1 198 1 203 1 207 1 211 1 212 1 219 1 220 2 228 1 260 1 262 1 275 1 281 1 287 1 290 2 305 1 314 1 315 1 336 1 342 1 344 1 347 1 358 1 364 1 368 1 374 1 389 1 392 1 394 1 415 2 426 1 427 1 428 2 437 1 439 2 444 1 30 1 40 1 45 1 69 1 72 1 73 1 76 1 90 1 109 1 121 1 145 1 164 1 183 1 191 1 193 1 195 1 215 1 223 1 237 1 242 1 245 1 263 1 266 1 273 1 279 1 280 1 299 1 302 1 310 1 318 1 329 1 338 1 349 1 350 1 367 1 400 1 404 1 406 1 423 1 431 1 466 1 468 1 471 1 499 1 
1 208 39 1 41 1 48 1 60 1 63 1 68 1 73 1 85 1 87 1 90 1 100 2 102 1 118 1 120 1 121 1 139 1 161 2 166 1 167 1 171 1 174 1 177 1 180 1 187 1 195 1 196 1 197 1 199 2 203 1 205 1 217 2 233 1 234 1 242 1 245 1 253 1 271 1 272 2 273 1 288 1 291 2 302 2 315 1 333 1 352 1 363 1 385 1 395 1 397 1 426 2 451 1 466 1 468 1 4 1 17 1 27 1 57 1 58 1 84 1 95 1 97 1 112 1 119 1 123 1 134 1 135 1 136 1 148 1 160 1 162 1 184 1 213 1 214 1 225 1 227 1 243 1 257 1 258 1 260 1 270 1 278 1 280 1 301 1 311 1 320 1 324 1 335 1 341 1 345 1 346 1 350 1 354 1 413 1 417 1 422 1 435 1 440 1 443 1 457 1 469 1 473 1 480 1 499 1 
1 0 290 1 266 1 4 1 271 1 381 1 96 1 252 1 386 1 261 1 340 1 162 1 68 1 191 1 379 1 161 1 491 1 103 1 259 1 78 1 10 1 454 1 283 1 455 1 346 1 450 1 437 1 20 1 447 1 407 1 475 1 211 1 105 1 
1 0 499 1 204 1 368 1 211 1 496 1 219 1 275 1 490 1 425 1 446 1 141 1 197 1 49 1 401 1 4 1 430 1 389 1 392 1 174 1 411 1 6 1 159 1 61 1 486 1 365 1 355 1 445 1 337 1 351 1 95 1 475 1 403 1 196 1 100 1 373 1 493 1 284 1 
1 0 42 1 285 1 166 1 126 1 18 1 12 1 81 1 283 1 479 1 267 1 294 1 167 1 17 1 415 1 400 1 212 1 295 1 82 1 386 1 70 1 258 1 272 1 433 1 324 1 231 1 51 1 458 1 122 1 228 1 332 1 350 1 343 1 
1 0 162 1 313 1 379 1 238 1 177 1 295 1 213 1 406 1 120 1 255 1 282 1 249 1 98 1 405 1 103 1 67 1 123 1 437 1 482 1 417 1 146 1 194 1 316 1 344 1 408 1 480 1 290 1 315 1 335 1 446 1 346 1 
1 0 209 1 261 1 200 1 166 1 313 1 74 1 148 1 135 1 399 1 29 1 271 1 403 1 450 1 493 1 32 1 321 1 447 1 265 1 251 1 93 1 354 1 225 1 128 1 373 1 360 1 290 1 162 1 384 1 207 1 
1 0 325 1 170 1 305 1 83 1 141 1 324 1 182 1 235 1 109 1 398 1 407 1 383 1 432 1 249 1 413 1 428 1 166 1 93 1 498 1 493 1 142 1 108 1 424 1 253 1 177 1 50 1 251 1 281 1 393 1 132 1 
1 0 80 1 38 1 78 1 251 1 499 1 41 1 383 1 311 1 6 1 310 1 361 1 200 1 225 1 140 1 488 1 335 1 349 1 255 1 263 1 158 1 154 1 82 1 205 1 433 1 161 1 102 1 76 1 420 1 269 1 351 1 281 1 359 1 
1 0 205 1 439 1 17 1 274 1 391 1 54 1 263 1 307 1 395 1 127 1 420 1 394 1 305 1 241 1 456 1 311 1 89 1 16 1 451 1 155 1 198 1 457 1 261 1 482 1 417 1 170 1 207 1 346 1 
1 0 214 1 423 1 477 1 49 1 149 1 270 1 93 1 442 1 6 1 478 1 200 1 468 1 417 1 161 1 293 1 140 1 324 1 335 1 305 1 209 1 357 1 85 1 78 1 331 1 123 1 42 1 480 1 307 1 337 1 427 1 326 1 51 1 313 1 128 1 
1 0 411 1 444 1 288 1 322 1 233 1 212 1 372 1 374 1 250 1 448 1 482 1 46 1 237 1 146 1 231 1 476 1 127 1 76 1 33 1 308 1 289 1 341 1 26 1 219 1 110 1 359 1 367 1 281 1 268 1 235 1 
1 0 10 1 178 1 380 1 407 1 450 1 121 1 8 1 179 1 269 1 311 1 330 1 22 1 187 1 160 1 288 1 208 1 258 1 477 1 17 1 289 1 141 1 105 1 217 1 42 1 162 1 281 1 140 1 462 1 364 1 263 1 
1 0 85 1 419 1 214 1 127 1 258 1 87 1 481 1 81 1 55 1 225 1 217 1 406 1 13 1 19 1 407 1 498 1 486 1 401 1 216 1 138 1 262 1 273 1 347 1 271 1 323 1 358 1 77 1 196 1 368 1 
1 0 247 1 112 1 152 1 427 1 217 1 154 1 108 1 69 1 87 1 433 1 133 1 121 1 417 1 294 1 382 1 330 1 319 1 49 1 348 1 359 1 361 1 238 1 187 1 256 1 421 1 91 1 178 1 78 1 
1 0 373 1 104 1 109 1 300 1 96 1 404 1 37 1 192 1 410 1 333 1 411 1 256 1 337 1 229 1 58 1 16 1 458 1 168 1 143 1 289 1 112 1 185 1 310 1 182 1 34 1 285 1 199 1 494 1 
1 0 446 1 153 1 395 1 187 1 393 1 499 1 399 1 239 1 101 1 169 1 131 1 17 1 136 1 488 1 491 1 37 1 206 1 55 1 344 1 104 1 262 1 211 1 330 1 329 1 375 1 
1 0 120 1 73 1 273 1 238 1 274 1 85 1 311 1 9 1 208 1 298 1 206 1 286 1 53 1 144 1 207 1 470 1 209 1 482 1 26 1 431 1 312 1 178 1 108 1 215 1 251 1 346 1 439 1 170 1 39 1 284 1 180 1 
1 0 357 1 51 1 256 1 23 1 135 1 299 1 95 1 331 1 70 1 285 1 107 1 433 1 353 1 484 1 329 1 378 1 499 1 136 1 84 1 215 1 249 1 487 1 105 1 29 1 270 1 71 1 90 1 410 1 403 1 101 1 368 1 
1 0 204 1 248 1 291 1 161 1 372 1 61 1 263 1 35 1 336 1 442 1 20 1 151 1 347 1 42 1 297 1 281 1 379 1 257 1 217 1 389 1 363 1 243 1 273 1 265 1 472 1 423 1 186 1 308 1 53 1 357 1 311 1 
1 0 312 1 309 1 86 1 474 1 46 1 183 1 242 1 419 1 253 1 406 1 487 1 331 1 33 1 189 1 418 1 97 1 186 1 44 1 374 1 379 1 38 1 62 1 206 1 261 1 316 1 361 1 486 1 219 1 387 1 218 1 
1 0 293 1 73 1 333 1 249 1 260 1 398 1 368 1 377 1 410 1 29 1 383 1 422 1 262 1 487 1 164 1 489 1 32 1 403 1 323 1 39 1 461 1 387 1 65 1 35 1 69 1 177 1 243 1 7 1 10 1 
