517 27613 011 2
1 196 369 1 73 1 56 2 81 2 267 1 50 1 496 1 400 1 116 1 68 1 245 2 158 1 132 1 86 1 500 1 146 1 427 1 8 1 96 1 393 1 297 2 402 2 159 1 251 1 396 1 141 1 344 1 115 2 289 1 236 1 316 1 100 1 223 1 119 1 45 1 341 1 203 1 216 2 105 2 463 1 484 1 399 1 367 2 89 2 272 2 382 1 208 1 338 1 125 1 326 1 288 1 175 1 258 1 202 1 265 1 487 2 280 1 366 1 304 1 358 1 43 2 352 1 325 1 6 1 10 1 25 1 30 1 31 1 39 1 44 1 47 1 59 1 60 1 70 1 80 1 99 1 166 1 171 1 180 1 190 1 219 1 220 1 230 1 248 1 262 1 269 1 283 1 285 1 291 1 293 1 298 1 322 1 340 1 346 1 347 1 373 1 378 1 386 1 387 1 390 1 401 1 408 1 431 1 438 1 440 1 441 1 451 1 469 1 485 1 490 1 
1 200 28 1 87 1 380 2 191 1 284 1 128 2 93 1 264 2 412 1 270 2 133 1 157 1 336 1 195 1 299 1 167 1 285 1 260 2 263 1 210 1 131 1 416 1 85 1 452 1 497 1 92 1 98 1 206 1 467 1 434 1 37 1 351 1 41 1 13 1 254 1 245 1 5 1 252 2 337 1 82 1 384 1 474 1 313 1 421 1 314 1 398 2 470 1 330 2 271 1 303 1 278 1 329 1 84 1 19 1 372 1 214 1 197 1 65 1 7 1 31 1 63 1 70 1 114 1 123 1 134 1 142 1 143 1 144 1 152 1 153 1 169 1 204 1 218 1 221 1 244 1 292 1 294 1 301 1 316 1 327 1 328 1 339 1 344 1 353 1 357 1 362 1 363 1 368 1 383 1 385 1 396 1 399 1 409 1 419 1 426 1 429 1 430 1 432 1 443 1 451 1 473 1 
1 197 153 1 66 1 437 1 402 1 373 1 33 1 181 1 221 1 372 1 174 1 455 1 339 1 56 1 125 1 44 1 65 1 105 1 288 1 403 1 216 1 199 1 291 1 247 1 104 2 316 1 378 1 351 2 172 1 314 1 108 1 244 1 218 1 204 1 447 1 96 2 409 1 285 1 463 1 79 1 243 1 371 1 394 1 131 1 284 1 190 1 391 1 94 1 356 1 25 1 298 1 45 1 51 1 53 1 60 1 77 1 81 1 82 1 84 1 100 1 102 1 113 1 122 1 135 1 140 1 141 1 185 1 186 1 195 1 219 1 222 1 231 1 240 1 253 1 265 1 266 1 270 1 273 1 282 1 289 1 294 1 295 1 296 1 297 1 318 1 320 1 321 1 338 1 341 1 342 1 349 1 357 1 358 1 359 1 364 1 365 1 386 1 401 1 416 1 426 1 432 1 443 1 458 1 469 1 471 1 479 1 498 1 502 1 
1 212 194 1 365 2 89 1 262 1 292 1 141 1 8 1 426 1 138 1 443 1 175 1 47 1 214 1 145 1 80 1 233 1 35 1 170 1 241 1 231 1 279 1 284 1 283 1 56 1 204 1 249 1 294 1 92 1 261 1 416 1 493 1 28 1 445 1 448 1 392 1 85 1 88 1 129 1 456 1 496 1 357 1 373 1 290 1 157 1 423 1 474 1 46 2 360 1 369 1 132 2 63 2 316 1 68 2 267 1 90 1 276 1 314 1 33 1 350 1 238 1 408 1 110 1 396 1 413 1 344 1 405 1 135 1 300 2 155 1 29 1 40 1 41 1 49 1 50 1 54 1 55 1 67 1 82 1 91 1 101 1 105 1 117 1 127 1 156 1 171 1 185 1 191 1 193 1 199 1 219 1 223 1 229 1 235 1 243 1 244 1 256 1 287 1 288 1 289 1 295 1 317 1 326 1 339 1 342 1 351 1 356 1 372 1 376 1 385 1 406 1 412 1 419 1 427 1 431 1 449 1 451 1 452 1 461 1 483 1 485 1 502 1 
1 196 2 1 424 1 157 1 249 1 313 1 61 1 112 1 201 1 333 1 448 1 181 1 367 1 176 1 335 1 64 2 188 1 71 1 206 1 220 1 67 1 11 1 475 1 441 1 247 1 42 1 184 2 224 1 454 1 276 1 316 1 490 1 443 1 103 1 283 1 418 1 218 1 36 1 403 1 318 2 474 1 37 2 494 2 264 1 209 1 35 1 86 1 280 1 236 1 386 1 48 1 290 1 286 1 85 1 171 1 455 1 350 1 216 1 78 1 18 1 63 1 73 1 77 1 98 1 99 1 100 1 122 1 132 1 142 1 146 1 161 1 162 1 163 1 168 1 174 1 179 1 205 1 225 1 234 1 235 1 238 1 242 1 258 1 266 1 287 1 288 1 301 1 308 1 331 1 337 1 341 1 344 1 349 1 364 1 374 1 388 1 397 1 410 1 437 1 438 1 450 1 493 1 
1 216 211 1 396 1 121 1 363 1 136 1 294 1 376 1 430 1 442 1 78 1 132 1 286 1 298 1 124 1 115 1 89 1 165 1 388 1 321 1 443 1 391 2 500 1 422 1 240 1 408 1 158 1 456 1 71 1 217 1 306 2 359 1 137 1 334 1 426 1 264 1 198 1 91 1 108 1 305 1 336 1 317 1 159 1 197 1 275 1 466 1 484 1 144 1 323 1 429 1 372 2 27 1 37 1 148 1 215 1 303 2 1 1 26 1 32 1 39 1 44 1 45 1 47 1 51 1 52 1 53 1 59 1 65 1 69 1 70 1 98 1 102 1 114 1 116 1 118 1 119 1 123 1 130 1 139 1 154 1 160 1 176 1 177 1 186 1 200 1 201 1 203 1 223 1 227 1 232 1 236 1 244 1 245 1 247 1 253 1 267 1 272 1 289 1 307 1 325 1 338 1 343 1 348 1 353 1 374 1 386 1 401 1 403 1 413 1 415 1 419 1 437 1 444 1 467 1 486 1 495 1 
1 194 150 1 353 1 122 1 311 1 124 1 229 1 98 1 32 1 249 1 429 1 215 2 230 1 126 2 432 1 60 1 387 1 96 1 71 1 442 2 207 1 472 1 274 1 331 1 192 1 332 1 42 2 251 1 44 1 495 1 281 1 99 1 336 1 413 1 240 1 221 1 68 1 159 1 102 2 350 1 385 2 72 1 397 1 125 1 9 1 10 1 232 1 90 1 494 1 422 1 372 2 461 1 136 1 252 1 128 2 272 1 109 1 49 2 280 1 75 1 497 1 204 1 2 1 30 1 35 1 38 1 45 1 57 1 61 1 67 1 80 1 83 1 85 1 86 1 137 1 139 1 161 1 173 1 185 1 190 1 191 1 200 1 218 1 223 1 246 1 263 1 268 1 273 1 286 1 287 1 298 1 299 1 304 1 307 1 319 1 345 1 347 1 358 1 363 1 364 1 365 1 368 1 415 1 423 1 431 1 453 1 456 1 465 1 473 1 490 1 492 1 503 1 
1 226 1 1 4 1 149 1 306 1 250 1 213 1 288 1 370 2 434 1 271 2 146 1 54 2 243 1 414 1 225 1 269 1 433 1 166 1 130 1 65 1 51 1 477 1 254 1 98 1 427 2 258 1 32 1 169 1 165 1 500 1 175 1 211 1 173 1 337 1 389 1 380 2 222 1 394 1 85 1 50 1 52 1 311 1 93 1 373 1 80 1 463 1 38 2 234 1 104 1 335 1 82 1 181 2 215 1 316 1 487 1 371 1 308 1 404 2 443 2 336 1 56 1 147 1 343 1 376 1 30 1 49 1 76 1 78 1 81 1 87 1 88 1 91 1 92 1 115 1 117 1 135 1 152 1 172 1 176 1 180 1 182 1 187 1 192 1 193 1 196 1 199 1 216 1 224 1 232 1 236 1 252 1 266 1 275 1 277 1 278 1 279 1 282 1 297 1 300 1 303 1 304 1 307 1 314 1 322 1 327 1 333 1 342 1 349 1 352 1 355 1 358 1 362 1 368 1 378 1 388 1 392 1 405 1 411 1 417 1 430 1 436 1 438 1 440 1 441 1 450 1 454 1 462 1 468 1 485 1 515 1 
1 198 7 1 160 1 53 1 310 1 70 1 283 1 384 1 468 1 74 1 287 1 46 1 350 1 194 1 121 1 383 1 296 1 203 1 394 1 311 1 200 1 304 1 399 1 465 1 390 1 77 1 466 1 73 1 347 1 183 1 165 1 497 1 456 2 423 1 256 2 393 1 172 1 51 2 122 1 279 1 499 2 146 2 19 1 125 1 332 1 218 1 484 1 238 2 248 2 69 1 236 1 469 2 57 1 12 1 496 1 270 1 156 2 88 1 95 1 10 1 30 1 40 1 62 1 79 1 92 1 96 1 109 1 130 1 143 1 150 1 166 1 174 1 181 1 182 1 184 1 195 1 213 1 231 1 243 1 250 1 290 1 291 1 299 1 315 1 317 1 336 1 367 1 370 1 398 1 411 1 420 1 430 1 438 1 474 1 475 1 478 1 493 1 
1 210 7 1 309 1 196 1 120 1 454 1 416 1 280 1 239 1 61 1 12 2 330 1 223 1 213 1 413 1 322 1 476 1 396 1 339 1 62 1 230 1 231 1 444 1 128 1 294 1 179 1 222 1 384 1 382 1 424 1 15 1 48 1 134 1 197 2 496 1 383 1 449 1 379 2 204 2 458 1 16 2 372 1 13 1 162 1 135 1 81 1 337 2 419 2 167 1 367 1 221 1 30 1 168 1 246 1 207 2 181 1 88 2 203 1 174 1 347 1 23 1 108 1 1 1 9 1 44 1 46 1 71 1 78 1 79 1 84 1 85 1 90 1 94 1 99 1 100 1 104 1 122 1 131 1 146 1 169 1 177 1 180 1 182 1 183 1 195 1 198 1 199 1 214 1 219 1 227 1 244 1 260 1 261 1 266 1 279 1 284 1 288 1 291 1 293 1 295 1 296 1 335 1 348 1 354 1 376 1 386 1 392 1 402 1 412 1 422 1 423 1 428 1 439 1 441 1 448 1 460 1 498 1 512 1 
1 204 5 1 471 1 288 2 384 1 183 1 142 1 156 1 298 1 88 2 104 2 56 1 348 2 241 1 414 1 443 1 229 2 291 1 180 1 141 1 306 1 430 1 458 1 398 1 477 1 385 1 476 1 285 1 245 1 92 1 424 1 173 1 438 1 463 1 218 1 266 1 62 1 121 1 416 1 52 2 134 1 207 1 381 1 20 1 145 1 353 1 208 1 68 1 386 1 282 1 375 1 359 2 107 1 200 1 492 1 36 1 289 1 63 1 76 1 13 1 34 1 35 1 50 1 54 1 59 1 61 1 64 1 75 1 91 1 105 1 116 1 117 1 122 1 124 1 131 1 153 1 158 1 160 1 186 1 187 1 238 1 242 1 243 1 255 1 270 1 278 1 300 1 304 1 319 1 330 1 335 1 354 1 367 1 370 1 378 1 388 1 396 1 401 1 403 1 415 1 420 1 422 1 453 1 464 1 480 1 
1 211 9 1 10 2 228 1 305 1 429 2 219 1 121 1 209 1 325 1 368 1 262 2 34 1 244 1 405 1 333 1 473 1 317 1 50 1 99 1 37 1 425 2 187 1 101 1 471 1 297 2 218 2 158 1 364 1 330 1 64 2 215 1 292 1 421 1 131 1 310 1 199 1 281 1 146 1 87 1 423 1 48 1 44 1 95 1 108 1 147 1 157 1 267 1 315 1 391 1 59 1 442 1 311 1 15 1 62 1 67 1 78 1 81 1 90 1 92 1 116 1 127 1 136 1 138 1 164 1 170 1 174 1 178 1 189 1 196 1 217 1 220 1 224 1 239 1 246 1 274 1 278 1 284 1 301 1 306 1 313 1 335 1 338 1 345 1 348 1 349 1 354 1 356 1 413 1 415 1 424 1 435 1 454 1 457 1 459 1 468 1 
1 202 2 1 10 1 439 1 207 1 453 1 358 1 435 1 339 1 160 1 333 1 86 1 399 1 353 1 354 1 221 1 385 1 373 1 137 1 167 1 200 1 196 1 317 1 461 1 67 1 238 1 291 1 45 1 269 1 98 1 413 1 326 1 198 1 265 1 97 1 397 1 57 1 152 1 108 1 206 1 277 1 355 1 473 1 243 1 463 1 381 1 193 1 191 1 171 1 440 1 120 1 64 1 73 1 79 1 297 2 427 1 315 1 11 1 48 1 50 1 53 1 54 1 63 1 70 1 78 1 80 1 84 1 99 1 103 1 104 1 110 1 123 1 128 1 133 1 150 1 157 1 161 1 172 1 177 1 186 1 194 1 199 1 214 1 219 1 226 1 236 1 237 1 242 1 250 1 253 1 264 1 276 1 283 1 285 1 288 1 301 1 313 1 323 1 324 1 329 1 332 1 335 1 343 1 361 1 363 1 378 1 387 1 389 1 400 1 401 1 403 1 411 1 418 1 430 1 443 1 444 1 458 1 465 1 466 1 471 1 483 1 499 1 508 1 
1 214 337 1 423 1 453 2 228 1 105 1 92 1 248 1 229 1 103 1 250 1 468 1 341 1 132 1 372 1 234 1 85 1 184 1 151 1 392 2 238 2 355 1 344 1 386 1 37 2 333 1 444 1 293 1 410 1 485 2 288 1 441 1 271 1 22 1 443 1 161 1 236 1 186 1 75 2 119 1 422 1 339 1 166 1 338 1 153 2 220 1 387 1 189 1 40 1 247 1 353 1 57 1 340 1 497 1 492 1 363 1 476 1 379 1 210 1 347 1 88 1 179 2 39 1 42 1 43 1 44 1 60 1 67 1 70 1 79 1 80 1 87 1 91 1 108 1 120 1 144 1 159 1 178 1 193 1 226 1 243 1 251 1 255 1 265 1 273 1 276 1 278 1 296 1 306 1 309 1 322 1 335 1 360 1 362 1 365 1 378 1 380 1 390 1 391 1 398 1 402 1 403 1 404 1 406 1 431 1 439 1 442 1 446 1 447 1 456 1 459 1 461 1 463 1 467 1 484 1 507 1 508 1 
1 207 10 1 40 1 455 1 214 1 42 2 177 1 333 1 407 1 62 1 460 1 382 1 404 1 486 1 361 1 119 1 256 1 93 1 312 1 129 1 366 1 474 1 120 1 362 1 267 1 235 1 430 1 207 2 245 1 195 1 340 1 341 2 209 1 88 1 215 2 311 1 139 1 80 1 263 1 270 1 322 1 373 2 185 1 16 2 174 1 225 1 419 2 170 1 472 1 58 1 240 1 370 1 305 1 408 1 250 1 411 2 412 1 351 1 424 1 376 1 12 1 17 1 18 1 19 1 36 1 37 1 52 1 105 1 118 1 131 1 143 1 166 1 180 1 184 1 187 1 190 1 200 1 212 1 223 1 237 1 248 1 257 1 265 1 266 1 276 1 282 1 283 1 289 1 307 1 309 1 313 1 316 1 318 1 323 1 325 1 328 1 330 1 335 1 339 1 347 1 349 1 363 1 371 1 378 1 400 1 401 1 402 1 410 1 417 1 418 1 420 1 447 1 448 1 453 1 458 1 465 1 476 1 500 1 505 1 
1 199 10 2 15 2 342 1 129 1 328 1 374 1 155 1 244 1 56 1 326 1 131 1 395 1 67 2 132 2 213 1 358 1 385 2 291 1 308 1 73 1 125 1 420 1 80 1 45 1 48 1 189 1 474 1 130 1 43 1 230 1 159 1 86 1 362 1 488 1 429 1 246 1 418 2 27 1 206 1 212 1 318 1 462 1 447 1 243 1 77 1 448 2 118 1 166 1 30 1 31 1 46 1 55 1 60 1 63 1 82 1 96 1 133 1 140 1 143 1 144 1 149 1 156 1 163 1 165 1 173 1 178 1 183 1 197 1 198 1 203 1 211 1 215 1 225 1 240 1 241 1 252 1 254 1 259 1 275 1 285 1 307 1 309 1 323 1 366 1 388 1 391 1 398 1 402 1 404 1 411 1 425 1 427 1 436 1 444 1 465 1 481 1 499 1 512 1 
1 202 293 2 229 1 232 1 211 1 452 1 400 1 242 1 99 1 246 1 364 1 226 1 273 1 418 1 341 1 192 1 458 1 166 2 241 1 415 1 289 1 368 1 436 1 250 2 171 1 365 2 78 1 109 1 228 1 335 1 301 1 137 1 253 1 270 2 284 1 337 1 460 1 366 1 122 2 456 1 287 1 60 1 450 2 390 2 384 1 77 1 117 1 22 1 236 2 484 2 409 1 470 1 324 2 282 1 39 1 199 1 158 1 83 2 15 1 18 1 41 1 48 1 54 1 72 1 74 1 87 1 90 1 94 1 100 1 129 1 136 1 156 1 163 1 172 1 178 1 182 1 185 1 198 1 200 1 201 1 206 1 208 1 210 1 213 1 215 1 219 1 261 1 267 1 272 1 306 1 315 1 350 1 357 1 358 1 377 1 398 1 404 1 406 1 410 1 433 1 445 1 453 1 455 1 457 1 463 1 471 1 476 1 481 1 496 1 511 1 
1 188 5 1 246 1 225 1 156 1 101 1 84 2 342 1 418 1 407 1 380 2 255 1 183 1 65 1 87 1 98 1 152 1 235 1 126 1 238 1 475 1 148 1 166 1 395 1 62 1 318 2 142 1 49 1 96 2 327 1 321 1 89 1 131 1 300 1 424 1 122 1 82 1 153 2 361 1 106 1 435 1 59 2 481 1 404 1 15 1 17 1 55 1 80 1 88 1 90 1 94 1 99 1 100 1 117 1 132 1 133 1 136 1 147 1 150 1 151 1 158 1 162 1 187 1 192 1 197 1 199 1 207 1 219 1 234 1 252 1 263 1 269 1 281 1 296 1 303 1 313 1 314 1 330 1 333 1 354 1 368 1 376 1 390 1 393 1 397 1 398 1 399 1 400 1 403 1 409 1 412 1 425 1 433 1 459 1 461 1 464 1 472 1 478 1 484 1 
1 202 2 1 9 1 418 1 315 1 345 2 74 1 428 1 267 1 415 1 53 1 49 1 113 1 125 1 134 1 373 1 312 1 462 1 72 1 371 1 92 1 422 1 372 2 452 1 105 1 141 2 241 2 425 1 94 2 236 1 339 1 96 1 455 1 355 1 445 1 337 2 431 1 285 1 42 1 342 2 475 1 369 1 32 1 432 1 127 1 89 1 362 1 242 1 409 1 193 1 296 1 352 1 486 1 179 1 243 2 51 1 228 1 15 1 20 1 27 1 31 1 55 1 76 1 88 1 107 1 111 1 117 1 150 1 151 1 152 1 154 1 159 1 163 1 181 1 202 1 213 1 219 1 223 1 233 1 254 1 256 1 265 1 293 1 301 1 302 1 322 1 327 1 329 1 330 1 346 1 353 1 361 1 365 1 375 1 376 1 378 1 398 1 401 1 408 1 420 1 421 1 433 1 438 1 449 1 464 1 466 1 467 1 474 1 485 1 487 1 489 1 503 1 
1 196 11 1 55 1 45 1 442 1 307 1 365 1 221 1 88 2 311 2 354 1 308 1 328 1 260 1 300 1 206 1 402 1 59 1 182 1 410 1 278 1 162 1 450 1 293 2 266 1 268 1 336 1 342 1 167 1 353 1 279 1 48 2 102 1 474 1 158 1 282 2 195 1 145 1 80 1 351 1 69 1 111 1 97 1 290 2 324 1 360 2 90 2 371 1 382 1 280 2 330 2 441 1 189 1 419 1 379 1 237 2 66 1 151 1 364 1 253 1 242 1 95 2 216 1 478 1 236 1 400 1 392 1 161 1 243 1 19 1 47 1 64 1 68 1 81 1 100 1 113 1 114 1 121 1 122 1 140 1 149 1 152 1 163 1 173 1 187 1 191 1 219 1 225 1 226 1 231 1 251 1 254 1 273 1 286 1 288 1 296 1 298 1 312 1 316 1 323 1 333 1 339 1 349 1 357 1 378 1 388 1 389 1 391 1 397 1 404 1 405 1 406 1 412 1 416 1 423 1 445 1 449 1 472 1 481 1 489 1 512 1 
1 204 54 1 399 2 188 1 271 1 368 1 440 1 252 1 428 1 240 1 387 2 149 1 398 1 250 1 354 1 281 1 140 2 181 1 413 1 327 1 136 1 154 1 202 1 371 1 118 1 184 1 288 1 265 1 183 1 321 1 391 1 454 1 119 1 324 1 186 1 131 2 155 1 379 1 470 1 217 1 103 2 306 1 30 1 334 1 150 2 363 1 205 1 420 1 29 1 409 1 89 1 95 1 272 1 22 1 336 1 226 1 479 1 239 1 352 1 72 1 295 1 243 1 386 1 73 1 38 1 43 1 47 1 49 1 56 1 57 1 60 1 64 1 71 1 85 1 102 1 106 1 143 1 166 1 175 1 179 1 189 1 195 1 211 1 218 1 221 1 222 1 232 1 244 1 274 1 280 1 283 1 284 1 293 1 343 1 349 1 353 1 374 1 389 1 415 1 416 1 421 1 423 1 425 1 444 1 446 1 447 1 460 1 489 1 491 1 
1 204 14 1 17 1 21 1 79 1 402 1 366 1 141 1 164 1 408 1 403 2 144 1 371 1 88 2 86 1 192 1 304 1 375 2 102 1 429 2 292 1 327 1 230 1 202 1 350 1 174 1 361 1 110 1 87 1 418 1 448 1 67 1 121 1 336 1 161 1 162 1 445 1 207 1 287 1 471 1 469 1 489 1 237 1 425 1 246 1 407 1 363 1 431 1 477 1 215 1 478 1 118 1 433 1 313 2 23 1 57 1 69 1 78 1 80 1 93 1 100 1 105 1 136 1 149 1 166 1 167 1 178 1 206 1 208 1 220 1 239 1 241 1 258 1 259 1 260 1 276 1 278 1 284 1 285 1 286 1 289 1 296 1 298 1 299 1 302 1 314 1 316 1 334 1 339 1 341 1 343 1 345 1 355 1 364 1 377 1 390 1 415 1 422 1 437 1 438 1 439 1 463 1 488 1 507 1 
1 199 10 1 299 1 160 1 143 1 329 1 79 1 52 1 75 1 386 1 158 1 224 2 65 1 445 1 369 1 460 1 406 1 150 1 255 1 183 2 389 1 251 1 373 1 266 1 334 2 454 1 281 1 81 2 222 2 174 1 86 2 264 1 499 2 325 1 469 1 172 1 351 1 302 1 102 1 304 1 250 1 38 1 374 1 85 1 213 1 368 1 98 1 124 1 415 2 366 2 248 1 68 1 253 1 171 1 246 1 354 1 238 1 22 1 24 1 26 1 30 1 31 1 66 1 100 1 106 1 113 1 118 1 131 1 136 1 147 1 169 1 178 1 180 1 186 1 190 1 192 1 203 1 219 1 227 1 228 1 233 1 239 1 242 1 260 1 275 1 277 1 278 1 285 1 289 1 290 1 307 1 311 1 324 1 330 1 339 1 347 1 381 1 387 1 390 1 405 1 416 1 440 1 443 1 448 1 450 1 455 1 
1 204 81 2 428 1 443 1 477 1 249 1 408 1 206 1 84 1 190 1 50 1 449 1 132 1 376 2 398 2 155 1 184 1 218 1 118 1 101 1 70 1 338 1 111 1 174 1 359 1 264 1 339 2 147 1 320 1 103 1 418 1 178 1 417 1 193 2 302 1 496 1 327 1 225 1 235 1 110 2 230 1 284 1 467 1 354 1 416 1 232 1 397 1 212 1 266 1 458 1 214 1 112 1 222 1 466 1 105 1 293 2 188 1 251 1 442 1 96 1 491 1 342 1 23 1 36 1 61 1 64 1 76 1 92 1 95 1 100 1 117 1 121 1 137 1 140 1 151 1 168 1 169 1 177 1 192 1 195 1 196 1 204 1 216 1 223 1 228 1 231 1 242 1 243 1 244 1 253 1 258 1 270 1 271 1 299 1 311 1 316 1 331 1 340 1 361 1 364 1 372 1 406 1 411 1 435 1 451 1 461 1 463 1 480 1 497 1 
1 206 3 1 167 1 108 1 322 1 297 1 342 1 99 1 190 1 141 1 98 1 364 1 288 1 205 1 186 1 137 1 122 2 61 2 478 1 285 2 181 1 107 1 192 2 302 1 320 1 163 1 494 1 314 2 154 1 284 1 159 1 460 1 316 1 232 1 312 1 464 1 94 1 144 1 347 2 38 1 387 1 149 1 191 1 89 1 476 1 295 1 258 1 217 1 218 1 352 1 226 1 368 1 338 1 269 1 93 1 410 1 1 1 27 1 32 1 63 1 68 1 71 1 100 1 105 1 131 1 132 1 138 1 164 1 170 1 174 1 179 1 188 1 197 1 201 1 210 1 223 1 228 1 235 1 237 1 238 1 239 1 242 1 250 1 267 1 276 1 277 1 282 1 299 1 319 1 321 1 348 1 354 1 360 1 367 1 382 1 384 1 389 1 393 1 409 1 427 1 432 1 436 1 442 1 445 1 446 1 454 1 457 1 488 1 498 1 
1 206 399 1 344 1 164 1 290 1 355 1 229 1 398 1 31 1 112 1 100 1 489 1 325 2 123 1 304 1 274 1 279 1 314 1 134 1 216 1 475 1 285 1 435 1 89 1 177 1 339 1 232 1 148 1 287 1 328 1 404 1 158 2 445 1 358 1 193 1 145 1 419 1 326 1 365 1 392 1 39 1 452 1 459 1 491 1 495 1 395 1 297 2 345 1 380 1 221 2 210 1 242 1 181 1 469 2 6 1 23 1 85 1 97 1 105 1 108 1 115 1 120 1 121 1 124 1 125 1 126 1 128 1 129 1 135 1 137 1 160 1 188 1 202 1 207 1 222 1 230 1 252 1 258 1 260 1 263 1 278 1 288 1 294 1 295 1 296 1 300 1 307 1 334 1 342 1 353 1 370 1 374 1 377 1 379 1 388 1 389 1 411 1 415 1 416 1 429 1 434 1 441 1 492 1 493 1 
1 208 6 1 16 1 426 1 311 1 476 1 484 1 497 2 324 1 168 1 373 1 273 2 254 1 185 1 272 1 256 1 487 1 245 1 485 1 239 1 491 1 165 1 282 1 358 2 464 1 338 1 111 1 455 2 38 1 85 2 279 1 335 1 398 1 276 1 280 1 70 1 308 1 225 1 116 1 137 1 75 1 459 1 496 1 449 1 309 1 84 1 367 1 129 1 191 1 498 1 471 1 42 1 292 1 19 1 25 1 31 1 43 1 44 1 51 1 58 1 60 1 68 1 79 1 81 1 123 1 148 1 153 1 154 1 180 1 182 1 199 1 202 1 212 1 228 1 249 1 260 1 262 1 268 1 284 1 290 1 291 1 293 1 300 1 326 1 330 1 336 1 354 1 357 1 366 1 369 1 379 1 384 1 392 1 393 1 438 1 440 1 441 1 478 1 479 1 481 1 499 1 504 1 
1 200 2 1 4 1 391 1 402 2 169 1 326 2 321 1 78 1 269 2 483 1 487 2 328 1 236 1 410 1 104 1 287 1 84 2 286 1 396 1 170 2 428 1 87 1 134 1 259 1 191 2 282 1 167 2 86 1 357 1 145 1 38 1 189 1 270 1 341 1 175 1 64 1 136 2 368 1 377 1 419 1 195 1 142 2 74 1 299 2 133 1 477 1 141 1 247 1 108 2 40 1 463 1 61 1 67 1 92 1 94 1 98 1 122 1 123 1 130 1 164 1 165 1 185 1 207 1 214 1 217 1 222 1 223 1 238 1 242 1 295 1 317 1 318 1 330 1 354 1 359 1 383 1 409 1 411 1 416 1 420 1 433 1 451 1 455 1 458 1 459 1 468 1 476 1 484 1 492 1 496 1 498 1 499 1 
1 209 21 1 359 1 64 2 86 1 388 2 156 1 390 1 211 1 368 1 458 1 286 1 321 1 488 1 227 1 414 1 219 2 440 1 177 1 243 1 264 1 466 1 307 1 277 1 115 2 113 1 174 2 71 1 278 1 224 1 84 1 470 1 35 1 375 1 450 1 281 2 139 1 240 1 245 1 452 1 311 1 164 2 487 1 220 1 214 1 435 1 44 1 491 1 298 1 489 1 46 1 498 1 178 1 342 1 335 1 366 1 437 1 37 1 329 1 188 1 4 1 51 1 56 1 60 1 67 1 75 1 79 1 98 1 110 1 117 1 142 1 150 1 153 1 161 1 167 1 168 1 183 1 187 1 192 1 195 1 203 1 207 1 209 1 222 1 230 1 235 1 260 1 272 1 274 1 279 1 288 1 293 1 297 1 305 1 315 1 320 1 332 1 334 1 351 1 355 1 356 1 365 1 369 1 376 1 380 1 381 1 386 1 393 1 397 1 417 1 433 1 445 1 461 1 462 1 471 1 477 1 478 1 480 1 485 1 497 1 513 1 
1 202 10 1 21 1 471 1 115 1 179 1 116 1 152 2 139 1 428 2 286 1 198 1 77 1 217 1 495 1 345 1 285 2 450 1 424 1 352 1 274 1 110 1 348 1 241 2 476 1 374 1 355 1 334 2 335 1 389 1 467 1 104 1 163 1 238 1 172 1 401 1 101 1 149 1 117 1 191 1 354 1 318 1 344 1 420 2 143 1 102 1 407 1 131 1 220 1 391 1 387 1 201 1 86 1 159 2 385 1 1 1 7 1 8 1 9 1 16 1 23 1 68 1 69 1 71 1 79 1 90 1 112 1 122 1 123 1 135 1 138 1 147 1 170 1 195 1 203 1 221 1 234 1 253 1 262 1 264 1 265 1 271 1 277 1 280 1 292 1 297 1 313 1 327 1 331 1 332 1 336 1 342 1 346 1 363 1 366 1 367 1 368 1 373 1 380 1 390 1 394 1 399 1 405 1 414 1 416 1 422 1 453 1 455 1 459 1 490 1 494 1 503 1 506 1 
1 213 26 1 247 1 126 1 417 1 102 2 254 1 204 1 75 1 153 1 120 2 446 1 199 1 85 1 131 2 349 1 318 1 104 1 439 1 116 1 82 1 310 1 312 1 193 2 268 1 101 1 65 1 151 1 61 1 127 1 160 1 88 1 112 2 103 1 241 1 64 1 365 2 77 1 405 1 130 1 452 1 50 1 328 1 129 1 338 1 70 1 1 1 2 1 16 1 19 1 23 1 27 1 32 1 69 1 78 1 86 1 111 1 113 1 118 1 125 1 137 1 147 1 148 1 162 1 175 1 179 1 189 1 192 1 201 1 213 1 221 1 227 1 238 1 242 1 252 1 253 1 259 1 265 1 266 1 282 1 285 1 288 1 291 1 308 1 314 1 320 1 334 1 340 1 362 1 368 1 377 1 385 1 400 1 413 1 434 1 444 1 447 1 461 1 463 1 464 1 481 1 495 1 496 1 498 1 511 1 
1 211 7 1 8 1 19 1 454 1 441 1 468 2 262 1 385 1 200 1 372 1 498 1 489 2 417 1 366 1 115 1 423 2 137 1 481 1 400 1 205 1 485 2 309 1 247 2 295 1 474 1 469 1 82 1 151 1 89 1 140 1 429 1 80 2 261 1 149 1 125 1 325 1 281 1 391 1 457 1 165 1 90 1 122 1 71 1 378 2 255 1 64 1 442 1 410 1 292 1 473 1 182 1 341 2 463 1 229 1 249 1 279 1 83 2 342 1 95 1 308 1 368 1 63 1 34 1 303 2 475 1 105 1 358 1 61 1 68 1 6 1 25 1 31 1 44 1 55 1 79 1 92 1 98 1 102 1 106 1 110 1 117 1 118 1 121 1 126 1 131 1 142 1 143 1 146 1 160 1 169 1 172 1 174 1 188 1 203 1 208 1 211 1 212 1 216 1 217 1 225 1 230 1 235 1 238 1 246 1 252 1 263 1 264 1 283 1 301 1 304 1 305 1 314 1 317 1 352 1 361 1 381 1 390 1 408 1 411 1 413 1 414 1 435 1 453 1 461 1 478 1 496 1 499 1 
1 211 3 1 4 1 408 1 471 2 313 1 92 1 74 1 278 1 292 1 242 1 306 1 202 1 496 1 148 1 464 1 129 1 130 1 378 1 273 2 478 1 140 1 447 1 352 1 217 1 36 1 111 1 98 1 303 2 395 1 486 1 70 1 75 1 164 1 287 1 173 1 143 1 361 1 172 1 62 1 251 2 421 1 45 1 277 2 218 1 398 1 191 1 137 1 95 1 261 1 221 1 485 1 134 1 189 1 71 1 410 2 430 1 39 1 38 1 53 1 64 1 80 1 89 1 93 1 106 1 123 1 128 1 132 1 152 1 157 1 158 1 177 1 178 1 190 1 193 1 201 1 211 1 223 1 240 1 258 1 269 1 270 1 282 1 294 1 300 1 301 1 310 1 311 1 316 1 333 1 334 1 354 1 356 1 363 1 376 1 409 1 412 1 415 1 417 1 418 1 432 1 435 1 442 1 444 1 456 1 459 1 467 1 474 1 475 1 497 1 506 1 
1 206 12 1 32 1 413 1 212 1 161 1 95 1 197 1 370 1 487 1 163 1 144 1 75 2 129 1 464 2 156 1 213 2 318 1 189 1 207 1 242 1 82 2 286 1 484 1 374 1 116 1 260 1 173 1 255 1 39 1 317 1 468 1 86 1 348 2 91 1 456 1 312 1 62 1 110 1 113 2 313 1 284 2 169 1 186 1 373 1 387 1 273 1 408 1 172 1 61 1 324 1 234 1 353 1 226 1 279 1 419 1 355 1 388 1 35 1 476 1 92 1 174 1 375 1 192 1 453 1 146 1 205 1 325 2 185 2 74 1 47 1 11 1 56 1 66 1 71 1 72 1 76 1 77 1 83 1 100 1 104 1 115 1 120 1 121 1 127 1 132 1 138 1 187 1 204 1 228 1 233 1 241 1 248 1 272 1 275 1 298 1 331 1 339 1 340 1 344 1 347 1 356 1 362 1 385 1 393 1 400 1 404 1 410 1 411 1 427 1 433 1 435 1 437 1 439 1 444 1 447 1 448 1 454 1 474 1 485 1 489 1 516 1 
1 200 4 1 5 1 29 1 34 1 108 2 255 1 119 1 121 1 75 2 452 2 492 1 193 1 129 1 175 1 294 1 152 1 247 1 185 1 440 1 337 1 217 2 336 1 86 2 448 1 441 2 36 2 275 1 99 2 322 1 138 2 44 1 499 1 311 1 395 1 64 1 290 1 496 1 353 1 238 1 411 1 205 1 47 1 342 1 104 2 486 1 391 1 242 1 111 1 246 1 282 2 341 2 192 1 490 2 170 2 69 1 402 1 330 1 382 1 413 1 200 1 7 1 11 1 48 1 80 1 85 1 90 1 110 1 122 1 145 1 148 1 151 1 160 1 162 1 181 1 191 1 201 1 221 1 222 1 224 1 226 1 233 1 254 1 258 1 274 1 278 1 292 1 303 1 315 1 321 1 331 1 344 1 362 1 368 1 405 1 412 1 443 1 466 1 469 1 474 1 483 1 487 1 
1 195 5 1 11 1 33 1 35 2 239 2 215 1 71 1 443 1 425 1 62 1 356 1 98 1 480 1 389 1 351 1 376 1 117 1 414 1 244 1 352 1 454 1 281 1 366 1 321 1 46 1 427 1 384 1 423 1 201 1 345 2 305 1 392 1 125 1 475 1 95 1 151 1 335 1 124 1 81 1 102 1 274 2 84 1 213 1 37 1 406 1 104 1 206 1 194 1 271 2 373 1 313 1 255 1 38 1 127 1 15 1 24 1 41 1 49 1 79 1 80 1 92 1 108 1 119 1 122 1 139 1 144 1 152 1 154 1 159 1 160 1 174 1 179 1 185 1 212 1 216 1 218 1 240 1 242 1 247 1 249 1 262 1 277 1 282 1 290 1 293 1 302 1 304 1 311 1 327 1 329 1 337 1 357 1 380 1 386 1 400 1 401 1 410 1 416 1 418 1 420 1 449 1 450 1 456 1 460 1 479 1 490 1 503 1 
1 211 2 1 5 2 6 1 12 1 14 2 29 1 36 1 103 1 187 1 216 1 126 1 498 1 435 1 460 1 89 1 409 1 140 1 397 1 253 1 166 1 359 1 267 2 181 1 441 1 462 1 440 1 443 1 365 1 339 1 388 1 227 1 228 2 113 1 302 2 327 1 310 2 268 1 285 1 464 1 426 1 186 1 241 1 184 2 407 1 100 2 457 1 99 2 151 2 458 1 191 1 129 1 342 1 424 2 366 1 294 1 161 1 364 1 94 2 292 1 377 1 247 1 15 1 46 1 67 1 68 1 72 1 74 1 85 1 109 1 116 1 119 1 125 1 127 1 142 1 145 1 162 1 168 1 192 1 197 1 198 1 199 1 213 1 237 1 246 1 254 1 258 1 259 1 263 1 274 1 276 1 279 1 291 1 308 1 334 1 343 1 352 1 356 1 361 1 368 1 371 1 379 1 384 1 391 1 392 1 401 1 402 1 427 1 428 1 431 1 439 1 447 1 450 1 453 1 454 1 475 1 483 1 486 1 489 1 491 1 497 1 
1 218 8 2 21 1 23 1 25 1 27 1 28 1 36 1 443 1 204 1 438 1 179 1 202 1 109 1 171 1 400 1 333 1 331 1 408 1 480 1 402 1 452 1 293 1 297 1 185 1 426 1 459 2 98 1 239 1 346 1 64 1 371 2 259 1 474 1 270 1 189 2 453 1 497 1 410 1 196 1 226 1 401 1 324 1 194 1 355 1 213 1 113 2 306 1 499 2 286 1 173 1 395 1 84 1 245 1 360 1 148 1 478 1 282 1 446 1 475 1 447 2 312 1 372 2 175 1 241 1 157 1 7 1 33 1 58 1 72 1 73 1 96 1 124 1 129 1 131 1 134 1 156 1 164 1 177 1 178 1 180 1 193 1 197 1 198 1 200 1 201 1 205 1 228 1 233 1 237 1 250 1 256 1 263 1 273 1 288 1 290 1 305 1 310 1 321 1 339 1 357 1 374 1 381 1 383 1 394 1 396 1 404 1 423 1 455 1 461 1 462 1 466 1 479 1 482 1 490 1 512 1 517 1 
1 217 17 1 26 1 33 1 34 1 289 1 487 1 66 1 282 1 337 1 380 1 373 1 112 1 395 1 310 1 107 1 196 1 183 1 210 1 451 1 249 1 220 2 402 1 361 1 392 1 58 1 340 1 105 1 223 1 293 1 440 2 111 1 187 2 248 1 281 1 129 1 441 1 423 1 486 1 106 1 94 1 191 1 348 1 77 2 44 1 374 1 75 2 177 1 299 1 161 1 419 2 63 1 240 1 429 1 479 1 406 1 114 1 326 1 153 1 343 1 500 1 465 2 173 1 101 1 1 1 6 1 14 1 43 1 72 1 83 1 87 1 95 1 100 1 125 1 137 1 145 1 150 1 152 1 172 1 176 1 186 1 188 1 194 1 195 1 207 1 234 1 251 1 254 1 259 1 272 1 278 1 319 1 344 1 350 1 351 1 355 1 360 1 363 1 372 1 376 1 382 1 387 1 399 1 400 1 403 1 410 1 414 1 416 1 428 1 432 1 453 1 454 1 466 1 483 1 494 1 499 1 
1 198 14 1 15 1 28 1 301 1 346 2 62 1 76 1 428 1 171 1 373 1 435 1 70 1 445 2 447 1 71 1 446 1 318 1 118 2 490 1 485 1 223 1 353 1 104 1 159 1 222 1 433 1 227 1 44 2 399 1 211 1 386 1 178 1 436 1 292 1 280 1 359 1 203 1 170 1 141 1 74 1 385 1 109 1 51 1 139 1 498 1 462 2 470 1 175 1 113 1 202 1 95 2 63 2 189 1 241 1 85 1 102 1 326 1 53 1 4 1 9 1 80 1 81 1 83 1 100 1 103 1 107 1 122 1 149 1 169 1 214 1 216 1 237 1 258 1 259 1 262 1 268 1 279 1 281 1 303 1 304 1 322 1 327 1 334 1 337 1 345 1 358 1 364 1 390 1 403 1 417 1 459 1 460 1 467 1 480 1 482 1 494 1 
1 206 2 1 214 1 347 1 329 1 275 2 409 1 162 2 374 1 465 1 410 1 342 2 346 1 381 1 73 1 308 1 426 1 326 2 111 1 64 1 68 1 425 1 488 1 445 1 395 1 499 1 263 1 157 1 331 1 360 2 309 1 72 1 131 1 47 1 437 1 69 1 427 1 260 2 484 1 415 1 283 1 118 1 279 1 449 1 341 1 480 1 167 1 119 1 86 1 4 1 17 1 36 1 51 1 70 1 76 1 81 1 88 1 91 1 95 1 107 1 109 1 116 1 126 1 138 1 142 1 148 1 154 1 166 1 188 1 189 1 205 1 206 1 213 1 215 1 224 1 225 1 236 1 267 1 270 1 271 1 274 1 278 1 282 1 285 1 301 1 312 1 325 1 358 1 367 1 399 1 401 1 402 1 440 1 457 1 459 1 471 1 476 1 481 1 510 1 
1 224 5 1 7 2 15 2 19 1 27 1 274 1 389 1 308 1 239 2 120 1 229 1 147 2 305 1 437 1 237 1 148 1 174 1 482 1 429 1 247 1 432 1 299 2 155 1 422 1 496 1 128 1 431 1 46 1 151 1 363 1 146 1 186 1 220 1 119 1 135 1 404 1 444 1 198 2 415 2 67 1 452 1 427 1 327 1 461 1 457 2 419 2 288 1 380 1 72 1 85 1 435 1 472 1 55 1 316 1 241 2 150 1 407 1 486 1 436 1 14 1 43 1 69 1 84 1 104 1 109 1 112 1 129 1 132 1 140 1 162 1 165 1 172 1 183 1 202 1 212 1 216 1 219 1 227 1 240 1 243 1 246 1 276 1 283 1 285 1 286 1 291 1 313 1 320 1 323 1 324 1 338 1 346 1 348 1 350 1 355 1 356 1 360 1 361 1 383 1 384 1 385 1 390 1 395 1 411 1 418 1 424 1 425 1 433 1 447 1 449 1 460 1 463 1 485 1 495 1 
1 206 1 2 16 1 292 1 343 1 134 1 196 1 497 1 148 1 430 1 195 1 492 1 319 1 164 1 83 1 442 1 351 1 162 1 323 1 167 1 122 2 414 1 220 1 187 1 104 1 172 1 388 2 375 1 204 1 231 1 259 1 242 1 467 1 76 1 465 1 258 1 439 1 353 1 116 1 260 1 421 1 356 1 462 1 252 1 317 1 113 1 441 2 328 1 273 1 327 2 45 1 184 1 354 1 483 1 56 1 450 1 205 1 181 1 14 1 21 1 27 1 39 1 42 1 46 1 48 1 49 1 69 1 74 1 90 1 101 1 102 1 123 1 144 1 149 1 161 1 193 1 197 1 208 1 210 1 214 1 237 1 239 1 255 1 256 1 267 1 271 1 277 1 279 1 286 1 298 1 318 1 325 1 331 1 361 1 362 1 369 1 370 1 376 1 395 1 401 1 402 1 405 1 412 1 416 1 425 1 433 1 434 1 459 1 466 1 480 1 506 1 
1 223 3 1 7 1 12 1 29 1 35 1 39 1 40 2 247 1 442 2 146 1 268 1 347 1 339 1 167 1 80 1 100 2 205 1 355 1 229 1 228 1 291 1 350 1 85 1 425 1 400 2 459 1 101 1 431 1 377 1 214 1 258 1 75 1 243 1 233 1 366 1 150 1 499 1 469 1 342 1 417 1 90 1 118 2 320 1 334 1 89 1 159 1 315 2 239 1 356 2 91 1 328 1 94 1 186 1 485 1 272 2 330 1 203 1 106 1 456 1 428 1 297 2 401 1 193 1 283 1 322 1 310 1 234 1 1 1 6 1 10 1 14 1 27 1 32 1 53 1 56 1 68 1 70 1 78 1 81 1 97 1 105 1 109 1 112 1 113 1 130 1 139 1 142 1 149 1 154 1 155 1 157 1 160 1 168 1 199 1 209 1 215 1 216 1 224 1 227 1 232 1 246 1 249 1 253 1 274 1 278 1 298 1 312 1 313 1 325 1 346 1 353 1 360 1 388 1 389 1 391 1 393 1 396 1 399 1 404 1 429 1 441 1 463 1 471 1 479 1 494 1 501 1 510 1 
1 220 1 1 13 1 16 1 20 1 33 1 43 1 410 1 469 1 422 1 74 1 230 1 273 1 493 1 119 1 487 1 450 1 260 1 203 1 150 1 161 1 427 1 89 2 395 1 207 1 112 1 246 1 477 1 315 1 105 1 142 1 303 1 84 1 170 1 378 2 408 1 78 1 432 1 97 1 388 1 409 1 129 1 109 1 255 1 189 1 229 1 79 2 396 2 76 1 373 1 223 1 48 1 206 1 488 1 3 1 6 1 7 1 46 1 54 1 58 1 64 1 82 1 90 1 101 1 104 1 106 1 107 1 108 1 110 1 114 1 115 1 122 1 124 1 133 1 143 1 144 1 146 1 147 1 148 1 152 1 163 1 169 1 171 1 181 1 187 1 214 1 219 1 231 1 233 1 235 1 240 1 253 1 274 1 288 1 293 1 296 1 306 1 310 1 325 1 337 1 340 1 348 1 350 1 382 1 402 1 414 1 425 1 439 1 452 1 457 1 467 1 472 1 484 1 509 1 517 1 
1 212 4 2 9 1 29 1 36 1 42 1 167 2 251 1 237 1 356 1 327 1 337 1 415 1 133 1 323 1 169 1 301 1 265 2 486 1 408 1 242 1 104 1 290 1 75 1 468 1 231 1 395 1 108 1 340 2 396 2 168 1 110 1 70 1 419 1 208 1 77 1 478 1 344 1 90 1 414 1 141 1 345 1 160 2 384 1 129 1 225 1 238 1 382 2 152 2 261 1 217 2 444 1 351 1 463 1 222 1 308 1 230 2 328 2 10 1 16 1 37 1 43 1 45 1 52 1 58 1 67 1 69 1 71 1 89 1 100 1 102 1 105 1 123 1 142 1 149 1 157 1 189 1 192 1 198 1 205 1 206 1 209 1 211 1 215 1 235 1 239 1 241 1 244 1 245 1 246 1 252 1 275 1 276 1 277 1 294 1 295 1 311 1 350 1 365 1 374 1 378 1 397 1 398 1 402 1 411 1 412 1 413 1 425 1 426 1 436 1 442 1 445 1 451 1 460 1 469 1 472 1 475 1 480 1 
1 203 4 1 34 1 35 1 41 1 379 1 494 1 273 1 291 1 460 1 251 1 445 1 218 1 136 1 201 1 359 1 425 1 355 1 389 2 433 1 342 1 228 1 322 1 238 1 446 1 312 2 439 1 162 1 119 1 193 2 358 1 305 1 200 1 279 1 246 2 110 1 424 1 137 2 289 1 385 1 333 1 276 1 195 1 467 1 319 1 51 2 326 1 216 1 405 1 257 1 348 1 231 1 92 2 364 1 320 1 160 1 329 1 354 1 117 1 343 1 418 1 230 1 317 1 357 2 394 2 173 1 1 1 6 1 20 1 21 1 49 1 77 1 87 1 90 1 97 1 109 1 114 1 122 1 126 1 127 1 135 1 150 1 152 1 153 1 165 1 171 1 174 1 177 1 179 1 187 1 188 1 225 1 226 1 227 1 248 1 253 1 254 1 259 1 263 1 267 1 301 1 306 1 321 1 332 1 338 1 345 1 353 1 356 1 391 1 432 1 452 1 458 1 466 1 473 1 474 1 475 1 480 1 486 1 488 1 
1 208 5 1 10 1 12 1 16 1 20 2 45 1 421 1 251 1 261 1 111 1 386 2 476 1 145 1 495 1 224 1 341 1 485 1 434 1 221 1 255 1 385 1 288 2 392 2 102 1 356 1 83 1 132 1 445 1 318 1 470 1 295 1 230 2 420 1 165 1 170 1 304 1 313 1 349 2 301 1 152 1 216 2 428 1 303 1 384 1 482 1 405 1 211 1 342 1 455 1 403 1 464 1 461 1 164 2 307 1 13 1 17 1 35 1 43 1 73 1 74 1 75 1 81 1 89 1 90 1 100 1 109 1 120 1 121 1 143 1 144 1 149 1 168 1 173 1 193 1 195 1 201 1 212 1 218 1 225 1 240 1 247 1 260 1 266 1 276 1 278 1 283 1 284 1 298 1 316 1 322 1 327 1 358 1 374 1 388 1 395 1 396 1 399 1 413 1 430 1 452 1 486 1 
1 214 7 2 18 1 19 1 417 1 186 2 361 1 444 1 110 1 274 1 74 1 290 1 461 2 143 1 51 1 296 1 216 1 175 1 109 1 231 2 273 1 98 1 91 1 209 1 431 1 224 1 253 1 237 1 145 1 150 1 183 1 343 2 208 1 289 1 473 1 500 1 165 1 356 1 164 2 223 1 449 1 489 1 322 1 369 1 454 1 495 1 469 1 402 1 4 1 8 1 21 1 36 1 43 1 47 1 50 1 75 1 77 1 80 1 85 1 87 1 88 1 90 1 95 1 99 1 112 1 117 1 120 1 127 1 130 1 149 1 156 1 158 1 159 1 160 1 172 1 174 1 178 1 179 1 197 1 200 1 220 1 241 1 246 1 249 1 252 1 254 1 255 1 259 1 261 1 268 1 275 1 299 1 302 1 304 1 306 1 309 1 320 1 344 1 348 1 349 1 362 1 372 1 383 1 397 1 403 1 420 1 422 1 425 1 432 1 438 1 442 1 466 1 474 1 487 1 491 1 497 1 498 1 514 1 
1 190 1 1 8 1 12 1 24 1 31 1 417 1 340 1 122 1 214 1 388 1 331 1 93 1 288 2 467 2 361 1 242 1 166 1 431 1 307 2 289 1 410 1 484 1 482 1 97 2 445 1 433 2 138 1 113 1 152 1 279 1 293 1 274 1 186 1 139 1 270 1 273 2 116 1 319 1 171 1 330 2 90 2 489 1 147 1 132 1 125 1 233 1 236 1 366 1 83 1 239 1 300 1 135 2 493 1 124 1 111 1 345 1 292 1 346 1 182 1 406 1 184 1 249 1 78 1 64 1 151 1 85 1 4 1 11 1 13 1 49 1 79 1 81 1 84 1 96 1 143 1 145 1 157 1 177 1 197 1 204 1 245 1 251 1 256 1 268 1 285 1 291 1 311 1 315 1 316 1 321 1 324 1 334 1 359 1 373 1 390 1 396 1 399 1 404 1 414 1 422 1 423 1 437 1 438 1 466 1 471 1 491 1 492 1 494 1 495 1 
1 216 8 1 9 2 19 1 40 1 47 2 49 1 309 1 257 1 201 1 422 1 439 1 94 2 436 1 370 1 432 1 81 1 224 1 296 1 412 2 232 1 302 1 466 1 377 1 223 1 218 1 275 1 307 1 459 1 274 1 465 1 214 1 164 1 54 1 78 1 324 2 498 1 144 2 352 1 431 1 118 1 291 1 342 1 116 1 243 1 277 2 253 1 146 1 189 1 429 1 102 1 128 1 361 1 80 1 227 1 115 1 63 1 251 1 171 2 353 1 420 1 364 1 3 1 6 1 27 1 29 1 41 1 58 1 77 1 97 1 140 1 145 1 160 1 170 1 176 1 182 1 196 1 202 1 205 1 211 1 212 1 215 1 217 1 225 1 228 1 235 1 236 1 250 1 261 1 265 1 271 1 272 1 282 1 299 1 330 1 336 1 349 1 350 1 363 1 365 1 367 1 379 1 386 1 393 1 396 1 416 1 438 1 446 1 448 1 457 1 460 1 462 1 470 1 476 1 480 1 486 1 493 1 509 1 514 1 
1 207 8 1 11 2 23 1 106 1 366 1 227 1 54 1 426 1 484 1 327 1 454 1 325 1 287 1 392 1 436 2 192 1 423 1 92 1 154 1 340 2 489 2 120 1 337 1 168 1 450 1 99 1 243 1 295 1 217 1 56 2 425 1 229 1 255 2 445 1 351 1 394 1 495 1 147 1 481 1 213 1 440 1 304 1 286 1 405 1 312 2 236 1 62 1 369 1 378 1 280 1 364 1 441 1 375 1 391 1 246 1 417 1 6 1 15 1 46 1 81 1 88 1 95 1 96 1 100 1 102 1 128 1 142 1 143 1 144 1 169 1 175 1 189 1 198 1 216 1 265 1 297 1 308 1 314 1 317 1 328 1 354 1 359 1 368 1 373 1 376 1 388 1 393 1 399 1 402 1 403 1 418 1 419 1 437 1 439 1 446 1 447 1 448 1 461 1 486 1 488 1 490 1 493 1 494 1 496 1 498 1 505 1 509 1 513 1 
1 188 9 1 19 1 40 1 109 1 216 1 400 1 213 2 457 1 241 1 323 1 372 1 99 1 348 1 428 1 227 1 418 1 367 1 198 2 187 1 499 1 251 1 332 1 343 1 398 1 269 1 83 1 250 1 136 2 172 1 79 1 128 1 320 1 296 1 395 1 221 1 403 1 358 1 410 1 85 1 467 1 188 1 267 1 279 1 384 1 92 1 125 1 381 1 262 1 321 1 152 1 268 1 473 1 145 1 260 2 258 2 3 1 6 1 13 1 33 1 44 1 55 1 60 1 63 1 88 1 90 1 115 1 120 1 132 1 138 1 140 1 143 1 148 1 170 1 179 1 184 1 204 1 245 1 257 1 261 1 263 1 270 1 298 1 303 1 333 1 335 1 373 1 377 1 378 1 389 1 391 1 392 1 405 1 414 1 416 1 431 1 437 1 439 1 440 1 445 1 463 1 470 1 472 1 475 1 478 1 
1 193 8 2 21 1 51 1 52 1 188 1 195 1 403 1 446 2 168 1 171 1 238 1 376 1 393 1 411 1 494 1 251 1 383 1 392 1 244 2 492 1 150 1 282 1 165 1 325 1 94 1 412 1 199 1 297 1 157 1 160 1 103 2 239 1 328 1 258 1 212 1 319 1 356 1 95 2 323 1 399 1 379 1 433 1 61 1 232 2 110 1 252 1 307 1 96 2 140 2 498 2 89 1 115 1 425 1 4 1 11 1 13 1 17 1 45 1 74 1 87 1 88 1 112 1 114 1 121 1 170 1 172 1 192 1 200 1 209 1 225 1 237 1 253 1 254 1 269 1 272 1 292 1 295 1 318 1 326 1 339 1 348 1 361 1 370 1 388 1 391 1 397 1 409 1 418 1 420 1 421 1 423 1 436 1 443 1 445 1 448 1 461 1 471 1 496 1 497 1 506 1 
1 210 20 1 42 1 374 1 188 1 268 1 193 1 105 1 292 1 413 1 270 2 237 1 82 1 265 2 277 1 103 1 130 1 167 1 205 1 149 1 421 1 213 1 442 1 184 1 182 1 200 1 242 2 127 1 151 1 161 1 480 1 467 2 353 2 466 1 496 2 343 1 216 1 489 1 219 1 234 1 296 1 318 1 471 1 235 1 427 2 228 1 165 1 211 1 4 1 16 1 18 1 19 1 32 1 53 1 59 1 68 1 81 1 108 1 116 1 122 1 126 1 137 1 148 1 153 1 163 1 189 1 190 1 207 1 208 1 209 1 220 1 224 1 226 1 244 1 245 1 247 1 249 1 250 1 253 1 254 1 256 1 260 1 278 1 293 1 328 1 337 1 341 1 345 1 350 1 361 1 362 1 378 1 380 1 381 1 390 1 392 1 417 1 423 1 436 1 446 1 452 1 456 1 459 1 468 1 470 1 486 1 491 1 502 1 
1 188 1 2 3 1 4 1 8 1 11 1 16 1 43 1 52 2 444 1 252 1 229 1 463 1 148 1 427 1 183 1 443 1 383 1 134 1 391 2 234 1 224 1 176 1 373 1 360 1 348 1 84 2 227 1 174 1 142 1 431 2 178 1 486 1 91 1 442 1 497 2 143 1 268 1 312 2 415 2 447 1 285 1 478 1 226 1 213 1 205 1 371 1 378 1 296 1 258 2 112 1 437 1 405 1 491 1 244 2 232 1 485 1 57 1 147 1 184 1 346 1 330 1 173 1 321 1 464 1 175 1 21 1 29 1 34 1 44 1 97 1 106 1 121 1 126 1 131 1 138 1 139 1 141 1 149 1 153 1 155 1 157 1 159 1 160 1 163 1 172 1 182 1 186 1 190 1 203 1 206 1 212 1 216 1 230 1 235 1 257 1 270 1 277 1 291 1 319 1 320 1 327 1 329 1 338 1 343 1 347 1 369 1 376 1 387 1 395 1 399 1 404 1 406 1 416 1 426 1 430 1 440 1 454 1 462 1 465 1 474 1 481 1 498 1 499 1 514 1 
1 197 9 1 13 1 14 1 56 1 204 1 196 1 96 1 324 2 225 1 406 2 384 1 451 1 361 1 393 1 228 1 189 1 404 1 316 1 429 1 397 1 446 1 312 1 355 2 216 1 401 1 160 1 211 1 273 1 445 1 465 1 277 1 373 1 68 2 449 1 410 1 392 1 380 1 262 1 139 1 88 1 434 1 86 1 122 2 357 1 325 1 98 1 455 1 368 1 252 1 101 1 179 1 436 2 161 2 240 1 7 1 21 1 22 1 69 1 75 1 97 1 100 1 108 1 125 1 126 1 133 1 150 1 174 1 175 1 177 1 187 1 222 1 224 1 232 1 234 1 236 1 239 1 244 1 246 1 267 1 274 1 282 1 292 1 306 1 310 1 313 1 322 1 329 1 336 1 348 1 358 1 366 1 367 1 385 1 390 1 420 1 422 1 425 1 452 1 453 1 456 1 457 1 473 1 476 1 479 1 482 1 484 1 493 1 504 1 
1 197 15 1 39 1 258 1 123 1 295 1 465 1 411 1 320 1 384 1 179 1 489 1 147 1 115 1 113 1 252 1 245 1 342 1 467 1 265 1 224 1 212 1 94 1 125 1 152 1 268 1 235 1 416 1 325 1 347 1 242 1 185 1 286 1 499 1 247 1 392 1 409 2 221 1 172 1 122 1 313 2 259 1 358 1 393 1 462 1 256 1 117 1 447 1 361 1 233 2 307 1 497 1 444 1 213 1 469 1 377 1 207 1 353 1 135 1 314 1 27 1 38 1 45 1 46 1 51 1 85 1 104 1 107 1 116 1 120 1 128 1 142 1 144 1 154 1 156 1 166 1 170 1 178 1 189 1 199 1 208 1 222 1 227 1 230 1 231 1 238 1 241 1 243 1 261 1 271 1 281 1 297 1 298 1 306 1 330 1 331 1 335 1 348 1 359 1 369 1 391 1 395 1 417 1 421 1 426 1 433 1 435 1 440 1 441 1 487 1 
1 184 12 1 18 2 20 1 348 1 267 1 149 1 297 1 283 1 145 1 124 1 439 1 453 1 226 1 220 1 347 1 468 2 197 1 307 1 165 2 498 2 170 1 231 1 296 1 134 1 495 1 355 1 387 1 70 1 441 1 463 1 376 1 436 1 356 2 467 1 153 2 294 1 61 1 274 1 430 1 417 2 482 1 422 1 146 1 112 1 338 1 380 1 316 1 471 1 440 1 108 1 80 1 246 1 337 1 133 1 206 1 159 1 1 1 6 1 11 1 55 1 67 1 92 1 99 1 102 1 107 1 115 1 121 1 150 1 163 1 173 1 180 1 188 1 189 1 200 1 203 1 205 1 207 1 217 1 221 1 237 1 240 1 265 1 285 1 305 1 306 1 314 1 315 1 336 1 350 1 351 1 366 1 369 1 372 1 374 1 377 1 383 1 388 1 395 1 398 1 399 1 403 1 404 1 427 1 475 1 476 1 488 1 492 1 493 1 
1 195 7 1 17 1 139 1 398 1 459 1 271 1 115 1 430 1 484 1 309 1 348 1 107 1 495 1 61 1 121 1 153 1 313 2 162 1 268 1 213 2 127 2 230 1 435 1 440 1 466 1 300 1 95 1 399 2 132 1 414 1 318 1 186 1 262 1 303 1 367 1 355 1 450 2 428 1 239 1 64 1 433 1 379 1 496 1 370 1 96 2 248 1 1 1 3 1 14 1 16 1 21 1 27 1 29 1 53 1 84 1 88 1 101 1 110 1 114 1 119 1 140 1 147 1 166 1 172 1 177 1 178 1 194 1 207 1 208 1 215 1 223 1 228 1 235 1 243 1 267 1 269 1 281 1 285 1 295 1 306 1 326 1 338 1 352 1 356 1 362 1 363 1 364 1 389 1 390 1 403 1 415 1 429 1 445 1 449 1 470 1 486 1 490 1 510 1 
1 195 5 1 10 1 25 2 31 1 32 1 34 1 54 1 59 1 60 1 494 1 364 1 247 1 441 1 483 1 167 1 310 1 232 1 363 1 131 1 348 1 313 1 173 1 209 1 270 1 192 1 340 1 315 1 184 1 238 1 73 1 239 1 497 1 120 1 208 1 223 1 121 1 498 1 329 1 285 1 326 1 413 1 106 1 117 1 99 1 341 1 406 1 384 1 96 1 321 1 491 1 211 2 80 1 157 1 393 1 301 1 154 1 361 1 241 1 355 1 7 1 11 1 24 1 28 1 93 1 100 1 102 1 116 1 122 1 126 1 144 1 148 1 159 1 160 1 164 1 170 1 178 1 180 1 214 1 215 1 218 1 225 1 242 1 273 1 293 1 305 1 334 1 342 1 349 1 354 1 356 1 362 1 365 1 390 1 401 1 423 1 431 1 433 1 439 1 442 1 444 1 446 1 450 1 461 1 466 1 469 1 487 1 488 1 505 1 
1 217 10 1 11 1 15 1 18 1 33 1 34 1 36 1 40 1 52 1 497 1 466 1 352 1 279 1 258 1 453 2 316 1 347 1 247 1 476 2 278 1 68 1 274 1 304 1 364 1 475 1 314 1 253 1 122 1 141 1 251 2 480 2 267 1 348 1 491 1 209 1 332 1 227 1 458 1 180 1 387 1 389 2 245 1 106 1 360 1 210 1 406 1 201 1 400 1 295 1 287 1 384 1 109 1 496 1 397 1 148 2 283 1 75 2 354 2 307 1 457 1 363 2 362 1 337 1 284 1 343 1 73 1 481 1 261 2 482 1 425 1 349 1 9 1 12 1 71 1 78 1 102 1 116 1 126 1 135 1 142 1 143 1 157 1 159 1 176 1 187 1 218 1 220 1 259 1 272 1 276 1 277 1 280 1 281 1 282 1 298 1 301 1 328 1 330 1 340 1 346 1 368 1 396 1 405 1 439 1 440 1 443 1 444 1 465 1 471 1 479 1 492 1 500 1 
1 197 4 2 11 1 32 1 39 1 40 2 51 1 397 1 174 1 95 2 118 1 282 1 351 2 445 1 274 2 127 1 148 1 411 1 196 1 346 1 440 2 181 2 212 2 137 2 430 1 270 2 141 1 198 1 325 1 490 1 323 1 456 1 316 1 120 1 382 1 257 1 287 2 476 1 272 1 419 1 236 2 182 1 439 1 500 2 398 2 102 1 332 1 100 1 109 1 414 1 321 1 356 1 357 1 437 1 394 2 97 1 310 1 187 2 132 1 302 1 2 1 5 1 13 1 16 1 25 1 53 1 64 1 94 1 99 1 133 1 135 1 140 1 153 1 157 1 161 1 165 1 167 1 168 1 202 1 210 1 221 1 226 1 237 1 238 1 261 1 276 1 284 1 286 1 317 1 338 1 344 1 367 1 380 1 415 1 417 1 425 1 452 1 457 1 462 1 465 1 466 1 470 1 478 1 482 1 491 1 496 1 506 1 510 1 514 1 516 1 
1 221 5 2 12 2 13 1 28 1 29 2 31 1 32 1 35 1 38 1 41 1 50 1 60 1 279 1 443 1 370 1 322 1 366 2 249 1 194 1 300 1 261 1 302 1 250 1 263 1 169 1 497 1 73 1 439 1 304 1 271 1 470 1 415 1 181 1 105 2 216 1 365 1 466 1 463 1 141 1 312 1 77 1 224 2 413 2 187 1 197 1 171 1 318 1 110 1 360 1 306 1 410 1 269 1 179 1 234 1 416 1 376 1 222 1 247 1 190 2 411 1 251 1 332 1 471 1 297 1 123 1 487 1 334 1 11 1 20 1 21 1 24 1 33 1 45 1 63 1 100 1 109 1 128 1 137 1 152 1 167 1 170 1 172 1 182 1 185 1 202 1 228 1 235 1 243 1 245 1 270 1 287 1 289 1 292 1 316 1 357 1 364 1 371 1 373 1 388 1 389 1 398 1 399 1 430 1 431 1 451 1 478 1 488 1 499 1 500 1 516 1 
1 201 2 1 3 1 8 1 18 1 23 1 31 1 488 1 318 1 140 1 360 1 159 2 248 1 110 1 487 1 184 1 416 1 160 1 157 1 227 1 454 1 185 1 219 1 402 1 187 2 384 1 311 1 404 1 261 1 471 1 424 2 426 1 79 1 270 1 262 1 112 1 214 1 323 2 175 1 455 1 482 1 308 1 274 1 206 1 287 2 385 1 285 1 87 1 216 1 309 1 247 1 480 1 126 1 102 1 275 1 147 1 420 1 76 1 6 1 74 1 99 1 100 1 117 1 121 1 123 1 168 1 189 1 199 1 207 1 226 1 230 1 239 1 241 1 255 1 276 1 286 1 292 1 294 1 295 1 304 1 307 1 326 1 328 1 334 1 336 1 347 1 349 1 359 1 367 1 368 1 372 1 391 1 396 1 415 1 418 1 436 1 447 1 449 1 458 1 461 1 463 1 472 1 
1 215 3 1 20 1 39 1 223 1 383 1 241 1 402 1 175 1 159 1 424 1 127 1 239 1 254 2 121 1 181 2 226 2 451 1 369 1 116 1 139 2 102 2 106 2 406 1 292 1 431 1 448 1 238 1 356 1 183 1 299 1 320 1 199 1 351 1 208 1 75 1 216 1 205 1 462 1 235 1 245 1 76 1 363 1 488 1 155 1 171 2 271 1 353 1 230 1 237 1 224 1 131 1 478 1 232 1 400 1 128 1 419 1 142 2 156 1 384 1 151 2 483 1 91 1 23 1 34 1 78 1 92 1 95 1 99 1 105 1 112 1 120 1 122 1 134 1 153 1 161 1 162 1 174 1 177 1 179 1 193 1 202 1 209 1 210 1 213 1 227 1 229 1 231 1 255 1 259 1 261 1 264 1 266 1 274 1 280 1 285 1 287 1 288 1 291 1 294 1 295 1 296 1 319 1 323 1 339 1 344 1 350 1 361 1 371 1 372 1 373 1 382 1 425 1 441 1 442 1 460 1 476 1 481 1 485 1 486 1 492 1 493 1 497 1 513 1 515 1 
1 199 5 1 13 1 16 2 22 1 42 1 325 1 306 1 263 1 329 1 73 1 375 1 221 1 275 1 402 1 369 1 248 1 364 1 274 1 203 1 374 1 319 1 105 1 226 1 356 1 179 1 317 1 288 1 322 1 376 1 453 1 240 1 133 1 220 1 353 1 171 1 344 1 304 1 239 2 427 1 446 2 450 2 245 1 102 1 466 1 197 1 331 1 154 2 363 1 440 1 452 1 480 1 445 1 464 2 296 2 230 2 455 1 170 1 490 1 4 1 7 1 12 1 14 1 28 1 29 1 37 1 46 1 59 1 103 1 116 1 123 1 124 1 128 1 160 1 162 1 186 1 196 1 198 1 207 1 231 1 242 1 253 1 255 1 257 1 262 1 265 1 269 1 271 1 273 1 280 1 292 1 294 1 300 1 301 1 305 1 314 1 336 1 338 1 377 1 388 1 397 1 398 1 436 1 437 1 460 1 461 1 469 1 488 1 493 1 502 1 511 1 
1 189 1 1 4 2 7 1 11 1 23 1 32 1 41 1 57 2 62 1 207 1 157 1 331 1 320 1 462 1 443 1 318 1 172 2 263 1 137 1 116 1 218 1 143 1 305 1 391 1 450 1 97 1 498 2 399 2 162 1 160 1 148 1 413 1 256 1 343 1 188 2 251 1 208 1 375 1 482 2 323 1 362 1 487 2 291 1 294 1 264 1 112 2 326 2 330 1 107 1 329 1 150 1 228 1 261 1 293 1 270 1 403 1 308 1 494 1 82 1 20 1 25 1 27 1 30 1 37 1 44 1 55 1 98 1 114 1 132 1 135 1 138 1 142 1 151 1 154 1 161 1 166 1 193 1 198 1 234 1 237 1 279 1 280 1 281 1 288 1 289 1 306 1 309 1 324 1 325 1 327 1 337 1 342 1 358 1 359 1 360 1 369 1 385 1 388 1 395 1 397 1 401 1 410 1 423 1 424 1 426 1 440 1 485 1 491 1 495 1 
1 227 9 1 20 1 35 1 41 1 320 2 408 1 146 1 159 1 376 2 119 1 284 1 345 1 267 1 468 2 480 2 210 2 356 1 291 1 241 1 139 1 487 1 490 2 446 1 205 1 163 1 109 1 422 1 282 1 209 1 322 2 176 1 476 1 170 1 134 1 299 2 194 1 73 1 332 1 342 1 265 1 399 1 406 2 104 1 276 1 133 1 87 1 6 1 22 1 30 1 31 1 42 1 43 1 46 1 57 1 74 1 99 1 105 1 112 1 122 1 126 1 138 1 144 1 157 1 165 1 166 1 183 1 190 1 197 1 201 1 217 1 223 1 231 1 237 1 242 1 250 1 261 1 264 1 270 1 310 1 324 1 333 1 340 1 341 1 362 1 386 1 391 1 404 1 407 1 414 1 429 1 433 1 444 1 445 1 451 1 452 1 454 1 463 1 471 1 500 1 503 1 507 1 517 1 
1 197 9 1 24 1 27 1 31 1 33 1 40 1 46 1 59 1 488 1 498 1 144 1 376 2 493 1 188 1 255 1 201 1 373 1 250 1 142 1 435 1 220 1 268 1 382 2 420 1 246 1 236 1 96 2 221 1 301 1 182 1 273 1 390 1 76 1 102 2 367 1 128 1 443 1 348 1 405 1 171 1 461 1 412 1 431 2 324 1 241 1 186 1 217 1 478 2 447 1 377 1 424 1 486 1 311 1 253 1 109 1 137 1 1 1 2 1 6 1 13 1 14 1 41 1 44 1 77 1 99 1 134 1 135 1 146 1 148 1 152 1 153 1 159 1 166 1 175 1 179 1 199 1 209 1 219 1 223 1 274 1 307 1 308 1 342 1 360 1 362 1 372 1 389 1 393 1 397 1 399 1 423 1 428 1 444 1 451 1 466 1 480 1 502 1 
1 211 5 1 6 1 7 1 29 1 32 1 33 1 36 1 40 1 359 1 150 1 427 2 441 1 492 1 255 2 258 1 247 1 187 1 272 1 182 1 104 1 425 1 74 2 484 1 342 2 318 1 408 1 485 1 314 1 371 1 213 1 350 1 83 1 341 1 177 2 480 1 125 2 175 1 279 1 476 1 132 1 190 1 471 1 93 1 238 1 475 1 346 2 222 1 206 1 10 1 21 1 25 1 30 1 34 1 46 1 62 1 75 1 77 1 91 1 100 1 102 1 106 1 109 1 110 1 116 1 129 1 133 1 138 1 142 1 143 1 145 1 169 1 171 1 179 1 202 1 205 1 215 1 228 1 254 1 260 1 268 1 271 1 274 1 278 1 284 1 329 1 354 1 361 1 372 1 382 1 383 1 399 1 402 1 418 1 423 1 426 1 442 1 443 1 446 1 451 1 454 1 463 1 470 1 473 1 474 1 483 1 487 1 490 1 494 1 510 1 
1 192 7 1 19 1 21 1 41 1 42 1 208 1 469 1 195 1 492 1 350 1 351 1 313 1 147 1 231 1 430 1 438 1 76 1 339 1 328 1 118 2 238 1 329 1 119 2 379 1 455 2 399 1 485 1 173 1 172 1 245 1 108 1 341 2 440 1 403 1 498 2 255 1 271 1 215 1 274 1 182 2 183 1 432 1 450 1 442 1 334 2 136 1 340 1 307 1 210 1 372 1 310 1 214 1 437 1 146 1 259 1 226 1 276 1 286 1 422 1 104 1 414 1 367 1 17 1 34 1 37 1 38 1 39 1 90 1 106 1 111 1 114 1 129 1 132 1 154 1 167 1 170 1 191 1 197 1 206 1 207 1 228 1 229 1 235 1 250 1 252 1 260 1 263 1 266 1 269 1 285 1 288 1 305 1 308 1 332 1 347 1 356 1 363 1 371 1 377 1 382 1 412 1 413 1 419 1 439 1 444 1 453 1 459 1 496 1 
1 225 1 1 9 1 13 1 16 1 21 1 41 1 61 1 62 1 64 1 67 1 69 1 180 1 101 1 134 1 173 1 266 1 281 1 143 1 178 1 203 1 387 1 216 1 99 1 145 2 139 1 136 1 436 1 124 1 362 1 475 1 402 1 319 1 488 2 243 1 334 1 130 1 274 1 253 1 341 2 198 1 229 1 430 1 140 1 209 1 261 1 83 1 188 1 370 1 115 1 5 1 38 1 48 1 78 1 87 1 105 1 116 1 122 1 137 1 142 1 148 1 159 1 162 1 163 1 166 1 191 1 195 1 199 1 213 1 228 1 236 1 239 1 241 1 254 1 268 1 270 1 277 1 280 1 282 1 284 1 289 1 299 1 305 1 313 1 321 1 325 1 327 1 331 1 343 1 347 1 349 1 356 1 369 1 375 1 376 1 399 1 408 1 424 1 429 1 437 1 472 1 491 1 492 1 494 1 495 1 498 1 511 1 
1 189 9 1 19 1 28 1 33 1 34 1 40 1 45 1 49 1 71 2 225 1 301 1 108 1 419 1 317 1 263 2 222 1 482 1 110 1 143 1 195 1 439 1 284 2 342 2 165 1 316 2 241 1 153 1 266 1 275 1 398 1 105 1 488 1 198 1 484 1 248 1 170 1 150 1 240 1 273 1 215 1 394 2 407 1 392 1 148 1 247 1 200 1 173 1 296 1 232 1 324 1 451 1 163 1 424 1 256 1 474 1 365 1 17 1 37 1 43 1 48 1 54 1 65 1 69 1 80 1 107 1 112 1 151 1 155 1 168 1 184 1 202 1 210 1 213 1 217 1 234 1 265 1 267 1 276 1 282 1 291 1 303 1 312 1 315 1 320 1 327 1 364 1 367 1 372 1 380 1 413 1 450 1 453 1 458 1 468 1 472 1 475 1 476 1 486 1 489 1 494 1 495 1 503 1 
1 217 7 1 14 2 23 1 27 1 31 1 33 1 34 2 35 2 39 2 44 1 46 1 62 2 66 1 194 1 484 1 343 1 238 1 139 1 308 1 403 2 152 1 350 1 198 2 360 1 102 1 302 1 447 1 140 1 315 1 147 1 462 1 467 1 428 1 463 1 122 1 235 1 388 1 495 1 134 1 222 1 180 1 233 1 144 1 378 1 444 1 227 1 398 1 372 2 352 1 498 1 106 1 299 1 429 1 266 2 11 1 29 1 48 1 49 1 57 1 71 1 110 1 117 1 119 1 120 1 125 1 129 1 130 1 145 1 175 1 181 1 182 1 184 1 189 1 192 1 206 1 209 1 212 1 215 1 216 1 236 1 242 1 247 1 260 1 278 1 283 1 296 1 303 1 304 1 310 1 317 1 318 1 325 1 326 1 327 1 344 1 357 1 369 1 375 1 383 1 402 1 404 1 412 1 423 1 438 1 450 1 468 1 474 1 475 1 479 1 487 1 488 1 491 1 492 1 494 1 500 1 509 1 
1 232 11 1 40 1 43 1 45 1 65 1 66 1 70 1 72 1 330 1 156 2 467 1 472 1 181 1 392 1 285 1 366 1 475 1 459 1 351 1 302 2 303 1 353 1 418 1 394 1 311 1 421 1 194 2 174 1 324 1 164 1 287 1 299 1 224 1 430 1 445 1 383 2 289 1 113 1 166 1 308 1 318 1 236 1 111 1 268 1 255 1 345 1 432 1 425 1 176 2 404 1 305 1 493 1 272 1 315 1 214 1 471 1 161 1 384 1 354 2 408 1 211 1 79 1 385 1 8 1 19 1 24 1 34 1 41 1 78 1 116 1 117 1 122 1 125 1 145 1 160 1 165 1 172 1 178 1 192 1 197 1 200 1 201 1 207 1 216 1 254 1 258 1 265 1 282 1 283 1 290 1 309 1 322 1 328 1 329 1 331 1 349 1 352 1 355 1 357 1 359 1 375 1 391 1 397 1 428 1 429 1 437 1 460 1 484 1 485 1 500 1 510 1 
1 206 9 1 16 1 17 1 30 1 31 1 39 2 46 1 64 1 477 1 210 1 332 1 226 1 236 1 110 1 145 1 445 1 200 1 265 1 466 1 457 2 276 1 134 1 381 1 306 1 455 1 386 1 461 1 249 1 452 1 292 1 157 1 79 1 89 1 211 1 377 1 352 1 151 1 105 1 156 1 195 1 227 1 318 1 388 1 222 1 479 1 289 1 220 1 486 1 476 1 424 1 451 1 283 1 235 1 255 2 344 1 3 1 5 1 34 1 47 1 49 1 51 1 70 1 71 1 80 1 101 1 102 1 116 1 137 1 153 1 167 1 174 1 176 1 178 1 193 1 194 1 198 1 223 1 224 1 237 1 240 1 251 1 261 1 280 1 281 1 311 1 312 1 315 1 319 1 329 1 347 1 348 1 357 1 358 1 366 1 367 1 373 1 389 1 418 1 426 1 428 1 434 1 446 1 453 1 456 1 467 1 469 1 484 1 487 1 
1 195 5 1 6 1 17 1 28 1 45 1 50 1 51 1 259 1 257 1 374 1 171 1 167 1 485 1 168 2 481 1 267 1 348 1 164 1 218 1 472 1 199 1 293 2 197 1 427 1 321 1 222 1 263 1 236 1 85 1 204 1 482 1 328 1 221 1 195 1 112 1 331 1 173 1 220 1 359 1 311 1 133 1 105 1 90 1 443 1 176 1 460 1 245 1 182 1 8 1 10 1 12 1 13 1 22 1 31 1 44 1 62 1 66 1 73 1 76 1 104 1 107 1 124 1 134 1 148 1 170 1 184 1 186 1 217 1 226 1 239 1 243 1 250 1 264 1 271 1 279 1 295 1 302 1 305 1 314 1 317 1 334 1 342 1 369 1 378 1 385 1 392 1 395 1 404 1 426 1 429 1 430 1 441 1 445 1 458 1 473 1 475 1 497 1 514 1 
1 202 3 1 13 1 22 1 23 1 45 2 53 1 65 1 76 1 77 1 338 1 458 1 475 1 416 1 189 1 164 1 119 1 363 1 360 2 217 1 392 1 424 1 492 2 386 1 225 1 83 1 243 1 425 1 378 1 245 1 404 1 340 1 252 1 214 1 82 2 482 1 154 1 287 1 257 1 126 1 469 1 393 1 147 1 470 1 387 2 350 1 301 1 500 1 275 2 484 1 168 1 468 1 9 1 10 1 14 1 27 1 29 1 30 1 32 1 36 1 50 1 87 1 104 1 108 1 109 1 116 1 120 1 128 1 136 1 139 1 158 1 185 1 196 1 201 1 203 1 209 1 212 1 224 1 248 1 266 1 278 1 299 1 308 1 309 1 310 1 324 1 329 1 331 1 349 1 355 1 361 1 365 1 375 1 407 1 408 1 418 1 432 1 437 1 481 1 497 1 503 1 517 1 
1 201 4 1 8 1 15 1 16 1 20 1 32 2 44 1 51 1 59 1 61 1 365 1 270 1 347 1 111 2 242 1 338 1 377 1 223 1 454 2 167 2 118 1 384 1 450 1 392 1 442 1 233 1 291 1 214 1 447 1 383 1 380 1 318 1 348 2 142 1 237 1 342 1 129 1 215 1 232 2 209 1 356 1 473 2 92 1 345 1 143 1 322 1 253 1 452 1 247 2 316 2 407 1 96 1 299 1 193 2 301 1 1 1 7 1 13 1 14 1 18 1 22 1 33 1 35 1 36 1 40 1 49 1 74 1 77 1 106 1 108 1 122 1 125 1 138 1 146 1 179 1 184 1 188 1 203 1 207 1 224 1 225 1 248 1 249 1 254 1 262 1 266 1 271 1 294 1 296 1 303 1 326 1 346 1 359 1 366 1 382 1 421 1 435 1 437 1 444 1 464 1 486 1 488 1 493 1 498 1 511 1 
1 194 1 2 10 1 23 2 24 2 36 1 51 1 287 1 377 1 333 1 138 1 426 1 341 2 278 2 155 1 424 1 481 1 207 1 402 1 346 1 225 1 368 2 392 2 89 1 414 1 88 1 149 1 294 1 482 2 423 1 422 1 226 1 195 1 433 1 256 1 434 1 160 1 249 1 447 1 353 1 428 1 264 1 184 2 448 1 358 1 167 1 124 1 129 1 239 1 197 1 495 1 403 1 209 1 146 1 3 1 8 1 12 1 20 1 27 1 40 1 41 1 44 1 48 1 50 1 52 1 55 1 86 1 106 1 109 1 136 1 148 1 150 1 154 1 179 1 180 1 193 1 204 1 214 1 221 1 230 1 236 1 245 1 252 1 257 1 260 1 265 1 280 1 284 1 291 1 310 1 327 1 331 1 339 1 343 1 356 1 374 1 397 1 405 1 406 1 407 1 415 1 416 1 427 1 429 1 431 1 451 1 457 1 464 1 
1 203 2 1 8 1 18 1 31 1 32 1 34 2 55 1 68 1 79 2 137 1 244 2 277 1 441 1 485 1 225 1 243 1 212 1 432 1 420 1 449 1 211 1 122 2 473 2 269 1 252 1 314 2 283 1 209 2 413 2 133 1 313 1 228 1 280 1 361 1 401 1 216 2 163 1 160 1 161 1 425 1 484 1 170 1 339 1 139 1 123 1 87 1 418 1 475 1 417 1 357 2 438 1 112 1 439 1 297 2 165 1 261 2 250 1 391 1 190 1 322 1 184 1 370 1 290 2 466 1 149 1 476 2 405 1 312 1 111 1 395 1 204 1 3 1 4 1 16 1 45 1 88 1 113 1 114 1 143 1 145 1 147 1 167 1 175 1 188 1 191 1 199 1 201 1 207 1 210 1 233 1 238 1 239 1 256 1 258 1 278 1 281 1 298 1 318 1 331 1 340 1 349 1 368 1 369 1 389 1 400 1 406 1 421 1 443 1 452 1 479 1 497 1 499 1 504 1 515 1 516 1 517 1 
1 216 17 2 32 2 43 1 48 1 50 1 53 1 71 1 73 1 79 1 319 2 431 1 84 1 458 1 195 1 222 1 261 1 211 1 297 1 439 1 372 1 272 1 214 1 417 2 444 1 241 1 371 1 466 1 262 1 295 1 179 1 378 2 495 1 434 1 447 1 468 1 191 1 243 2 462 1 148 1 366 1 257 2 258 1 273 1 127 2 239 1 430 1 441 2 345 1 99 2 499 1 160 1 432 1 86 1 174 1 311 1 97 1 7 1 34 1 39 1 40 1 129 1 131 1 133 1 144 1 146 1 172 1 176 1 186 1 188 1 199 1 209 1 212 1 218 1 221 1 223 1 227 1 256 1 259 1 269 1 286 1 289 1 310 1 312 1 322 1 344 1 348 1 349 1 367 1 388 1 392 1 403 1 424 1 442 1 456 1 474 1 475 1 502 1 
1 213 2 1 18 2 24 1 27 1 28 2 29 1 36 1 38 1 45 1 56 2 83 1 314 1 469 1 460 2 85 1 395 1 241 1 165 1 324 1 285 2 180 1 478 1 364 1 300 1 492 1 289 1 448 1 439 2 202 1 270 1 481 1 263 1 179 1 477 1 248 1 90 1 360 1 493 1 221 1 137 1 296 1 301 1 334 1 437 1 498 1 279 1 426 1 299 2 275 1 495 1 480 1 251 1 125 2 87 1 412 1 339 1 276 1 3 1 10 1 13 1 42 1 50 1 60 1 118 1 135 1 147 1 173 1 177 1 187 1 193 1 200 1 205 1 206 1 215 1 216 1 222 1 225 1 232 1 252 1 255 1 278 1 283 1 288 1 297 1 303 1 308 1 310 1 316 1 322 1 331 1 332 1 333 1 345 1 353 1 359 1 368 1 370 1 371 1 385 1 393 1 411 1 414 1 415 1 420 1 429 1 431 1 432 1 435 1 440 1 450 1 456 1 462 1 464 1 475 1 497 1 
1 217 2 1 4 1 5 1 8 1 14 1 23 1 27 2 31 1 40 1 42 1 44 1 50 1 53 1 78 1 84 1 122 1 475 2 348 1 353 1 334 1 444 1 202 1 466 1 479 1 406 1 196 1 265 1 227 2 215 1 200 1 258 1 198 1 362 1 462 1 414 1 421 1 480 1 91 2 97 1 234 1 188 1 392 1 160 1 203 1 364 1 461 1 236 1 379 1 400 2 307 1 158 1 266 1 279 1 143 1 7 1 10 1 21 1 26 1 35 1 37 1 49 1 58 1 88 1 94 1 95 1 99 1 111 1 114 1 117 1 120 1 130 1 133 1 142 1 148 1 154 1 156 1 162 1 167 1 176 1 201 1 229 1 233 1 238 1 241 1 247 1 248 1 251 1 255 1 256 1 264 1 274 1 280 1 284 1 291 1 292 1 336 1 337 1 355 1 356 1 359 1 385 1 390 1 408 1 409 1 416 1 430 1 431 1 436 1 449 1 455 1 457 1 459 1 473 1 483 1 496 1 499 1 
1 236 1 1 5 1 13 1 16 1 22 1 23 2 28 1 29 1 30 1 34 1 35 2 41 1 57 1 83 1 383 1 311 1 173 2 425 1 259 1 467 1 397 1 112 1 475 2 138 1 124 1 444 1 257 2 320 1 361 1 182 1 343 1 410 1 130 2 229 1 301 1 429 1 194 2 419 1 231 1 431 1 265 1 315 1 283 1 163 1 359 2 386 1 317 1 137 1 344 1 360 1 423 1 470 1 438 1 115 1 156 1 362 1 183 1 94 1 440 1 300 1 299 1 417 1 434 1 7 1 31 1 81 1 89 1 98 1 100 1 114 1 126 1 129 1 131 1 132 1 140 1 152 1 162 1 175 1 186 1 192 1 202 1 211 1 213 1 218 1 219 1 238 1 240 1 243 1 244 1 245 1 251 1 254 1 258 1 272 1 296 1 298 1 302 1 337 1 338 1 349 1 351 1 354 1 356 1 369 1 374 1 384 1 405 1 414 1 418 1 424 1 428 1 433 1 445 1 455 1 457 1 468 1 477 1 483 1 485 1 486 1 487 1 490 1 496 1 499 1 
1 210 2 1 12 1 18 1 22 1 28 1 65 1 69 1 82 1 84 1 293 1 269 1 390 1 135 1 298 1 233 1 391 1 170 1 218 1 486 1 331 2 284 1 394 1 410 1 287 1 152 1 493 1 491 1 445 1 211 1 159 1 351 1 381 1 340 1 474 1 492 1 231 1 398 1 442 1 123 1 386 1 300 1 318 1 196 2 115 1 488 1 237 1 173 1 403 1 134 1 366 1 169 1 496 1 348 1 327 1 168 1 393 1 154 1 378 1 239 1 252 1 360 1 321 1 464 1 476 1 227 1 475 1 275 1 420 1 167 1 356 1 96 1 106 1 8 1 14 1 17 1 39 1 47 1 49 1 54 1 73 1 79 1 102 1 122 1 136 1 140 1 141 1 146 1 155 1 158 1 163 1 175 1 185 1 234 1 236 1 241 1 254 1 267 1 277 1 280 1 295 1 307 1 308 1 316 1 319 1 336 1 339 1 364 1 373 1 387 1 388 1 417 1 425 1 439 1 443 1 447 1 471 1 478 1 507 1 516 1 
1 217 4 1 9 1 10 2 11 2 14 1 15 1 20 2 22 2 31 1 57 1 81 1 127 1 444 1 360 1 333 1 132 1 263 1 168 1 330 1 435 1 221 1 275 1 383 1 490 1 89 1 379 1 402 1 280 1 190 1 448 1 422 1 211 2 397 1 345 1 415 1 321 1 353 2 95 1 309 1 441 2 130 1 434 2 361 1 174 1 150 1 218 2 126 1 411 1 287 1 399 1 350 1 475 1 99 1 148 1 307 1 169 1 8 1 18 1 19 1 41 1 49 1 52 1 53 1 54 1 60 1 82 1 85 1 114 1 115 1 121 1 166 1 182 1 189 1 192 1 205 1 215 1 226 1 233 1 243 1 248 1 262 1 264 1 268 1 273 1 279 1 295 1 299 1 314 1 331 1 332 1 343 1 344 1 359 1 387 1 388 1 396 1 401 1 407 1 408 1 412 1 423 1 438 1 439 1 453 1 465 1 468 1 470 1 476 1 504 1 510 1 
1 211 1 2 4 1 6 1 18 1 19 1 21 1 25 1 26 1 32 1 37 1 44 1 45 2 54 1 77 1 81 1 88 1 125 1 284 1 280 1 342 1 384 1 396 1 137 1 258 1 397 1 247 1 121 1 387 1 279 1 324 1 468 2 445 1 449 1 458 1 343 1 481 1 477 1 382 1 300 1 454 1 213 1 375 1 383 1 298 1 263 1 453 1 115 1 171 1 464 1 420 1 132 1 97 1 134 1 482 1 291 1 271 1 168 1 459 1 237 1 118 1 319 1 380 2 439 1 475 1 231 1 254 1 135 1 365 2 368 1 385 1 414 1 33 1 46 1 48 1 86 1 90 1 95 1 99 1 114 1 116 1 130 1 140 1 149 1 161 1 162 1 170 1 181 1 194 1 201 1 214 1 217 1 219 1 221 1 228 1 235 1 236 1 252 1 255 1 259 1 260 1 261 1 265 1 285 1 327 1 334 1 347 1 349 1 351 1 352 1 359 1 373 1 374 1 386 1 388 1 391 1 399 1 407 1 430 1 431 1 442 1 460 1 467 1 476 1 498 1 
1 199 4 1 7 1 20 2 32 1 44 1 46 1 50 2 78 1 84 1 329 1 361 1 279 1 161 2 384 1 266 1 311 1 328 1 494 1 349 1 133 1 286 1 367 1 99 1 468 1 143 1 423 1 256 1 247 1 407 2 174 1 208 1 333 1 462 1 414 2 304 1 440 1 191 1 354 1 451 1 228 1 95 1 460 1 392 1 182 1 262 1 444 1 220 1 435 2 10 1 12 1 17 1 18 1 30 1 35 1 43 1 45 1 47 1 48 1 49 1 53 1 72 1 89 1 93 1 116 1 120 1 123 1 125 1 131 1 136 1 137 1 153 1 160 1 166 1 201 1 211 1 212 1 229 1 235 1 237 1 268 1 287 1 298 1 300 1 302 1 313 1 320 1 334 1 339 1 342 1 352 1 353 1 357 1 358 1 368 1 371 1 378 1 380 1 388 1 400 1 411 1 433 1 439 1 442 1 447 1 456 1 458 1 472 1 492 1 495 1 503 1 
1 198 6 1 34 1 44 1 49 1 56 1 66 1 85 2 117 2 253 1 332 1 353 1 129 1 192 1 462 1 201 2 173 2 453 1 455 1 248 1 334 1 491 1 386 1 119 2 485 1 366 2 258 1 395 1 306 1 132 1 133 1 158 1 409 2 365 1 400 1 314 1 118 2 113 1 150 1 447 1 263 1 357 1 97 1 378 1 254 1 228 1 175 1 283 1 385 1 179 1 490 1 464 1 95 2 236 1 327 1 381 1 308 1 499 1 419 1 436 1 128 1 4 1 8 1 11 1 14 1 41 1 71 1 125 1 143 1 155 1 171 1 191 1 200 1 203 1 206 1 218 1 238 1 266 1 269 1 285 1 288 1 300 1 303 1 307 1 321 1 351 1 356 1 364 1 371 1 372 1 382 1 391 1 418 1 432 1 433 1 454 1 476 1 477 1 479 1 492 1 504 1 
1 202 2 1 4 1 11 1 14 1 19 1 33 1 34 1 47 2 52 1 53 1 80 1 125 2 120 2 252 1 240 1 497 1 470 1 236 1 141 1 144 1 213 1 175 1 262 1 284 1 267 1 94 1 366 1 131 1 220 1 224 1 283 2 346 1 426 1 135 1 290 1 438 1 428 1 113 1 467 1 460 1 480 1 193 1 355 1 378 1 415 1 421 1 457 2 473 1 243 1 8 1 9 1 12 1 24 1 28 1 32 1 36 1 59 1 66 1 114 1 119 1 132 1 142 1 145 1 157 1 160 1 172 1 184 1 195 1 196 1 205 1 208 1 211 1 215 1 219 1 221 1 222 1 245 1 247 1 258 1 261 1 275 1 277 1 301 1 312 1 316 1 320 1 321 1 326 1 338 1 341 1 345 1 359 1 362 1 365 1 379 1 388 1 395 1 424 1 430 1 436 1 444 1 447 1 452 1 454 1 461 1 469 1 491 1 492 1 499 1 
1 213 2 1 8 1 15 1 25 1 50 1 71 1 176 1 320 1 428 1 112 1 394 2 225 1 209 1 384 2 433 1 152 1 248 2 203 1 124 1 114 1 220 1 353 1 307 1 228 1 301 1 162 1 298 2 275 1 295 1 361 1 236 1 404 1 473 2 206 1 335 1 163 1 96 1 420 1 215 2 338 1 345 1 495 1 136 1 171 1 393 1 467 1 101 1 429 1 269 1 484 2 426 1 331 2 22 1 33 1 61 1 90 1 100 1 103 1 129 1 133 1 142 1 149 1 158 1 160 1 167 1 186 1 189 1 193 1 194 1 210 1 216 1 217 1 219 1 231 1 240 1 243 1 245 1 253 1 255 1 258 1 270 1 303 1 322 1 333 1 352 1 359 1 379 1 389 1 398 1 421 1 424 1 444 1 447 1 461 1 462 1 478 1 498 1 499 1 504 1 513 1 
1 197 3 1 19 2 25 1 37 2 39 1 44 1 51 2 54 1 58 1 86 1 92 1 383 2 284 1 424 2 265 1 414 1 487 1 496 1 211 1 457 1 337 1 459 1 389 1 493 1 133 1 462 1 418 1 248 1 293 1 361 1 330 1 187 2 358 1 433 1 399 1 350 2 233 1 264 1 500 1 299 1 461 1 334 1 365 2 297 1 428 1 374 1 375 1 232 1 177 1 280 1 180 1 108 1 402 1 275 1 109 1 10 1 17 1 18 1 28 1 63 1 85 1 98 1 151 1 166 1 169 1 186 1 195 1 201 1 212 1 219 1 220 1 221 1 238 1 242 1 257 1 279 1 291 1 304 1 311 1 321 1 331 1 332 1 356 1 372 1 379 1 382 1 410 1 411 1 427 1 434 1 435 1 438 1 445 1 450 1 464 1 465 1 466 1 470 1 479 1 482 1 484 1 489 1 503 1 511 1 513 1 
1 206 9 1 12 1 20 2 21 1 32 1 33 1 34 1 36 1 40 2 54 2 60 1 63 2 88 1 90 1 91 2 206 1 390 1 307 1 375 1 447 1 288 1 203 1 153 2 310 1 468 1 282 1 320 1 258 1 462 1 267 1 452 1 230 1 376 1 486 2 484 1 360 2 300 1 294 1 129 2 415 1 373 1 370 1 152 1 317 2 435 1 101 1 342 2 433 1 275 1 242 1 136 1 189 1 414 1 456 2 424 1 247 1 329 2 444 1 24 1 39 1 41 1 49 1 52 1 66 1 85 1 89 1 108 1 118 1 127 1 143 1 144 1 145 1 146 1 147 1 150 1 168 1 170 1 175 1 178 1 180 1 184 1 193 1 194 1 216 1 220 1 221 1 228 1 232 1 240 1 263 1 265 1 268 1 274 1 284 1 305 1 323 1 327 1 336 1 338 1 348 1 352 1 359 1 366 1 382 1 404 1 413 1 429 1 432 1 438 1 451 1 457 1 465 1 497 1 
1 218 1 1 3 2 7 1 18 2 19 1 24 1 54 2 57 1 60 2 61 1 70 2 80 1 87 1 93 1 262 1 282 1 385 2 486 1 375 1 256 2 492 1 210 1 134 1 384 1 138 1 471 1 293 1 367 1 243 1 473 1 331 1 220 1 371 2 278 1 245 2 427 2 186 2 369 1 456 1 242 1 178 1 422 1 310 1 392 1 247 1 394 1 233 1 302 1 218 1 318 1 221 1 316 1 430 1 360 1 409 1 428 1 401 1 419 1 287 1 179 1 446 1 472 1 286 1 477 1 127 1 171 1 481 1 9 1 16 1 38 1 50 1 52 1 98 1 124 1 125 1 130 1 142 1 144 1 145 1 156 1 172 1 180 1 192 1 197 1 202 1 227 1 232 1 266 1 304 1 305 1 307 1 322 1 324 1 344 1 346 1 347 1 350 1 376 1 395 1 405 1 410 1 424 1 439 1 445 1 447 1 457 1 465 1 468 1 476 1 478 1 488 1 493 1 498 1 508 1 
1 210 13 1 20 1 45 1 50 2 63 1 68 1 83 1 85 1 89 1 91 1 312 1 301 2 282 1 341 1 208 1 120 1 379 2 249 2 188 2 203 1 449 1 122 1 480 1 474 1 162 2 204 1 378 1 481 1 492 1 306 1 376 1 184 1 477 1 260 1 387 1 223 1 484 1 324 1 431 1 344 1 144 1 473 1 465 1 139 1 142 1 221 1 302 1 339 1 358 2 486 1 433 1 439 1 475 1 423 1 165 1 243 1 288 2 391 1 26 1 44 1 47 1 51 1 56 1 57 1 98 1 127 1 128 1 133 1 147 1 148 1 150 1 154 1 157 1 160 1 177 1 178 1 187 1 189 1 198 1 200 1 211 1 215 1 217 1 228 1 230 1 244 1 248 1 250 1 268 1 297 1 298 1 309 1 313 1 318 1 332 1 382 1 385 1 386 1 396 1 398 1 407 1 410 1 411 1 414 1 445 1 471 1 490 1 502 1 503 1 514 1 
1 193 2 1 7 1 8 1 13 1 18 1 23 1 25 1 33 1 36 1 38 1 49 1 57 1 270 2 190 1 421 1 283 1 210 1 301 1 204 1 366 1 453 1 149 1 205 2 130 1 441 1 384 1 268 1 386 1 335 1 446 1 451 1 475 1 466 1 473 1 416 1 161 1 269 1 420 1 430 1 341 1 380 1 382 2 423 1 411 1 258 1 437 1 150 1 228 1 470 1 154 1 485 1 474 1 104 1 264 1 444 1 138 1 266 1 256 1 122 1 5 1 6 1 28 1 29 1 32 1 68 1 86 1 94 1 96 1 97 1 126 1 127 1 132 1 140 1 147 1 176 1 177 1 193 1 194 1 196 1 200 1 211 1 212 1 214 1 216 1 226 1 229 1 237 1 239 1 240 1 245 1 248 1 265 1 267 1 273 1 280 1 289 1 290 1 298 1 303 1 313 1 343 1 368 1 372 1 377 1 378 1 379 1 395 1 401 1 412 1 447 1 487 1 499 1 513 1 
1 208 7 1 12 1 17 1 25 1 35 2 37 2 52 1 53 1 61 1 73 1 83 2 88 1 90 1 458 1 475 1 337 1 318 2 237 1 156 1 371 1 260 2 196 1 345 2 341 1 130 1 402 1 229 2 297 2 153 1 378 1 289 1 290 2 489 2 440 1 168 1 295 1 412 1 462 1 471 1 208 1 223 1 374 2 283 1 100 1 377 1 392 1 411 1 461 1 141 1 434 2 320 1 206 1 460 1 311 1 107 1 449 1 482 1 233 1 251 1 105 1 313 1 143 1 447 1 266 1 296 1 1 1 5 1 10 1 13 1 18 1 49 1 59 1 63 1 65 1 66 1 69 1 70 1 85 1 89 1 109 1 127 1 132 1 133 1 144 1 146 1 150 1 158 1 159 1 171 1 177 1 178 1 189 1 205 1 209 1 226 1 235 1 241 1 246 1 250 1 253 1 270 1 275 1 278 1 279 1 292 1 316 1 317 1 324 1 340 1 342 1 370 1 383 1 400 1 415 1 423 1 428 1 429 1 444 1 477 1 503 1 504 1 505 1 
1 198 1 1 26 1 37 2 44 2 63 1 99 1 255 1 265 1 189 1 422 1 304 1 389 1 186 2 305 1 462 1 263 1 133 1 280 1 141 1 188 1 307 1 476 2 148 1 488 1 147 1 150 1 173 1 317 1 190 1 418 1 206 2 444 1 373 1 217 2 458 1 241 1 455 1 164 1 290 1 145 1 285 1 438 1 303 1 205 2 415 1 101 1 357 1 430 1 3 1 5 1 10 1 17 1 18 1 20 1 22 1 23 1 24 1 25 1 34 1 39 1 40 1 46 1 48 1 52 1 57 1 61 1 64 1 65 1 71 1 86 1 93 1 131 1 149 1 155 1 165 1 177 1 178 1 193 1 199 1 201 1 203 1 210 1 213 1 234 1 243 1 251 1 274 1 275 1 284 1 297 1 320 1 322 1 325 1 328 1 336 1 360 1 381 1 393 1 400 1 407 1 421 1 423 1 429 1 436 1 446 1 456 1 467 1 497 1 500 1 516 1 
1 202 12 1 18 1 24 1 30 1 31 1 39 1 44 1 57 1 73 1 93 1 95 1 100 1 186 1 434 1 380 1 347 1 237 1 402 1 453 2 284 1 431 1 313 1 454 2 104 1 272 1 363 1 266 1 193 1 366 1 354 2 161 1 216 1 467 1 306 1 268 1 332 1 204 1 401 1 460 1 493 1 409 1 327 1 357 1 235 1 386 1 265 1 110 1 304 1 468 1 450 2 245 1 478 1 487 1 423 2 446 1 372 1 264 1 169 1 118 1 174 1 355 1 128 1 488 1 390 1 4 1 43 1 45 1 60 1 77 1 107 1 111 1 132 1 143 1 146 1 181 1 188 1 195 1 205 1 215 1 218 1 222 1 228 1 236 1 238 1 240 1 257 1 270 1 294 1 301 1 312 1 330 1 340 1 348 1 360 1 389 1 394 1 422 1 439 1 441 1 443 1 471 1 485 1 494 1 500 1 502 1 
1 200 7 2 20 1 22 1 23 1 30 1 31 2 36 1 40 1 48 1 51 1 63 1 65 1 66 2 67 1 70 2 75 1 149 1 180 2 344 1 497 1 207 1 185 1 218 2 484 2 403 1 260 1 237 1 160 1 206 1 285 1 224 1 257 1 476 1 490 1 455 2 465 1 301 1 463 1 187 1 464 1 191 1 470 1 198 1 166 1 210 1 409 1 446 1 251 1 348 1 333 2 479 1 412 1 316 1 133 1 320 2 3 1 6 1 21 1 32 1 43 1 46 1 52 1 59 1 61 1 62 1 71 1 77 1 87 1 152 1 153 1 173 1 181 1 184 1 189 1 204 1 205 1 230 1 236 1 244 1 253 1 262 1 265 1 277 1 291 1 292 1 295 1 306 1 307 1 313 1 314 1 321 1 332 1 347 1 368 1 380 1 381 1 401 1 407 1 413 1 417 1 425 1 437 1 456 1 472 1 475 1 492 1 496 1 
1 190 5 1 14 1 21 2 24 1 31 1 37 1 54 2 55 1 190 1 373 1 467 1 313 1 261 1 425 1 295 1 473 1 210 1 292 1 282 2 438 1 304 2 327 1 469 1 383 1 236 1 497 1 424 1 377 1 453 1 458 1 299 1 192 1 293 1 108 1 446 1 407 2 115 1 136 1 434 1 426 1 316 2 315 2 439 1 262 1 232 1 449 1 303 2 254 1 171 1 107 2 13 1 40 1 67 1 93 1 109 1 114 1 116 1 149 1 163 1 201 1 203 1 224 1 239 1 242 1 251 1 255 1 275 1 286 1 287 1 289 1 296 1 298 1 321 1 322 1 323 1 334 1 338 1 347 1 352 1 365 1 366 1 369 1 385 1 399 1 400 1 404 1 413 1 423 1 428 1 455 1 464 1 465 1 468 1 480 1 484 1 491 1 493 1 495 1 496 1 498 1 503 1 516 1 
1 215 3 2 8 1 11 2 28 1 30 1 31 1 35 2 36 1 40 1 43 1 46 1 69 1 71 1 72 1 98 1 101 1 178 1 452 2 133 1 291 1 282 1 367 1 310 1 325 1 210 1 467 1 160 1 417 1 153 1 351 2 411 1 247 1 407 1 174 1 479 1 252 1 184 1 279 1 283 2 433 1 484 1 241 2 116 1 436 2 390 1 206 1 114 1 376 1 302 1 419 1 447 1 235 2 139 1 331 1 200 2 368 1 217 1 182 1 375 2 458 1 307 1 300 1 440 1 10 1 13 1 34 1 42 1 45 1 58 1 78 1 79 1 105 1 120 1 128 1 134 1 137 1 149 1 199 1 207 1 224 1 233 1 236 1 281 1 288 1 289 1 306 1 315 1 320 1 362 1 382 1 403 1 405 1 412 1 422 1 430 1 445 1 446 1 454 1 486 1 489 1 498 1 511 1 
1 200 1 2 3 1 14 1 19 1 24 1 32 1 39 1 45 1 55 1 64 2 67 1 74 1 77 1 78 1 99 1 154 1 221 2 254 1 305 1 315 2 303 2 282 1 241 2 302 1 443 1 343 1 374 1 306 1 397 1 279 2 338 1 174 1 427 1 360 1 492 1 248 1 262 1 378 1 231 1 395 1 207 1 396 1 288 1 488 2 333 1 158 1 491 2 210 1 479 2 128 1 165 1 444 1 157 2 295 1 281 1 359 1 311 1 411 1 255 1 4 1 11 1 15 1 22 1 25 1 26 1 44 1 46 1 66 1 69 1 73 1 104 1 109 1 111 1 148 1 155 1 161 1 170 1 203 1 208 1 223 1 230 1 232 1 237 1 263 1 267 1 283 1 297 1 309 1 320 1 324 1 332 1 336 1 344 1 362 1 369 1 372 1 383 1 385 1 386 1 417 1 421 1 422 1 423 1 424 1 428 1 435 1 441 1 460 1 462 1 464 1 469 1 496 1 504 1 
1 212 18 1 39 1 44 1 52 1 61 1 62 1 66 2 75 1 87 1 171 1 491 2 456 1 257 1 237 1 484 1 283 1 303 1 396 1 191 1 312 2 194 1 432 2 411 1 433 1 469 2 478 2 205 1 349 1 428 1 165 1 296 1 372 1 269 1 347 1 255 1 252 1 483 2 190 1 277 1 481 1 238 1 495 1 220 1 183 2 188 1 353 1 457 1 333 1 467 1 438 1 21 1 23 1 32 1 33 1 45 1 56 1 71 1 72 1 80 1 81 1 121 1 142 1 145 1 158 1 177 1 182 1 185 1 201 1 219 1 226 1 247 1 254 1 286 1 287 1 292 1 301 1 305 1 348 1 350 1 366 1 367 1 389 1 403 1 408 1 416 1 418 1 422 1 430 1 436 1 449 1 451 1 468 1 477 1 479 1 490 1 496 1 497 1 502 1 511 1 
1 208 11 1 25 1 39 1 60 1 68 1 99 1 103 2 437 1 227 1 182 2 353 1 336 1 259 1 402 1 457 2 302 1 468 1 144 1 145 1 138 1 334 1 202 1 248 1 431 1 287 1 396 1 296 1 270 1 415 2 347 1 200 1 212 1 481 1 382 1 288 1 167 1 219 1 136 1 378 2 146 2 333 1 337 1 422 1 496 1 282 1 280 2 310 1 411 1 313 2 185 1 199 1 160 1 159 2 433 1 281 1 19 1 40 1 41 1 45 1 58 1 59 1 74 1 78 1 101 1 154 1 168 1 178 1 184 1 208 1 214 1 223 1 229 1 230 1 241 1 253 1 266 1 268 1 295 1 299 1 308 1 314 1 320 1 342 1 351 1 367 1 376 1 388 1 394 1 397 1 398 1 410 1 412 1 414 1 419 1 429 1 448 1 455 1 460 1 474 1 483 1 484 1 488 1 491 1 500 1 504 1 511 1 
1 215 3 1 6 1 10 1 12 1 13 1 25 1 28 2 35 2 46 1 59 1 72 1 74 1 94 1 103 1 444 1 452 1 348 1 158 1 266 1 408 1 212 1 454 2 296 1 297 1 183 1 339 1 499 1 152 1 396 1 349 1 492 1 328 1 178 1 380 1 479 1 113 1 109 1 199 1 345 1 421 1 487 1 246 1 484 1 284 2 137 1 383 1 447 1 276 1 395 1 192 1 146 1 112 1 494 1 278 1 495 2 127 1 204 1 364 2 14 1 26 1 36 1 45 1 55 1 57 1 79 1 80 1 95 1 142 1 156 1 163 1 179 1 193 1 195 1 196 1 202 1 207 1 214 1 216 1 220 1 224 1 231 1 235 1 247 1 253 1 255 1 258 1 269 1 274 1 282 1 287 1 295 1 298 1 305 1 318 1 324 1 337 1 342 1 363 1 373 1 377 1 378 1 390 1 404 1 410 1 415 1 443 1 460 1 462 1 474 1 475 1 476 1 483 1 500 1 
1 220 7 1 17 1 38 1 40 1 45 1 49 1 53 1 62 1 63 1 69 1 70 1 94 1 108 1 241 1 340 1 213 1 493 1 144 1 348 1 364 1 163 1 334 1 392 2 210 1 432 1 289 1 174 1 399 1 481 1 420 1 422 1 288 1 171 1 220 1 367 2 253 1 276 1 224 1 351 1 248 1 335 1 168 2 488 1 342 1 365 1 294 1 369 1 417 1 352 1 368 2 169 1 267 1 258 2 464 1 478 1 9 1 37 1 41 1 42 1 44 1 47 1 48 1 64 1 71 1 79 1 81 1 99 1 103 1 105 1 117 1 120 1 148 1 164 1 179 1 188 1 201 1 203 1 214 1 218 1 222 1 225 1 227 1 238 1 243 1 244 1 251 1 271 1 274 1 279 1 280 1 290 1 307 1 326 1 328 1 338 1 341 1 349 1 360 1 381 1 384 1 386 1 390 1 407 1 423 1 430 1 437 1 444 1 447 1 456 1 457 1 460 1 465 1 467 1 468 1 473 1 490 1 501 1 511 1 
1 214 4 1 22 1 24 2 30 1 34 1 46 1 47 1 49 1 54 1 64 1 65 1 74 1 77 1 101 1 462 1 264 1 448 1 253 1 499 1 165 2 415 2 319 2 189 1 200 1 485 2 229 1 355 1 491 1 212 2 348 1 145 1 218 1 336 1 286 2 259 2 246 1 304 1 307 1 302 1 279 2 277 1 427 1 494 1 426 1 332 1 391 1 282 1 182 1 471 1 354 1 147 1 467 1 117 1 493 2 196 1 500 1 254 1 112 1 434 1 208 1 237 1 295 1 417 1 223 2 214 1 125 1 369 1 13 1 29 1 32 1 35 1 45 1 60 1 71 1 75 1 170 1 187 1 226 1 232 1 236 1 240 1 261 1 276 1 298 1 303 1 316 1 324 1 341 1 367 1 372 1 386 1 395 1 397 1 401 1 414 1 416 1 429 1 430 1 438 1 446 1 470 1 472 1 480 1 483 1 484 1 488 1 505 1 516 1 
1 207 20 1 24 1 27 1 33 1 35 1 39 1 41 1 48 1 50 1 76 1 80 2 82 1 190 1 255 1 340 1 380 1 361 1 292 1 379 1 169 1 335 1 295 1 173 1 483 2 360 2 472 1 245 2 244 1 294 2 411 1 331 1 248 1 195 1 280 1 221 1 394 1 433 1 475 1 276 1 112 1 383 1 372 1 196 1 451 1 456 1 492 1 133 1 434 1 441 1 206 1 234 1 235 1 429 2 224 1 350 1 344 1 494 1 343 1 19 1 31 1 72 1 85 1 101 1 105 1 127 1 147 1 160 1 175 1 191 1 208 1 210 1 212 1 216 1 220 1 222 1 233 1 236 1 243 1 251 1 252 1 254 1 256 1 262 1 267 1 269 1 271 1 278 1 283 1 286 1 297 1 307 1 323 1 354 1 356 1 365 1 430 1 435 1 457 1 468 1 470 1 480 1 488 1 504 1 515 1 
1 200 5 1 24 1 26 1 31 2 39 1 45 1 56 1 59 1 65 1 68 2 78 1 82 1 86 1 93 1 108 1 110 1 111 1 166 1 458 1 403 1 181 1 438 1 421 1 384 1 238 2 475 1 275 1 144 1 161 1 155 1 466 1 302 2 339 2 247 1 243 1 125 2 295 1 304 1 435 1 361 1 471 1 315 1 490 1 178 1 219 1 163 2 117 1 260 1 152 1 444 2 446 1 400 1 433 1 209 1 457 1 208 1 362 1 319 1 30 1 42 1 44 1 49 1 54 1 66 1 69 1 74 1 116 1 151 1 157 1 193 1 194 1 195 1 199 1 202 1 205 1 206 1 214 1 245 1 256 1 267 1 268 1 288 1 291 1 293 1 300 1 307 1 328 1 348 1 352 1 359 1 372 1 375 1 380 1 387 1 389 1 391 1 393 1 407 1 420 1 422 1 423 1 425 1 439 1 442 1 461 1 474 1 486 1 495 1 497 1 499 1 500 1 
1 199 19 1 29 1 34 2 37 1 38 2 40 1 43 1 50 1 58 1 76 1 91 1 92 1 108 1 349 1 193 1 404 1 315 1 351 2 228 2 376 1 486 1 216 1 489 1 207 1 213 1 169 1 454 2 429 1 399 2 306 1 467 2 394 2 150 1 460 1 473 1 142 1 406 2 255 1 252 2 160 2 416 1 477 1 474 1 409 1 469 1 240 1 178 1 272 1 430 1 396 1 482 1 147 2 468 1 383 1 419 1 437 1 480 1 417 1 356 1 161 1 312 2 3 1 20 1 23 1 31 1 44 1 82 1 115 1 123 1 124 1 125 1 158 1 166 1 172 1 173 1 186 1 211 1 223 1 239 1 262 1 268 1 285 1 286 1 296 1 300 1 305 1 310 1 316 1 322 1 342 1 346 1 357 1 364 1 371 1 384 1 400 1 410 1 418 1 443 1 449 1 457 1 471 1 497 1 500 1 
1 176 39 1 93 1 104 1 493 1 475 1 423 1 319 1 496 1 461 2 234 1 335 1 281 1 250 1 229 1 480 1 119 2 486 1 411 1 152 1 385 1 376 1 498 1 124 1 155 1 421 1 252 1 251 1 476 2 407 2 455 1 224 2 303 2 158 1 278 1 487 2 210 1 332 1 208 1 482 1 263 2 430 1 133 1 412 1 372 1 465 1 274 1 357 1 135 1 375 1 2 1 6 1 20 1 45 1 47 1 54 1 60 1 68 1 72 1 82 1 85 1 86 1 88 1 89 1 92 1 103 1 115 1 161 1 162 1 164 1 168 1 169 1 180 1 204 1 227 1 268 1 279 1 282 1 302 1 305 1 310 1 311 1 315 1 326 1 345 1 346 1 349 1 382 1 390 1 393 1 404 1 410 1 432 1 445 1 449 1 454 1 460 1 468 1 470 1 485 1 500 1 
1 214 1 2 6 1 29 2 30 1 32 1 51 1 54 1 58 1 60 1 73 1 86 1 87 1 89 1 103 1 192 1 330 1 234 1 273 1 382 2 178 2 351 1 157 1 296 1 344 2 333 1 314 1 237 1 331 1 463 1 309 1 457 1 349 1 269 1 229 1 185 1 215 1 176 1 354 2 308 1 419 1 196 1 149 1 387 1 357 1 295 1 298 1 231 1 472 1 347 1 367 2 443 1 287 1 350 1 392 1 389 1 190 1 469 1 120 1 407 2 8 1 26 1 34 1 45 1 53 1 59 1 88 1 113 1 114 1 121 1 123 1 167 1 199 1 206 1 208 1 209 1 236 1 248 1 250 1 252 1 257 1 283 1 300 1 312 1 319 1 343 1 366 1 375 1 380 1 386 1 391 1 393 1 397 1 402 1 417 1 418 1 427 1 438 1 441 1 450 1 462 1 471 1 473 1 474 1 485 1 493 1 498 1 508 1 
1 201 1 1 27 1 30 1 31 1 34 1 43 1 50 1 51 1 66 1 68 1 104 1 455 1 231 1 187 1 457 1 426 1 354 1 118 1 178 1 469 1 391 2 396 1 246 1 370 1 351 2 366 1 320 1 440 1 299 1 257 1 450 1 405 1 248 1 381 1 399 1 253 1 249 1 490 1 277 1 223 1 385 2 357 1 270 1 439 1 268 1 306 1 176 1 133 1 349 1 355 1 417 1 292 2 211 1 127 1 236 1 387 1 338 1 122 1 234 1 6 1 11 1 12 1 37 1 41 1 55 1 58 1 61 1 62 1 67 1 71 1 73 1 76 1 77 1 79 1 89 1 90 1 103 1 112 1 120 1 128 1 146 1 149 1 161 1 163 1 191 1 196 1 225 1 238 1 250 1 251 1 258 1 262 1 275 1 284 1 300 1 301 1 341 1 388 1 397 1 402 1 410 1 414 1 415 1 431 1 435 1 444 1 445 1 446 1 449 1 468 1 474 1 484 1 491 1 496 1 503 1 505 1 
1 208 17 1 30 1 36 1 47 1 58 1 61 1 91 2 110 1 112 1 322 1 362 1 462 1 472 1 196 2 177 1 221 1 250 1 346 1 439 1 295 1 499 2 197 1 361 2 464 1 438 1 410 1 363 1 343 1 426 1 146 1 262 1 369 1 394 1 252 1 347 2 201 1 215 1 173 1 211 1 476 1 309 1 128 1 338 1 454 1 408 1 340 1 245 1 484 1 4 1 8 1 11 1 18 1 19 1 24 1 29 1 32 1 49 1 65 1 75 1 76 1 85 1 109 1 122 1 152 1 153 1 154 1 157 1 163 1 170 1 183 1 205 1 210 1 217 1 223 1 231 1 236 1 255 1 273 1 299 1 306 1 319 1 333 1 335 1 352 1 353 1 359 1 365 1 366 1 371 1 393 1 405 1 417 1 432 1 433 1 440 1 442 1 443 1 445 1 456 1 467 1 471 1 485 1 490 1 501 1 502 1 509 1 513 1 
1 216 16 1 21 1 22 1 24 1 40 2 41 1 44 2 51 1 63 1 72 2 80 1 89 1 91 2 101 1 116 1 465 1 387 2 358 1 159 1 362 1 281 2 245 2 158 1 180 1 145 1 177 1 222 1 166 1 254 1 369 1 341 1 237 2 420 1 359 1 327 2 251 1 447 2 444 1 162 1 151 2 332 2 233 2 295 1 293 1 178 1 305 1 351 1 186 1 449 1 422 1 333 2 409 1 357 1 437 1 385 1 467 1 347 1 196 1 497 1 363 1 479 1 127 1 304 1 335 1 6 1 15 1 23 1 31 1 32 1 84 1 95 1 119 1 153 1 155 1 169 1 170 1 171 1 182 1 183 1 188 1 190 1 193 1 204 1 208 1 213 1 223 1 232 1 246 1 248 1 255 1 263 1 285 1 288 1 298 1 300 1 307 1 310 1 315 1 354 1 367 1 375 1 400 1 406 1 429 1 430 1 470 1 472 1 476 1 482 1 484 1 489 1 507 1 516 1 
1 214 1 1 14 1 15 1 21 1 35 1 41 1 42 1 45 1 47 1 69 1 72 2 79 1 91 2 114 2 179 1 193 1 279 1 202 1 207 1 264 1 461 1 490 1 441 1 401 1 458 1 414 1 436 1 479 1 423 1 194 1 483 1 363 2 320 2 299 1 197 1 397 1 475 1 375 1 360 1 170 1 339 1 276 1 182 1 153 2 298 1 385 1 247 1 125 1 190 1 418 1 463 1 262 1 417 1 209 2 378 1 157 1 291 2 328 1 268 1 307 1 495 1 6 1 36 1 37 1 60 1 75 1 92 1 118 1 124 1 132 1 142 1 159 1 173 1 195 1 196 1 210 1 223 1 225 1 246 1 251 1 256 1 259 1 260 1 261 1 263 1 271 1 272 1 296 1 301 1 311 1 317 1 327 1 329 1 333 1 334 1 338 1 346 1 351 1 367 1 387 1 403 1 406 1 407 1 410 1 422 1 428 1 448 1 450 1 466 1 473 1 492 1 499 1 509 1 513 1 
1 212 10 1 13 1 15 1 31 2 42 1 52 1 61 1 63 1 92 2 97 1 115 1 182 1 194 1 250 1 154 2 383 1 199 1 359 1 330 1 223 1 278 1 205 1 408 1 241 2 355 1 224 1 335 1 396 2 365 1 148 1 173 1 454 1 442 1 311 1 424 1 259 1 220 1 151 1 270 2 201 1 427 1 398 1 142 2 407 1 169 1 253 1 249 2 468 1 375 2 216 1 421 1 479 1 242 1 324 1 432 1 334 2 263 1 497 1 381 1 264 2 420 1 281 2 128 1 261 1 14 1 26 1 34 1 48 1 49 1 53 1 58 1 66 1 75 1 79 1 85 1 90 1 104 1 109 1 116 1 134 1 156 1 160 1 172 1 187 1 191 1 225 1 228 1 233 1 236 1 238 1 272 1 291 1 296 1 303 1 315 1 325 1 327 1 346 1 351 1 358 1 371 1 378 1 379 1 380 1 397 1 400 1 401 1 419 1 446 1 459 1 463 1 464 1 467 1 486 1 494 1 500 1 506 1 
1 193 6 1 9 1 11 1 12 1 22 1 35 1 60 1 61 1 66 1 89 1 402 1 201 1 153 1 485 1 274 1 217 1 490 1 495 1 142 2 195 1 180 1 259 1 260 1 271 1 273 2 343 1 370 1 163 1 456 1 286 1 350 1 357 1 377 1 395 1 162 1 277 1 214 1 447 1 166 2 329 1 486 1 281 1 258 1 240 1 483 1 224 1 252 1 379 1 131 2 445 1 145 1 314 1 250 1 170 2 321 1 484 1 407 1 334 2 285 2 358 1 227 1 20 1 24 1 26 1 32 1 34 1 48 1 54 1 56 1 59 1 65 1 88 1 106 1 115 1 123 1 130 1 152 1 154 1 160 1 174 1 184 1 188 1 203 1 206 1 248 1 249 1 257 1 261 1 267 1 284 1 294 1 296 1 306 1 315 1 327 1 331 1 356 1 367 1 374 1 376 1 378 1 384 1 400 1 413 1 420 1 429 1 437 1 458 1 470 1 471 1 476 1 482 1 500 1 502 1 517 1 
1 196 7 1 9 1 17 2 18 1 25 2 32 1 43 2 50 1 57 2 58 1 62 1 75 1 82 2 85 1 97 1 98 1 116 1 271 2 232 1 427 1 154 2 183 2 227 1 484 1 383 1 424 1 164 1 215 1 152 1 339 1 185 1 318 1 399 1 476 1 220 1 162 1 497 1 332 1 153 1 410 1 247 1 361 1 243 1 478 1 485 1 404 1 237 1 386 1 405 1 171 1 500 1 430 1 448 1 402 1 315 1 288 1 139 1 381 1 3 1 5 1 10 1 11 1 20 1 28 1 30 1 35 1 36 1 40 1 45 1 47 1 55 1 61 1 66 1 69 1 73 1 76 1 80 1 87 1 117 1 125 1 135 1 156 1 158 1 159 1 160 1 176 1 178 1 181 1 187 1 194 1 204 1 212 1 238 1 244 1 248 1 250 1 260 1 281 1 302 1 321 1 329 1 338 1 345 1 353 1 363 1 390 1 396 1 400 1 411 1 412 1 413 1 416 1 423 1 429 1 434 1 435 1 439 1 445 1 462 1 465 1 482 1 498 1 514 1 
1 177 26 1 58 1 64 1 82 1 87 1 268 1 294 1 161 1 315 2 408 1 219 1 334 1 474 1 225 1 313 1 216 1 475 1 301 1 421 1 343 1 290 1 360 2 181 1 389 1 445 2 377 1 131 1 255 1 441 1 205 1 258 1 458 2 347 1 325 1 469 1 237 2 350 1 494 1 176 1 466 1 259 1 153 1 173 1 303 1 382 2 385 1 254 1 357 1 352 1 432 1 281 1 2 1 6 1 13 1 27 1 28 1 30 1 33 1 43 1 46 1 65 1 67 1 90 1 113 1 115 1 121 1 126 1 127 1 155 1 165 1 168 1 171 1 177 1 178 1 187 1 193 1 194 1 210 1 217 1 227 1 275 1 277 1 280 1 299 1 309 1 319 1 333 1 337 1 339 1 363 1 368 1 390 1 394 1 399 1 409 1 425 1 437 1 438 1 446 1 451 1 477 1 481 1 484 1 499 1 
1 194 6 1 7 1 23 1 36 1 50 1 59 1 73 1 81 1 86 1 93 1 114 1 162 1 356 1 475 1 390 1 283 1 393 1 286 1 296 1 366 2 394 1 289 2 403 1 169 2 396 1 417 1 173 1 405 2 415 1 444 2 381 2 247 2 236 1 233 1 200 1 261 1 452 1 174 1 257 2 266 1 363 1 303 1 423 1 165 2 335 1 235 1 179 1 285 1 281 1 195 2 449 1 339 1 318 2 188 1 465 2 155 1 314 1 379 1 215 1 262 1 11 1 26 1 38 1 45 1 67 1 78 1 96 1 113 1 119 1 128 1 132 1 134 1 161 1 197 1 202 1 218 1 238 1 252 1 264 1 277 1 287 1 294 1 312 1 317 1 336 1 338 1 343 1 353 1 370 1 371 1 380 1 399 1 401 1 422 1 458 1 463 1 467 1 471 1 480 1 487 1 491 1 
1 196 1 1 3 1 7 1 9 1 16 1 19 1 32 1 36 1 50 1 53 1 58 1 71 2 84 2 89 1 92 2 110 1 112 2 119 1 465 1 169 1 287 1 389 1 326 1 284 2 491 1 195 1 254 1 146 1 387 1 329 1 173 1 147 2 332 1 308 1 322 1 304 1 315 1 499 1 457 1 380 1 458 1 272 1 385 1 333 1 126 1 408 1 500 2 328 2 378 1 191 1 312 1 349 2 372 1 127 1 361 1 282 1 451 1 229 1 26 1 31 1 37 1 39 1 57 1 75 1 76 1 80 1 90 1 91 1 96 1 113 1 122 1 137 1 162 1 168 1 175 1 176 1 210 1 214 1 215 1 216 1 221 1 250 1 260 1 266 1 279 1 285 1 288 1 289 1 295 1 316 1 325 1 335 1 348 1 351 1 357 1 362 1 363 1 368 1 382 1 383 1 384 1 394 1 400 1 407 1 417 1 434 1 462 1 472 1 503 1 516 1 
1 195 7 2 18 1 31 1 37 1 65 1 79 1 88 1 125 1 423 1 466 1 175 1 333 1 467 1 270 1 478 1 457 2 151 1 494 1 349 1 421 2 161 1 389 1 323 2 233 1 329 1 336 1 352 1 188 1 308 2 452 1 346 1 269 2 335 1 276 1 353 2 193 2 361 1 428 1 337 1 218 1 486 1 182 1 465 1 172 1 408 2 153 1 464 1 221 1 417 1 433 1 137 1 231 1 240 1 284 1 359 1 244 1 448 1 476 2 157 1 443 1 254 1 211 1 131 1 26 1 32 1 41 1 47 1 55 1 56 1 57 1 61 1 62 1 69 1 86 1 98 1 123 1 128 1 129 1 132 1 155 1 158 1 160 1 171 1 177 1 189 1 191 1 198 1 201 1 213 1 226 1 234 1 246 1 250 1 256 1 258 1 266 1 287 1 292 1 301 1 302 1 322 1 369 1 371 1 375 1 377 1 390 1 392 1 406 1 416 1 435 1 441 1 462 1 469 1 472 1 495 1 515 1 
1 211 19 1 31 1 36 1 55 1 60 2 63 1 66 1 83 2 88 1 96 1 108 1 116 1 118 1 125 1 410 2 295 1 416 1 500 1 421 1 322 1 365 1 204 1 305 1 378 1 468 1 229 1 485 1 310 2 227 1 168 1 357 1 296 1 145 1 135 1 293 1 176 1 373 2 225 2 409 1 337 2 352 1 175 1 482 1 153 1 256 1 233 1 203 1 488 1 137 1 457 1 339 1 491 1 389 2 417 1 323 1 4 1 12 1 34 1 37 1 47 1 49 1 95 1 97 1 98 1 99 1 111 1 123 1 139 1 148 1 152 1 155 1 161 1 167 1 207 1 216 1 236 1 238 1 241 1 242 1 248 1 261 1 276 1 304 1 307 1 311 1 314 1 334 1 346 1 349 1 360 1 363 1 367 1 388 1 390 1 394 1 405 1 406 1 407 1 427 1 433 1 445 1 453 1 460 1 464 1 
1 208 2 2 7 2 10 1 42 1 51 1 53 1 66 1 70 1 91 1 101 1 105 1 117 1 120 1 390 1 434 1 191 1 174 1 282 1 430 1 292 1 233 2 461 1 271 1 211 1 195 1 385 1 387 1 365 1 457 1 402 1 303 1 366 1 241 1 134 1 460 1 411 1 398 1 149 1 287 1 172 1 267 1 200 1 312 1 272 1 260 1 306 1 432 1 439 2 381 1 475 1 355 1 482 1 262 1 326 1 313 2 310 1 450 1 473 2 13 1 26 1 33 1 52 1 58 1 64 1 67 1 79 1 97 1 104 1 116 1 124 1 126 1 133 1 176 1 177 1 196 1 204 1 210 1 213 1 221 1 228 1 248 1 261 1 270 1 279 1 302 1 333 1 336 1 344 1 347 1 349 1 357 1 358 1 361 1 371 1 376 1 393 1 394 1 400 1 401 1 407 1 409 1 413 1 415 1 418 1 435 1 449 1 467 1 489 1 499 1 
1 187 4 1 15 1 16 1 27 1 31 1 33 1 34 1 35 1 37 1 39 1 45 1 46 1 80 1 81 1 91 1 95 2 326 2 186 2 178 1 172 1 447 1 372 1 443 1 457 1 424 1 355 1 402 1 158 1 323 2 157 1 293 1 367 1 369 2 160 1 405 1 171 1 482 1 290 1 392 1 177 1 332 1 215 1 167 1 228 1 433 1 383 1 211 1 317 1 258 1 473 1 398 1 311 1 449 1 499 1 232 1 358 1 261 1 451 1 174 1 435 1 294 1 474 1 17 1 26 1 38 1 42 1 71 1 72 1 75 1 83 1 86 1 93 1 126 1 148 1 149 1 161 1 169 1 175 1 182 1 210 1 233 1 235 1 247 1 264 1 276 1 304 1 313 1 324 1 327 1 340 1 341 1 346 1 371 1 384 1 400 1 434 1 456 1 465 1 468 1 471 1 472 1 480 1 483 1 495 1 511 1 
1 204 8 1 16 1 31 1 33 1 55 1 73 1 86 2 88 1 98 1 99 1 151 2 132 1 470 1 394 1 292 1 372 1 487 1 157 2 356 1 429 1 276 1 360 1 465 1 286 1 445 1 220 1 331 1 194 1 274 1 461 1 476 2 258 1 172 1 210 1 270 1 397 1 482 2 391 1 458 1 410 1 385 2 389 1 338 1 230 2 221 1 342 1 388 1 163 2 237 1 171 1 348 1 6 1 9 1 28 1 44 1 49 1 75 1 85 1 89 1 96 1 121 1 144 1 145 1 150 1 156 1 187 1 191 1 193 1 201 1 213 1 215 1 217 1 224 1 228 1 233 1 236 1 247 1 255 1 257 1 261 1 280 1 302 1 312 1 318 1 323 1 330 1 344 1 363 1 377 1 386 1 398 1 421 1 422 1 427 1 437 1 438 1 439 1 444 1 447 1 452 1 475 1 485 1 486 1 497 1 499 1 507 1 
1 197 2 1 3 1 12 1 16 1 18 1 21 2 30 1 31 2 41 1 61 1 66 1 92 1 121 2 123 1 126 1 440 1 381 2 390 1 276 1 419 1 256 1 414 1 401 1 213 1 489 1 278 1 375 2 404 1 477 1 455 1 265 1 350 1 203 1 241 1 266 1 253 1 435 1 449 2 304 1 368 1 393 1 323 1 340 1 475 1 260 1 483 1 194 2 277 2 341 1 446 1 164 1 459 1 391 1 229 1 302 1 193 2 163 1 467 1 182 1 322 1 337 1 395 1 10 1 11 1 15 1 23 1 25 1 32 1 38 1 56 1 83 1 86 1 90 1 100 1 141 1 150 1 155 1 169 1 173 1 184 1 197 1 198 1 200 1 206 1 222 1 228 1 237 1 247 1 249 1 255 1 268 1 284 1 287 1 288 1 299 1 313 1 333 1 335 1 417 1 433 1 442 1 454 1 476 1 479 1 497 1 
1 196 1 1 4 2 6 1 14 1 16 2 24 1 48 1 50 1 60 1 63 1 71 1 88 1 89 1 91 1 130 1 243 1 486 1 499 1 473 1 167 1 325 2 399 1 356 2 472 1 409 1 362 1 312 1 396 1 345 2 451 1 250 1 153 1 286 1 444 1 443 1 386 1 267 1 316 1 452 1 188 1 466 1 218 1 332 1 253 1 273 1 498 2 244 1 254 1 434 1 147 1 157 2 165 1 462 1 348 1 5 1 18 1 25 1 33 1 34 1 42 1 53 1 68 1 72 1 86 1 92 1 98 1 99 1 101 1 119 1 124 1 126 1 133 1 170 1 184 1 189 1 199 1 201 1 207 1 226 1 232 1 237 1 248 1 251 1 266 1 270 1 277 1 279 1 284 1 289 1 293 1 295 1 320 1 323 1 324 1 329 1 334 1 349 1 353 1 355 1 367 1 369 1 374 1 378 1 403 1 424 1 430 1 433 1 441 1 445 1 446 1 449 1 450 1 500 1 507 1 
1 191 2 1 28 1 46 1 59 1 67 1 69 1 78 1 82 1 90 1 91 1 94 1 100 1 102 1 104 1 111 1 114 1 116 1 291 1 170 1 206 1 168 1 381 1 421 2 424 1 363 1 474 1 185 1 465 1 205 1 500 1 434 2 158 1 315 1 497 1 282 1 211 1 385 1 256 1 419 1 470 1 248 1 223 1 487 1 150 1 153 1 409 1 354 1 135 1 407 1 283 1 204 1 410 1 336 1 296 1 495 1 493 1 459 1 169 1 159 1 244 1 203 2 198 1 317 1 353 1 273 1 358 1 437 1 275 1 13 1 16 1 18 1 45 1 57 1 63 1 71 1 83 1 85 1 93 1 97 1 99 1 128 1 132 1 160 1 167 1 180 1 181 1 184 1 214 1 218 1 224 1 226 1 235 1 237 1 254 1 258 1 262 1 267 1 268 1 279 1 280 1 311 1 328 1 335 1 375 1 377 1 399 1 400 1 408 1 416 1 422 1 433 1 449 1 477 1 478 1 491 1 507 1 
1 200 10 1 11 1 19 1 26 1 28 1 33 1 43 1 56 1 59 1 69 1 73 1 75 1 77 1 87 1 89 1 96 1 128 1 162 1 234 1 465 1 486 1 307 1 481 1 410 1 253 1 305 1 457 1 335 1 263 1 482 1 447 1 250 1 314 1 204 1 375 1 244 1 327 1 415 1 331 1 407 1 448 1 345 1 383 1 223 1 363 1 451 1 228 1 445 1 494 2 158 1 265 1 290 1 296 1 251 1 188 1 298 1 255 1 422 2 270 1 423 1 426 1 325 1 326 1 206 1 439 1 279 2 2 1 38 1 66 1 70 1 78 1 104 1 120 1 124 1 157 1 161 1 169 1 175 1 179 1 182 1 190 1 211 1 212 1 220 1 242 1 256 1 264 1 271 1 284 1 295 1 303 1 304 1 315 1 334 1 361 1 371 1 382 1 398 1 399 1 406 1 416 1 462 1 463 1 474 1 487 1 488 1 495 1 496 1 505 1 511 1 
1 205 4 1 10 1 42 1 50 2 58 1 87 1 89 1 92 1 114 1 127 1 133 1 167 2 220 2 303 2 192 1 232 2 242 1 364 1 248 1 235 2 169 1 172 1 494 1 244 1 211 2 260 1 252 1 282 1 281 2 166 1 194 1 156 1 341 1 464 2 459 1 359 1 227 1 484 1 175 1 234 1 356 1 202 1 405 1 453 1 191 1 466 1 431 1 432 1 379 1 326 1 240 1 383 1 397 1 461 1 3 1 8 1 26 1 30 1 47 1 62 1 63 1 68 1 70 1 84 1 122 1 173 1 176 1 179 1 189 1 197 1 198 1 206 1 214 1 226 1 241 1 250 1 263 1 267 1 270 1 277 1 279 1 288 1 297 1 345 1 347 1 352 1 361 1 377 1 391 1 392 1 393 1 419 1 425 1 426 1 434 1 443 1 446 1 452 1 465 1 471 1 472 1 480 1 481 1 500 1 502 1 515 1 
1 207 6 1 7 1 21 1 28 2 47 1 53 2 72 1 73 1 93 1 95 1 103 1 107 1 340 1 460 1 389 1 270 1 478 1 196 1 324 1 310 1 229 1 254 2 448 1 301 1 410 1 280 1 425 1 383 1 170 1 162 1 241 1 242 1 140 1 332 1 384 1 368 1 233 1 187 1 255 1 459 1 403 1 260 1 221 1 145 1 417 1 442 1 200 1 148 1 12 1 17 1 18 1 22 1 23 1 79 1 81 1 87 1 90 1 158 1 161 1 174 1 180 1 188 1 192 1 198 1 207 1 209 1 211 1 212 1 220 1 222 1 237 1 239 1 251 1 256 1 257 1 259 1 265 1 267 1 292 1 319 1 325 1 330 1 348 1 353 1 358 1 370 1 394 1 402 1 407 1 409 1 420 1 447 1 450 1 466 1 469 1 473 1 474 1 489 1 494 1 498 1 500 1 
1 212 6 1 13 1 17 1 25 1 27 1 32 1 33 1 47 2 63 2 68 1 70 1 82 1 84 1 86 1 89 1 108 1 126 1 127 1 235 1 223 1 404 2 258 1 188 1 298 2 291 2 480 1 219 1 341 1 388 1 398 1 351 1 383 1 171 1 334 1 268 1 391 1 461 1 317 1 290 1 481 1 164 1 193 1 359 1 165 1 423 1 253 1 354 2 453 1 266 1 419 1 167 2 149 1 179 1 274 1 475 1 192 1 7 1 24 1 26 1 31 1 39 1 55 1 64 1 73 1 77 1 90 1 104 1 125 1 138 1 168 1 176 1 182 1 190 1 198 1 200 1 205 1 209 1 212 1 226 1 227 1 240 1 243 1 245 1 251 1 278 1 320 1 322 1 324 1 331 1 358 1 366 1 369 1 379 1 386 1 402 1 446 1 452 1 478 1 479 1 490 1 494 1 495 1 
1 197 4 1 35 2 50 1 81 1 86 1 96 1 98 1 107 1 339 1 251 2 188 1 289 1 459 1 481 1 448 1 479 1 286 1 409 1 265 1 260 1 269 1 203 1 184 1 179 1 186 1 166 2 277 1 426 1 235 1 191 1 165 1 329 2 358 1 425 1 353 1 169 1 424 1 300 1 422 1 384 1 239 1 500 1 455 1 396 1 178 1 312 1 323 1 246 1 371 1 429 1 217 1 282 1 418 1 302 1 243 1 463 1 185 1 457 1 376 1 189 1 146 1 162 1 393 1 12 1 25 1 30 1 34 1 41 1 53 1 56 1 68 1 69 1 71 1 80 1 137 1 144 1 170 1 181 1 199 1 201 1 221 1 227 1 255 1 268 1 294 1 296 1 297 1 304 1 307 1 309 1 313 1 316 1 320 1 326 1 328 1 334 1 347 1 350 1 365 1 372 1 389 1 395 1 408 1 419 1 428 1 436 1 441 1 449 1 480 1 488 1 489 1 493 1 494 1 495 1 510 1 513 1 515 1 516 1 
1 205 15 1 29 1 30 1 40 1 50 1 57 1 60 1 66 2 69 1 73 1 75 1 82 1 97 1 104 1 122 1 205 1 200 1 387 1 353 1 452 1 318 1 486 2 325 1 271 1 414 1 457 1 482 1 297 1 311 2 299 1 408 2 184 1 211 1 216 1 143 1 394 1 306 1 308 1 415 2 197 1 467 1 248 1 453 1 161 2 146 1 428 1 357 1 474 1 354 1 224 1 310 1 228 1 362 1 253 1 461 1 236 1 399 1 6 1 7 1 36 1 44 1 56 1 79 1 127 1 141 1 166 1 172 1 175 1 176 1 178 1 179 1 203 1 210 1 225 1 230 1 238 1 239 1 255 1 262 1 263 1 268 1 270 1 293 1 298 1 300 1 330 1 337 1 340 1 342 1 352 1 364 1 368 1 375 1 379 1 381 1 389 1 390 1 401 1 416 1 423 1 425 1 429 1 440 1 448 1 456 1 464 1 475 1 516 1 
1 172 21 2 32 1 33 1 37 1 54 2 65 1 73 1 75 1 136 1 496 1 207 1 386 1 323 1 372 1 203 1 328 2 334 1 326 1 187 1 331 1 436 1 253 2 363 1 483 1 316 1 489 1 498 1 259 1 202 2 410 2 208 1 258 1 333 2 195 1 246 1 190 2 144 1 251 1 442 1 273 1 261 1 429 1 211 1 278 1 360 1 369 2 222 1 488 1 305 1 417 1 148 1 188 1 274 1 379 1 314 1 3 1 16 1 20 1 24 1 42 1 51 1 53 1 60 1 63 1 86 1 87 1 89 1 98 1 173 1 185 1 196 1 220 1 223 1 238 1 239 1 256 1 288 1 289 1 291 1 293 1 311 1 336 1 341 1 357 1 375 1 381 1 395 1 413 1 419 1 426 1 446 1 447 1 449 1 451 1 454 1 471 1 480 1 482 1 486 1 491 1 511 1 
1 215 1 1 4 1 11 1 19 2 22 1 25 1 28 1 40 1 46 1 62 1 63 1 64 1 92 1 99 1 100 1 204 1 397 1 424 1 171 1 488 1 206 1 423 1 342 1 272 1 257 1 472 1 418 1 315 1 364 1 305 1 333 1 216 1 340 2 313 1 192 1 249 2 350 1 393 1 309 1 330 1 210 2 245 1 147 1 387 1 226 1 450 1 189 1 187 1 362 2 359 1 178 1 323 1 167 1 246 2 241 1 386 1 425 1 449 1 343 2 496 1 193 1 295 1 381 2 191 1 3 1 56 1 87 1 131 1 139 1 179 1 184 1 199 1 205 1 207 1 214 1 253 1 268 1 276 1 279 1 287 1 291 1 298 1 327 1 334 1 335 1 346 1 367 1 388 1 396 1 398 1 402 1 419 1 435 1 443 1 445 1 451 1 452 1 455 1 465 1 479 1 498 1 500 1 503 1 510 1 
1 194 11 1 18 1 28 2 45 1 56 1 66 2 70 1 80 1 97 1 113 1 120 2 121 2 478 1 482 1 464 1 403 1 241 2 433 1 261 2 324 1 463 1 397 1 194 1 322 1 326 1 494 1 221 1 490 1 177 1 407 1 398 2 263 1 226 1 454 1 269 1 451 2 456 1 202 1 243 1 366 1 483 1 265 1 328 1 487 1 165 1 438 1 413 1 307 1 359 1 2 1 5 1 29 1 32 1 37 1 41 1 44 1 46 1 52 1 58 1 62 1 68 1 71 1 73 1 85 1 92 1 93 1 96 1 106 1 108 1 119 1 154 1 170 1 200 1 215 1 227 1 233 1 236 1 238 1 245 1 247 1 284 1 285 1 288 1 298 1 316 1 327 1 333 1 338 1 340 1 344 1 347 1 352 1 360 1 362 1 369 1 393 1 417 1 428 1 435 1 436 1 457 1 462 1 484 1 488 1 
1 207 23 1 30 1 33 1 49 1 56 1 68 1 73 1 74 1 80 1 85 1 90 1 99 1 139 1 416 1 473 1 321 1 280 1 362 1 234 2 423 1 471 1 385 1 346 1 493 1 482 1 398 2 208 1 188 1 291 1 268 1 265 1 271 1 255 1 229 1 171 1 242 1 378 1 476 1 467 1 393 2 221 1 372 2 302 1 325 1 317 1 259 2 318 1 470 1 316 1 162 1 332 1 453 1 299 1 313 1 176 1 283 1 207 1 407 1 2 1 9 1 15 1 16 1 21 1 32 1 45 1 48 1 50 1 52 1 53 1 62 1 71 1 82 1 91 1 95 1 101 1 177 1 179 1 182 1 191 1 196 1 201 1 212 1 224 1 250 1 257 1 263 1 267 1 273 1 278 1 281 1 282 1 286 1 296 1 328 1 329 1 350 1 366 1 380 1 402 1 406 1 417 1 419 1 424 1 428 1 432 1 449 1 455 1 469 1 487 1 494 1 499 1 513 1 
1 203 6 1 22 1 25 1 34 1 51 2 70 1 75 1 92 1 97 1 107 1 109 1 112 1 140 1 487 1 500 1 312 1 429 1 293 1 476 1 200 1 228 1 463 2 206 1 208 1 180 1 304 1 449 1 218 1 294 1 148 1 181 1 248 1 240 2 414 1 361 1 289 1 403 1 459 1 197 2 302 1 202 1 351 1 338 1 238 2 176 1 333 1 317 1 438 1 473 1 145 2 418 2 229 2 481 1 369 1 439 1 397 1 163 1 491 2 388 1 2 1 14 1 16 1 36 1 43 1 45 1 48 1 52 1 58 1 61 1 69 1 83 1 95 1 96 1 99 1 130 1 138 1 146 1 151 1 172 1 184 1 201 1 227 1 231 1 234 1 235 1 253 1 256 1 260 1 269 1 271 1 274 1 282 1 298 1 303 1 314 1 319 1 320 1 324 1 330 1 340 1 349 1 356 1 385 1 392 1 407 1 411 1 426 1 444 1 450 1 464 1 488 1 502 1 509 1 
1 223 4 1 11 1 20 1 26 1 28 1 48 1 49 1 53 1 59 1 73 2 77 1 100 1 107 1 110 1 118 1 121 1 127 1 136 1 144 2 465 1 200 1 472 1 333 2 456 1 404 1 358 1 419 1 497 1 322 2 226 1 242 1 151 1 398 2 146 1 222 1 427 1 377 2 274 1 388 1 424 1 212 2 367 1 325 1 297 1 173 1 153 1 204 1 215 1 256 1 260 1 305 1 443 1 392 1 202 1 347 1 430 1 431 1 35 1 37 1 39 1 50 1 51 1 71 1 75 1 76 1 82 1 92 1 95 1 96 1 106 1 130 1 148 1 159 1 174 1 207 1 208 1 214 1 217 1 223 1 238 1 250 1 255 1 266 1 269 1 271 1 293 1 296 1 299 1 301 1 319 1 326 1 351 1 359 1 401 1 403 1 410 1 411 1 415 1 420 1 423 1 445 1 448 1 452 1 453 1 457 1 462 1 464 1 466 1 478 1 480 1 481 1 512 1 513 1 
1 210 1 1 8 1 9 2 12 1 34 1 42 1 44 1 51 1 59 1 69 1 72 1 81 1 107 2 108 1 117 1 125 1 138 1 139 1 145 1 452 1 387 1 306 1 383 1 456 1 253 1 269 1 441 1 464 1 239 1 339 1 407 1 368 1 222 1 433 1 374 1 416 2 221 1 232 1 294 1 178 1 148 1 445 1 408 1 365 1 390 1 272 1 451 1 497 1 391 1 406 1 319 1 431 2 344 1 216 1 417 2 500 1 206 1 256 1 5 1 10 1 32 1 45 1 70 1 80 1 83 1 87 1 95 1 99 1 101 1 116 1 144 1 164 1 180 1 181 1 193 1 199 1 207 1 209 1 211 1 220 1 249 1 254 1 257 1 280 1 286 1 289 1 297 1 300 1 301 1 312 1 313 1 316 1 325 1 331 1 333 1 335 1 343 1 345 1 347 1 357 1 380 1 386 1 388 1 411 1 426 1 429 1 430 1 434 1 435 1 449 1 460 1 482 1 496 1 510 1 
1 227 8 1 12 1 24 1 42 2 50 1 52 1 56 1 58 1 65 1 72 1 75 1 79 1 100 1 110 1 113 2 125 2 132 1 141 1 363 1 471 1 472 1 181 2 246 1 382 1 499 1 392 1 463 1 479 1 350 1 211 1 365 1 348 1 249 1 328 1 275 1 372 1 439 1 490 1 403 1 273 1 299 1 413 1 213 1 263 1 228 1 450 1 235 1 369 1 331 1 236 1 151 2 182 1 360 1 461 1 467 1 425 1 494 1 388 1 201 2 163 1 457 1 500 1 186 1 342 1 291 1 338 1 278 1 18 1 23 1 30 1 31 1 45 1 60 1 82 1 84 1 95 1 97 1 98 1 111 1 150 1 156 1 159 1 183 1 188 1 208 1 210 1 223 1 229 1 234 1 248 1 268 1 269 1 270 1 277 1 312 1 317 1 323 1 326 1 327 1 329 1 332 1 335 1 337 1 349 1 371 1 374 1 381 1 390 1 401 1 408 1 415 1 428 1 434 1 435 1 455 1 458 1 459 1 480 1 498 1 517 1 
1 191 6 1 18 1 26 1 33 1 38 1 42 1 43 1 56 1 62 2 63 1 68 1 74 1 83 1 88 1 100 1 120 1 136 1 140 1 144 1 146 1 400 1 341 1 369 1 280 2 447 1 418 1 388 1 393 1 221 1 407 2 428 1 342 2 449 1 427 1 240 1 226 2 392 1 435 1 223 1 459 1 150 1 338 1 152 1 290 1 249 1 159 2 368 1 498 1 187 1 367 2 264 1 306 2 348 1 359 1 263 1 357 2 300 1 470 1 292 1 185 1 402 1 217 1 476 1 462 1 244 1 416 1 27 1 31 1 35 1 41 1 45 1 53 1 55 1 61 1 70 1 73 1 78 1 81 1 85 1 97 1 105 1 109 1 127 1 129 1 145 1 163 1 184 1 199 1 202 1 211 1 218 1 241 1 252 1 255 1 260 1 281 1 287 1 303 1 304 1 308 1 320 1 335 1 337 1 349 1 358 1 370 1 383 1 398 1 420 1 426 1 443 1 451 1 483 1 
1 209 8 1 21 1 25 1 30 1 32 1 55 1 59 1 81 1 82 1 98 1 102 1 115 1 128 1 137 1 323 2 367 1 489 1 453 1 402 1 344 1 473 1 492 1 341 1 273 1 283 1 334 1 372 1 398 1 291 1 295 1 488 1 303 1 447 1 391 1 340 1 412 1 275 2 232 1 496 1 404 1 362 1 248 1 286 1 184 1 444 1 235 1 288 1 160 1 300 1 389 1 231 1 374 1 191 2 257 2 16 1 20 1 22 1 40 1 43 1 44 1 46 1 48 1 49 1 56 1 89 1 93 1 100 1 103 1 104 1 116 1 129 1 158 1 179 1 190 1 195 1 206 1 223 1 236 1 237 1 253 1 264 1 265 1 266 1 284 1 289 1 292 1 301 1 302 1 304 1 320 1 324 1 325 1 351 1 361 1 366 1 377 1 378 1 381 1 390 1 396 1 406 1 413 1 438 1 440 1 448 1 451 1 466 1 476 1 480 1 481 1 483 1 495 1 498 1 502 1 506 1 513 1 
1 213 7 1 21 2 23 1 42 1 44 1 45 1 49 1 54 1 68 1 71 1 74 1 88 1 91 1 98 1 100 1 113 1 133 1 148 1 213 2 402 1 399 1 491 1 433 1 327 1 198 1 280 1 252 1 411 1 469 1 414 1 338 1 459 2 420 1 383 1 426 1 319 2 289 1 418 2 164 1 404 1 313 1 439 1 210 1 209 1 412 1 266 1 260 1 316 2 384 1 242 1 390 1 160 1 270 1 186 1 274 1 189 1 388 1 222 1 340 1 294 1 9 1 13 1 18 1 19 1 29 1 39 1 47 1 57 1 59 1 81 1 95 1 97 1 99 1 130 1 131 1 147 1 154 1 166 1 169 1 180 1 184 1 188 1 217 1 223 1 240 1 255 1 258 1 259 1 261 1 269 1 278 1 296 1 304 1 307 1 315 1 321 1 326 1 328 1 332 1 336 1 344 1 359 1 396 1 398 1 422 1 429 1 432 1 435 1 438 1 456 1 467 1 471 1 472 1 480 1 483 1 488 1 497 1 502 1 510 1 
1 207 14 1 20 1 31 1 32 1 36 1 37 2 42 1 50 1 55 1 66 2 77 1 118 2 120 1 126 1 130 2 145 1 147 2 261 1 312 2 379 1 401 1 303 1 187 2 468 1 294 1 446 1 194 1 152 1 159 1 360 1 482 1 427 2 297 1 488 1 377 1 440 1 230 2 155 2 346 1 359 1 385 1 245 1 167 1 160 1 193 2 165 2 208 2 498 1 332 1 447 1 318 1 281 2 309 1 201 1 442 1 384 1 237 1 407 1 224 1 18 1 19 1 24 1 35 1 68 1 74 1 94 1 112 1 144 1 195 1 203 1 217 1 233 1 238 1 246 1 247 1 249 1 265 1 270 1 277 1 301 1 302 1 306 1 308 1 334 1 338 1 344 1 347 1 353 1 370 1 372 1 395 1 404 1 412 1 419 1 436 1 449 1 456 1 460 1 494 1 495 1 
1 200 13 1 18 1 30 2 35 1 46 2 48 1 50 1 53 1 58 1 75 1 87 1 93 1 95 1 108 1 112 1 114 1 122 1 148 1 151 1 351 1 326 1 323 1 215 1 250 1 449 1 296 1 386 1 426 2 209 1 312 1 419 1 242 1 412 1 297 1 485 1 382 1 381 1 379 1 495 1 274 1 396 1 472 1 293 2 392 1 226 1 456 1 246 1 458 1 204 1 350 1 315 1 284 1 163 1 429 1 187 1 2 1 8 1 19 1 20 1 33 1 36 1 39 1 45 1 47 1 64 1 70 1 86 1 102 1 117 1 121 1 127 1 164 1 206 1 219 1 222 1 233 1 237 1 254 1 278 1 279 1 291 1 301 1 302 1 328 1 333 1 338 1 339 1 342 1 343 1 359 1 360 1 365 1 367 1 373 1 374 1 388 1 395 1 398 1 399 1 401 1 403 1 413 1 418 1 423 1 452 1 474 1 477 1 481 1 489 1 494 1 499 1 501 1 
1 202 3 1 14 2 18 2 31 1 39 1 59 2 60 1 74 1 95 2 99 1 104 1 119 2 121 1 122 1 123 1 126 1 127 1 132 1 133 1 145 1 288 1 491 1 335 1 206 2 447 1 444 1 403 2 234 1 480 1 214 1 203 1 366 1 291 2 250 1 232 1 426 1 299 1 479 2 314 1 434 1 181 1 360 1 331 1 199 2 212 2 283 1 290 1 210 2 336 1 389 1 388 1 281 2 370 1 464 1 482 1 357 1 399 1 211 1 334 1 227 1 264 1 243 1 173 1 294 1 459 1 466 1 2 1 11 1 27 1 29 1 47 1 55 1 56 1 63 1 66 1 70 1 77 1 90 1 102 1 117 1 118 1 159 1 189 1 193 1 196 1 202 1 221 1 226 1 242 1 254 1 278 1 285 1 289 1 304 1 317 1 362 1 365 1 367 1 396 1 398 1 412 1 435 1 441 1 446 1 471 1 485 1 493 1 503 1 517 1 
1 200 21 1 25 1 52 1 61 1 67 2 79 1 87 1 98 1 105 1 120 2 122 2 294 1 395 1 285 1 295 1 304 1 436 1 278 1 379 2 306 1 204 1 383 1 447 2 183 1 310 1 275 1 354 1 291 1 320 1 439 1 366 1 464 1 498 1 494 2 440 1 298 1 407 1 490 1 331 1 211 1 263 1 168 1 415 1 401 1 213 1 208 2 337 1 358 1 409 1 416 1 260 1 188 1 252 1 196 1 392 1 155 1 224 1 6 1 19 1 27 1 36 1 41 1 44 1 58 1 68 1 72 1 81 1 85 1 97 1 107 1 117 1 121 1 142 1 150 1 156 1 160 1 174 1 189 1 192 1 197 1 205 1 219 1 221 1 229 1 253 1 259 1 264 1 270 1 296 1 297 1 301 1 305 1 308 1 349 1 353 1 360 1 364 1 365 1 367 1 370 1 403 1 404 1 408 1 442 1 450 1 458 1 461 1 467 1 469 1 478 1 489 1 
1 213 4 1 16 1 21 1 24 1 42 1 66 1 81 1 112 1 114 1 124 1 151 2 154 1 459 1 289 1 483 2 211 1 213 1 473 1 393 1 486 1 184 1 364 1 475 1 455 1 471 1 343 1 391 2 336 1 246 1 440 1 447 1 406 1 449 1 264 1 417 2 220 1 324 1 307 1 380 1 469 2 160 1 373 1 295 1 253 1 363 1 316 1 457 2 286 1 267 1 190 1 330 1 268 1 310 1 226 1 44 1 56 1 74 1 87 1 91 1 100 1 105 1 118 1 123 1 126 1 127 1 131 1 157 1 173 1 202 1 225 1 231 1 239 1 248 1 249 1 251 1 252 1 259 1 265 1 270 1 271 1 303 1 317 1 321 1 334 1 352 1 355 1 360 1 376 1 379 1 388 1 390 1 394 1 414 1 420 1 426 1 435 1 448 1 458 1 464 1 472 1 474 1 484 1 490 1 492 1 502 1 
1 201 9 2 11 1 18 1 29 1 34 1 66 1 76 2 77 1 86 1 99 1 135 1 239 1 215 2 204 1 245 2 437 1 392 1 220 1 291 2 356 1 500 1 496 1 293 1 251 1 348 1 303 1 422 1 246 1 299 1 349 1 396 2 389 1 355 1 322 1 373 1 202 2 449 1 447 1 432 1 390 2 294 1 474 1 398 1 319 2 344 1 233 1 295 1 292 1 312 1 430 1 371 1 252 1 4 1 16 1 17 1 38 1 49 1 58 1 85 1 96 1 108 1 120 1 122 1 130 1 147 1 154 1 170 1 172 1 184 1 185 1 206 1 207 1 213 1 230 1 235 1 249 1 250 1 261 1 267 1 270 1 274 1 279 1 282 1 305 1 326 1 328 1 335 1 338 1 352 1 361 1 365 1 384 1 400 1 411 1 413 1 424 1 435 1 450 1 464 1 469 1 478 1 482 1 483 1 505 1 
1 190 2 1 4 1 5 1 12 1 38 1 41 1 54 1 61 1 65 1 68 1 77 1 105 2 115 1 119 1 126 1 129 1 130 2 132 2 495 1 398 1 235 1 222 1 329 1 426 2 429 2 331 1 219 1 308 1 453 1 237 1 266 1 406 2 232 2 446 1 414 1 290 1 402 1 201 2 208 1 196 1 380 1 253 2 454 1 466 1 395 1 334 1 430 1 457 1 386 1 243 1 416 1 297 1 205 1 323 1 341 1 226 2 195 1 289 1 458 1 272 1 377 1 443 1 387 2 288 1 401 1 13 1 33 1 44 1 46 1 50 1 56 1 62 1 63 1 69 1 92 1 97 1 112 1 117 1 134 1 155 1 158 1 188 1 197 1 199 1 204 1 212 1 223 1 225 1 238 1 256 1 267 1 270 1 278 1 296 1 301 1 303 1 310 1 315 1 318 1 342 1 345 1 354 1 376 1 407 1 415 1 417 1 427 1 451 1 455 1 469 1 473 1 481 1 492 1 
1 189 1 1 6 1 12 1 17 1 20 1 23 1 26 2 85 1 91 1 105 1 108 1 114 1 118 1 129 1 133 1 134 1 426 2 350 1 474 1 261 1 310 1 428 1 223 1 280 1 488 1 341 1 233 1 401 1 434 1 250 1 255 1 186 1 375 1 285 1 267 1 258 2 389 1 422 1 207 1 319 1 454 1 496 1 213 1 386 1 441 1 390 1 391 1 370 1 417 1 395 1 230 2 300 2 288 1 452 1 184 1 203 2 265 1 11 1 18 1 33 1 49 1 79 1 87 1 93 1 99 1 106 1 113 1 122 1 126 1 136 1 149 1 157 1 165 1 167 1 176 1 188 1 200 1 238 1 245 1 247 1 252 1 253 1 270 1 272 1 281 1 284 1 302 1 305 1 307 1 321 1 335 1 343 1 346 1 361 1 362 1 373 1 377 1 378 1 381 1 383 1 397 1 405 1 429 1 430 1 451 1 466 1 472 1 479 1 480 1 490 1 493 1 494 1 499 1 500 1 502 1 507 1 
1 198 1 1 6 1 7 1 16 1 25 1 30 2 40 1 44 1 59 1 65 2 66 1 69 1 87 1 107 2 118 1 133 1 148 2 151 1 470 2 483 1 198 1 379 1 254 1 321 1 229 1 356 1 202 1 392 1 253 1 418 1 496 1 263 1 220 1 239 1 289 1 247 1 281 1 467 1 372 1 275 1 480 1 278 1 294 1 187 2 420 1 309 1 170 1 475 1 340 1 416 1 426 1 344 2 448 1 332 1 382 1 447 1 209 1 267 1 479 1 274 1 14 1 19 1 36 1 49 1 56 1 61 1 62 1 70 1 73 1 99 1 119 1 122 1 145 1 147 1 153 1 160 1 193 1 204 1 219 1 224 1 230 1 241 1 251 1 258 1 264 1 286 1 287 1 292 1 303 1 307 1 312 1 320 1 325 1 330 1 331 1 334 1 338 1 361 1 375 1 393 1 398 1 399 1 414 1 422 1 424 1 441 1 451 1 453 1 454 1 457 1 460 1 461 1 466 1 468 1 497 1 
1 199 9 1 13 1 23 1 31 1 46 2 47 1 54 1 57 1 65 1 68 1 81 1 82 1 83 1 85 1 102 1 104 1 107 1 113 2 129 1 149 1 150 1 151 1 155 1 379 1 219 1 468 1 216 1 340 1 358 1 442 2 399 1 323 1 354 1 239 2 264 1 356 1 268 1 221 1 500 1 381 1 496 1 487 1 482 1 450 1 339 1 361 1 293 1 398 1 170 1 427 1 449 1 218 1 350 1 345 1 171 1 394 1 485 1 6 1 11 1 26 1 32 1 35 1 36 1 44 1 49 1 51 1 56 1 61 1 67 1 76 1 90 1 92 1 93 1 97 1 111 1 120 1 121 1 122 1 126 1 133 1 154 1 159 1 187 1 190 1 195 1 201 1 207 1 220 1 233 1 242 1 254 1 258 1 270 1 272 1 284 1 291 1 310 1 319 1 343 1 386 1 406 1 408 1 410 1 412 1 428 1 430 1 441 1 445 1 453 1 511 1 513 1 
1 191 14 1 20 1 22 1 34 1 37 1 39 1 45 1 55 1 57 2 76 1 82 1 90 2 98 1 101 1 112 1 113 1 123 1 126 1 139 2 398 1 405 1 441 1 336 1 353 1 401 1 390 1 251 1 347 1 319 1 352 1 167 1 434 1 450 1 367 1 479 1 490 1 382 1 226 1 293 1 416 1 252 2 376 2 444 1 195 1 269 1 192 2 476 1 426 2 422 1 315 1 169 2 242 1 472 1 337 1 172 1 225 1 245 1 406 1 328 1 295 2 291 1 249 1 312 1 287 1 231 1 369 1 5 1 7 1 13 1 29 1 43 1 63 1 66 1 68 1 89 1 105 1 114 1 116 1 124 1 127 1 129 1 134 1 136 1 164 1 214 1 216 1 222 1 233 1 255 1 260 1 281 1 283 1 290 1 298 1 299 1 303 1 314 1 343 1 349 1 354 1 361 1 363 1 402 1 424 1 442 1 458 1 467 1 492 1 
1 194 10 1 20 1 22 1 41 2 43 1 47 1 60 1 68 1 93 1 97 2 118 1 121 1 122 1 124 1 134 1 136 1 138 1 143 1 222 1 464 1 379 1 199 1 462 1 442 1 358 1 489 1 278 1 372 1 351 1 438 1 377 1 341 1 355 1 391 1 497 1 266 2 435 1 477 1 321 1 395 2 297 1 315 1 189 1 203 1 371 1 305 1 263 1 354 2 381 2 295 1 334 1 300 1 366 2 484 1 386 1 204 1 339 1 5 1 18 1 31 1 35 1 37 1 42 1 66 1 67 1 73 1 85 1 86 1 89 1 114 1 125 1 169 1 187 1 191 1 214 1 216 1 229 1 232 1 249 1 272 1 274 1 275 1 289 1 311 1 329 1 344 1 346 1 350 1 359 1 388 1 389 1 404 1 410 1 431 1 450 1 453 1 466 1 494 1 498 1 499 1 501 1 511 1 514 1 
1 196 25 1 30 1 34 1 69 1 74 1 82 1 86 1 93 1 109 1 112 2 121 1 130 2 131 1 144 1 147 1 152 1 376 1 349 1 208 1 419 1 214 1 424 1 243 1 494 1 475 1 450 1 480 1 318 2 437 2 484 2 394 1 268 1 430 2 444 1 172 1 264 1 367 1 251 1 409 1 192 1 231 1 196 2 297 1 249 1 442 1 238 2 497 1 320 1 169 1 414 1 334 1 469 1 400 1 397 1 380 1 266 1 388 1 278 1 417 1 491 1 405 1 5 1 16 1 17 1 19 1 20 1 45 1 55 1 56 1 59 1 73 1 87 1 103 1 108 1 116 1 117 1 148 1 178 1 199 1 218 1 219 1 239 1 248 1 253 1 281 1 293 1 302 1 313 1 315 1 321 1 340 1 350 1 357 1 366 1 371 1 385 1 389 1 390 1 393 1 407 1 413 1 445 1 456 1 464 1 474 1 479 1 485 1 502 1 517 1 
1 198 22 1 26 1 29 2 33 1 43 1 48 2 49 2 51 1 76 1 78 1 79 1 100 1 122 1 131 1 137 1 150 1 206 1 203 1 205 1 494 2 351 1 272 1 218 1 446 2 343 1 356 1 367 1 413 1 271 1 297 1 429 1 469 1 389 2 380 1 481 1 298 1 430 1 344 1 448 1 334 1 454 2 287 1 165 1 295 1 471 1 483 1 277 2 276 1 241 1 397 1 385 1 314 1 482 2 296 2 371 2 269 1 359 1 195 1 244 1 468 1 173 1 12 1 25 1 28 1 38 1 61 1 109 1 114 1 146 1 152 1 161 1 199 1 220 1 228 1 231 1 232 1 238 1 249 1 286 1 292 1 302 1 303 1 304 1 310 1 319 1 323 1 336 1 337 1 353 1 355 1 360 1 372 1 374 1 375 1 378 1 394 1 402 1 418 1 425 1 443 1 447 1 451 1 456 1 465 1 472 1 478 1 486 1 487 1 493 1 
1 215 6 1 8 1 9 1 27 1 32 1 48 1 49 1 54 1 55 1 59 2 74 1 82 1 84 1 97 1 105 1 106 1 110 2 124 2 132 1 137 1 138 1 142 1 151 2 164 1 481 2 217 1 444 1 309 2 233 1 234 1 401 1 466 1 332 1 322 1 255 1 251 1 445 1 277 1 458 2 326 1 460 1 438 1 391 1 278 1 378 1 498 1 400 1 308 1 489 1 387 1 493 1 289 1 229 1 383 1 414 1 405 1 422 1 219 1 338 1 178 1 276 1 174 1 221 1 390 1 173 1 374 2 389 1 494 1 16 1 28 1 42 1 47 1 63 1 69 1 76 1 100 1 123 1 158 1 167 1 170 1 195 1 196 1 198 1 201 1 203 1 210 1 213 1 225 1 265 1 314 1 319 1 328 1 339 1 340 1 342 1 354 1 362 1 394 1 396 1 409 1 418 1 423 1 424 1 427 1 428 1 429 1 479 1 487 1 491 1 499 1 
1 204 8 1 14 1 16 1 17 2 18 1 37 1 50 1 76 1 102 1 112 1 118 1 121 2 135 1 138 2 273 1 226 1 207 1 433 1 405 1 267 1 198 1 472 2 417 1 382 1 474 1 270 1 321 1 419 2 398 1 168 1 475 1 391 1 347 1 376 1 348 1 446 1 169 1 271 1 205 1 203 1 442 1 224 1 233 1 1 1 9 1 15 1 21 1 22 1 41 1 58 1 60 1 68 1 69 1 70 1 73 1 88 1 90 1 94 1 113 1 139 1 150 1 180 1 199 1 200 1 202 1 204 1 208 1 216 1 242 1 246 1 248 1 249 1 251 1 255 1 260 1 265 1 266 1 291 1 299 1 310 1 316 1 322 1 341 1 352 1 353 1 357 1 359 1 363 1 367 1 386 1 389 1 407 1 410 1 415 1 421 1 422 1 425 1 435 1 450 1 457 1 467 1 470 1 480 1 486 1 493 1 513 1 
1 213 2 1 10 1 13 1 20 1 25 1 28 2 41 1 43 1 44 1 46 2 55 1 61 1 78 1 80 2 81 1 87 1 107 1 129 1 132 1 135 2 137 2 141 1 151 1 161 1 463 1 261 2 498 1 473 1 341 1 298 1 222 1 373 1 418 1 291 1 432 1 240 1 246 1 288 1 284 2 275 1 274 1 233 1 217 1 178 1 198 1 358 1 315 1 352 1 403 2 378 1 410 2 364 1 282 1 243 1 263 1 319 1 307 2 22 1 29 1 63 1 64 1 72 1 77 1 82 1 85 1 93 1 115 1 127 1 133 1 158 1 165 1 177 1 195 1 206 1 207 1 213 1 216 1 220 1 224 1 228 1 248 1 251 1 269 1 270 1 305 1 322 1 338 1 353 1 372 1 386 1 387 1 391 1 392 1 405 1 407 1 413 1 416 1 422 1 442 1 444 1 451 1 455 1 462 1 470 1 472 1 477 1 481 1 492 1 
1 187 10 1 27 1 46 1 52 1 54 1 78 2 79 1 87 1 88 1 89 1 99 1 109 2 127 1 133 1 154 1 166 1 353 1 433 1 218 1 356 1 450 1 459 1 297 1 296 1 471 1 268 1 336 1 345 1 394 1 273 1 380 1 485 1 247 1 452 1 411 1 461 1 212 1 289 1 463 1 460 1 288 1 255 1 257 1 174 1 396 2 425 1 233 1 465 1 423 1 480 1 317 1 395 1 303 2 348 1 327 1 373 1 171 1 449 1 375 1 399 1 228 1 416 1 5 1 24 1 29 1 37 1 44 1 48 1 63 1 65 1 74 1 95 1 107 1 114 1 123 1 125 1 137 1 172 1 173 1 175 1 181 1 213 1 220 1 223 1 224 1 227 1 238 1 243 1 250 1 270 1 290 1 302 1 310 1 320 1 335 1 354 1 355 1 404 1 410 1 421 1 422 1 428 1 447 1 458 1 478 1 481 1 496 1 515 1 
1 199 8 1 28 1 34 1 46 1 64 1 87 1 88 1 101 1 109 1 111 1 113 1 120 1 124 2 125 1 133 1 135 1 138 1 161 2 163 1 166 1 351 1 313 1 250 1 322 1 230 2 170 1 346 1 474 1 297 1 476 1 225 1 383 1 300 1 324 1 263 1 205 1 389 2 303 1 174 1 326 1 363 1 485 1 333 1 416 1 454 1 256 1 281 1 410 1 236 2 277 1 479 1 182 1 464 1 391 1 414 1 365 1 369 1 2 1 10 1 23 1 24 1 32 1 40 1 45 1 52 1 71 1 94 1 114 1 118 1 129 1 131 1 134 1 150 1 162 1 179 1 212 1 221 1 226 1 241 1 252 1 254 1 272 1 274 1 292 1 295 1 317 1 319 1 327 1 332 1 335 1 338 1 344 1 352 1 354 1 356 1 358 1 367 1 372 1 377 1 382 1 386 1 388 1 393 1 394 1 404 1 421 1 428 1 430 1 438 1 443 1 468 1 480 1 489 1 494 1 497 1 498 1 
1 204 4 1 15 1 28 2 35 2 40 1 45 1 48 1 59 1 67 1 69 1 74 1 82 1 87 1 119 1 121 2 133 1 136 1 159 1 160 1 169 1 267 1 304 1 374 1 387 1 500 1 313 1 293 1 385 1 220 1 449 1 460 1 377 1 343 1 341 2 257 1 272 2 224 1 339 1 359 1 477 1 478 1 285 1 174 1 397 1 281 1 351 1 444 1 264 1 407 1 375 2 335 1 271 1 473 1 474 1 229 1 12 1 25 1 30 1 51 1 53 1 54 1 58 1 61 1 64 1 72 1 78 1 89 1 95 1 105 1 110 1 117 1 118 1 132 1 138 1 142 1 156 1 165 1 173 1 207 1 209 1 212 1 226 1 242 1 256 1 298 1 305 1 307 1 308 1 337 1 344 1 349 1 378 1 382 1 383 1 386 1 389 1 430 1 434 1 439 1 443 1 467 1 471 1 476 1 481 1 487 1 496 1 
1 223 5 1 13 1 17 1 23 1 38 1 40 1 50 1 51 2 54 1 64 1 66 2 67 1 70 1 78 1 89 1 93 1 96 1 103 1 106 1 109 1 122 1 129 1 130 1 137 1 141 1 143 1 160 1 168 1 231 1 267 1 214 1 496 1 380 1 201 1 470 1 359 1 457 1 440 1 394 1 315 1 338 1 494 1 364 1 313 2 404 1 255 1 464 1 259 1 485 1 480 1 303 2 492 1 248 1 302 1 281 2 294 2 209 2 415 1 277 1 286 2 297 1 461 2 399 1 186 1 260 1 215 1 220 1 1 1 4 1 45 1 47 1 71 1 91 1 99 1 118 1 123 1 126 1 173 1 180 1 200 1 218 1 223 1 228 1 235 1 237 1 239 1 245 1 270 1 274 1 293 1 298 1 308 1 314 1 371 1 379 1 387 1 389 1 401 1 409 1 410 1 418 1 426 1 438 1 455 1 465 1 466 1 472 1 488 1 500 1 512 1 
1 207 3 1 9 1 23 1 30 1 33 1 34 1 43 1 53 1 58 1 68 2 72 1 126 1 128 1 129 1 130 1 135 1 161 1 163 1 466 1 272 1 470 1 320 1 452 1 245 1 355 1 463 1 352 2 386 1 247 1 419 1 285 1 384 1 400 1 431 1 388 2 269 2 210 1 293 1 176 1 254 1 339 1 341 1 340 1 467 1 433 2 432 1 364 1 366 1 206 1 296 2 217 2 393 2 224 1 477 1 282 1 8 1 13 1 17 1 32 1 39 1 42 1 49 1 54 1 56 1 60 1 64 1 76 1 83 1 92 1 96 1 113 1 120 1 139 1 144 1 156 1 168 1 215 1 216 1 229 1 266 1 267 1 271 1 284 1 286 1 306 1 310 1 318 1 345 1 346 1 350 1 353 1 359 1 369 1 380 1 403 1 415 1 421 1 440 1 441 1 446 1 464 1 468 1 473 1 480 1 481 1 485 1 497 1 
1 196 8 1 11 1 33 1 34 1 38 1 39 1 47 1 56 1 61 1 72 1 73 1 74 1 78 1 86 2 87 1 91 2 100 1 111 1 117 1 120 1 123 1 124 1 125 1 145 1 153 1 164 1 165 1 343 1 376 1 305 2 273 1 439 2 257 1 363 1 210 2 495 1 341 1 461 1 412 2 229 1 499 1 351 2 236 1 417 1 487 2 274 1 225 1 382 1 248 1 315 1 332 1 373 1 239 1 204 1 482 1 213 1 474 1 308 1 245 1 435 1 397 1 449 1 326 1 186 1 389 1 467 1 366 1 184 1 444 1 352 1 255 2 498 1 7 1 16 1 20 1 48 1 59 1 84 1 102 1 113 1 119 1 131 1 135 1 140 1 155 1 168 1 170 1 171 1 193 1 201 1 202 1 223 1 230 1 259 1 270 1 272 1 283 1 298 1 300 1 301 1 302 1 323 1 338 1 339 1 340 1 357 1 367 1 383 1 403 1 450 1 451 1 457 1 485 1 488 1 516 1 
1 204 3 1 10 1 15 1 22 1 23 1 24 1 29 2 34 1 42 1 56 1 63 1 76 1 83 1 88 1 90 1 101 1 104 1 105 1 109 1 124 1 128 1 129 1 165 1 168 1 169 1 170 1 325 1 300 1 453 2 455 1 306 1 498 1 291 2 253 1 405 1 309 2 327 2 247 1 343 1 449 1 213 1 228 1 269 1 310 1 347 1 211 1 386 2 425 2 389 1 495 1 477 1 264 1 296 2 272 1 185 1 179 1 438 1 378 1 380 1 5 1 9 1 12 1 25 1 32 1 36 1 47 1 49 1 57 1 66 1 77 1 121 1 136 1 145 1 154 1 222 1 244 1 245 1 259 1 266 1 305 1 307 1 317 1 318 1 319 1 324 1 333 1 337 1 351 1 366 1 374 1 385 1 398 1 414 1 421 1 423 1 424 1 426 1 436 1 460 1 463 1 473 1 490 1 497 1 513 1 
1 200 1 1 4 1 8 1 28 1 35 1 38 1 40 1 49 1 56 1 65 1 66 1 71 1 91 1 92 1 126 1 127 1 135 1 310 1 479 1 395 1 241 1 203 1 213 1 441 1 352 1 466 1 338 1 436 1 301 1 321 1 409 1 253 1 421 1 328 1 437 1 277 1 291 1 427 1 209 1 410 1 216 1 233 1 226 1 249 1 475 1 406 1 464 1 308 1 447 2 496 2 224 1 21 1 31 1 52 1 57 1 70 1 75 1 82 1 86 1 87 1 95 1 111 1 125 1 129 1 134 1 139 1 168 1 187 1 215 1 230 1 243 1 246 1 248 1 264 1 276 1 293 1 298 1 302 1 316 1 332 1 333 1 335 1 339 1 348 1 355 1 359 1 370 1 375 1 384 1 405 1 414 1 429 1 430 1 431 1 438 1 439 1 460 1 483 1 486 1 491 1 499 1 504 1 
1 165 5 1 56 1 69 1 76 2 78 1 93 1 115 1 116 1 123 1 127 1 143 1 144 1 172 1 480 2 347 1 429 1 491 1 459 1 267 1 309 1 422 1 462 1 260 1 315 1 378 1 346 1 474 1 369 1 313 1 438 1 184 1 312 1 365 1 421 1 332 1 382 1 209 1 279 1 405 2 375 1 359 2 449 1 259 1 253 1 207 2 381 1 6 1 8 1 39 1 51 1 62 1 77 1 83 1 85 1 98 1 122 1 125 1 128 1 135 1 137 1 139 1 158 1 185 1 203 1 205 1 208 1 245 1 247 1 256 1 277 1 280 1 306 1 316 1 334 1 352 1 362 1 368 1 372 1 385 1 397 1 415 1 417 1 420 1 434 1 453 1 479 1 486 1 492 1 
1 195 15 1 26 1 29 1 39 1 71 2 94 1 117 1 118 1 129 1 142 1 443 1 366 1 487 1 398 2 409 1 491 2 444 1 465 1 206 1 277 1 243 1 484 1 239 1 314 1 246 1 254 1 365 1 267 2 286 1 492 1 215 1 454 1 477 1 234 1 359 1 291 1 308 1 336 1 418 1 375 1 473 1 279 1 372 1 429 1 223 1 316 1 263 1 452 1 490 2 349 1 432 1 369 2 240 1 6 1 10 1 13 1 24 1 33 1 38 1 47 1 50 1 57 1 60 1 66 1 84 1 97 1 98 1 99 1 100 1 106 1 123 1 126 1 128 1 143 1 167 1 180 1 203 1 221 1 225 1 250 1 260 1 262 1 264 1 269 1 295 1 309 1 356 1 373 1 379 1 385 1 407 1 408 1 433 1 442 1 448 1 459 1 466 1 468 1 469 1 478 1 482 1 494 1 
1 208 24 1 29 1 40 1 56 1 73 1 96 1 104 1 108 1 112 1 113 1 115 2 116 1 118 1 129 1 138 1 141 1 146 1 165 1 167 1 486 1 479 1 328 1 348 1 385 1 326 1 454 1 391 1 484 2 295 1 241 2 306 1 442 1 496 2 413 1 341 1 471 1 325 1 218 1 377 1 474 1 401 1 468 1 275 1 268 1 443 1 314 1 350 1 334 2 266 1 229 1 185 1 181 1 453 1 12 1 14 1 16 1 17 1 22 1 23 1 33 1 38 1 49 1 58 1 60 1 61 1 76 1 77 1 95 1 97 1 99 1 100 1 107 1 122 1 123 1 139 1 163 1 191 1 192 1 217 1 223 1 226 1 233 1 238 1 247 1 270 1 276 1 281 1 283 1 291 1 294 1 296 1 312 1 315 1 343 1 345 1 346 1 355 1 364 1 366 1 368 1 371 1 381 1 394 1 404 1 407 1 415 1 435 1 464 1 472 1 473 1 513 1 
1 199 10 1 14 2 19 1 30 1 38 1 57 1 58 1 64 1 67 1 83 1 84 1 91 1 96 1 119 1 124 1 137 1 138 1 174 1 406 1 209 1 347 1 430 1 213 1 426 1 333 1 305 1 238 1 423 1 431 1 332 1 264 1 286 1 419 1 433 1 322 1 226 1 379 1 408 1 254 2 309 1 240 1 222 1 289 1 360 1 356 2 445 1 279 1 489 1 212 1 199 1 284 2 337 2 413 1 386 1 5 1 21 1 25 1 31 1 36 1 47 1 49 1 53 1 66 1 70 1 71 1 80 1 81 1 108 1 109 1 134 1 135 1 139 1 141 1 143 1 149 1 169 1 183 1 210 1 228 1 237 1 243 1 245 1 252 1 257 1 268 1 270 1 273 1 287 1 303 1 312 1 327 1 330 1 331 1 366 1 371 1 388 1 389 1 391 1 396 1 398 1 404 1 411 1 416 1 447 1 452 1 453 1 464 1 467 1 477 1 484 1 485 1 487 1 494 1 495 1 497 1 508 1 
1 191 11 1 62 1 73 1 75 1 84 1 94 1 102 2 118 1 121 1 144 1 381 1 432 1 226 1 391 1 476 1 448 2 214 1 279 1 434 1 207 1 357 1 315 1 339 1 410 1 342 1 247 1 468 1 354 1 426 1 186 1 287 1 291 2 265 1 334 1 449 1 295 1 423 1 380 1 365 1 308 1 405 1 325 1 203 1 1 1 8 1 10 1 15 1 23 1 27 1 38 1 59 1 61 1 81 1 95 1 96 1 114 1 133 1 136 1 146 1 150 1 166 1 171 1 177 1 184 1 185 1 189 1 211 1 220 1 223 1 225 1 249 1 255 1 258 1 266 1 273 1 274 1 277 1 280 1 283 1 289 1 292 1 303 1 333 1 350 1 356 1 361 1 364 1 375 1 376 1 377 1 397 1 407 1 411 1 417 1 418 1 428 1 452 1 461 1 473 1 481 1 484 1 489 1 506 1 
1 215 3 1 5 1 8 2 10 1 21 1 25 1 26 1 37 1 43 1 63 2 64 1 66 2 76 1 112 1 123 1 144 1 147 2 153 1 178 1 314 1 349 1 474 1 377 1 397 1 227 1 380 1 336 2 492 1 429 1 386 1 313 1 470 1 422 1 371 1 259 1 301 1 465 1 254 1 401 1 434 2 416 1 475 1 340 1 498 2 487 1 348 1 354 1 485 1 250 1 267 1 245 1 312 1 494 1 450 1 403 1 394 1 446 1 297 1 9 1 19 1 35 1 45 1 75 1 89 1 101 1 102 1 122 1 133 1 138 1 146 1 168 1 184 1 210 1 215 1 223 1 228 1 232 1 243 1 246 1 258 1 272 1 288 1 289 1 290 1 298 1 302 1 316 1 330 1 335 1 343 1 357 1 370 1 374 1 384 1 399 1 402 1 407 1 410 1 414 1 415 1 424 1 431 1 444 1 454 1 467 1 479 1 484 1 488 1 495 1 496 1 499 1 501 1 505 1 
1 220 20 1 32 1 50 1 55 1 63 1 70 1 71 1 72 2 78 1 86 1 90 1 104 1 107 2 110 1 119 1 120 1 126 1 131 1 147 1 169 1 273 1 476 1 473 2 266 1 290 1 297 2 474 1 287 1 451 1 270 1 303 1 493 1 234 1 312 1 470 1 425 1 403 1 262 1 450 1 300 1 207 2 317 1 190 1 411 1 479 1 275 1 500 1 295 1 364 1 216 1 401 1 378 2 8 1 9 1 10 1 17 1 27 1 51 1 56 1 64 1 75 1 88 1 106 1 118 1 129 1 134 1 137 1 143 1 192 1 193 1 194 1 214 1 228 1 230 1 231 1 232 1 233 1 243 1 269 1 285 1 286 1 288 1 291 1 292 1 306 1 310 1 318 1 322 1 324 1 325 1 330 1 340 1 347 1 350 1 353 1 372 1 375 1 412 1 435 1 436 1 463 1 464 1 471 1 481 1 491 1 496 1 508 1 510 1 514 1 
1 199 9 1 11 1 18 1 21 1 23 2 39 1 49 1 56 1 66 1 72 1 86 1 106 2 108 1 122 2 154 1 231 1 489 1 289 1 275 1 476 1 452 1 229 1 268 1 272 1 387 1 236 1 215 1 463 1 380 1 218 1 469 1 373 1 313 1 409 1 234 1 211 1 481 1 294 1 279 1 250 1 292 2 273 1 464 1 391 1 456 1 265 1 454 1 368 1 366 1 319 2 416 1 340 1 237 2 331 1 222 1 10 1 16 1 29 1 42 1 69 1 117 1 118 1 147 1 179 1 194 1 196 1 200 1 210 1 212 1 219 1 223 1 269 1 286 1 293 1 296 1 320 1 324 1 336 1 345 1 346 1 352 1 360 1 363 1 369 1 382 1 384 1 385 1 412 1 418 1 419 1 430 1 445 1 460 1 474 1 497 1 509 1 
1 194 5 2 14 1 21 1 24 1 37 2 43 1 50 1 55 1 56 1 61 1 65 1 81 2 82 1 97 1 104 1 138 1 139 1 149 1 155 1 158 1 173 1 176 1 409 1 386 1 452 1 391 1 423 1 264 1 321 1 448 1 228 1 437 1 463 1 469 1 441 2 459 2 189 1 282 1 337 1 187 1 417 1 252 1 277 1 311 1 244 1 317 1 309 1 433 1 481 1 249 1 419 1 224 1 241 1 185 1 431 1 474 1 256 1 219 2 220 1 9 1 15 1 53 1 74 1 75 1 78 1 80 1 92 1 95 1 102 1 107 1 121 1 131 1 132 1 133 1 141 1 144 1 148 1 150 1 156 1 180 1 181 1 186 1 195 1 199 1 229 1 235 1 238 1 262 1 313 1 315 1 319 1 331 1 333 1 340 1 345 1 366 1 377 1 379 1 383 1 387 1 395 1 397 1 445 1 455 1 465 1 470 1 472 1 479 1 480 1 
1 186 15 1 27 1 34 2 35 1 38 1 58 1 65 1 102 1 107 1 115 1 122 1 133 1 138 1 148 1 174 1 178 1 184 1 313 1 442 1 465 1 299 1 417 2 320 1 314 1 259 2 464 1 466 1 234 1 286 1 236 1 260 1 229 1 213 1 251 1 339 1 388 1 454 1 343 1 228 1 392 1 459 1 216 1 401 1 405 1 434 1 284 1 296 1 431 1 337 1 190 2 386 1 238 1 243 1 482 2 458 1 204 1 3 1 4 1 7 1 17 1 28 1 36 1 64 1 79 1 87 1 106 1 140 1 156 1 176 1 180 1 188 1 191 1 192 1 218 1 220 1 227 1 235 1 240 1 245 1 247 1 267 1 283 1 287 1 297 1 304 1 309 1 310 1 317 1 325 1 326 1 327 1 346 1 354 1 359 1 363 1 364 1 370 1 374 1 382 1 398 1 404 1 427 1 456 1 470 1 471 1 499 1 501 1 
1 216 14 1 21 1 25 1 34 1 37 1 42 1 44 1 49 2 50 1 60 1 70 1 96 2 100 2 101 1 118 1 129 2 138 1 147 1 150 1 158 1 171 1 173 1 180 1 478 1 372 1 346 1 429 1 231 2 396 1 474 1 371 1 393 1 233 1 431 1 486 1 302 1 447 1 445 1 330 1 368 1 470 2 455 1 457 2 298 1 238 1 481 1 215 1 362 1 284 1 359 2 489 1 296 1 243 1 453 1 460 1 446 1 299 1 466 1 496 1 347 1 303 1 329 1 336 1 3 1 6 1 11 1 13 1 23 1 39 1 56 1 67 1 78 1 83 1 86 1 93 1 94 1 113 1 184 1 204 1 212 1 217 1 223 1 227 1 245 1 269 1 271 1 272 1 290 1 293 1 306 1 307 1 325 1 335 1 355 1 356 1 373 1 379 1 383 1 400 1 404 1 408 1 420 1 421 1 424 1 438 1 472 1 483 1 495 1 500 1 
1 213 12 1 37 1 39 2 43 1 53 1 63 2 64 1 65 2 71 1 94 2 102 1 116 1 136 1 140 1 141 1 148 1 151 2 152 1 159 2 184 1 340 1 269 1 342 1 359 1 309 1 488 1 440 1 303 1 473 1 219 2 256 1 407 1 390 1 396 2 462 2 490 1 394 1 494 1 276 1 499 1 357 1 354 1 294 1 468 2 434 1 230 2 406 1 379 1 192 1 400 1 241 1 418 1 271 1 436 1 360 1 221 1 344 1 324 1 327 2 8 1 11 1 15 1 18 1 20 1 29 1 34 1 45 1 47 1 57 1 62 1 84 1 97 1 110 1 120 1 122 1 123 1 130 1 160 1 162 1 175 1 227 1 233 1 249 1 254 1 259 1 267 1 293 1 311 1 314 1 323 1 343 1 363 1 365 1 382 1 383 1 384 1 385 1 387 1 388 1 393 1 399 1 409 1 412 1 414 1 416 1 417 1 430 1 432 1 441 1 450 1 452 1 467 1 469 1 475 1 486 1 497 1 502 1 510 1 517 1 
1 198 5 1 21 1 24 1 29 1 53 1 54 1 55 1 68 2 70 1 73 1 85 1 97 2 100 1 106 1 124 1 126 1 132 1 134 1 137 1 138 1 140 1 143 1 154 1 456 1 298 2 308 1 342 1 318 1 366 1 357 1 304 1 345 1 261 1 484 1 370 1 467 1 385 1 232 1 411 1 287 1 396 1 493 1 470 1 461 1 247 1 220 1 408 1 296 1 189 1 429 2 497 1 479 2 286 1 289 1 222 1 229 1 362 1 341 2 349 1 414 1 260 1 490 1 207 1 25 1 26 1 32 1 39 1 41 1 47 1 59 1 80 1 82 1 83 1 101 1 109 1 118 1 121 1 136 1 147 1 150 1 157 1 158 1 185 1 191 1 195 1 224 1 226 1 265 1 288 1 305 1 310 1 313 1 325 1 350 1 351 1 369 1 380 1 406 1 407 1 409 1 425 1 453 1 474 1 477 1 485 1 487 1 
1 202 14 1 16 1 20 1 28 1 33 1 34 1 38 2 40 1 45 1 51 1 57 1 79 1 95 1 100 1 110 1 138 1 141 1 150 1 162 1 184 1 188 1 448 1 445 1 216 1 417 1 278 1 498 1 263 1 217 1 322 1 234 1 454 1 458 1 245 1 252 1 361 1 363 1 483 1 299 1 418 1 401 1 260 2 397 1 429 2 357 1 338 1 196 1 360 1 336 1 12 1 21 1 31 1 41 1 46 1 52 1 55 1 58 1 59 1 65 1 75 1 88 1 93 1 97 1 99 1 102 1 126 1 132 1 135 1 153 1 154 1 180 1 191 1 211 1 224 1 235 1 236 1 251 1 253 1 259 1 283 1 288 1 296 1 297 1 301 1 302 1 310 1 315 1 344 1 349 1 352 1 365 1 374 1 375 1 376 1 377 1 378 1 379 1 384 1 394 1 398 1 409 1 411 1 414 1 424 1 426 1 428 1 432 1 434 1 435 1 442 1 460 1 472 1 488 1 489 1 
1 184 3 1 24 1 25 1 64 2 71 1 82 1 88 1 98 1 100 1 103 1 106 1 111 1 115 1 119 1 140 2 155 1 182 1 185 2 290 1 265 1 374 1 461 1 495 2 232 1 246 1 268 1 394 1 483 1 306 1 452 1 219 1 264 1 193 1 491 1 405 1 273 1 316 2 408 1 413 1 371 1 328 1 303 1 206 1 447 1 201 1 241 1 367 1 277 1 309 2 348 1 254 2 1 1 7 1 15 1 23 1 33 1 55 1 56 1 69 1 118 1 134 1 137 1 149 1 160 1 220 1 225 1 229 1 237 1 238 1 248 1 255 1 260 1 261 1 285 1 298 1 302 1 313 1 315 1 320 1 335 1 337 1 350 1 356 1 380 1 385 1 389 1 399 1 403 1 417 1 426 1 430 1 437 1 462 1 465 1 474 1 489 1 499 1 500 1 
1 203 2 1 13 1 25 1 27 1 28 2 30 1 33 1 37 1 39 1 83 1 90 1 102 1 106 1 125 1 128 1 135 1 138 1 141 1 149 2 382 2 253 2 254 2 361 1 420 1 384 1 351 2 458 2 264 1 282 1 374 1 290 1 375 1 273 1 468 1 303 1 304 1 411 1 230 1 421 1 440 1 392 2 450 2 222 2 346 1 246 2 193 1 368 1 255 1 272 1 277 1 200 1 413 1 473 1 493 1 402 1 4 1 7 1 20 1 35 1 72 1 73 1 82 1 91 1 111 1 116 1 120 1 126 1 130 1 143 1 162 1 178 1 185 1 188 1 189 1 194 1 195 1 235 1 276 1 278 1 283 1 297 1 300 1 307 1 311 1 312 1 313 1 326 1 337 1 340 1 356 1 359 1 360 1 371 1 383 1 389 1 390 1 412 1 417 1 443 1 454 1 462 1 488 1 505 1 513 1 
1 185 7 1 17 1 22 1 25 2 34 1 35 1 52 1 61 1 91 1 103 1 108 1 115 1 135 1 137 1 141 1 161 2 163 1 187 1 389 1 329 1 358 1 374 1 332 1 429 1 336 2 464 1 370 1 493 2 408 1 261 1 246 1 346 1 455 1 422 2 302 1 194 1 232 1 227 1 198 1 397 1 251 1 273 1 357 1 473 1 416 1 431 1 413 1 293 1 335 1 308 1 482 1 476 1 421 1 470 1 378 1 474 1 8 1 18 1 23 1 24 1 29 1 31 1 37 1 46 1 54 1 75 1 76 1 86 1 88 1 96 1 136 1 154 1 178 1 182 1 185 1 199 1 221 1 222 1 224 1 240 1 255 1 262 1 266 1 280 1 288 1 290 1 305 1 309 1 311 1 313 1 318 1 319 1 323 1 326 1 359 1 402 1 449 1 454 1 490 1 
1 190 13 1 19 1 24 2 26 1 31 2 35 1 44 1 47 2 55 1 80 2 92 1 101 1 113 1 119 1 126 2 131 2 137 1 141 1 151 2 190 1 191 1 347 1 349 1 440 1 375 1 482 1 235 2 361 1 298 1 275 1 337 1 451 1 497 1 467 1 427 1 496 1 469 1 491 1 264 1 231 1 258 1 477 1 287 1 317 2 420 1 197 1 336 1 356 2 311 1 421 1 4 1 8 1 14 1 33 1 38 1 43 1 48 1 66 1 68 1 77 1 81 1 84 1 93 1 95 1 98 1 100 1 108 1 112 1 118 1 123 1 130 1 146 1 153 1 159 1 173 1 182 1 233 1 249 1 251 1 261 1 262 1 263 1 266 1 270 1 272 1 280 1 312 1 323 1 348 1 363 1 370 1 373 1 381 1 385 1 392 1 395 1 401 1 407 1 411 1 430 1 431 1 443 1 446 1 456 1 457 1 459 1 461 1 470 1 472 1 480 1 495 1 
1 202 4 1 9 1 36 1 38 1 64 1 69 1 75 1 76 2 86 2 106 1 119 1 120 1 130 1 131 2 135 1 142 1 151 1 192 1 292 1 442 1 462 1 224 1 417 1 457 1 236 1 391 1 479 1 355 1 294 1 361 1 448 1 406 1 289 1 483 1 305 1 273 1 470 1 402 1 301 1 272 1 341 1 398 1 473 1 235 1 310 1 282 1 229 1 247 1 353 1 237 1 255 1 334 1 337 1 425 1 259 1 264 1 276 2 246 1 409 1 488 2 327 1 13 1 39 1 60 1 77 1 89 1 93 1 95 1 98 1 112 1 122 1 123 1 182 1 183 1 191 1 222 1 245 1 248 1 249 1 285 1 290 1 304 1 314 1 322 1 333 1 339 1 343 1 347 1 351 1 366 1 367 1 374 1 375 1 380 1 383 1 386 1 387 1 397 1 412 1 454 1 458 1 463 1 471 1 492 1 497 1 
1 192 2 1 15 1 20 1 28 1 43 1 47 1 54 1 72 1 74 1 77 1 78 1 81 1 83 1 111 1 121 1 124 2 125 1 128 1 140 1 157 1 161 1 164 1 292 2 440 1 383 1 396 1 241 1 484 2 462 1 387 1 333 1 412 1 373 1 272 1 352 1 360 2 496 1 426 2 430 1 315 1 375 1 456 1 222 1 461 1 260 1 340 1 463 1 305 1 268 1 469 1 384 1 263 1 334 1 271 1 299 1 318 1 229 1 270 1 264 1 289 1 3 1 9 1 10 1 21 1 24 1 29 1 30 1 39 1 48 1 73 1 92 1 94 1 101 1 108 1 112 1 119 1 149 1 151 1 160 1 165 1 167 1 184 1 188 1 191 1 197 1 228 1 245 1 259 1 285 1 287 1 306 1 313 1 316 1 327 1 336 1 349 1 376 1 397 1 402 1 442 1 449 1 455 1 460 1 481 1 486 1 491 1 493 1 506 1 507 1 
1 211 10 1 13 1 38 1 39 1 43 1 57 1 63 1 85 1 87 2 99 1 110 1 111 1 115 1 117 2 118 1 136 1 154 1 157 1 163 2 189 1 316 2 356 1 242 1 240 1 236 1 405 1 272 1 392 1 263 1 235 1 271 1 360 1 322 1 427 1 370 1 498 1 233 2 387 1 408 2 318 1 287 1 466 1 420 1 340 1 307 1 447 1 228 1 338 1 230 1 8 1 12 1 24 1 51 1 67 1 79 1 92 1 98 1 108 1 116 1 119 1 128 1 140 1 143 1 153 1 165 1 183 1 199 1 239 1 254 1 258 1 259 1 274 1 284 1 298 1 303 1 306 1 324 1 335 1 341 1 354 1 366 1 377 1 380 1 383 1 398 1 406 1 409 1 413 1 418 1 432 1 433 1 459 1 461 1 462 1 464 1 468 1 497 1 
1 191 2 1 6 1 10 2 34 1 59 1 64 1 67 1 78 1 81 1 117 1 119 1 139 1 144 2 193 1 448 1 350 1 417 1 359 1 373 1 353 1 412 1 323 1 408 1 313 1 337 1 460 1 395 1 476 1 316 1 390 1 328 1 381 1 310 1 312 1 468 2 207 1 380 1 299 2 198 2 490 1 392 1 245 1 397 1 479 1 372 1 401 1 342 1 492 1 220 1 284 1 452 1 497 1 291 1 480 1 266 1 317 1 494 1 16 1 18 1 25 1 37 1 38 1 43 1 49 1 50 1 69 1 72 1 76 1 96 1 124 1 131 1 135 1 154 1 157 1 195 1 199 1 204 1 239 1 248 1 251 1 255 1 268 1 276 1 290 1 298 1 320 1 333 1 336 1 338 1 341 1 348 1 355 1 369 1 371 1 383 1 385 1 394 1 405 1 431 1 447 1 472 1 474 1 491 1 496 1 510 1 511 1 
1 215 6 1 13 1 30 1 42 2 53 2 63 1 73 1 74 1 75 2 85 1 102 1 133 1 150 1 159 1 166 1 167 1 192 1 197 2 491 1 406 1 350 1 481 2 233 1 348 1 334 1 239 1 457 1 403 1 388 2 276 1 467 1 231 1 416 1 373 1 455 1 309 1 300 1 363 1 210 2 267 1 446 1 483 1 251 2 270 2 376 1 352 1 366 2 347 1 356 1 314 2 206 2 288 1 336 1 247 1 370 1 219 2 418 2 381 1 220 1 257 1 10 1 16 1 17 1 37 1 38 1 46 1 52 1 67 1 68 1 77 1 97 1 126 1 131 1 135 1 136 1 137 1 165 1 212 1 224 1 230 1 241 1 253 1 265 1 291 1 292 1 306 1 315 1 362 1 365 1 368 1 371 1 384 1 393 1 412 1 419 1 420 1 422 1 431 1 435 1 440 1 442 1 444 1 462 1 468 1 474 1 490 1 495 1 497 1 
1 177 3 1 12 1 17 1 31 1 54 1 66 1 78 1 107 1 108 1 120 1 153 2 162 1 179 1 445 1 489 2 396 1 431 1 475 1 335 1 403 1 325 1 353 2 331 1 495 1 458 1 240 1 244 1 338 1 421 1 400 1 274 1 500 1 425 1 276 1 491 1 370 1 468 1 320 1 327 2 498 1 399 1 405 1 345 1 4 1 8 1 10 1 13 1 18 1 27 1 37 1 44 1 58 1 65 1 70 1 73 1 82 1 83 1 100 1 104 1 112 1 115 1 132 1 138 1 141 1 146 1 148 1 157 1 163 1 164 1 166 1 184 1 192 1 196 1 197 1 203 1 224 1 233 1 257 1 259 1 280 1 291 1 292 1 321 1 323 1 329 1 339 1 344 1 355 1 373 1 376 1 389 1 395 1 412 1 426 1 452 1 454 1 464 1 465 1 477 1 486 1 515 1 517 1 
1 203 9 1 11 1 13 1 32 1 35 1 47 1 55 1 74 1 77 1 85 1 104 2 107 1 110 1 124 1 128 1 136 1 139 1 144 1 145 1 191 1 399 2 473 1 495 1 382 1 236 1 272 1 285 1 362 1 419 1 259 1 290 1 429 1 312 1 249 1 253 1 499 1 498 1 388 1 422 1 426 1 377 2 268 1 366 1 313 1 443 1 471 2 374 1 206 1 398 1 467 1 450 1 6 1 7 1 15 1 17 1 38 1 49 1 54 1 59 1 76 1 84 1 91 1 97 1 98 1 131 1 137 1 142 1 158 1 166 1 171 1 183 1 201 1 205 1 210 1 239 1 240 1 257 1 260 1 267 1 280 1 284 1 288 1 294 1 297 1 303 1 319 1 324 1 326 1 327 1 328 1 344 1 345 1 358 1 383 1 385 1 391 1 394 1 413 1 428 1 455 1 472 1 497 1 506 1 
1 206 5 1 30 1 36 1 47 1 51 1 62 1 70 1 91 2 117 1 120 1 121 1 147 2 151 1 157 2 171 1 190 1 256 1 248 1 356 1 431 1 323 2 374 1 328 1 310 1 285 1 309 1 379 1 409 1 398 1 307 1 305 1 337 1 470 1 247 1 438 1 243 1 321 1 414 1 497 1 277 1 352 2 209 1 258 1 353 1 272 1 396 1 220 1 494 1 207 1 412 2 245 1 253 1 486 1 445 2 246 1 490 1 6 1 17 1 25 1 31 1 33 1 35 1 38 1 48 1 69 1 76 1 79 1 82 1 85 1 89 1 90 1 94 1 100 1 103 1 106 1 109 1 126 1 130 1 132 1 138 1 143 1 144 1 160 1 165 1 173 1 200 1 204 1 240 1 250 1 259 1 286 1 293 1 313 1 318 1 320 1 326 1 335 1 338 1 360 1 369 1 370 1 386 1 404 1 435 1 436 1 448 1 455 1 464 1 482 1 485 1 495 1 501 1 516 1 
1 194 1 1 21 1 22 1 33 1 38 1 40 1 84 1 85 1 107 1 119 1 135 1 140 2 142 1 144 1 145 1 156 2 159 1 388 1 402 1 322 1 276 1 354 1 440 1 479 1 434 1 391 1 340 1 234 1 369 1 335 1 321 1 364 1 361 1 358 1 466 1 327 2 356 1 398 2 457 1 351 1 300 1 485 1 352 1 366 1 209 2 353 1 238 1 433 1 382 1 488 1 274 1 249 2 214 1 452 1 332 1 292 1 480 1 394 1 475 1 19 1 26 1 27 1 42 1 51 1 63 1 64 1 66 1 71 1 74 1 86 1 96 1 108 1 112 1 124 1 148 1 153 1 155 1 166 1 173 1 208 1 215 1 221 1 243 1 254 1 257 1 259 1 260 1 265 1 268 1 299 1 304 1 325 1 381 1 396 1 403 1 406 1 428 1 430 1 444 1 456 1 463 1 484 1 492 1 509 1 512 1 
1 217 1 1 9 1 10 1 40 1 44 1 45 1 67 1 73 1 85 1 93 1 95 1 97 1 127 1 131 1 133 2 138 1 140 1 153 1 158 2 162 1 164 1 166 1 175 1 180 1 294 1 287 1 261 1 348 1 477 1 454 1 499 1 428 1 247 1 489 1 405 1 455 1 412 1 492 2 252 1 411 1 437 1 326 1 323 1 390 1 285 1 381 1 268 1 239 2 500 1 495 1 243 1 246 1 461 1 272 2 375 1 417 1 379 1 244 1 6 1 16 1 23 1 29 1 30 1 32 1 56 1 59 1 79 1 80 1 91 1 100 1 103 1 105 1 109 1 121 1 139 1 151 1 165 1 176 1 177 1 199 1 206 1 212 1 242 1 245 1 253 1 262 1 271 1 306 1 307 1 309 1 313 1 332 1 366 1 396 1 409 1 438 1 447 1 450 1 453 1 464 1 465 1 470 1 472 1 476 1 487 1 488 1 490 1 507 1 509 1 514 1 515 1 
1 219 3 1 4 1 7 1 10 2 31 1 38 1 43 1 57 1 78 1 82 1 97 1 98 1 101 1 108 1 127 1 133 1 134 1 141 1 145 1 152 1 154 1 156 1 162 1 173 1 185 1 335 1 296 1 282 1 489 2 426 1 459 1 478 2 268 2 290 1 471 1 322 1 397 1 482 2 390 1 435 2 370 2 327 1 377 1 494 1 213 1 310 1 243 1 272 1 220 1 292 1 307 2 398 1 287 1 298 1 418 1 385 1 364 1 446 1 490 1 269 1 463 1 304 1 2 1 24 1 34 1 50 1 53 1 81 1 102 1 114 1 118 1 122 1 128 1 157 1 159 1 166 1 186 1 197 1 201 1 214 1 239 1 252 1 260 1 275 1 277 1 278 1 281 1 284 1 288 1 309 1 311 1 320 1 329 1 330 1 342 1 359 1 362 1 365 1 367 1 371 1 374 1 379 1 382 1 387 1 391 1 412 1 431 1 437 1 453 1 458 1 480 1 481 1 497 1 504 1 
1 182 21 1 25 1 32 1 34 1 35 1 43 1 44 1 55 1 56 1 66 1 69 1 98 2 100 2 106 1 120 1 123 1 133 1 139 1 157 1 164 1 166 1 169 1 453 1 452 1 313 1 297 2 330 1 378 1 237 1 285 1 379 1 396 1 468 1 346 1 240 1 251 1 276 1 269 1 309 1 394 2 278 1 464 1 275 1 408 1 383 1 352 2 466 1 498 1 248 1 228 1 499 1 255 1 223 1 325 1 329 1 234 1 319 1 449 1 5 1 38 1 41 1 46 1 51 1 59 1 71 1 84 1 88 1 92 1 99 1 101 1 102 1 112 1 117 1 137 1 141 1 154 1 176 1 200 1 209 1 215 1 222 1 229 1 242 1 249 1 252 1 261 1 272 1 274 1 296 1 298 1 303 1 328 1 348 1 355 1 364 1 365 1 369 1 374 1 375 1 405 1 438 1 443 1 487 1 512 1 
1 210 2 1 5 1 13 1 16 1 20 1 24 1 36 1 45 1 59 1 65 1 71 1 93 1 95 1 99 1 100 2 102 1 104 1 111 1 133 1 134 1 141 1 144 1 146 1 153 2 164 1 172 1 177 1 190 1 198 2 200 1 251 1 248 1 283 1 362 1 380 1 401 1 347 1 432 1 210 1 441 1 263 1 408 1 422 1 485 1 378 1 318 1 254 1 345 1 492 1 468 1 314 1 240 1 490 1 450 2 429 1 342 1 330 1 218 1 289 2 17 1 22 1 41 1 46 1 56 1 72 1 75 1 84 1 91 1 112 1 115 1 121 1 131 1 135 1 149 1 152 1 156 1 167 1 203 1 207 1 219 1 220 1 237 1 239 1 245 1 255 1 270 1 272 1 298 1 308 1 325 1 328 1 332 1 335 1 337 1 340 1 344 1 361 1 372 1 373 1 415 1 420 1 424 1 443 1 448 1 457 1 461 1 470 1 484 1 491 1 494 1 498 1 
1 207 7 1 10 2 11 1 13 1 15 2 22 1 34 1 45 1 58 1 68 1 81 1 102 1 105 1 113 1 119 1 140 1 143 1 158 1 166 1 176 2 180 1 182 2 188 1 197 1 201 1 247 2 270 2 443 1 407 1 368 1 358 1 300 1 477 1 330 1 484 1 280 1 391 1 376 1 433 1 412 1 355 2 343 1 382 1 458 1 261 1 262 1 228 1 287 1 317 2 282 1 310 1 341 1 411 1 491 1 369 1 253 1 357 1 296 1 425 1 18 1 26 1 28 1 29 1 39 1 55 1 59 1 60 1 65 1 67 1 72 1 76 1 80 1 82 1 104 1 108 1 127 1 132 1 136 1 141 1 145 1 146 1 156 1 160 1 167 1 170 1 206 1 210 1 211 1 244 1 245 1 258 1 277 1 288 1 321 1 326 1 327 1 350 1 367 1 371 1 374 1 377 1 381 1 393 1 397 1 408 1 415 1 421 1 428 1 434 1 439 1 445 1 488 1 490 1 492 1 494 1 499 1 514 1 515 1 
1 197 1 1 11 1 46 1 49 1 61 1 66 1 68 1 72 1 90 1 97 1 99 1 110 1 112 1 114 1 140 1 143 1 144 1 151 2 154 2 157 1 163 1 361 1 300 1 409 1 313 1 366 1 400 1 411 1 444 1 327 1 482 1 412 2 323 1 310 1 379 1 458 1 257 1 488 1 325 1 276 2 261 1 465 1 481 1 222 1 439 2 218 1 230 1 299 1 340 1 397 1 408 1 324 1 225 1 317 1 273 1 259 1 279 1 350 1 461 2 476 1 459 1 17 1 22 1 32 1 43 1 55 1 58 1 60 1 92 1 105 1 107 1 111 1 115 1 118 1 145 1 147 1 166 1 176 1 202 1 215 1 266 1 280 1 282 1 284 1 295 1 302 1 306 1 308 1 326 1 335 1 338 1 344 1 345 1 372 1 391 1 425 1 430 1 431 1 438 1 440 1 445 1 446 1 454 1 463 1 467 1 468 1 486 1 495 1 
1 219 5 1 12 1 15 1 49 1 61 1 62 1 69 1 73 1 80 1 81 1 82 2 93 1 112 1 119 2 150 1 152 1 159 1 171 2 175 1 176 1 179 1 201 1 202 2 469 1 465 1 436 1 212 2 312 1 267 1 382 1 407 2 272 1 219 2 299 1 423 1 431 1 264 1 453 1 468 1 255 2 437 2 360 1 494 1 367 1 273 1 389 1 337 1 357 1 29 1 44 1 46 1 54 1 55 1 66 1 70 1 75 1 79 1 83 1 99 1 115 1 136 1 137 1 146 1 170 1 205 1 210 1 246 1 247 1 256 1 257 1 259 1 260 1 270 1 285 1 292 1 301 1 310 1 311 1 321 1 326 1 343 1 346 1 350 1 364 1 370 1 372 1 376 1 388 1 392 1 405 1 411 1 412 1 421 1 422 1 430 1 447 1 452 1 464 1 473 1 476 1 480 1 487 1 508 1 
1 181 2 1 14 1 26 1 39 1 62 1 69 2 72 1 77 1 96 1 98 1 102 1 103 1 104 1 105 1 109 1 114 1 130 1 141 2 150 1 153 2 172 1 173 2 198 2 206 1 261 1 495 2 437 1 387 1 436 1 368 1 425 1 362 2 318 1 319 1 338 1 470 1 302 1 499 1 278 1 249 1 306 1 476 1 371 1 482 1 329 1 342 1 414 1 298 1 228 1 259 1 257 1 225 1 486 1 364 2 379 1 290 1 17 1 25 1 43 1 63 1 66 1 74 1 82 1 93 1 100 1 111 1 117 1 119 1 123 1 125 1 128 1 129 1 139 1 147 1 165 1 179 1 181 1 183 1 200 1 207 1 209 1 222 1 243 1 252 1 260 1 303 1 328 1 344 1 348 1 357 1 378 1 380 1 442 1 473 1 483 1 484 1 494 1 500 1 
1 195 6 1 8 1 17 1 29 1 40 1 48 1 55 1 57 1 61 2 76 1 77 1 82 1 83 1 87 1 88 2 94 1 116 1 117 1 126 1 128 1 129 1 133 1 135 2 139 1 140 1 147 1 153 1 154 1 155 1 174 1 183 1 391 1 275 1 421 1 283 1 305 1 459 2 265 1 377 1 478 1 330 2 445 2 244 2 499 1 312 1 289 1 304 1 371 1 356 1 301 1 486 1 476 1 386 1 272 1 288 2 320 1 315 1 458 2 432 1 342 1 460 1 232 1 443 1 287 1 426 2 376 2 429 1 248 1 471 2 297 1 223 1 398 1 16 1 21 1 32 1 33 1 46 1 51 1 86 1 90 1 92 1 97 1 98 1 113 1 134 1 136 1 146 1 148 1 180 1 189 1 207 1 215 1 252 1 253 1 254 1 257 1 278 1 299 1 316 1 340 1 343 1 344 1 365 1 368 1 375 1 389 1 401 1 428 1 448 1 461 1 470 1 490 1 
1 198 16 1 24 1 34 1 54 1 58 1 63 2 82 1 107 1 108 1 110 2 145 2 153 2 168 1 179 1 209 2 485 1 442 2 372 1 303 2 358 1 469 1 340 1 280 1 359 1 474 2 348 1 363 1 497 2 392 1 465 1 298 1 279 1 492 1 253 1 328 2 355 1 282 1 371 1 433 1 356 1 312 1 454 1 224 1 314 2 366 2 264 1 374 2 346 1 323 1 247 1 234 2 398 1 330 1 430 1 15 1 27 1 32 1 36 1 42 1 48 1 51 1 56 1 75 1 79 1 83 1 90 1 94 1 98 1 111 1 122 1 134 1 136 1 137 1 143 1 157 1 169 1 170 1 183 1 186 1 198 1 203 1 222 1 229 1 232 1 238 1 246 1 248 1 252 1 257 1 261 1 263 1 275 1 278 1 288 1 302 1 318 1 321 1 325 1 333 1 335 1 336 1 353 1 362 1 365 1 369 1 375 1 377 1 429 1 432 1 452 1 473 1 489 1 501 1 
1 218 8 1 10 1 16 1 23 1 34 2 36 1 38 1 52 1 53 2 55 1 56 1 58 1 60 2 71 1 89 1 92 1 109 1 113 1 131 1 147 1 150 2 154 1 155 1 158 1 173 1 174 1 175 1 179 1 185 1 204 1 399 1 269 1 429 1 329 2 410 1 420 2 372 1 255 1 214 1 353 1 483 1 402 1 261 1 374 1 438 1 334 2 412 1 413 1 284 1 397 1 401 1 312 1 316 1 317 1 367 1 472 1 491 1 289 1 490 1 482 1 292 1 464 1 369 1 357 1 453 1 219 1 426 1 440 1 9 1 17 1 19 1 31 1 37 1 41 1 66 1 73 1 74 1 86 1 100 1 118 1 126 1 128 1 130 1 156 1 165 1 167 1 168 1 215 1 218 1 247 1 258 1 268 1 274 1 276 1 278 1 282 1 298 1 350 1 360 1 371 1 377 1 380 1 382 1 388 1 392 1 394 1 407 1 408 1 414 1 418 1 421 1 431 1 434 1 439 1 446 1 448 1 462 1 469 1 495 1 498 1 503 1 505 1 517 1 
1 208 2 1 4 1 15 1 24 1 29 1 41 1 44 1 50 1 51 1 65 1 72 1 76 1 79 1 80 1 83 1 110 1 121 1 153 1 163 1 171 1 180 1 202 1 213 1 331 1 278 1 322 1 412 2 445 1 491 1 357 1 289 1 310 1 273 1 407 1 377 1 260 1 340 1 318 1 339 1 312 1 441 1 463 1 217 1 389 1 387 1 346 1 362 1 392 1 294 1 396 1 498 1 333 1 356 1 341 1 305 1 10 1 13 1 28 1 40 1 43 1 45 1 61 1 81 1 89 1 98 1 107 1 108 1 109 1 112 1 125 1 133 1 135 1 141 1 145 1 161 1 162 1 182 1 204 1 218 1 265 1 279 1 285 1 304 1 306 1 316 1 336 1 343 1 350 1 351 1 360 1 369 1 371 1 384 1 390 1 395 1 404 1 411 1 436 1 457 1 469 1 470 1 471 1 481 1 505 1 512 1 
1 201 6 1 7 2 8 1 12 1 15 2 22 1 36 1 72 1 74 1 80 1 85 1 93 2 115 1 117 1 122 1 124 1 129 1 145 1 152 1 156 2 171 1 177 1 183 1 186 1 496 1 279 1 333 1 478 1 427 1 271 1 355 1 256 1 227 1 249 2 490 1 222 1 313 1 272 1 368 1 230 1 434 1 218 1 449 1 448 1 349 1 350 1 495 1 486 2 320 1 399 1 367 1 380 1 315 1 430 2 311 1 423 1 358 1 16 1 17 1 41 1 44 1 46 1 51 1 60 1 61 1 71 1 75 1 84 1 88 1 92 1 97 1 101 1 125 1 130 1 142 1 172 1 175 1 181 1 202 1 205 1 208 1 211 1 213 1 224 1 247 1 251 1 254 1 268 1 283 1 287 1 298 1 300 1 304 1 309 1 310 1 321 1 326 1 344 1 360 1 364 1 369 1 419 1 420 1 421 1 429 1 432 1 464 1 477 1 480 1 481 1 483 1 489 1 513 1 
1 209 1 2 3 1 5 1 20 1 26 1 37 1 47 1 48 2 49 1 53 1 55 1 57 1 64 1 65 1 66 1 73 1 82 2 101 1 113 1 120 1 123 1 139 1 141 1 146 1 160 1 175 1 182 1 185 1 189 1 219 1 390 1 492 1 337 1 412 1 283 2 490 1 282 1 430 1 493 1 383 1 411 1 478 1 433 2 315 1 497 1 454 1 273 1 339 1 335 1 472 1 500 1 220 1 258 1 453 1 495 1 462 1 294 1 8 1 24 1 32 1 36 1 40 1 42 1 44 1 52 1 56 1 75 1 76 1 84 1 93 1 95 1 98 1 108 1 111 1 125 1 127 1 161 1 162 1 166 1 167 1 172 1 221 1 224 1 235 1 247 1 251 1 252 1 281 1 298 1 312 1 328 1 338 1 347 1 371 1 381 1 400 1 416 1 419 1 431 1 437 1 452 1 463 1 469 1 481 1 
1 211 6 1 21 1 25 1 30 1 33 1 35 2 46 2 52 1 70 1 79 1 100 2 104 1 121 1 138 1 148 1 165 1 167 1 172 2 189 1 214 1 294 1 285 1 448 1 354 1 338 1 261 2 289 1 320 1 384 1 361 1 278 2 262 1 407 1 393 1 420 2 345 1 331 1 491 1 379 2 344 1 453 1 414 1 422 1 360 1 482 2 284 1 259 1 250 1 466 1 445 2 233 1 451 1 468 2 225 1 500 1 298 1 12 1 28 1 32 1 51 1 59 1 69 1 74 1 78 1 89 1 93 1 97 1 117 1 123 1 130 1 145 1 150 1 151 1 178 1 186 1 249 1 252 1 254 1 260 1 268 1 271 1 275 1 283 1 292 1 297 1 299 1 301 1 304 1 305 1 306 1 313 1 319 1 325 1 327 1 353 1 364 1 378 1 381 1 396 1 403 1 404 1 405 1 412 1 443 1 462 1 469 1 481 1 487 1 511 1 
1 207 3 1 5 1 9 1 11 1 12 2 24 1 25 1 33 1 47 1 51 1 68 1 78 1 87 1 88 2 96 1 102 2 110 1 126 1 132 1 144 1 160 1 164 1 168 1 178 1 183 1 206 1 208 1 215 1 492 1 262 1 488 1 295 1 306 1 442 1 406 1 368 2 351 1 412 1 311 1 298 1 364 1 436 1 328 1 353 1 380 1 398 1 233 1 395 1 437 1 482 1 286 1 460 1 271 1 433 1 343 1 347 1 237 1 310 1 388 1 391 1 435 1 477 1 476 1 269 1 221 1 484 2 2 1 7 1 21 1 36 1 48 1 61 1 62 1 83 1 86 1 91 1 101 1 109 1 124 1 133 1 148 1 163 1 171 1 185 1 213 1 214 1 224 1 225 1 249 1 251 1 253 1 258 1 265 1 279 1 287 1 293 1 316 1 319 1 332 1 345 1 376 1 382 1 385 1 386 1 392 1 402 1 418 1 419 1 434 1 449 1 455 1 458 1 465 1 474 1 512 1 
1 200 12 1 29 2 55 1 65 1 107 1 112 1 123 1 137 1 157 1 160 1 165 1 184 2 187 2 190 1 198 2 209 2 213 1 216 1 303 1 339 1 335 1 492 1 311 1 273 1 366 1 470 1 358 1 224 2 471 1 354 1 457 2 330 2 234 2 476 1 232 1 500 1 235 1 340 2 493 1 355 1 411 1 438 2 490 1 253 1 281 1 323 1 410 2 499 1 494 2 455 1 359 1 426 1 344 1 327 1 1 1 3 1 4 1 10 1 13 1 17 1 18 1 19 1 20 1 23 1 42 1 45 1 70 1 86 1 89 1 92 1 93 1 94 1 106 1 152 1 154 1 159 1 163 1 183 1 206 1 227 1 254 1 256 1 262 1 267 1 275 1 279 1 288 1 298 1 302 1 307 1 308 1 319 1 325 1 328 1 337 1 343 1 345 1 349 1 350 1 363 1 370 1 386 1 399 1 403 1 416 1 418 1 419 1 425 1 430 1 440 1 454 1 472 1 478 1 481 1 483 1 484 1 488 1 489 1 497 1 
1 201 5 1 14 1 29 1 30 1 39 2 42 1 43 1 59 1 67 1 70 1 77 1 78 1 90 1 92 1 93 1 96 1 106 1 109 1 120 1 122 1 130 1 135 2 155 1 156 1 159 1 170 1 171 1 184 1 188 1 197 1 198 1 201 1 204 1 216 1 290 1 361 1 344 1 471 1 388 1 490 2 223 1 266 1 325 1 273 1 315 1 282 1 427 1 475 2 302 1 443 2 232 1 393 2 294 2 287 1 228 1 473 1 432 1 431 1 493 1 280 1 295 2 230 1 274 1 403 1 264 1 430 2 255 1 333 1 237 1 477 1 386 1 380 1 482 1 499 1 1 1 12 1 22 1 49 1 55 1 62 1 94 1 95 1 108 1 111 1 134 1 136 1 140 1 146 1 160 1 164 1 167 1 168 1 180 1 185 1 190 1 206 1 231 1 234 1 247 1 296 1 299 1 305 1 327 1 335 1 343 1 352 1 364 1 369 1 370 1 374 1 377 1 385 1 391 1 397 1 404 1 413 1 421 1 433 1 436 1 455 1 464 1 485 1 491 1 494 1 506 1 513 1 
1 187 3 1 7 1 10 1 13 1 20 1 26 2 33 1 48 1 53 1 58 1 67 1 70 1 78 1 84 1 88 1 96 1 97 1 105 2 111 1 117 1 126 1 130 1 136 1 142 1 143 1 146 1 148 1 160 1 165 1 187 1 218 1 347 1 286 1 314 1 470 1 384 1 368 1 271 1 369 1 455 1 335 2 360 1 490 1 414 1 265 1 483 1 489 2 448 1 327 1 499 1 446 1 350 1 267 1 303 1 417 1 287 2 318 2 260 1 404 2 479 1 485 1 353 2 2 1 21 1 30 1 31 1 35 1 59 1 63 1 81 1 83 1 89 1 92 1 94 1 95 1 125 1 128 1 138 1 153 1 154 1 169 1 177 1 192 1 202 1 216 1 253 1 264 1 298 1 305 1 309 1 313 1 324 1 330 1 361 1 373 1 390 1 396 1 399 1 425 1 431 1 439 1 447 1 452 1 462 1 469 1 480 1 514 1 
1 212 8 1 10 1 23 2 24 1 40 1 46 1 64 1 71 1 74 1 75 1 77 1 78 1 83 1 118 1 140 1 145 1 146 1 150 1 157 1 162 1 167 1 179 1 183 1 188 1 191 2 195 1 208 1 215 1 346 2 408 1 480 1 455 1 268 2 451 1 364 1 336 1 323 1 426 2 476 1 301 1 459 1 318 1 352 1 277 1 369 1 376 1 270 1 361 1 460 1 335 1 384 1 363 1 492 1 289 1 380 1 312 1 358 1 248 1 431 1 471 1 3 1 21 1 26 1 28 1 29 1 35 1 57 1 58 1 84 1 92 1 101 1 109 1 111 1 131 1 136 1 152 1 161 1 174 1 192 1 194 1 205 1 210 1 212 1 231 1 261 1 291 1 295 1 299 1 304 1 306 1 311 1 319 1 320 1 334 1 337 1 357 1 362 1 396 1 398 1 406 1 412 1 413 1 424 1 427 1 450 1 453 1 465 1 466 1 494 1 496 1 498 1 
1 185 1 1 10 1 39 1 40 1 45 1 49 1 51 1 61 1 66 1 80 1 97 1 99 1 110 2 116 1 120 1 133 1 134 1 137 1 148 1 158 1 177 1 205 1 211 1 220 1 418 1 367 1 390 1 410 1 326 1 323 1 268 1 364 1 470 1 231 1 257 1 334 1 309 1 480 2 316 1 267 2 354 1 255 2 239 1 491 1 373 1 353 1 345 1 287 1 444 1 319 1 324 1 303 1 363 1 347 1 472 1 4 1 6 1 7 1 15 1 19 1 24 1 25 1 28 1 33 1 60 1 69 1 70 1 77 1 83 1 105 1 107 1 113 1 117 1 118 1 119 1 140 1 145 1 147 1 149 1 150 1 157 1 168 1 171 1 173 1 178 1 180 1 181 1 183 1 186 1 230 1 274 1 283 1 299 1 344 1 384 1 389 1 403 1 411 1 413 1 421 1 436 1 437 1 450 1 455 1 456 1 468 1 482 1 490 1 506 1 512 1 
1 205 5 1 23 2 29 1 48 1 49 1 51 1 56 1 58 1 64 2 66 1 76 1 92 1 102 1 109 1 111 1 114 2 120 1 121 1 139 1 151 1 154 1 166 1 170 1 172 1 175 1 184 1 194 1 212 1 219 2 291 1 368 1 408 2 487 1 432 1 490 1 404 1 271 1 258 1 288 1 353 1 269 1 439 1 468 1 421 2 359 2 426 1 274 1 364 1 231 1 402 1 292 1 451 2 485 1 300 1 483 1 230 1 295 1 237 1 8 1 12 1 35 1 41 1 44 1 55 1 57 1 77 1 79 1 80 1 103 1 104 1 108 1 130 1 133 1 143 1 159 1 167 1 168 1 188 1 189 1 192 1 198 1 199 1 215 1 216 1 218 1 283 1 315 1 328 1 335 1 343 1 347 1 350 1 352 1 394 1 395 1 427 1 440 1 447 1 464 1 466 1 478 1 479 1 504 1 506 1 515 1 516 1 
1 195 8 1 15 1 18 1 24 1 27 1 46 1 57 1 74 1 79 1 81 1 82 1 93 1 123 1 127 2 161 1 169 1 173 1 208 1 210 1 217 1 306 1 479 1 322 1 411 1 290 1 327 1 231 1 309 1 257 2 390 2 385 1 313 1 457 1 472 1 330 1 424 1 405 1 460 1 482 1 239 1 491 1 315 1 408 1 237 1 240 1 5 1 16 1 20 1 32 1 41 1 47 1 48 1 51 1 54 1 61 1 80 1 84 1 109 1 116 1 119 1 120 1 139 1 155 1 157 1 165 1 177 1 180 1 190 1 218 1 261 1 265 1 271 1 277 1 288 1 291 1 310 1 316 1 317 1 324 1 332 1 334 1 338 1 343 1 346 1 357 1 362 1 372 1 377 1 378 1 382 1 400 1 409 1 446 1 447 1 449 1 452 1 466 1 469 1 473 1 475 1 504 1 505 1 
1 209 17 1 21 1 25 1 34 1 38 1 56 1 59 1 66 2 67 1 72 1 77 1 81 1 141 1 142 1 145 1 148 2 152 1 155 1 157 2 161 1 166 1 175 1 179 1 180 1 273 2 292 1 271 1 311 1 350 1 317 1 400 1 474 1 282 1 429 1 229 1 361 2 485 1 467 2 316 1 435 1 234 2 315 2 339 1 499 1 458 1 365 1 446 1 260 1 362 2 348 1 281 1 442 2 494 2 240 1 382 1 373 1 321 1 265 1 13 1 14 1 20 1 35 1 47 1 55 1 63 1 65 1 78 1 88 1 98 1 99 1 106 1 110 1 126 1 132 1 133 1 135 1 137 1 153 1 169 1 170 1 178 1 188 1 251 1 254 1 261 1 279 1 284 1 302 1 325 1 331 1 355 1 366 1 404 1 405 1 408 1 411 1 443 1 452 1 454 1 456 1 460 1 465 1 466 1 470 1 473 1 475 1 477 1 479 1 482 1 483 1 487 1 495 1 496 1 515 1 
1 190 29 1 37 1 40 1 51 1 52 1 53 1 56 1 62 1 65 1 75 1 77 1 85 2 87 1 107 1 121 1 122 1 127 1 135 1 153 1 181 1 192 1 215 1 405 1 333 1 305 1 354 1 398 1 441 1 446 1 347 1 386 1 455 1 420 1 396 1 324 1 329 1 368 2 362 1 450 2 443 1 363 1 334 1 260 1 495 2 275 2 364 1 339 1 464 1 448 1 427 1 234 1 308 2 454 1 395 1 6 1 10 1 23 1 31 1 42 1 44 1 47 1 58 1 66 1 83 1 96 1 109 1 114 1 123 1 137 1 138 1 142 1 144 1 168 1 185 1 186 1 187 1 219 1 259 1 263 1 279 1 282 1 285 1 288 1 292 1 298 1 310 1 341 1 343 1 349 1 352 1 355 1 378 1 392 1 404 1 406 1 415 1 419 1 421 1 428 1 438 1 447 1 468 1 469 1 480 1 
1 187 12 1 14 1 17 1 19 1 37 2 44 1 47 1 55 1 57 1 68 1 82 1 90 1 91 1 93 1 98 1 113 2 129 1 134 1 139 1 144 1 147 1 168 1 174 1 184 1 185 1 196 1 205 1 207 1 210 1 220 1 480 1 276 2 411 1 368 1 483 1 350 2 481 1 285 1 351 1 364 1 275 1 378 1 269 1 426 1 265 1 399 1 400 1 284 1 347 1 344 1 258 1 352 1 312 2 319 2 240 1 315 1 497 1 452 1 253 1 287 1 343 1 23 1 24 1 25 1 27 1 34 1 38 1 51 1 60 1 64 1 71 1 72 1 73 1 89 1 95 1 97 1 101 1 120 1 128 1 130 1 131 1 164 1 167 1 171 1 179 1 181 1 182 1 195 1 234 1 250 1 256 1 263 1 309 1 336 1 338 1 356 1 369 1 375 1 382 1 385 1 418 1 427 1 433 1 442 1 444 1 472 1 503 1 
1 198 7 1 11 2 14 1 17 1 26 1 32 1 42 1 44 1 45 1 52 1 56 1 73 1 86 1 99 2 110 1 114 1 115 1 125 1 127 1 131 1 136 1 143 1 144 2 159 1 165 1 170 1 173 1 178 1 183 1 185 1 188 1 194 1 195 1 226 1 282 1 390 2 275 1 431 1 481 1 423 1 460 1 280 1 467 1 379 2 403 1 375 1 434 1 442 1 319 1 369 1 367 1 314 2 287 2 262 1 484 1 450 1 325 1 464 1 338 1 344 1 326 1 380 1 441 1 424 1 236 1 276 1 265 1 296 1 231 1 448 1 4 1 66 1 72 1 85 1 90 1 98 1 107 1 147 1 154 1 162 1 172 1 184 1 190 1 205 1 212 1 230 1 271 1 278 1 281 1 301 1 328 1 345 1 357 1 386 1 393 1 398 1 437 1 438 1 439 1 440 1 443 1 456 1 458 1 479 1 482 1 489 1 502 1 514 1 
1 196 7 1 10 1 16 1 22 1 24 1 45 1 46 2 47 1 48 2 60 1 66 1 67 2 95 1 130 2 151 2 158 2 169 2 187 2 191 1 196 1 208 1 215 1 220 1 224 1 293 1 460 2 343 1 286 1 431 1 352 1 311 1 496 1 358 1 344 1 260 1 369 2 481 1 412 1 467 1 309 1 272 2 306 1 476 1 497 1 376 2 329 1 355 1 487 1 366 1 425 1 301 1 449 1 485 1 455 2 292 1 241 1 403 1 1 1 26 1 29 1 32 1 56 1 58 1 65 1 81 1 97 1 102 1 105 1 107 1 139 1 156 1 159 1 173 1 175 1 182 1 198 1 223 1 229 1 231 1 266 1 275 1 279 1 295 1 316 1 321 1 365 1 368 1 382 1 393 1 406 1 419 1 432 1 444 1 466 1 470 1 474 1 495 1 512 1 514 1 
1 202 4 1 10 1 43 1 46 1 47 1 49 2 59 1 72 1 86 1 87 1 89 1 105 1 115 1 116 1 126 1 149 1 161 1 163 1 171 1 183 1 186 2 193 1 198 1 223 1 224 1 225 1 229 1 305 1 407 1 323 1 441 1 489 1 479 1 286 1 485 1 388 1 480 1 442 1 324 1 416 1 266 1 462 1 399 1 292 1 309 1 236 1 304 2 313 2 495 1 474 1 369 1 311 1 347 1 283 2 269 1 264 1 409 2 472 1 348 1 3 1 9 1 20 1 24 1 45 1 58 1 66 1 67 1 69 1 93 1 108 1 117 1 144 1 155 1 164 1 182 1 220 1 222 1 230 1 246 1 258 1 259 1 275 1 279 1 282 1 290 1 296 1 300 1 306 1 315 1 319 1 331 1 341 1 345 1 354 1 355 1 360 1 367 1 379 1 387 1 423 1 432 1 439 1 445 1 453 1 459 1 484 1 486 1 488 1 493 1 
1 210 7 1 17 1 24 1 25 1 26 1 51 1 54 2 56 1 61 1 66 1 74 1 80 2 94 1 103 1 122 1 129 1 135 2 146 1 149 1 153 1 157 2 188 1 190 1 192 1 211 1 219 1 220 1 499 1 365 1 341 1 466 1 400 1 477 1 269 1 338 1 285 1 409 2 328 1 404 1 282 1 324 1 464 1 337 1 358 1 380 1 379 1 297 1 487 1 461 1 298 1 274 1 494 1 495 1 334 1 463 1 317 1 434 1 374 1 336 1 233 1 356 1 460 1 346 1 245 1 382 1 428 1 268 1 304 1 6 1 8 1 21 1 44 1 57 1 84 1 95 1 96 1 105 1 110 1 118 1 132 1 162 1 164 1 181 1 182 1 212 1 234 1 270 1 275 1 290 1 294 1 303 1 325 1 349 1 350 1 375 1 385 1 389 1 398 1 403 1 416 1 420 1 432 1 442 1 448 1 454 1 468 1 475 1 481 1 482 1 491 1 498 1 503 1 508 1 512 1 
1 217 4 1 44 1 50 1 58 2 75 1 80 1 87 1 94 1 96 1 99 1 118 2 124 1 126 1 127 1 128 2 136 1 156 1 158 1 165 1 166 1 167 1 168 1 175 1 186 1 196 2 198 1 217 1 218 1 232 1 295 1 411 1 360 1 414 1 362 1 468 2 269 1 325 1 302 1 458 1 306 1 393 2 375 2 469 1 272 1 345 1 443 2 480 1 268 2 399 2 385 1 287 1 332 1 252 1 483 1 428 1 461 1 267 1 308 1 347 2 19 1 23 1 34 1 35 1 38 1 45 1 82 1 85 1 88 1 104 1 111 1 120 1 129 1 130 1 142 1 151 1 152 1 160 1 161 1 178 1 182 1 187 1 193 1 199 1 261 1 285 1 296 1 310 1 313 1 315 1 333 1 334 1 350 1 387 1 394 1 395 1 404 1 416 1 429 1 442 1 444 1 449 1 456 1 473 1 488 1 510 1 514 1 
1 209 8 1 14 1 34 1 44 1 55 1 56 1 64 1 85 1 111 1 114 1 115 1 116 1 134 1 135 1 143 2 153 1 165 1 177 1 182 1 183 1 185 1 189 1 202 1 205 1 212 2 219 2 226 2 227 1 317 1 306 1 424 1 467 1 386 1 363 1 401 1 418 2 450 1 312 1 439 1 353 2 368 1 284 2 390 1 273 1 391 1 246 1 367 1 447 1 449 1 327 1 481 1 488 1 491 1 443 1 249 1 309 1 5 1 18 1 30 1 39 1 57 1 68 1 74 1 87 1 100 1 126 1 144 1 147 1 220 1 228 1 232 1 250 1 264 1 277 1 280 1 288 1 289 1 326 1 329 1 333 1 334 1 355 1 378 1 381 1 407 1 413 1 417 1 438 1 446 1 461 1 468 1 470 1 486 1 489 1 493 1 
1 194 15 1 18 1 24 1 55 1 58 1 66 1 75 1 77 1 101 1 104 2 111 1 124 1 135 2 137 1 138 1 147 1 149 1 157 1 193 2 194 1 196 1 219 1 439 1 488 1 403 1 444 1 492 2 431 2 334 1 416 1 317 2 293 1 301 1 328 1 477 1 454 1 463 1 287 1 290 1 285 1 283 2 407 1 331 1 269 1 309 1 329 1 472 2 426 1 236 1 278 1 274 1 243 1 379 1 346 1 322 1 366 1 381 2 490 1 386 1 482 1 4 1 5 1 25 1 29 1 32 1 45 1 46 1 51 1 56 1 60 1 64 1 72 1 89 1 90 1 99 1 108 1 129 1 133 1 144 1 156 1 171 1 184 1 185 1 189 1 191 1 216 1 238 1 240 1 277 1 295 1 308 1 333 1 342 1 355 1 357 1 371 1 383 1 393 1 394 1 415 1 421 1 427 1 429 1 434 1 459 1 468 1 476 1 485 1 516 1 
1 222 1 1 5 1 9 1 14 1 17 2 19 1 20 1 28 1 50 1 52 1 63 2 70 1 76 1 77 1 78 1 85 1 91 1 92 1 93 1 103 1 116 1 124 1 139 1 147 1 169 2 173 1 183 1 185 1 194 1 196 1 200 1 229 1 231 1 235 1 273 1 328 1 274 1 296 1 494 1 349 2 323 1 275 2 346 1 332 1 419 1 295 1 294 1 470 2 378 1 464 2 380 1 476 1 395 1 345 1 412 2 340 1 239 2 281 1 350 1 258 1 362 2 366 2 6 1 8 1 13 1 41 1 51 1 57 1 73 1 75 1 81 1 87 1 89 1 101 1 102 1 104 1 110 1 111 1 115 1 117 1 120 1 127 1 130 1 142 1 149 1 189 1 244 1 253 1 280 1 283 1 291 1 293 1 301 1 307 1 310 1 315 1 330 1 337 1 352 1 356 1 357 1 361 1 365 1 387 1 389 1 398 1 416 1 432 1 444 1 447 1 448 1 472 1 483 1 497 1 
1 210 20 2 22 1 42 1 46 1 49 1 55 1 66 1 80 1 87 1 89 1 99 1 101 1 102 1 106 1 110 1 115 1 118 2 122 1 123 2 130 1 151 1 157 1 183 2 194 1 205 1 218 1 220 1 224 1 225 1 311 2 361 1 336 1 423 1 290 1 487 1 389 1 338 1 479 1 437 1 244 1 381 1 476 1 265 1 387 1 322 1 371 2 436 1 249 1 297 2 394 1 330 1 494 1 492 1 379 1 405 2 461 1 416 1 284 1 403 1 308 1 408 1 478 1 343 1 300 1 413 1 445 2 470 1 321 1 411 1 13 1 15 1 25 1 37 1 38 1 40 1 43 1 54 1 59 1 63 1 68 1 69 1 77 1 90 1 98 1 105 1 131 1 132 1 133 1 136 1 149 1 152 1 171 1 179 1 190 1 206 1 242 1 281 1 288 1 292 1 318 1 320 1 340 1 344 1 354 1 367 1 373 1 382 1 397 1 407 1 417 1 424 1 428 1 431 1 444 1 465 1 477 1 486 1 504 1 509 1 517 1 
1 194 4 1 9 2 13 1 14 2 18 1 23 1 30 1 35 1 46 1 47 1 54 1 61 1 66 1 71 1 72 1 75 1 106 1 112 2 144 2 163 2 179 1 185 1 186 1 202 1 346 1 345 1 482 1 469 1 398 1 438 1 498 1 421 1 415 2 424 1 395 2 340 1 313 1 383 1 333 1 396 1 481 1 312 2 254 1 450 1 405 1 417 1 264 1 411 1 370 1 492 1 298 1 278 1 499 1 401 1 361 2 5 1 11 1 25 1 28 1 31 1 32 1 58 1 63 1 82 1 85 1 86 1 91 1 94 1 101 1 109 1 116 1 120 1 122 1 124 1 127 1 139 1 140 1 142 1 145 1 151 1 157 1 158 1 164 1 168 1 178 1 184 1 190 1 212 1 235 1 242 1 245 1 246 1 261 1 274 1 306 1 314 1 315 1 317 1 318 1 319 1 324 1 327 1 328 1 338 1 356 1 369 1 402 1 403 1 429 1 431 1 435 1 454 1 455 1 477 1 490 1 508 1 
1 196 10 1 21 1 27 1 36 2 38 1 42 2 44 1 50 1 54 1 60 1 61 1 66 1 67 2 81 1 83 1 87 1 138 1 146 1 156 1 159 1 160 2 173 1 177 1 198 1 203 2 223 1 225 1 236 2 303 1 424 1 484 1 474 1 468 1 276 1 418 1 385 1 440 1 267 1 403 1 289 1 482 1 321 2 307 2 416 1 394 1 481 2 355 1 285 1 314 1 257 1 243 1 265 1 408 1 255 1 492 1 451 1 483 2 459 1 427 1 372 1 259 1 279 1 461 1 12 1 22 1 23 1 25 1 43 1 46 1 57 1 65 1 73 1 78 1 82 1 98 1 103 1 113 1 136 1 139 1 140 1 155 1 163 1 171 1 196 1 197 1 200 1 204 1 206 1 247 1 274 1 278 1 286 1 296 1 297 1 299 1 329 1 331 1 337 1 356 1 357 1 375 1 388 1 398 1 400 1 412 1 415 1 439 1 447 1 454 1 458 1 476 1 478 1 486 1 488 1 
1 209 6 1 7 1 15 1 21 1 29 1 39 1 57 1 67 1 74 1 92 1 113 1 121 1 126 1 135 1 144 2 148 1 167 1 177 1 179 1 196 1 199 1 205 1 206 1 225 1 226 1 228 1 291 1 323 1 302 1 399 1 301 1 469 1 486 1 279 1 330 1 470 1 286 1 479 1 381 1 437 1 434 1 474 1 454 1 376 1 363 1 396 1 254 1 451 1 261 1 438 1 492 1 354 1 289 1 293 1 3 1 16 1 33 1 36 1 42 1 45 1 48 1 59 1 77 1 86 1 93 1 95 1 98 1 101 1 110 1 137 1 150 1 185 1 192 1 200 1 201 1 235 1 243 1 250 1 288 1 296 1 306 1 314 1 316 1 317 1 326 1 342 1 344 1 350 1 351 1 361 1 369 1 370 1 373 1 375 1 385 1 391 1 397 1 406 1 410 1 415 1 436 1 445 1 446 1 450 1 452 1 456 1 463 1 465 1 488 1 513 1 
1 227 4 1 11 1 17 1 19 2 30 2 31 1 37 1 38 1 40 1 42 2 53 1 61 1 66 1 69 1 70 1 74 1 83 1 84 1 100 1 104 2 105 2 109 1 120 2 128 1 131 1 136 1 141 1 142 2 164 1 175 1 178 2 184 1 187 1 190 1 195 1 230 1 458 1 285 2 349 1 306 1 467 1 432 1 304 1 442 1 482 1 488 1 356 1 328 1 449 1 433 1 359 1 448 2 279 1 278 1 368 1 268 1 257 2 371 2 463 1 457 1 358 1 348 1 16 1 22 1 34 1 46 1 49 1 58 1 65 1 73 1 85 1 87 1 99 1 107 1 127 1 135 1 148 1 159 1 169 1 198 1 266 1 272 1 273 1 309 1 310 1 321 1 332 1 334 1 344 1 347 1 360 1 378 1 383 1 387 1 396 1 408 1 413 1 414 1 436 1 440 1 456 1 473 1 475 1 492 1 497 1 503 1 509 1 
1 205 17 1 19 1 20 1 26 1 33 1 34 1 35 1 43 1 46 1 50 1 55 2 58 1 80 1 95 1 96 1 120 1 135 1 136 1 143 1 145 1 150 1 152 1 161 1 196 1 487 1 293 2 275 1 280 2 302 1 479 1 427 1 420 1 247 1 440 1 459 1 256 1 443 1 445 1 455 1 250 1 446 1 439 1 349 1 252 2 365 1 404 1 395 1 474 1 450 1 421 1 5 1 11 1 13 1 23 1 24 1 25 1 28 1 31 1 36 1 61 1 67 1 69 1 75 1 94 1 103 1 127 1 134 1 153 1 160 1 166 1 170 1 203 1 205 1 237 1 238 1 263 1 277 1 287 1 306 1 311 1 312 1 338 1 339 1 344 1 351 1 359 1 363 1 371 1 384 1 402 1 414 1 418 1 423 1 424 1 426 1 437 1 456 1 473 1 495 1 
1 212 3 1 8 1 13 1 16 1 19 2 20 1 21 1 29 1 44 1 51 1 52 1 73 1 79 1 82 1 83 2 92 1 96 1 97 1 112 1 122 1 132 1 138 1 142 1 153 1 157 1 163 1 167 1 177 1 185 1 186 1 201 1 203 1 204 1 235 1 239 1 470 1 381 1 362 2 268 1 447 1 348 2 482 1 374 1 339 1 450 2 305 1 464 1 465 1 434 1 296 1 453 1 438 1 358 1 364 1 455 1 443 1 308 1 419 1 492 2 493 1 366 1 318 1 459 1 452 1 386 1 344 1 448 1 4 1 9 1 11 1 14 1 24 1 42 1 58 1 60 1 64 1 78 1 86 1 88 1 93 1 100 1 109 1 111 1 137 1 168 1 175 1 179 1 181 1 182 1 202 1 210 1 240 1 260 1 276 1 282 1 291 1 293 1 315 1 349 1 377 1 399 1 401 1 405 1 407 1 410 1 417 1 428 1 431 1 451 1 454 1 456 1 458 1 460 1 486 1 494 1 501 1 508 1 
1 188 3 1 12 1 16 1 36 1 54 2 56 2 82 2 111 1 126 1 132 1 133 1 134 1 135 1 148 1 164 1 184 1 199 1 203 1 211 2 237 1 271 1 278 1 291 1 352 1 279 1 479 1 324 1 295 1 462 1 359 1 309 1 334 2 466 1 489 1 252 1 382 1 344 1 256 1 430 2 419 1 245 2 337 1 451 1 475 1 455 1 418 1 253 1 294 1 331 1 249 1 273 1 363 2 478 1 420 1 413 1 395 2 370 1 260 1 472 2 262 2 2 1 4 1 6 1 10 1 21 1 24 1 46 1 55 1 57 1 86 1 97 1 102 1 109 1 122 1 174 1 207 1 236 1 263 1 267 1 272 1 282 1 292 1 303 1 304 1 321 1 323 1 330 1 332 1 342 1 345 1 347 1 362 1 377 1 380 1 388 1 392 1 402 1 432 1 445 1 449 1 459 1 463 1 470 1 477 1 483 1 
1 203 1 2 2 1 11 1 15 1 27 1 29 1 38 1 58 1 62 1 66 1 67 1 72 1 78 1 79 1 96 2 101 1 111 2 117 1 118 2 141 1 151 1 156 2 161 1 172 1 173 1 181 1 189 1 197 1 201 1 232 1 244 2 318 1 355 1 311 1 448 1 451 1 304 1 316 1 380 1 326 1 383 1 403 1 461 1 436 1 413 1 491 1 347 1 374 1 489 1 278 1 401 1 274 2 254 1 423 2 386 1 426 1 490 1 425 1 258 1 479 1 400 2 285 1 474 1 404 1 349 1 455 1 335 1 281 2 6 1 46 1 50 1 53 1 55 1 64 1 81 1 86 1 92 1 93 1 98 1 112 1 137 1 142 1 158 1 171 1 174 1 176 1 179 1 185 1 186 1 194 1 195 1 203 1 206 1 207 1 238 1 257 1 286 1 289 1 290 1 295 1 297 1 314 1 339 1 342 1 361 1 373 1 394 1 405 1 420 1 429 1 462 1 477 1 481 1 488 1 502 1 507 1 509 1 511 1 
1 217 10 1 16 1 17 1 18 1 22 1 23 1 35 1 45 1 47 2 52 1 59 1 70 1 108 1 110 1 116 1 138 1 140 1 141 2 147 1 152 1 155 1 156 1 167 1 177 1 190 1 191 2 192 1 194 1 201 1 203 1 234 1 357 1 428 1 290 1 482 1 392 2 497 1 464 1 389 1 391 1 346 1 494 1 305 1 343 1 465 1 347 1 418 1 272 1 251 1 291 1 300 1 293 1 403 1 330 1 331 2 249 1 445 1 451 1 382 1 425 1 7 1 12 1 32 1 37 1 42 1 44 1 46 1 49 1 57 1 99 1 118 1 119 1 126 1 151 1 166 1 175 1 181 1 209 1 212 1 231 1 238 1 247 1 283 1 295 1 299 1 302 1 337 1 338 1 350 1 372 1 378 1 384 1 388 1 394 1 411 1 412 1 415 1 421 1 435 1 436 1 439 1 440 1 442 1 446 1 447 1 449 1 461 1 467 1 484 1 489 1 491 1 516 1 
1 202 3 1 5 1 14 1 28 1 31 1 32 2 35 1 37 1 42 1 44 1 58 1 61 1 62 1 64 1 65 1 71 1 74 1 80 2 89 1 90 1 95 1 96 1 104 1 112 1 119 1 122 1 124 2 159 1 168 1 172 1 174 1 180 1 188 1 194 1 198 1 201 1 203 1 207 2 212 1 242 1 498 1 382 1 346 1 487 1 387 1 389 1 286 1 371 1 353 1 408 1 396 1 450 2 474 1 312 2 315 1 458 1 480 1 354 1 269 1 352 2 364 1 334 1 499 1 376 1 452 1 291 1 288 1 309 1 256 1 6 1 36 1 48 1 55 1 75 1 85 1 92 1 106 1 108 1 129 1 130 1 131 1 142 1 151 1 158 1 176 1 178 1 185 1 209 1 213 1 215 1 216 1 220 1 239 1 246 1 260 1 276 1 311 1 341 1 342 1 343 1 345 1 358 1 368 1 377 1 380 1 398 1 400 1 402 1 403 1 406 1 407 1 414 1 416 1 418 1 419 1 426 1 433 1 445 1 453 1 455 1 460 1 475 1 477 1 478 1 482 1 503 1 
1 200 9 2 14 1 23 1 39 1 60 1 65 1 67 1 74 1 84 1 91 1 93 2 94 1 105 1 107 1 109 1 111 1 116 1 133 1 135 1 139 1 144 1 149 1 171 1 173 1 201 1 205 1 206 1 211 1 222 1 349 1 283 1 396 1 291 1 434 1 286 1 493 1 474 1 329 2 305 1 274 1 297 2 323 1 256 1 340 2 427 1 428 1 258 1 336 1 384 1 280 1 391 1 496 1 492 1 406 2 290 1 257 1 460 1 314 1 309 1 497 1 343 2 495 1 454 1 1 1 15 1 34 1 47 1 79 1 80 1 85 1 88 1 97 1 98 1 115 1 118 1 121 1 122 1 127 1 128 1 132 1 147 1 155 1 163 1 166 1 167 1 175 1 190 1 194 1 197 1 212 1 262 1 298 1 308 1 319 1 328 1 330 1 353 1 355 1 356 1 362 1 374 1 378 1 383 1 385 1 408 1 416 1 417 1 432 1 444 1 445 1 447 1 449 1 452 1 457 1 462 1 472 1 476 1 479 1 484 1 
1 214 4 1 5 1 7 1 24 1 32 1 39 1 50 1 64 1 77 1 81 1 97 2 116 1 120 2 141 2 147 1 148 1 161 1 163 1 175 1 184 1 200 1 202 2 210 1 215 2 234 1 237 1 244 1 246 1 376 1 480 1 415 1 463 1 303 1 332 1 336 1 416 2 308 1 447 1 431 1 333 1 289 1 343 2 422 1 363 2 347 2 411 2 478 1 410 2 274 1 304 1 403 1 352 1 470 1 27 1 36 1 44 1 49 1 55 1 80 1 121 1 131 1 146 1 151 1 155 1 156 1 162 1 164 1 166 1 180 1 187 1 193 1 194 1 205 1 217 1 218 1 250 1 256 1 272 1 279 1 282 1 284 1 318 1 319 1 344 1 362 1 389 1 391 1 393 1 395 1 398 1 408 1 424 1 436 1 443 1 448 1 456 1 477 1 481 1 495 1 
1 209 8 1 14 1 15 1 17 2 21 1 23 1 53 1 64 1 70 1 82 1 114 1 117 1 120 1 121 1 132 1 134 1 152 1 153 1 158 1 169 1 181 1 183 1 217 1 242 1 330 1 307 1 352 1 483 1 436 1 446 2 428 1 279 1 447 2 300 1 360 2 320 1 425 1 318 1 404 1 334 1 319 1 392 1 455 1 460 1 383 1 363 1 423 1 418 1 336 1 398 1 437 1 298 1 369 1 9 1 13 1 25 1 38 1 51 1 55 1 69 1 72 1 78 1 97 1 99 1 115 1 116 1 122 1 125 1 126 1 135 1 143 1 145 1 156 1 168 1 177 1 201 1 228 1 234 1 240 1 249 1 258 1 261 1 272 1 277 1 282 1 291 1 305 1 315 1 316 1 331 1 332 1 348 1 358 1 361 1 379 1 387 1 389 1 402 1 415 1 440 1 464 1 484 1 497 1 506 1 515 1 
1 195 1 1 7 1 23 1 24 1 33 2 46 1 47 1 48 1 51 1 53 1 54 1 62 2 64 1 68 1 84 1 99 1 102 1 114 1 118 1 134 1 138 2 140 1 156 1 161 1 163 1 165 1 185 1 192 1 198 2 205 1 206 1 246 1 451 1 460 1 377 1 299 1 406 1 303 1 482 1 297 1 395 1 341 1 317 1 287 1 490 1 328 1 280 1 381 1 399 1 379 1 396 1 484 1 352 1 435 1 470 1 351 1 14 1 20 1 39 1 50 1 77 1 85 1 86 1 100 1 103 1 109 1 111 1 116 1 119 1 132 1 136 1 137 1 155 1 159 1 166 1 167 1 189 1 193 1 197 1 215 1 216 1 218 1 226 1 263 1 265 1 266 1 295 1 300 1 311 1 326 1 332 1 337 1 340 1 346 1 349 1 354 1 384 1 391 1 392 1 400 1 413 1 416 1 423 1 437 1 444 1 456 1 465 1 474 1 477 1 479 1 481 1 483 1 486 1 494 1 499 1 513 1 
1 210 2 2 7 1 21 1 43 1 54 1 56 1 57 1 58 1 79 1 82 1 87 1 92 1 104 1 106 1 113 2 114 1 117 1 121 1 135 1 150 1 154 1 156 1 161 2 184 1 189 1 203 1 233 1 242 2 244 1 445 1 369 1 320 1 455 2 322 1 446 2 381 1 462 1 400 1 358 2 310 2 494 1 370 1 420 2 459 2 301 1 450 1 287 1 380 1 434 1 490 1 493 1 481 1 392 1 461 1 398 1 374 2 438 1 257 1 430 1 8 1 16 1 18 1 26 1 31 1 32 1 46 1 49 1 72 1 81 1 84 1 89 1 111 1 115 1 124 1 148 1 155 1 158 1 169 1 179 1 204 1 205 1 210 1 211 1 212 1 216 1 217 1 279 1 280 1 283 1 284 1 290 1 296 1 306 1 314 1 337 1 348 1 356 1 360 1 363 1 368 1 383 1 390 1 395 1 399 1 408 1 410 1 413 1 416 1 425 1 431 1 432 1 433 1 439 1 440 1 480 1 
1 225 17 1 20 1 23 1 37 1 49 1 51 1 62 1 70 1 73 1 80 1 91 1 109 1 110 1 116 1 120 1 131 1 132 1 134 1 137 1 139 1 140 2 146 1 155 1 157 2 159 1 174 1 175 1 176 1 191 2 200 1 201 1 207 1 212 1 219 1 228 1 244 1 311 1 355 1 485 1 331 1 353 1 479 1 382 1 424 1 440 1 352 1 308 1 460 1 442 1 418 1 377 1 356 2 390 1 334 1 325 1 406 1 386 2 289 2 385 1 420 1 437 1 328 2 346 1 3 1 6 1 13 1 24 1 30 1 31 1 44 1 45 1 47 1 54 1 55 1 67 1 93 1 99 1 102 1 107 1 108 1 141 1 144 1 149 1 154 1 158 1 163 1 189 1 198 1 203 1 211 1 218 1 221 1 236 1 274 1 276 1 295 1 302 1 303 1 327 1 336 1 337 1 360 1 369 1 373 1 378 1 388 1 393 1 397 1 407 1 416 1 439 1 446 1 486 1 
1 207 2 1 8 1 27 1 31 1 66 2 89 1 91 1 103 1 105 1 110 1 118 1 123 1 125 1 126 1 132 1 136 2 159 1 172 1 177 1 179 2 181 1 190 2 191 2 206 1 238 1 240 1 245 1 336 1 382 1 399 1 332 1 450 2 426 1 453 1 472 1 485 1 492 1 445 1 417 1 468 2 379 1 425 1 322 1 412 1 294 1 410 1 280 1 429 1 464 1 479 1 330 1 357 1 499 1 494 1 16 1 19 1 20 1 35 1 37 1 39 1 47 1 49 1 54 1 55 1 71 1 73 1 76 1 80 1 86 1 87 1 106 1 111 1 133 1 146 1 152 1 153 1 160 1 169 1 187 1 196 1 202 1 211 1 215 1 217 1 219 1 226 1 266 1 282 1 283 1 287 1 293 1 295 1 296 1 308 1 327 1 331 1 343 1 350 1 353 1 358 1 377 1 394 1 401 1 402 1 409 1 460 1 462 1 470 1 473 1 501 1 505 1 513 1 
1 211 18 1 23 1 32 1 34 1 35 1 36 1 45 1 48 1 52 2 70 1 71 2 72 1 76 1 77 2 100 1 105 1 106 1 111 1 113 1 123 1 134 1 136 1 143 1 158 1 165 1 168 1 171 1 173 2 191 1 194 1 205 1 209 2 213 1 220 1 223 2 239 1 500 1 282 1 298 1 331 1 447 1 295 1 361 1 460 1 340 1 303 1 440 1 464 1 356 1 366 1 281 1 489 1 330 2 289 1 359 2 399 1 291 1 388 1 405 2 486 2 413 1 376 1 287 1 420 1 311 1 316 1 301 1 11 1 14 1 43 1 49 1 65 1 66 1 67 1 84 1 85 1 89 1 93 1 103 1 108 1 117 1 118 1 130 1 131 1 138 1 139 1 145 1 148 1 150 1 161 1 166 1 180 1 190 1 192 1 197 1 206 1 284 1 310 1 367 1 381 1 383 1 415 1 416 1 449 1 474 1 493 1 498 1 
1 207 9 2 15 1 27 1 58 1 68 1 74 1 81 1 90 1 96 2 98 1 127 1 131 1 133 1 145 1 146 1 169 1 184 1 187 1 201 1 215 1 242 1 244 1 247 1 248 1 451 1 464 1 480 1 355 1 403 1 458 1 433 2 461 1 387 1 449 1 335 1 331 1 425 1 359 1 273 1 409 2 487 1 469 1 351 2 4 1 19 1 38 1 43 1 50 1 55 1 82 1 83 1 85 1 111 1 112 1 119 1 126 1 134 1 136 1 140 1 144 1 157 1 170 1 176 1 209 1 219 1 228 1 249 1 266 1 268 1 293 1 295 1 309 1 322 1 328 1 347 1 348 1 350 1 352 1 368 1 377 1 380 1 382 1 393 1 402 1 411 1 429 1 442 1 450 1 463 1 472 1 484 1 494 1 495 1 500 1 508 1 511 1 
1 212 47 1 51 1 63 1 78 1 79 1 83 2 86 2 102 1 106 1 116 1 124 2 141 1 149 2 168 1 170 1 173 1 198 1 208 1 210 1 223 1 225 2 239 1 241 2 248 1 252 1 332 1 378 2 471 1 322 1 374 1 376 1 421 1 318 1 282 1 394 1 311 1 262 1 423 1 446 1 430 1 480 1 264 1 286 1 360 1 474 1 368 1 284 1 338 1 356 1 297 1 323 1 460 1 454 1 484 1 403 1 299 1 15 1 53 1 56 1 67 1 81 1 94 1 101 1 115 1 121 1 130 1 136 1 143 1 146 1 179 1 199 1 200 1 202 1 209 1 211 1 212 1 245 1 289 1 292 1 302 1 324 1 325 1 344 1 350 1 353 1 358 1 362 1 365 1 380 1 381 1 382 1 384 1 388 1 398 1 399 1 404 1 409 1 418 1 420 1 422 1 426 1 427 1 429 1 434 1 438 1 439 1 441 1 450 1 455 1 470 1 489 1 492 1 501 1 506 1 
1 246 1 1 8 1 25 1 43 1 44 1 53 2 54 1 56 2 58 1 62 1 71 1 83 1 85 1 89 1 91 1 95 1 98 1 109 2 121 1 123 1 129 1 130 1 137 1 140 1 158 2 193 1 201 1 216 1 224 1 228 1 236 1 245 1 248 1 303 2 283 1 406 1 345 1 404 1 479 1 439 1 380 2 315 2 460 1 383 1 351 1 490 2 478 1 384 1 288 1 482 1 353 1 387 1 437 1 396 1 320 1 428 2 265 1 455 1 493 1 5 1 22 1 24 1 26 1 33 1 35 1 37 1 40 1 76 1 82 1 86 1 92 1 93 1 108 1 116 1 126 1 133 1 150 1 159 1 160 1 180 1 181 1 196 1 207 1 213 1 218 1 231 1 250 1 294 1 298 1 300 1 318 1 324 1 325 1 326 1 348 1 356 1 358 1 359 1 369 1 401 1 405 1 418 1 419 1 420 1 424 1 427 1 434 1 436 1 438 1 463 1 468 1 473 1 475 1 477 1 489 1 495 1 500 1 511 1 512 1 517 1 
1 195 28 1 38 1 43 1 58 1 72 1 78 1 86 1 107 1 110 2 120 1 121 1 123 1 140 1 143 2 171 1 176 1 181 1 185 2 194 1 200 1 208 1 210 1 217 1 239 1 355 1 414 1 332 1 434 1 448 1 347 1 400 1 339 1 313 1 368 2 479 1 473 1 344 1 324 1 300 1 455 1 314 1 411 1 372 1 452 1 311 1 378 2 398 1 426 1 394 1 370 1 478 1 403 1 340 1 495 1 364 1 491 1 16 1 22 1 31 1 37 1 39 1 40 1 47 1 49 1 62 1 66 1 83 1 89 1 119 1 136 1 150 1 154 1 155 1 173 1 174 1 187 1 189 1 195 1 196 1 199 1 201 1 202 1 209 1 227 1 231 1 266 1 267 1 284 1 305 1 325 1 329 1 331 1 338 1 345 1 356 1 360 1 361 1 373 1 390 1 406 1 407 1 410 1 416 1 425 1 430 1 456 1 460 1 461 1 475 1 482 1 497 1 
1 210 2 2 20 1 34 1 41 2 43 1 45 1 53 2 97 1 99 2 102 1 112 1 121 1 128 1 131 1 135 1 136 1 138 1 145 1 150 1 154 1 171 1 176 1 185 1 188 1 189 2 195 1 214 1 221 1 226 1 227 1 230 1 244 1 377 1 285 1 439 1 414 1 443 1 362 1 486 1 300 1 355 1 395 1 314 1 318 1 352 1 477 1 460 1 471 1 304 1 472 1 479 1 451 1 456 1 436 1 341 1 430 1 347 1 389 2 317 1 411 1 422 1 476 2 383 1 475 2 493 1 331 1 299 1 10 1 22 1 23 1 26 1 27 1 29 1 48 1 55 1 71 1 72 1 75 1 81 1 89 1 119 1 122 1 125 1 144 1 148 1 161 1 166 1 177 1 190 1 200 1 202 1 204 1 209 1 210 1 217 1 243 1 247 1 264 1 279 1 293 1 306 1 308 1 336 1 337 1 378 1 379 1 382 1 392 1 399 1 403 1 406 1 418 1 419 1 423 1 433 1 434 1 453 1 454 1 465 1 468 1 487 1 498 1 501 1 503 1 508 1 511 1 513 1 
1 225 4 1 32 1 33 1 46 1 48 1 62 2 64 1 65 1 68 1 73 1 82 2 83 1 103 1 120 1 124 1 129 1 140 1 142 2 151 1 158 1 167 2 188 1 192 1 203 1 207 1 208 1 210 1 213 1 217 2 240 1 412 1 470 1 437 1 449 1 360 1 409 1 319 1 393 1 459 2 456 1 376 1 372 1 365 1 405 1 294 1 302 1 349 1 420 1 468 1 461 1 438 1 436 1 310 1 358 1 403 1 263 1 457 1 466 1 448 1 298 1 10 1 17 1 49 1 51 1 53 1 58 1 63 1 66 1 69 1 77 1 89 1 92 1 110 1 119 1 121 1 127 1 128 1 130 1 150 1 156 1 190 1 193 1 205 1 212 1 222 1 225 1 226 1 233 1 238 1 250 1 273 1 287 1 314 1 329 1 335 1 337 1 359 1 377 1 379 1 384 1 394 1 396 1 407 1 419 1 422 1 426 1 433 1 442 1 446 1 453 1 454 1 482 1 484 1 496 1 497 1 
1 207 4 1 12 2 32 1 53 1 57 1 60 1 65 1 83 1 90 1 92 1 96 1 103 1 105 1 117 1 119 1 124 1 128 1 182 1 207 1 217 1 218 1 229 1 244 2 257 1 380 1 331 1 392 1 311 1 398 2 318 1 333 1 314 1 492 1 312 2 426 1 290 1 338 1 394 1 273 1 400 1 361 1 384 1 381 1 373 1 297 1 382 1 275 1 389 1 342 1 1 1 27 1 30 1 36 1 40 1 67 1 80 1 88 1 102 1 111 1 113 1 116 1 133 1 139 1 177 1 184 1 192 1 193 1 203 1 219 1 248 1 304 1 313 1 315 1 328 1 335 1 354 1 357 1 362 1 364 1 387 1 397 1 402 1 403 1 410 1 419 1 421 1 422 1 456 1 464 1 469 1 480 1 490 1 495 1 497 1 500 1 509 1 
1 199 2 1 15 1 41 1 64 1 67 1 68 1 74 2 78 1 84 1 88 1 89 1 91 1 100 1 114 2 120 1 134 1 142 1 147 1 148 1 154 1 159 1 162 1 167 1 169 1 177 1 189 1 195 1 196 1 206 1 261 1 434 1 486 1 478 1 382 1 412 1 293 1 420 1 440 1 468 1 414 1 488 1 317 1 430 1 377 2 309 1 333 1 381 1 359 1 312 1 373 1 436 1 370 1 401 2 357 1 365 1 390 1 497 1 343 1 464 1 335 1 7 1 18 1 26 1 32 1 37 1 38 1 47 1 53 1 72 1 95 1 105 1 118 1 119 1 135 1 139 1 143 1 193 1 212 1 227 1 228 1 242 1 244 1 251 1 272 1 300 1 337 1 338 1 345 1 361 1 362 1 371 1 374 1 389 1 393 1 403 1 409 1 416 1 417 1 433 1 438 1 462 1 480 1 485 1 490 1 492 1 493 1 
1 195 2 2 5 1 6 1 23 1 24 1 29 1 68 1 81 1 94 1 98 1 101 1 110 1 119 1 120 2 148 1 153 1 155 1 160 1 163 1 170 1 174 1 179 1 184 1 190 1 191 1 193 1 194 1 195 1 209 1 212 1 220 1 231 1 238 1 257 1 477 1 380 1 307 1 325 2 441 1 372 1 340 1 402 1 424 1 316 1 484 1 343 1 374 1 309 1 474 1 303 1 355 1 378 1 338 1 485 1 469 1 430 1 456 1 357 1 288 1 377 1 381 1 431 1 370 1 446 1 356 1 13 1 30 1 32 1 66 1 69 1 78 1 85 1 88 1 124 1 129 1 134 1 149 1 154 1 159 1 175 1 177 1 221 1 234 1 260 1 279 1 280 1 287 1 305 1 332 1 371 1 376 1 384 1 385 1 398 1 399 1 409 1 445 1 455 1 458 1 461 1 470 1 480 1 510 1 
1 197 1 1 13 1 21 1 46 2 55 2 58 1 69 1 77 1 85 1 86 1 94 1 100 1 101 1 131 1 134 1 138 1 142 1 143 1 158 1 180 1 183 1 190 1 211 1 221 1 226 1 228 1 229 1 237 1 239 1 258 1 477 1 440 1 361 1 494 2 401 1 485 1 274 1 312 1 294 1 427 1 461 1 483 1 371 2 410 1 389 1 275 1 3 1 14 1 15 1 19 1 30 1 31 1 51 1 52 1 59 1 67 1 74 1 76 1 81 1 89 1 95 1 98 1 102 1 136 1 149 1 151 1 155 1 165 1 166 1 188 1 198 1 202 1 214 1 218 1 225 1 251 1 271 1 298 1 314 1 320 1 322 1 326 1 337 1 342 1 343 1 348 1 354 1 359 1 367 1 372 1 375 1 395 1 396 1 404 1 419 1 428 1 430 1 434 1 448 1 452 1 458 1 464 1 470 1 497 1 
1 216 11 1 20 1 23 1 24 1 73 1 74 1 75 2 85 1 90 1 98 1 99 1 101 1 108 1 124 1 131 1 137 1 150 1 157 1 162 2 163 1 178 1 182 1 197 1 220 1 231 1 408 1 309 1 475 1 311 1 449 2 268 1 448 2 453 2 398 1 454 1 326 1 300 1 479 1 374 1 415 1 452 1 402 1 322 1 497 1 434 1 409 1 355 1 296 2 411 1 339 1 352 1 3 1 5 1 8 1 10 1 15 1 31 1 48 1 66 1 72 1 79 1 80 1 91 1 96 1 107 1 125 1 126 1 132 1 145 1 149 1 166 1 172 1 174 1 180 1 192 1 193 1 208 1 230 1 241 1 251 1 254 1 256 1 259 1 283 1 297 1 301 1 303 1 332 1 335 1 351 1 358 1 372 1 375 1 380 1 388 1 389 1 391 1 392 1 395 1 404 1 405 1 416 1 418 1 431 1 435 1 441 1 442 1 446 1 464 1 482 1 491 1 495 1 
1 202 1 1 4 1 12 1 15 1 19 1 37 2 53 1 59 1 62 1 69 1 78 1 92 1 95 1 109 1 128 1 132 1 155 1 158 1 159 1 166 1 170 1 171 1 176 1 177 2 181 1 198 1 209 1 221 1 223 2 233 1 239 1 302 1 468 1 445 1 310 2 382 2 298 2 460 1 476 1 305 1 353 1 441 2 343 1 435 1 349 1 323 1 410 1 383 1 339 1 336 1 273 1 416 1 500 1 344 1 447 2 483 1 350 1 311 2 493 1 329 1 376 1 487 1 270 1 304 1 6 1 17 1 25 1 41 1 43 1 47 1 57 1 60 1 74 1 87 1 98 1 105 1 111 1 112 1 121 1 133 1 135 1 136 1 143 1 156 1 157 1 172 1 185 1 187 1 200 1 219 1 244 1 259 1 268 1 272 1 280 1 327 1 334 1 360 1 366 1 389 1 395 1 404 1 417 1 422 1 433 1 438 1 453 1 455 1 462 1 473 1 477 1 481 1 
1 202 20 1 31 1 37 1 44 1 53 1 55 1 56 1 58 1 60 1 70 1 76 1 98 1 101 1 116 1 119 1 123 1 137 1 143 1 155 1 160 1 163 1 168 1 178 1 183 1 190 1 195 1 200 1 203 1 204 2 222 2 223 1 232 1 233 2 241 1 243 1 266 1 483 1 320 1 440 1 421 1 326 1 441 1 450 1 327 1 459 1 477 1 318 1 358 1 277 1 413 1 495 1 374 1 473 2 436 1 366 1 398 1 346 1 480 1 369 1 352 2 437 1 383 1 423 2 491 1 289 1 418 1 7 1 27 1 40 1 49 1 50 1 71 1 73 1 88 1 90 1 95 1 97 1 107 1 112 1 113 1 114 1 131 1 133 1 138 1 139 1 141 1 147 1 179 1 197 1 202 1 213 1 215 1 217 1 256 1 267 1 314 1 317 1 335 1 339 1 340 1 342 1 349 1 363 1 396 1 397 1 431 1 443 1 446 1 449 1 451 1 462 1 463 1 465 1 478 1 481 1 502 1 
1 224 8 1 13 1 25 1 28 2 53 1 64 1 82 1 87 1 93 1 98 1 106 1 115 1 126 2 138 1 142 1 146 1 161 1 164 1 172 2 174 1 187 1 204 1 205 1 213 1 218 1 224 1 228 1 231 1 232 1 233 1 235 1 247 1 411 1 437 1 351 2 457 1 385 1 485 1 314 2 333 2 350 1 312 1 358 2 364 1 487 2 397 1 465 1 393 2 430 1 415 1 494 2 329 1 326 1 416 1 338 1 453 1 491 1 349 1 275 1 288 1 463 1 327 1 471 1 1 1 18 1 33 1 54 1 60 1 67 1 72 1 83 1 91 1 108 1 111 1 144 1 145 1 147 1 150 1 167 1 177 1 182 1 183 1 186 1 279 1 281 1 284 1 289 1 290 1 298 1 345 1 356 1 381 1 406 1 409 1 410 1 428 1 429 1 442 1 464 1 472 1 481 1 488 1 493 1 497 1 511 1 
1 223 2 2 9 1 15 1 17 2 28 1 38 1 50 1 55 2 61 1 63 2 65 1 68 1 80 1 84 1 98 2 107 1 116 1 120 2 126 1 130 1 134 1 136 1 150 1 166 1 182 1 195 1 198 2 207 2 222 1 267 1 310 2 449 2 499 1 300 1 365 1 418 1 341 1 395 1 272 1 306 2 425 1 428 2 459 1 453 1 331 2 451 1 470 1 305 1 464 1 343 1 372 2 290 1 325 1 307 1 271 1 280 1 284 1 356 1 317 1 366 1 419 1 488 1 3 1 11 1 24 1 33 1 41 1 53 1 56 1 64 1 69 1 73 1 93 1 99 1 101 1 128 1 132 1 135 1 139 1 147 1 151 1 154 1 155 1 156 1 157 1 158 1 160 1 167 1 168 1 171 1 173 1 178 1 179 1 193 1 206 1 209 1 232 1 302 1 311 1 313 1 321 1 327 1 332 1 357 1 362 1 363 1 369 1 370 1 373 1 375 1 393 1 404 1 407 1 408 1 426 1 430 1 437 1 438 1 440 1 443 1 448 1 456 1 465 1 469 1 486 1 492 1 497 1 511 1 
1 217 2 1 8 2 14 1 21 1 36 2 60 1 64 1 66 1 72 1 89 1 121 1 122 2 128 1 139 1 143 1 164 1 166 1 170 1 187 1 195 1 196 1 215 1 218 1 221 1 224 1 226 1 244 1 270 1 415 2 491 1 359 1 406 1 346 1 479 1 337 1 465 1 469 1 308 1 396 1 453 1 358 1 309 1 352 1 338 1 468 2 351 1 292 1 355 1 490 1 376 1 289 1 384 1 336 1 24 1 30 1 41 1 43 1 51 1 58 1 67 1 71 1 78 1 80 1 109 1 111 1 119 1 134 1 144 1 145 1 155 1 172 1 186 1 203 1 217 1 225 1 229 1 265 1 274 1 275 1 276 1 318 1 319 1 324 1 327 1 328 1 340 1 349 1 360 1 365 1 366 1 375 1 379 1 385 1 400 1 418 1 420 1 427 1 429 1 431 1 437 1 445 1 493 1 498 1 510 1 
1 187 1 2 7 1 21 1 27 1 44 2 63 1 71 1 76 1 83 1 101 1 113 1 125 1 128 1 141 1 146 1 157 1 164 1 170 2 172 1 174 1 183 1 191 1 194 1 195 1 196 1 200 1 201 1 203 2 204 1 209 1 211 1 215 1 230 2 233 1 246 1 270 1 447 1 477 1 422 2 498 1 461 1 298 2 493 1 382 1 492 1 455 1 327 2 458 1 376 1 372 1 388 1 307 1 495 2 302 1 385 1 487 1 310 1 479 1 6 1 17 1 29 1 34 1 39 1 51 1 54 1 62 1 86 1 119 1 120 1 158 1 160 1 162 1 169 1 173 1 181 1 186 1 193 1 205 1 206 1 241 1 244 1 249 1 250 1 263 1 267 1 281 1 282 1 285 1 290 1 318 1 336 1 353 1 363 1 370 1 397 1 400 1 401 1 429 1 445 1 448 1 465 1 481 1 494 1 
1 220 17 1 27 2 33 2 34 1 43 1 45 1 47 1 49 1 50 2 57 1 70 1 74 1 83 1 115 1 121 2 132 1 133 1 140 1 147 1 149 1 166 1 168 1 173 1 182 1 183 1 190 1 191 1 192 1 194 1 208 1 209 1 214 1 216 1 219 1 220 1 226 2 234 1 236 1 244 1 256 1 262 1 267 1 409 1 377 1 391 1 364 1 426 1 445 1 349 1 373 1 366 1 469 1 315 1 312 1 472 1 332 1 417 1 490 1 424 1 422 1 404 2 393 1 480 1 414 1 398 1 394 1 318 1 466 1 498 1 3 1 7 1 14 1 20 1 38 1 61 1 67 1 88 1 98 1 117 1 143 1 179 1 180 1 241 1 261 1 277 1 278 1 285 1 290 1 299 1 302 1 321 1 325 1 327 1 335 1 363 1 378 1 382 1 405 1 411 1 413 1 419 1 421 1 423 1 432 1 444 1 455 1 461 1 471 1 496 1 507 1 516 1 
1 210 7 1 26 1 30 1 36 2 42 1 49 1 50 1 51 1 59 1 62 1 63 2 65 1 67 1 72 1 73 1 114 1 121 1 130 1 137 1 140 1 145 1 150 1 152 1 159 1 167 1 173 1 199 1 202 1 220 1 224 1 232 1 235 1 236 1 245 2 248 1 249 1 265 1 473 1 403 1 433 1 354 1 462 1 424 1 435 1 447 1 385 1 390 2 398 1 483 2 351 1 301 1 307 1 364 1 283 1 480 1 282 1 321 1 458 1 401 2 457 2 453 1 409 1 292 2 383 1 12 1 21 1 29 1 35 1 37 1 41 1 44 1 45 1 57 1 66 1 70 1 71 1 85 1 95 1 100 1 108 1 109 1 144 1 156 1 162 1 169 1 171 1 180 1 196 1 205 1 213 1 223 1 238 1 239 1 253 1 271 1 281 1 288 1 309 1 313 1 322 1 330 1 333 1 334 1 353 1 359 1 387 1 405 1 407 1 417 1 436 1 441 1 484 1 487 1 489 1 
1 203 6 1 35 1 41 2 51 1 65 1 67 1 74 1 79 2 84 1 87 1 88 1 93 1 94 1 95 1 112 1 133 1 147 1 149 2 154 1 159 1 167 1 178 1 182 1 183 1 193 1 205 1 211 1 227 2 228 1 229 1 236 2 242 1 262 1 265 1 269 1 494 2 485 1 472 1 276 1 412 1 500 1 366 1 322 1 306 2 409 1 328 1 319 1 390 1 389 1 490 1 473 1 291 1 448 1 434 1 303 1 403 1 413 2 357 1 406 2 280 2 442 1 386 1 365 1 453 1 8 1 16 1 23 1 34 1 46 1 49 1 92 1 99 1 100 1 103 1 116 1 123 1 162 1 204 1 212 1 217 1 219 1 230 1 231 1 232 1 271 1 282 1 304 1 305 1 312 1 313 1 340 1 368 1 371 1 374 1 376 1 381 1 383 1 391 1 395 1 404 1 410 1 423 1 427 1 435 1 437 1 439 1 440 1 444 1 457 1 509 1 
1 198 4 1 5 1 27 1 47 1 69 1 72 1 77 1 84 1 108 1 109 1 111 1 119 1 126 1 130 1 131 1 164 1 165 1 187 1 194 2 198 1 199 1 202 1 205 1 208 2 228 2 229 1 239 1 275 1 452 1 340 1 315 1 431 1 492 1 473 1 434 1 369 2 368 2 395 1 301 1 313 2 317 1 288 1 281 1 362 1 417 1 455 1 456 1 466 1 414 1 478 1 472 1 482 1 325 1 499 1 495 1 425 1 344 1 339 1 367 1 13 1 14 1 15 1 22 1 25 1 37 1 42 1 46 1 48 1 62 1 63 1 65 1 74 1 110 1 127 1 129 1 141 1 175 1 178 1 191 1 197 1 213 1 243 1 247 1 253 1 271 1 277 1 291 1 351 1 352 1 358 1 359 1 360 1 363 1 403 1 405 1 408 1 416 1 428 1 439 1 463 1 479 1 481 1 485 1 502 1 515 1 
1 206 13 1 29 1 33 2 51 2 55 1 57 1 82 1 106 1 110 1 116 1 121 1 131 2 138 1 164 2 165 1 169 1 171 1 175 1 177 1 184 1 190 1 191 1 201 1 222 1 268 1 449 1 303 1 446 1 419 1 396 1 352 1 286 1 469 1 475 1 378 1 437 1 486 1 434 1 399 1 344 1 325 1 452 1 374 2 421 1 364 2 467 1 312 1 317 1 462 1 304 1 281 1 426 1 298 1 8 1 23 1 25 1 30 1 36 1 43 1 46 1 56 1 62 1 73 1 87 1 92 1 102 1 123 1 124 1 132 1 135 1 147 1 151 1 176 1 180 1 204 1 207 1 225 1 234 1 235 1 242 1 250 1 273 1 276 1 283 1 295 1 305 1 306 1 315 1 319 1 322 1 327 1 328 1 334 1 338 1 340 1 341 1 345 1 347 1 359 1 367 1 373 1 376 1 381 1 393 1 397 1 401 1 407 1 410 1 414 1 429 1 435 1 436 1 484 1 491 1 
1 197 2 1 20 1 29 1 33 1 62 1 81 2 96 1 108 1 114 1 120 1 131 1 140 1 147 1 154 1 159 1 162 1 163 1 165 1 189 1 205 1 210 1 214 1 217 2 235 1 238 1 241 1 244 1 245 1 355 1 479 1 443 1 497 1 441 1 389 1 370 1 394 1 384 1 288 1 308 1 359 1 382 1 399 2 465 1 488 1 342 1 448 1 345 1 496 1 478 2 322 1 442 2 306 1 459 1 8 1 11 1 12 1 14 1 22 1 23 1 26 1 35 1 39 1 41 1 44 1 48 1 55 1 71 1 75 1 79 1 82 1 84 1 99 1 111 1 137 1 143 1 150 1 152 1 153 1 157 1 191 1 204 1 211 1 212 1 213 1 229 1 239 1 273 1 285 1 293 1 309 1 330 1 351 1 365 1 368 1 371 1 376 1 386 1 408 1 422 1 423 1 426 1 436 1 464 1 480 1 482 1 
1 217 4 1 9 1 20 1 26 1 27 1 32 1 34 1 41 1 47 1 50 1 53 1 62 1 64 1 71 1 84 1 85 1 89 1 90 1 104 1 105 2 110 2 119 1 134 2 176 1 177 1 179 1 180 1 183 1 208 1 212 1 215 1 239 1 240 1 241 1 244 1 250 1 497 1 352 1 486 2 405 1 410 1 324 1 362 1 384 1 477 1 286 1 293 1 464 1 325 1 478 2 302 1 318 1 380 1 319 1 459 1 495 1 483 1 306 1 336 2 328 1 8 1 10 1 29 1 37 1 40 1 43 1 68 1 78 1 88 1 94 1 99 1 109 1 114 1 125 1 128 1 132 1 133 1 135 1 141 1 152 1 156 1 214 1 218 1 219 1 226 1 227 1 230 1 231 1 249 1 252 1 260 1 264 1 269 1 288 1 290 1 313 1 314 1 323 1 329 1 335 1 338 1 341 1 355 1 360 1 365 1 373 1 378 1 379 1 381 1 394 1 403 1 443 1 453 1 455 1 456 1 470 1 496 1 506 1 508 1 517 1 
1 188 1 1 5 1 7 1 10 1 20 2 27 1 40 1 52 1 82 1 88 1 89 1 94 1 100 1 107 2 111 1 136 1 143 1 148 2 150 1 158 1 207 1 212 1 220 1 229 1 242 2 248 1 251 1 254 1 270 1 275 2 397 2 349 1 307 1 433 1 458 1 320 1 373 1 396 2 399 1 403 1 416 1 477 1 438 1 363 1 316 1 343 1 393 1 467 1 388 1 375 1 451 1 313 1 21 1 30 1 62 1 66 1 67 1 68 1 73 1 77 1 81 1 85 1 87 1 98 1 109 1 123 1 130 1 133 1 146 1 176 1 180 1 192 1 193 1 199 1 200 1 208 1 234 1 236 1 252 1 264 1 267 1 290 1 295 1 308 1 319 1 323 1 324 1 348 1 357 1 387 1 391 1 405 1 413 1 421 1 427 1 430 1 432 1 466 1 470 1 482 1 484 1 486 1 513 1 
1 217 7 1 12 1 21 1 23 1 29 2 32 1 36 1 39 1 73 1 105 1 107 1 114 1 118 2 120 2 121 1 123 1 124 1 135 2 151 2 153 2 159 1 169 1 170 1 171 2 219 1 226 1 236 1 245 2 255 1 276 1 277 1 438 1 457 1 408 1 403 1 333 1 425 1 390 1 353 1 406 1 391 1 388 1 283 1 440 1 431 1 493 1 412 1 480 1 308 1 472 1 454 1 321 1 456 1 379 1 495 1 331 1 469 1 319 1 307 1 467 1 338 1 434 1 450 1 380 1 466 1 371 1 464 1 18 1 40 1 58 1 60 1 62 1 68 1 77 1 82 1 104 1 122 1 143 1 148 1 158 1 161 1 163 1 178 1 204 1 216 1 229 1 237 1 269 1 272 1 274 1 285 1 286 1 289 1 293 1 303 1 317 1 334 1 337 1 360 1 361 1 365 1 375 1 395 1 404 1 413 1 422 1 424 1 432 1 442 1 444 1 460 1 462 1 465 1 470 1 471 1 475 1 476 1 
1 211 11 1 17 1 20 2 27 1 28 1 35 2 38 1 39 1 54 1 63 1 69 1 95 1 96 1 97 1 103 2 104 1 105 1 107 1 110 1 125 1 128 1 133 1 135 1 138 1 167 1 172 1 184 1 191 1 194 1 204 1 207 1 212 1 216 1 220 1 226 1 229 1 232 1 255 1 257 1 274 1 402 1 349 1 339 2 465 1 318 2 470 1 321 1 432 1 283 1 418 1 401 1 448 1 320 1 398 1 475 1 285 1 290 1 384 1 417 1 369 2 420 1 452 1 496 1 405 1 423 1 376 2 284 1 330 1 3 1 8 1 15 1 25 1 31 1 33 1 36 1 41 1 51 1 57 1 62 1 73 1 74 1 76 1 108 1 114 1 143 1 144 1 156 1 208 1 213 1 227 1 231 1 243 1 244 1 249 1 250 1 254 1 272 1 275 1 293 1 294 1 315 1 319 1 323 1 329 1 341 1 350 1 358 1 366 1 375 1 378 1 414 1 419 1 424 1 430 1 434 1 441 1 494 1 497 1 505 1 508 1 509 1 
1 197 4 1 5 1 9 1 41 1 44 1 59 1 62 1 77 1 82 1 86 1 91 1 92 2 98 1 99 1 104 2 106 1 124 1 133 1 143 1 149 1 153 1 206 1 211 1 216 2 231 2 235 2 248 1 258 1 274 1 281 1 282 1 388 1 384 1 370 1 323 2 444 1 313 1 342 1 415 1 449 1 317 1 495 1 354 1 492 1 438 1 485 1 374 2 352 1 467 1 397 1 322 1 366 1 364 1 423 1 453 1 309 1 458 1 362 1 1 1 13 1 15 1 21 1 32 1 42 1 48 1 75 1 76 1 84 1 105 1 111 1 115 1 161 1 173 1 178 1 180 1 185 1 189 1 191 1 215 1 217 1 223 1 224 1 236 1 246 1 252 1 254 1 266 1 277 1 285 1 288 1 305 1 331 1 333 1 338 1 355 1 372 1 385 1 409 1 420 1 427 1 428 1 432 1 437 1 442 1 456 1 457 1 470 1 497 1 500 1 
1 204 2 1 3 1 4 1 17 1 24 1 25 1 34 2 62 1 69 1 74 2 87 1 89 1 92 1 94 1 101 1 108 2 125 2 126 1 152 1 167 2 179 2 185 1 186 1 197 1 213 1 217 1 228 1 234 2 237 1 257 1 270 1 282 1 335 2 447 2 445 2 324 1 397 1 494 1 358 1 307 2 391 1 388 1 327 1 398 1 404 1 480 1 382 1 326 2 486 1 396 1 373 1 378 1 393 2 411 1 357 1 477 1 465 1 431 1 416 1 10 1 12 1 21 1 22 1 27 1 48 1 63 1 71 1 73 1 81 1 85 1 95 1 100 1 116 1 121 1 131 1 132 1 134 1 142 1 149 1 158 1 160 1 172 1 196 1 200 1 204 1 208 1 226 1 249 1 252 1 255 1 259 1 269 1 292 1 299 1 311 1 319 1 334 1 345 1 354 1 369 1 372 1 387 1 401 1 417 1 418 1 433 1 449 1 475 1 485 1 493 1 508 1 
1 216 2 1 3 1 11 1 19 1 25 2 26 1 30 2 37 1 56 1 61 1 65 1 76 1 84 2 100 1 102 1 121 2 124 1 154 1 158 1 170 1 172 1 200 1 201 1 203 1 205 1 217 1 228 1 232 1 235 1 239 1 241 2 245 1 260 1 282 1 459 1 384 1 476 1 462 1 310 1 403 1 397 1 329 1 471 1 498 1 391 1 480 1 336 1 488 1 419 1 491 1 314 1 375 1 383 2 468 1 441 1 366 1 404 2 438 1 461 1 324 1 455 1 499 1 395 1 1 1 13 1 16 1 22 1 23 1 31 1 41 1 42 1 50 1 59 1 60 1 66 1 72 1 89 1 91 1 113 1 118 1 125 1 142 1 153 1 182 1 190 1 194 1 195 1 209 1 214 1 227 1 233 1 272 1 273 1 278 1 281 1 283 1 286 1 287 1 289 1 293 1 294 1 295 1 300 1 307 1 313 1 315 1 332 1 339 1 340 1 362 1 376 1 387 1 388 1 400 1 401 1 405 1 424 1 446 1 451 1 457 1 472 1 
1 210 5 1 6 1 28 1 29 1 30 1 34 1 38 1 52 1 58 1 72 1 90 1 96 1 110 2 121 1 124 1 130 1 132 1 138 1 149 1 155 1 171 2 177 1 179 1 185 1 188 1 218 1 221 1 230 1 231 1 240 1 247 1 248 1 257 1 277 1 279 1 428 1 485 1 448 1 496 1 432 1 399 1 343 2 421 1 495 1 354 1 388 1 328 1 332 2 402 2 338 2 373 1 362 1 494 1 430 2 490 1 318 1 420 2 454 2 323 1 366 1 7 1 20 1 22 1 42 1 43 1 63 1 65 1 83 1 103 1 106 1 111 1 113 1 143 1 146 1 159 1 164 1 172 1 182 1 183 1 201 1 239 1 245 1 281 1 285 1 287 1 288 1 312 1 316 1 317 1 335 1 337 1 340 1 352 1 353 1 355 1 357 1 377 1 395 1 397 1 398 1 401 1 406 1 411 1 425 1 443 1 452 1 460 1 463 1 482 1 487 1 493 1 509 1 510 1 
1 224 9 1 17 1 22 1 26 1 28 1 33 1 52 1 62 1 63 2 65 2 76 1 79 1 81 1 87 1 88 1 96 1 107 1 115 1 125 1 128 1 161 1 164 1 180 1 182 1 188 1 193 1 196 1 203 1 204 1 207 1 211 1 220 1 221 2 223 1 228 1 229 2 233 1 235 1 251 1 252 1 255 1 340 1 478 1 337 1 368 2 341 1 472 1 347 1 330 1 414 1 458 1 326 1 400 1 479 1 323 1 442 1 416 2 470 1 477 1 344 1 437 1 494 1 322 1 439 1 455 1 491 1 398 1 307 1 317 2 352 2 426 1 4 1 5 1 7 1 64 1 66 1 90 1 103 1 106 1 108 1 124 1 126 1 131 1 141 1 148 1 159 1 179 1 185 1 195 1 215 1 218 1 242 1 254 1 261 1 264 1 285 1 286 1 309 1 315 1 333 1 342 1 343 1 348 1 349 1 358 1 369 1 377 1 382 1 391 1 393 1 394 1 407 1 417 1 419 1 421 1 429 1 449 1 464 1 471 1 482 1 493 1 499 1 507 1 
1 209 1 1 3 1 8 1 11 2 14 1 21 1 25 1 42 1 48 2 50 2 67 1 95 1 97 2 105 1 107 1 109 1 122 1 149 1 153 1 157 1 158 1 167 1 168 1 198 1 211 2 224 1 247 1 258 1 264 1 269 1 276 1 278 1 450 1 389 2 496 1 321 1 456 2 390 1 291 1 461 1 411 1 476 1 435 1 414 1 296 1 370 1 479 1 328 1 404 2 325 1 418 1 492 1 424 1 422 1 297 1 458 2 397 1 4 1 5 1 10 1 13 1 20 1 26 1 29 1 31 1 38 1 45 1 66 1 68 1 72 1 84 1 91 1 104 1 112 1 118 1 125 1 131 1 135 1 140 1 142 1 181 1 182 1 188 1 189 1 192 1 200 1 204 1 207 1 212 1 219 1 225 1 227 1 234 1 237 1 240 1 274 1 279 1 283 1 286 1 337 1 342 1 357 1 360 1 365 1 398 1 405 1 427 1 430 1 437 1 439 1 446 1 448 1 453 1 467 1 471 1 497 1 515 1 
1 218 1 1 11 1 17 1 39 1 47 1 49 1 50 1 76 1 77 1 84 1 99 1 109 1 124 2 138 1 144 1 150 1 155 1 157 1 159 1 165 1 168 1 179 1 183 1 188 1 194 1 195 1 206 2 211 1 213 1 214 1 217 1 222 1 239 1 240 1 249 1 253 2 255 1 268 1 271 1 395 1 399 1 496 1 295 1 390 1 499 1 435 2 387 1 485 2 319 1 448 2 340 1 298 1 384 1 396 2 400 1 412 1 3 1 4 1 6 1 15 1 22 1 23 1 64 1 68 1 73 1 83 1 98 1 103 1 104 1 125 1 132 1 140 1 146 1 149 1 153 1 162 1 180 1 181 1 234 1 245 1 257 1 269 1 281 1 285 1 290 1 311 1 322 1 331 1 347 1 351 1 353 1 357 1 371 1 374 1 381 1 382 1 393 1 397 1 404 1 419 1 423 1 457 1 462 1 467 1 472 1 473 1 482 1 492 1 508 1 
1 184 4 1 5 1 20 2 26 1 35 1 46 1 49 1 82 2 92 1 99 2 100 1 123 1 129 1 134 1 137 1 148 1 153 1 157 1 182 1 190 1 191 1 200 1 204 1 210 1 220 1 225 1 235 1 237 1 246 1 248 1 262 1 270 1 282 1 332 1 364 1 345 1 477 2 452 1 314 1 494 1 425 1 341 1 368 1 467 1 349 1 459 1 313 1 489 1 311 1 292 1 318 1 414 1 365 1 342 2 436 2 479 1 397 1 9 1 23 1 27 1 36 1 38 1 76 1 98 1 109 1 161 1 168 1 181 1 186 1 192 1 194 1 197 1 231 1 232 1 245 1 252 1 269 1 272 1 273 1 279 1 280 1 289 1 317 1 322 1 328 1 329 1 333 1 351 1 352 1 355 1 361 1 374 1 387 1 389 1 401 1 411 1 413 1 438 1 441 1 446 1 453 1 475 1 495 1 
1 223 3 1 11 1 13 1 16 1 44 1 47 1 51 1 68 1 69 1 80 1 89 1 104 1 119 2 133 1 137 2 143 1 147 1 149 1 153 2 154 1 156 2 161 1 167 1 174 2 175 1 177 1 180 2 197 1 224 1 240 1 244 1 246 1 247 1 248 1 255 1 275 1 288 1 381 2 326 1 360 1 349 1 358 1 499 1 474 1 379 1 384 1 363 1 491 1 485 1 377 1 471 1 423 2 462 1 370 1 466 1 422 1 421 2 480 1 1 1 9 1 10 1 27 1 31 1 37 1 42 1 50 1 56 1 66 1 74 1 81 1 85 1 94 1 102 1 112 1 120 1 140 1 141 1 152 1 160 1 166 1 178 1 182 1 198 1 199 1 222 1 225 1 236 1 243 1 250 1 276 1 293 1 296 1 312 1 322 1 338 1 341 1 344 1 347 1 352 1 354 1 361 1 392 1 395 1 396 1 415 1 420 1 428 1 430 1 431 1 453 1 459 1 477 1 489 1 509 1 512 1 
1 222 4 1 12 1 22 1 27 1 32 1 33 1 37 1 40 1 43 1 50 1 55 1 66 1 77 1 103 1 111 1 116 2 128 1 130 1 148 1 156 1 183 2 194 1 195 2 202 1 204 1 213 1 224 1 226 1 230 1 231 1 271 1 274 2 290 1 324 2 467 1 488 1 473 2 294 2 447 1 493 1 373 1 372 1 455 1 450 1 378 1 470 1 365 1 349 1 411 2 330 1 340 1 492 1 298 1 422 1 408 2 2 1 30 1 35 1 54 1 57 1 64 1 65 1 67 1 85 1 99 1 102 1 106 1 126 1 136 1 149 1 159 1 164 1 169 1 180 1 182 1 198 1 199 1 209 1 217 1 227 1 237 1 244 1 257 1 284 1 329 1 334 1 355 1 358 1 367 1 376 1 381 1 410 1 413 1 415 1 420 1 424 1 428 1 439 1 443 1 451 1 452 1 461 1 468 1 484 1 487 1 497 1 498 1 504 1 505 1 508 1 
1 179 14 1 17 2 20 2 24 2 38 1 39 1 50 1 68 1 78 2 87 1 94 1 96 1 103 1 118 1 127 1 129 1 144 1 152 2 156 1 160 1 161 1 170 1 172 1 192 1 230 1 235 1 240 1 242 2 246 1 263 1 279 1 483 1 438 1 446 1 349 1 482 1 348 1 484 1 405 1 354 1 388 1 399 1 464 1 345 1 423 1 498 1 454 1 492 1 371 2 339 1 298 1 372 1 500 2 406 2 437 1 401 1 420 1 477 1 308 1 448 1 480 1 1 1 10 1 19 1 21 1 27 1 29 1 36 1 45 1 55 1 61 1 112 1 132 1 139 1 140 1 145 1 163 1 171 1 175 1 183 1 186 1 187 1 201 1 218 1 236 1 243 1 254 1 256 1 260 1 278 1 281 1 282 1 285 1 291 1 318 1 326 1 332 1 368 1 383 1 387 1 411 1 428 1 443 1 452 1 467 1 481 1 
1 225 4 1 6 1 10 1 35 1 37 1 59 1 68 1 81 1 95 1 109 1 111 2 123 1 129 1 144 1 146 1 150 1 151 1 153 1 154 1 156 1 159 1 171 2 183 1 187 1 194 1 203 1 214 1 216 1 217 1 220 2 236 1 244 1 254 1 261 1 265 1 292 2 452 1 398 1 418 1 327 2 414 1 427 1 320 1 420 1 403 1 479 1 419 1 296 2 426 1 384 1 341 1 309 1 347 1 425 1 487 1 354 1 2 1 3 1 26 1 33 1 46 1 65 1 66 1 67 1 80 1 101 1 121 1 124 1 138 1 178 1 200 1 232 1 258 1 282 1 285 1 322 1 323 1 324 1 328 1 332 1 333 1 335 1 336 1 344 1 346 1 353 1 362 1 389 1 394 1 407 1 409 1 417 1 431 1 439 1 450 1 457 1 459 1 477 1 481 1 506 1 
1 223 21 1 25 1 32 1 48 1 52 1 58 1 62 1 83 1 93 1 99 1 103 1 105 1 110 1 111 1 112 1 115 1 117 1 118 1 127 1 141 1 149 1 154 1 155 1 156 1 161 2 162 1 164 1 178 1 180 1 182 1 218 1 220 2 224 1 233 1 236 1 244 1 255 1 289 1 452 1 442 1 353 1 498 1 439 2 396 1 381 1 343 1 451 1 330 1 334 1 342 1 437 1 427 1 499 2 433 1 413 1 414 1 386 1 346 1 309 1 299 1 482 1 392 1 345 1 430 1 408 1 453 1 370 1 475 2 3 1 4 1 10 1 26 1 28 1 46 1 54 1 60 1 65 1 66 1 78 1 87 1 88 1 102 1 107 1 108 1 125 1 132 1 134 1 169 1 177 1 208 1 222 1 230 1 235 1 245 1 246 1 251 1 253 1 254 1 256 1 277 1 280 1 285 1 298 1 302 1 319 1 349 1 350 1 352 1 372 1 385 1 395 1 399 1 405 1 420 1 424 1 426 1 455 1 457 1 460 1 471 1 491 1 495 1 497 1 
1 192 9 1 19 1 49 1 51 1 53 1 55 1 56 1 59 1 67 2 74 1 84 1 99 1 106 1 107 1 108 1 115 1 124 1 127 1 133 1 134 1 152 1 164 2 168 1 172 2 174 2 185 1 186 1 188 1 204 1 207 1 229 1 236 1 243 1 266 2 288 1 294 2 352 1 434 1 389 1 365 1 297 1 470 2 347 1 486 1 364 1 498 1 329 1 442 1 479 1 370 1 394 1 453 1 398 1 484 1 449 1 3 1 10 1 14 1 18 1 20 1 22 1 26 1 45 1 66 1 75 1 80 1 86 1 103 1 113 1 119 1 120 1 121 1 138 1 143 1 145 1 150 1 154 1 157 1 178 1 183 1 189 1 205 1 220 1 231 1 233 1 239 1 240 1 252 1 254 1 291 1 302 1 304 1 318 1 337 1 357 1 358 1 360 1 377 1 383 1 384 1 388 1 416 1 417 1 421 1 445 1 458 1 467 1 469 1 491 1 
1 217 1 2 12 2 13 2 25 1 26 2 38 1 44 2 54 1 59 1 64 1 82 2 83 1 94 1 99 2 108 1 139 1 145 1 151 1 152 1 157 1 162 1 163 1 164 1 168 1 169 1 171 1 181 1 182 2 205 2 211 1 232 1 237 2 248 2 251 1 257 1 262 1 288 1 296 1 404 2 410 2 428 1 403 1 458 1 384 1 442 2 488 1 469 1 377 2 299 1 500 1 323 1 373 1 391 2 329 1 467 1 367 1 429 2 369 1 430 1 463 1 477 1 450 1 371 1 3 1 8 1 29 1 30 1 52 1 58 1 84 1 97 1 100 1 105 1 111 1 135 1 138 1 146 1 154 1 185 1 189 1 191 1 200 1 217 1 239 1 245 1 266 1 304 1 328 1 333 1 342 1 345 1 346 1 347 1 354 1 363 1 372 1 379 1 397 1 437 1 447 1 454 1 472 1 475 1 478 1 513 1 
1 214 3 1 6 1 11 1 29 1 87 1 89 1 93 2 115 1 119 1 134 1 137 2 154 1 164 1 167 1 186 1 188 2 193 1 204 1 210 1 212 1 217 1 218 1 232 1 238 1 250 1 255 1 261 1 267 2 272 2 277 1 289 1 292 1 293 1 485 1 325 1 356 2 368 1 472 1 454 1 362 2 408 1 431 1 342 2 491 1 446 1 445 1 317 1 495 1 304 1 1 1 7 1 20 1 22 1 34 1 43 1 44 1 48 1 53 1 58 1 62 1 82 1 86 1 90 1 97 1 98 1 103 1 108 1 110 1 118 1 139 1 141 1 142 1 144 1 161 1 170 1 171 1 173 1 175 1 181 1 190 1 196 1 197 1 205 1 206 1 213 1 215 1 216 1 219 1 221 1 227 1 248 1 258 1 265 1 269 1 295 1 337 1 352 1 364 1 376 1 384 1 385 1 394 1 395 1 399 1 411 1 412 1 413 1 430 1 437 1 444 1 462 1 463 1 483 1 501 1 505 1 514 1 516 1 
1 201 2 1 23 1 28 2 39 1 42 2 66 1 69 2 75 1 76 1 80 1 84 2 86 1 94 1 103 1 116 1 119 1 139 1 143 1 147 1 153 1 156 1 185 1 186 1 189 1 195 1 197 2 208 1 209 1 251 1 257 1 260 1 295 1 297 1 376 1 368 1 423 1 490 1 351 1 438 1 331 1 329 1 479 1 300 2 387 1 419 2 424 1 434 1 338 1 336 1 468 1 7 1 9 1 22 1 24 1 25 1 49 1 51 1 73 1 79 1 88 1 107 1 117 1 123 1 131 1 145 1 161 1 166 1 202 1 211 1 217 1 220 1 222 1 223 1 239 1 246 1 273 1 284 1 301 1 303 1 307 1 344 1 377 1 379 1 383 1 389 1 391 1 410 1 411 1 412 1 414 1 417 1 428 1 429 1 453 1 471 1 472 1 473 1 474 1 477 1 480 1 489 1 503 1 
1 209 4 2 18 1 20 1 50 1 60 1 64 1 84 1 86 1 87 1 89 1 95 1 104 1 138 1 148 1 149 1 158 2 162 1 169 1 174 1 182 1 198 1 202 1 207 1 208 1 224 1 237 1 246 1 250 1 259 1 260 1 266 1 270 1 299 2 373 1 427 1 331 1 380 1 354 1 361 1 484 1 332 1 421 1 388 1 336 1 411 1 327 1 334 1 497 1 376 1 329 1 462 1 308 1 356 1 341 2 475 1 402 1 386 1 389 2 477 1 416 1 8 1 11 1 26 1 27 1 33 1 67 1 90 1 91 1 112 1 113 1 115 1 116 1 118 1 139 1 146 1 173 1 191 1 215 1 231 1 251 1 258 1 263 1 285 1 301 1 309 1 312 1 318 1 346 1 351 1 358 1 397 1 401 1 403 1 406 1 426 1 433 1 437 1 456 1 464 1 471 1 472 1 496 1 501 1 510 1 517 1 
1 206 17 1 40 1 46 1 48 1 61 1 70 1 74 1 79 1 80 1 84 1 86 1 93 1 97 2 98 1 102 1 123 1 136 1 175 1 181 1 194 1 211 1 222 1 230 1 235 1 240 1 252 1 255 1 274 1 276 1 401 1 394 1 441 1 442 1 399 1 488 1 352 1 369 1 422 1 340 1 490 1 390 2 393 1 350 1 419 2 396 1 400 1 402 1 403 1 364 1 413 1 444 1 391 1 383 2 426 1 308 1 454 1 405 2 370 1 418 1 475 1 463 1 2 1 5 1 12 1 13 1 19 1 32 1 33 1 41 1 47 1 62 1 67 1 92 1 101 1 106 1 116 1 119 1 126 1 145 1 146 1 149 1 151 1 152 1 154 1 157 1 173 1 189 1 209 1 217 1 229 1 236 1 266 1 299 1 300 1 305 1 307 1 314 1 332 1 341 1 357 1 367 1 404 1 411 1 428 1 435 1 439 1 445 1 448 1 469 1 477 1 479 1 489 1 493 1 495 1 
1 216 23 1 24 1 25 1 37 2 51 1 63 1 64 1 75 1 76 2 96 1 97 1 104 1 105 1 107 1 110 1 112 2 131 1 138 1 143 1 144 1 171 1 186 1 192 1 210 1 220 1 233 1 240 1 242 1 261 1 267 1 272 1 279 1 499 1 351 1 496 1 387 1 394 2 451 1 344 1 493 1 424 1 375 1 500 1 337 1 464 1 328 1 389 1 320 1 331 1 323 1 19 1 22 1 36 1 49 1 78 1 86 1 90 1 114 1 122 1 126 1 128 1 130 1 149 1 151 1 152 1 158 1 163 1 164 1 168 1 173 1 175 1 181 1 189 1 190 1 208 1 212 1 219 1 226 1 246 1 253 1 257 1 270 1 273 1 295 1 296 1 304 1 309 1 316 1 347 1 371 1 380 1 400 1 409 1 411 1 418 1 423 1 433 1 443 1 456 1 459 1 467 1 479 1 513 1 
1 215 2 1 6 2 32 2 33 2 45 1 48 1 60 1 76 1 100 1 103 2 105 2 106 1 114 2 123 1 124 1 128 1 135 2 149 1 151 1 156 1 168 2 169 1 171 2 182 1 186 1 187 1 190 1 191 1 212 2 219 1 221 1 223 1 239 1 249 1 251 1 255 1 258 2 264 1 275 1 277 1 455 2 454 1 438 1 481 1 475 1 479 1 444 2 364 1 478 1 318 1 499 1 309 1 411 1 492 1 457 1 453 1 8 1 18 1 35 1 40 1 53 1 74 1 75 1 80 1 84 1 91 1 93 1 98 1 110 1 120 1 134 1 144 1 148 1 155 1 157 1 159 1 161 1 164 1 179 1 180 1 196 1 200 1 205 1 210 1 232 1 244 1 253 1 266 1 281 1 299 1 305 1 307 1 352 1 353 1 382 1 384 1 385 1 386 1 414 1 428 1 430 1 437 1 439 1 449 1 456 1 458 1 486 1 505 1 512 1 
1 225 1 1 9 1 22 1 23 1 26 1 48 1 52 1 62 1 64 1 67 1 90 1 100 1 101 1 103 2 110 1 112 1 118 1 125 1 131 1 144 1 154 1 170 1 188 1 191 1 204 1 211 1 231 2 232 1 241 1 245 1 249 1 260 1 267 1 277 1 298 1 357 2 372 2 351 1 305 1 447 1 374 2 392 2 316 1 463 2 331 1 443 1 442 1 494 1 475 2 375 1 7 1 8 1 11 1 32 1 36 1 40 1 49 1 65 1 75 1 94 1 96 1 127 1 129 1 134 1 138 1 148 1 149 1 150 1 153 1 164 1 185 1 194 1 202 1 214 1 215 1 217 1 222 1 244 1 262 1 275 1 296 1 297 1 302 1 307 1 345 1 346 1 352 1 353 1 354 1 370 1 403 1 404 1 418 1 423 1 424 1 427 1 431 1 433 1 437 1 457 1 461 1 464 1 470 1 473 1 483 1 493 1 497 1 
1 192 6 1 12 1 15 1 36 1 42 1 47 1 68 1 76 1 100 1 105 1 118 1 127 1 134 1 140 1 141 1 145 1 162 1 173 2 179 1 194 1 195 1 201 1 211 1 214 1 227 1 231 1 243 1 246 1 248 1 267 1 270 1 304 1 469 1 381 1 375 2 383 1 361 1 486 1 347 1 413 1 482 1 476 2 349 1 478 1 500 1 494 1 308 1 430 1 389 1 405 2 485 1 363 1 455 1 416 2 442 1 463 1 29 1 32 1 38 1 59 1 61 1 67 1 72 1 73 1 78 1 95 1 96 1 106 1 108 1 113 1 114 1 154 1 156 1 158 1 167 1 170 1 174 1 188 1 192 1 217 1 220 1 221 1 250 1 259 1 264 1 275 1 277 1 283 1 301 1 303 1 314 1 336 1 340 1 344 1 351 1 364 1 372 1 378 1 379 1 386 1 393 1 395 1 412 1 422 1 433 1 436 1 445 1 470 1 499 1 503 1 505 1 508 1 
1 201 6 2 8 1 11 1 21 1 33 1 38 1 64 1 67 1 77 1 91 1 97 1 101 1 105 1 113 1 116 1 128 1 139 1 146 1 148 2 154 1 174 1 178 1 190 1 210 1 218 1 225 1 230 1 233 1 234 1 241 1 270 2 275 2 278 1 279 1 361 1 413 1 465 1 354 1 470 1 409 1 460 1 485 1 410 1 444 1 461 1 319 1 387 1 322 1 463 1 471 1 406 1 346 2 351 1 12 1 14 1 17 1 45 1 47 1 49 1 57 1 58 1 59 1 60 1 68 1 102 1 104 1 117 1 121 1 151 1 172 1 176 1 182 1 186 1 195 1 196 1 198 1 203 1 208 1 214 1 217 1 222 1 231 1 238 1 240 1 242 1 252 1 260 1 277 1 330 1 341 1 356 1 378 1 380 1 384 1 400 1 412 1 418 1 425 1 439 1 448 1 466 1 473 1 482 1 491 1 496 1 498 1 510 1 
1 190 20 1 29 1 48 1 50 2 51 1 54 1 58 1 59 1 62 1 72 1 85 1 88 1 93 1 95 1 100 1 104 1 110 1 119 1 134 1 142 1 155 1 167 2 196 1 201 1 204 2 239 2 250 1 264 1 270 1 272 1 274 1 280 1 281 1 284 2 287 1 380 1 352 1 455 1 363 1 497 2 335 1 449 1 365 1 399 1 331 2 448 1 382 1 314 1 456 1 315 1 371 1 6 1 7 1 8 1 15 1 16 1 23 1 26 1 65 1 70 1 87 1 91 1 96 1 102 1 109 1 111 1 112 1 118 1 127 1 138 1 150 1 158 1 159 1 170 1 174 1 186 1 191 1 203 1 219 1 236 1 285 1 299 1 301 1 303 1 304 1 308 1 312 1 336 1 337 1 338 1 341 1 364 1 397 1 398 1 400 1 423 1 441 1 465 1 467 1 469 1 473 1 474 1 489 1 
1 202 8 1 16 1 20 1 27 1 32 1 41 1 42 1 46 1 65 1 68 1 75 1 76 1 91 1 115 1 125 1 126 2 139 1 157 1 165 1 173 1 175 1 177 1 180 1 188 1 192 1 227 2 233 1 237 1 243 1 249 1 253 1 271 1 278 1 281 1 293 1 300 1 301 1 305 1 495 1 454 1 499 2 490 1 486 1 379 2 468 2 405 1 465 1 333 2 464 2 318 1 500 1 433 1 320 1 368 1 480 2 406 1 5 1 31 1 37 1 52 1 70 1 72 1 79 1 84 1 87 1 107 1 148 1 151 1 154 1 170 1 171 1 206 1 208 1 219 1 235 1 248 1 254 1 260 1 280 1 307 1 309 1 316 1 349 1 355 1 358 1 370 1 372 1 376 1 378 1 401 1 407 1 414 1 417 1 418 1 420 1 426 1 435 1 436 1 462 1 474 1 478 1 479 1 485 1 493 1 494 1 498 1 505 1 507 1 
1 218 10 1 27 1 32 1 41 1 51 1 60 1 65 1 88 1 115 1 117 1 141 1 151 1 159 1 165 2 174 2 176 1 179 1 184 1 187 1 190 2 198 1 201 1 205 1 223 1 225 1 230 1 231 1 234 1 235 1 244 1 247 1 248 1 263 1 264 1 266 1 271 1 283 1 294 1 295 1 303 1 365 1 490 1 334 2 373 1 430 2 494 1 476 2 474 2 433 1 406 1 460 1 486 1 338 1 320 1 366 1 412 1 446 2 385 1 337 1 498 1 372 1 350 1 407 1 390 2 14 1 15 1 16 1 49 1 68 1 76 1 79 1 97 1 105 1 123 1 138 1 177 1 185 1 192 1 203 1 204 1 215 1 221 1 228 1 241 1 256 1 274 1 278 1 287 1 300 1 302 1 308 1 310 1 319 1 342 1 374 1 379 1 388 1 389 1 396 1 398 1 409 1 415 1 417 1 419 1 424 1 425 1 429 1 436 1 438 1 442 1 457 1 459 1 464 1 475 1 478 1 484 1 489 1 500 1 
1 204 9 1 12 1 31 1 37 2 39 1 44 1 61 1 63 1 72 1 95 1 96 1 104 1 107 1 127 2 128 1 136 1 139 1 154 1 155 1 158 1 174 1 175 1 194 1 197 1 201 1 204 1 207 1 208 1 214 1 218 1 252 2 261 1 267 2 270 2 272 1 285 1 401 1 336 1 429 1 337 1 333 1 372 1 488 1 367 1 472 2 462 2 346 1 314 1 480 1 425 2 364 1 386 2 486 1 446 1 350 1 362 1 438 1 369 1 424 1 489 1 428 1 327 1 368 2 329 1 33 1 38 1 45 1 57 1 69 1 75 1 79 1 81 1 83 1 84 1 113 1 114 1 118 1 157 1 160 1 164 1 166 1 168 1 172 1 182 1 185 1 188 1 189 1 209 1 215 1 225 1 227 1 233 1 236 1 241 1 255 1 309 1 315 1 341 1 345 1 351 1 358 1 373 1 375 1 383 1 388 1 389 1 396 1 399 1 402 1 407 1 412 1 430 1 435 1 444 1 463 1 465 1 468 1 474 1 491 1 
1 199 7 1 8 1 9 1 12 1 15 1 20 2 27 1 29 1 35 1 65 1 70 1 76 1 78 1 83 1 86 1 90 1 99 1 105 1 120 1 129 1 139 2 184 1 193 1 215 1 218 1 219 1 226 1 230 1 231 1 237 2 245 1 253 1 255 1 257 1 259 1 262 1 266 1 267 2 290 1 441 1 458 1 354 2 463 1 402 1 383 2 340 1 385 1 372 1 377 1 478 1 395 1 407 1 324 1 360 1 313 1 359 1 362 1 23 1 24 1 33 1 36 1 46 1 50 1 77 1 94 1 114 1 119 1 127 1 133 1 140 1 162 1 187 1 191 1 192 1 204 1 209 1 222 1 242 1 247 1 251 1 270 1 284 1 289 1 336 1 342 1 348 1 357 1 363 1 371 1 386 1 406 1 411 1 412 1 415 1 421 1 422 1 424 1 444 1 446 1 456 1 472 1 474 1 475 1 494 1 498 1 505 1 
1 201 15 1 19 1 25 1 31 1 34 1 38 1 47 2 52 2 56 2 57 1 64 1 82 1 97 1 106 2 113 2 125 1 128 1 132 1 138 1 144 1 151 2 152 1 156 1 161 1 176 1 181 1 182 1 197 1 200 1 209 1 211 1 212 1 213 1 214 1 222 1 228 2 234 1 238 2 247 2 262 2 263 1 265 1 269 1 273 1 277 1 386 1 374 1 491 1 364 1 313 1 414 1 436 1 454 1 471 1 470 1 495 1 353 1 337 1 413 1 323 1 377 1 363 1 444 1 403 1 445 1 349 1 20 1 41 1 44 1 74 1 77 1 83 1 92 1 101 1 115 1 124 1 130 1 146 1 147 1 159 1 178 1 179 1 191 1 193 1 216 1 242 1 275 1 286 1 291 1 300 1 307 1 331 1 348 1 354 1 356 1 361 1 371 1 397 1 416 1 418 1 433 1 468 1 476 1 502 1 
1 213 2 1 5 1 22 2 33 1 34 1 36 1 48 1 58 2 60 2 61 1 72 1 82 1 99 1 101 1 103 1 107 2 123 1 128 2 141 1 143 1 150 1 169 1 170 1 171 2 176 1 181 1 183 1 185 1 197 1 200 1 205 1 208 1 215 1 225 1 231 2 238 1 259 1 276 2 280 1 283 1 290 1 311 1 312 1 354 1 399 1 409 1 465 1 388 1 395 1 488 1 469 1 461 1 457 1 371 1 452 1 357 1 440 1 396 1 12 1 13 1 15 1 18 1 30 1 42 1 44 1 57 1 73 1 90 1 97 1 98 1 102 1 129 1 131 1 138 1 146 1 163 1 184 1 188 1 190 1 191 1 192 1 195 1 201 1 203 1 217 1 221 1 233 1 262 1 270 1 274 1 275 1 279 1 285 1 344 1 361 1 362 1 365 1 374 1 381 1 384 1 385 1 403 1 421 1 434 1 435 1 439 1 451 1 464 1 467 1 468 1 474 1 475 1 479 1 510 1 517 1 
1 187 2 1 3 1 4 1 25 2 26 1 58 1 62 1 71 1 82 2 84 1 91 1 115 1 121 1 124 1 134 1 140 1 153 1 164 1 177 1 178 1 181 1 185 1 198 2 206 1 212 2 221 1 229 2 239 1 248 1 259 1 260 1 262 1 269 2 285 1 290 1 307 1 310 1 427 2 389 1 361 1 431 1 481 1 423 1 441 1 367 1 338 1 467 1 320 2 371 1 362 1 482 1 480 1 415 1 385 1 356 1 8 1 18 1 22 1 31 1 32 1 52 1 59 1 67 1 78 1 88 1 102 1 107 1 127 1 144 1 161 1 165 1 171 1 187 1 194 1 238 1 240 1 245 1 252 1 261 1 265 1 268 1 279 1 301 1 305 1 318 1 346 1 349 1 360 1 382 1 388 1 393 1 395 1 402 1 406 1 407 1 414 1 422 1 436 1 442 1 443 1 449 1 450 1 457 1 458 1 471 1 500 1 505 1 
1 215 12 1 13 1 19 1 44 2 45 1 61 1 75 1 76 1 86 1 103 2 105 2 112 1 113 1 122 1 123 2 125 1 133 1 141 1 152 1 161 1 162 1 167 1 171 1 173 1 176 1 180 1 195 1 211 1 215 1 216 1 220 1 225 1 226 2 228 1 247 1 258 2 273 1 276 1 307 1 370 2 472 1 362 1 463 1 462 2 396 2 348 1 420 1 500 1 446 1 435 2 417 2 426 1 340 2 325 1 498 1 424 1 450 2 331 1 365 1 405 1 404 1 470 1 9 1 17 1 29 1 35 1 50 1 59 1 74 1 77 1 104 1 114 1 118 1 120 1 121 1 134 1 150 1 157 1 163 1 178 1 184 1 189 1 190 1 198 1 224 1 231 1 233 1 236 1 238 1 243 1 250 1 262 1 277 1 282 1 285 1 287 1 310 1 321 1 373 1 375 1 380 1 390 1 397 1 406 1 413 1 416 1 447 1 451 1 452 1 474 1 484 1 493 1 501 1 502 1 507 1 
1 209 1 1 3 1 4 1 5 1 8 1 25 1 42 1 57 1 59 1 62 1 63 1 74 2 80 2 96 1 102 1 103 2 132 1 140 1 143 1 150 2 155 1 177 1 190 2 196 2 197 1 213 1 223 1 226 1 245 1 255 1 264 1 280 1 304 1 382 1 435 1 395 2 442 2 449 1 357 1 361 1 394 2 405 1 467 1 478 1 348 1 380 2 477 1 344 1 375 1 373 1 364 1 433 1 327 1 2 1 15 1 20 1 22 1 24 1 33 1 48 1 50 1 64 1 84 1 87 1 92 1 99 1 110 1 113 1 125 1 138 1 142 1 146 1 166 1 175 1 176 1 181 1 195 1 211 1 214 1 218 1 225 1 230 1 240 1 250 1 286 1 302 1 308 1 317 1 318 1 321 1 350 1 366 1 377 1 387 1 422 1 463 1 473 1 488 1 504 1 511 1 
1 195 6 1 12 1 13 1 34 1 43 1 47 1 67 1 74 1 86 1 95 2 100 1 129 1 133 1 137 1 143 1 144 1 168 1 182 1 184 1 193 2 197 1 207 2 208 1 213 1 226 1 232 1 234 1 235 2 251 1 260 1 263 1 270 1 276 1 277 1 283 1 287 2 298 1 439 1 362 1 341 1 461 1 426 1 481 1 443 1 342 1 321 1 376 1 364 1 422 1 318 1 413 1 400 1 324 1 397 1 456 1 383 1 319 1 492 1 386 1 4 1 9 1 28 1 32 1 52 1 63 1 75 1 78 1 99 1 119 1 124 1 147 1 153 1 155 1 169 1 174 1 185 1 225 1 238 1 240 1 268 1 281 1 286 1 290 1 316 1 334 1 344 1 354 1 377 1 405 1 417 1 418 1 434 1 445 1 448 1 453 1 459 1 473 1 480 1 491 1 505 1 512 1 
1 230 5 2 16 1 18 2 30 1 31 1 34 1 40 1 48 1 55 1 60 1 64 1 65 1 68 1 71 1 76 1 77 1 80 1 87 1 96 1 99 2 122 1 124 2 139 1 143 1 151 1 163 2 188 1 195 1 196 1 206 1 210 1 214 1 221 2 222 1 243 1 245 1 250 1 257 1 260 1 262 1 268 1 273 1 279 1 282 2 286 1 290 1 303 1 308 1 317 1 477 1 352 1 416 1 415 1 487 1 459 1 366 1 373 1 423 1 392 1 474 1 422 1 405 1 379 1 443 1 3 1 15 1 28 1 43 1 54 1 75 1 82 1 97 1 108 1 130 1 157 1 172 1 174 1 182 1 192 1 201 1 212 1 237 1 238 1 249 1 258 1 271 1 272 1 293 1 296 1 300 1 314 1 316 1 349 1 350 1 351 1 354 1 360 1 367 1 371 1 372 1 375 1 378 1 380 1 394 1 401 1 411 1 413 1 426 1 435 1 444 1 448 1 453 1 466 1 472 1 476 1 483 1 498 1 501 1 503 1 
1 208 43 1 47 1 50 1 54 1 67 1 73 1 83 2 89 1 110 2 112 1 114 1 146 1 150 2 156 2 158 1 161 1 167 1 183 2 205 1 210 1 223 1 228 2 229 1 250 1 261 1 275 1 279 1 281 1 289 1 306 1 317 1 485 1 359 1 390 2 477 1 494 1 475 1 425 2 434 1 389 1 415 1 366 1 407 1 440 1 369 2 471 2 356 1 495 1 7 1 11 1 25 1 39 1 56 1 66 1 77 1 87 1 115 1 117 1 123 1 136 1 144 1 145 1 160 1 164 1 165 1 169 1 174 1 184 1 192 1 200 1 217 1 218 1 219 1 222 1 231 1 238 1 248 1 249 1 271 1 277 1 280 1 282 1 284 1 295 1 309 1 321 1 326 1 329 1 352 1 358 1 362 1 371 1 379 1 381 1 391 1 392 1 394 1 396 1 398 1 413 1 419 1 423 1 428 1 429 1 435 1 437 1 442 1 445 1 448 1 451 1 452 1 455 1 467 1 483 1 496 1 508 1 515 1 
1 213 24 1 25 1 44 1 47 1 53 1 58 1 66 1 68 1 69 2 86 1 93 1 95 1 99 1 102 2 116 1 119 2 154 1 163 1 172 1 185 1 199 1 211 1 215 1 217 1 250 1 252 1 258 1 268 1 280 1 282 1 294 1 302 1 308 1 309 1 314 2 436 1 375 1 381 1 423 1 477 1 348 1 413 1 425 1 447 1 373 1 432 1 382 1 495 1 480 1 457 1 389 1 492 1 450 1 428 2 374 1 411 1 466 1 372 1 3 1 29 1 31 1 42 1 49 1 56 1 74 1 90 1 92 1 100 1 104 1 105 1 107 1 132 1 137 1 138 1 144 1 148 1 149 1 159 1 168 1 183 1 190 1 197 1 201 1 204 1 222 1 237 1 265 1 322 1 331 1 364 1 368 1 376 1 385 1 392 1 395 1 403 1 416 1 451 1 461 1 473 1 476 1 489 1 512 1 515 1 517 1 
1 215 6 1 18 1 21 1 28 1 29 1 36 1 53 1 56 1 61 1 63 1 78 1 87 1 88 1 121 1 143 1 159 1 162 1 166 1 175 1 184 1 201 1 202 1 226 1 237 1 239 2 274 1 281 1 282 1 288 1 317 1 482 1 444 1 467 1 491 2 409 1 397 1 470 1 403 1 464 1 461 1 479 1 449 1 388 1 373 1 459 1 454 1 415 1 365 1 436 1 443 1 433 1 385 1 398 1 3 1 25 1 35 1 38 1 47 1 50 1 73 1 91 1 92 1 94 1 102 1 103 1 122 1 150 1 155 1 158 1 163 1 199 1 207 1 209 1 212 1 215 1 230 1 241 1 244 1 270 1 273 1 315 1 316 1 319 1 326 1 328 1 359 1 369 1 372 1 394 1 414 1 417 1 418 1 420 1 428 1 429 1 440 1 446 1 447 1 450 1 457 1 458 1 463 1 489 1 490 1 499 1 504 1 508 1 513 1 
1 214 10 1 15 1 25 1 35 1 44 1 47 1 49 1 64 1 67 1 69 2 80 1 82 1 117 1 125 1 127 1 131 1 142 1 145 2 156 1 165 1 169 1 179 1 189 1 196 1 202 1 204 1 214 1 225 1 235 1 237 1 252 1 254 1 257 1 266 1 275 1 278 1 283 1 287 1 306 1 356 1 405 1 381 1 428 1 463 1 358 1 413 1 388 1 391 1 330 1 422 1 491 1 376 1 489 1 394 1 1 1 8 1 14 1 19 1 40 1 48 1 57 1 76 1 83 1 84 1 93 1 96 1 100 1 103 1 113 1 126 1 137 1 166 1 167 1 182 1 194 1 256 1 265 1 274 1 277 1 289 1 290 1 291 1 294 1 320 1 327 1 367 1 371 1 378 1 383 1 384 1 387 1 392 1 393 1 395 1 398 1 406 1 412 1 415 1 419 1 429 1 433 1 434 1 453 1 466 1 475 1 487 1 488 1 499 1 
1 206 6 1 43 1 46 1 53 1 54 1 63 1 65 2 68 1 126 2 127 1 129 2 131 1 138 1 140 1 141 1 149 2 152 1 157 1 160 1 197 1 201 2 203 1 208 1 212 1 219 1 222 1 223 1 231 1 236 1 240 1 248 1 257 1 267 1 283 2 286 1 287 1 297 1 302 1 312 1 366 2 374 1 469 1 363 1 353 1 367 1 438 1 356 1 477 1 485 1 390 1 330 1 324 1 500 1 13 1 15 1 16 1 20 1 42 1 66 1 95 1 103 1 111 1 130 1 132 1 147 1 164 1 173 1 187 1 192 1 193 1 199 1 244 1 279 1 280 1 282 1 294 1 329 1 336 1 345 1 371 1 384 1 397 1 406 1 414 1 417 1 433 1 445 1 452 1 461 1 472 1 474 1 478 1 482 1 484 1 497 1 
1 196 17 2 20 1 21 1 27 1 34 1 38 1 51 2 57 2 70 1 74 1 76 1 84 1 89 1 97 1 120 1 136 1 142 1 155 1 169 1 187 1 208 1 223 1 227 1 231 1 232 1 244 1 259 1 279 1 284 1 285 1 292 2 311 1 317 1 323 1 398 2 430 1 329 1 358 2 466 1 335 1 374 1 489 1 494 1 476 1 420 1 356 1 412 1 386 1 402 1 442 1 445 1 330 1 377 1 470 2 418 1 467 1 373 1 486 1 364 2 380 1 13 1 23 1 42 1 50 1 68 1 69 1 79 1 96 1 99 1 105 1 108 1 110 1 129 1 132 1 137 1 144 1 149 1 174 1 182 1 183 1 196 1 200 1 221 1 225 1 238 1 257 1 258 1 271 1 280 1 294 1 361 1 395 1 401 1 403 1 407 1 409 1 422 1 423 1 427 1 446 1 457 1 469 1 
1 184 1 1 12 1 23 1 26 2 32 1 34 2 52 1 54 1 57 1 58 1 63 1 67 1 104 1 123 1 132 2 134 1 139 1 143 1 145 1 174 1 178 1 180 1 199 1 205 1 208 1 220 1 229 1 233 1 253 1 264 2 270 1 276 1 277 1 279 1 288 1 298 1 315 1 473 1 495 1 376 1 433 1 409 1 457 1 464 1 415 1 362 1 401 1 499 1 387 1 379 1 486 1 6 1 15 1 41 1 43 1 44 1 45 1 68 1 73 1 75 1 100 1 120 1 125 1 136 1 146 1 149 1 159 1 182 1 185 1 186 1 188 1 202 1 206 1 212 1 217 1 219 1 226 1 232 1 257 1 258 1 259 1 273 1 359 1 371 1 393 1 394 1 407 1 416 1 418 1 419 1 422 1 429 1 431 1 455 1 468 1 501 1 514 1 
1 189 1 1 13 1 16 1 26 1 28 2 39 1 40 1 41 2 47 1 61 1 68 2 125 1 128 1 129 2 134 1 135 1 140 1 142 1 152 1 165 1 169 1 173 1 178 1 203 1 223 1 229 1 245 1 266 1 268 1 269 1 284 2 287 1 291 1 468 1 411 1 433 1 451 1 472 1 332 1 376 1 478 2 476 1 469 1 462 1 384 1 406 1 383 1 339 2 372 1 4 1 27 1 54 1 60 1 65 1 75 1 80 1 92 1 109 1 114 1 138 1 145 1 147 1 150 1 156 1 185 1 191 1 192 1 200 1 201 1 207 1 208 1 209 1 215 1 234 1 240 1 251 1 258 1 265 1 293 1 319 1 321 1 328 1 341 1 381 1 386 1 401 1 413 1 416 1 420 1 421 1 447 1 457 1 464 1 477 1 484 1 486 1 506 1 508 1 
1 200 18 1 21 1 22 1 24 1 37 1 42 1 43 2 46 1 52 1 87 1 91 1 101 1 103 1 118 2 134 1 150 1 168 1 174 2 187 2 194 1 199 2 202 2 204 1 208 1 219 1 221 1 225 1 234 1 268 1 269 1 272 2 284 1 294 2 300 1 310 1 316 1 410 1 487 1 399 1 384 1 433 1 386 1 363 2 362 1 388 1 420 1 393 1 443 1 483 1 497 1 394 1 359 1 2 1 8 1 19 1 30 1 36 1 40 1 48 1 56 1 68 1 73 1 74 1 75 1 81 1 89 1 95 1 119 1 120 1 121 1 129 1 141 1 142 1 147 1 169 1 179 1 185 1 195 1 200 1 207 1 217 1 220 1 238 1 253 1 254 1 267 1 270 1 271 1 273 1 277 1 322 1 343 1 370 1 377 1 396 1 400 1 442 1 460 1 474 1 476 1 510 1 
1 185 16 1 20 1 26 1 28 1 31 1 43 1 44 1 46 2 54 1 72 1 78 1 90 1 108 1 119 1 125 2 140 2 142 1 147 1 161 1 175 1 178 1 190 1 197 1 201 1 212 2 218 1 232 1 235 1 236 1 241 1 251 1 253 2 275 1 279 1 286 1 288 1 302 1 386 1 395 1 393 1 462 1 475 1 427 1 409 1 436 1 390 2 356 1 489 1 399 1 382 1 354 1 389 1 331 1 358 1 2 1 15 1 52 1 55 1 62 1 65 1 76 1 100 1 109 1 112 1 133 1 138 1 143 1 150 1 152 1 156 1 165 1 200 1 205 1 206 1 210 1 216 1 219 1 224 1 229 1 238 1 248 1 256 1 262 1 271 1 277 1 290 1 294 1 297 1 321 1 326 1 366 1 398 1 419 1 449 1 464 1 467 1 469 1 476 1 483 1 484 1 487 1 488 1 
1 208 2 1 23 1 29 1 41 1 47 1 61 1 67 1 68 1 72 1 90 1 95 2 121 1 125 1 126 1 138 2 157 1 186 1 192 1 205 1 210 1 213 2 227 1 230 1 235 1 248 2 267 1 269 1 285 1 296 1 297 1 299 1 300 1 310 1 324 1 377 2 451 1 402 1 430 2 434 1 418 1 420 1 492 2 330 1 452 1 424 1 373 1 404 1 448 1 407 1 399 1 385 1 442 1 481 1 380 2 465 1 335 1 13 1 19 1 36 1 56 1 57 1 71 1 76 1 77 1 79 1 119 1 122 1 132 1 143 1 147 1 162 1 199 1 204 1 234 1 239 1 259 1 261 1 279 1 282 1 290 1 292 1 319 1 323 1 343 1 364 1 365 1 384 1 394 1 397 1 398 1 405 1 409 1 419 1 423 1 432 1 437 1 444 1 449 1 475 1 490 1 493 1 498 1 512 1 
1 194 2 2 10 1 12 1 20 2 35 1 44 1 50 2 56 1 68 1 76 1 88 1 94 1 115 1 120 1 141 1 155 1 186 1 205 1 206 1 207 1 211 2 212 1 219 2 225 1 237 1 240 1 246 1 250 1 254 1 255 2 282 1 287 1 292 1 295 1 322 1 323 1 324 1 329 1 485 1 458 1 472 1 412 1 500 1 445 1 376 1 432 1 336 1 367 1 393 1 477 1 481 1 449 1 460 1 371 1 378 1 486 1 417 1 483 2 466 1 461 1 11 1 15 1 18 1 19 1 23 1 27 1 28 1 51 1 58 1 62 1 101 1 130 1 136 1 139 1 144 1 159 1 179 1 181 1 182 1 204 1 221 1 236 1 244 1 248 1 274 1 278 1 306 1 337 1 354 1 364 1 373 1 382 1 383 1 390 1 396 1 405 1 407 1 414 1 424 1 425 1 434 1 435 1 439 1 455 1 467 1 488 1 491 1 493 1 494 1 
1 215 7 1 38 1 41 1 50 1 67 1 68 1 78 1 87 2 93 2 96 1 104 1 111 1 115 1 130 1 134 1 140 1 147 1 153 1 154 1 157 1 183 1 199 1 214 1 217 1 235 1 244 1 246 2 253 1 255 1 256 1 260 1 262 1 270 2 281 1 299 1 300 1 302 1 304 1 307 2 315 1 328 1 389 1 368 1 493 1 427 1 409 1 392 1 429 1 495 2 469 1 455 1 448 2 460 1 400 1 428 1 413 1 406 1 411 1 366 1 333 1 346 1 369 1 452 1 5 1 24 1 30 1 34 1 35 1 43 1 58 1 73 1 76 1 79 1 81 1 82 1 84 1 88 1 94 1 121 1 137 1 146 1 159 1 179 1 184 1 226 1 231 1 239 1 250 1 254 1 259 1 283 1 289 1 312 1 320 1 335 1 339 1 372 1 379 1 385 1 386 1 387 1 390 1 416 1 419 1 447 1 450 1 472 1 481 1 487 1 
1 199 7 1 9 1 53 1 62 1 63 1 64 1 69 1 77 1 91 1 101 1 110 1 114 1 118 2 122 1 125 1 129 1 132 1 136 1 143 1 151 1 159 1 165 1 173 1 176 1 179 1 192 1 202 1 233 1 236 1 249 1 254 1 257 1 259 1 273 1 286 2 290 1 300 1 326 1 397 1 394 1 440 1 380 1 418 1 405 1 390 1 480 1 453 1 402 1 499 1 400 1 353 1 375 1 449 1 474 1 427 1 13 1 29 1 30 1 47 1 72 1 84 1 88 1 94 1 97 1 102 1 105 1 147 1 150 1 169 1 175 1 203 1 206 1 218 1 225 1 241 1 244 1 250 1 251 1 264 1 266 1 270 1 285 1 293 1 294 1 301 1 339 1 360 1 366 1 368 1 388 1 406 1 424 1 430 1 446 1 456 1 478 1 479 1 482 1 486 1 487 1 489 1 496 1 504 1 510 1 513 1 517 1 
1 200 5 1 12 1 13 1 14 1 15 1 38 1 47 1 81 1 88 1 90 1 102 2 105 1 106 1 107 1 115 1 118 2 125 1 126 1 140 2 141 1 144 1 145 2 169 1 179 1 195 1 214 1 215 1 220 1 227 1 238 1 249 1 262 1 263 1 269 2 281 1 308 2 310 1 331 1 480 2 372 2 364 1 412 1 434 1 479 2 425 1 392 1 460 1 433 1 430 1 407 2 410 2 432 1 337 1 8 1 18 1 20 1 33 1 53 1 69 1 84 1 93 1 117 1 119 1 123 1 128 1 131 1 142 1 146 1 152 1 174 1 175 1 180 1 184 1 194 1 197 1 212 1 233 1 234 1 235 1 274 1 283 1 287 1 290 1 294 1 297 1 334 1 352 1 365 1 368 1 370 1 373 1 375 1 394 1 409 1 420 1 421 1 423 1 438 1 449 1 463 1 464 1 487 1 488 1 
1 191 6 1 21 1 23 2 30 2 44 1 64 1 72 2 73 1 84 1 85 1 91 1 94 1 107 1 109 1 120 2 121 2 123 1 137 1 140 1 149 1 153 1 157 1 162 1 163 1 164 1 178 2 180 1 194 1 195 1 198 1 213 2 223 1 227 1 232 1 235 1 244 2 247 1 250 1 253 1 295 1 300 1 309 2 392 1 419 2 379 1 423 1 453 1 468 1 458 2 421 1 387 1 417 1 475 1 491 1 452 1 382 1 361 1 358 1 22 1 26 1 29 1 31 1 33 1 37 1 40 1 50 1 61 1 65 1 78 1 89 1 90 1 103 1 119 1 127 1 132 1 134 1 138 1 141 1 151 1 155 1 159 1 176 1 222 1 225 1 233 1 234 1 241 1 267 1 274 1 277 1 281 1 284 1 292 1 317 1 333 1 372 1 373 1 389 1 424 1 446 1 447 1 460 1 463 1 464 1 467 1 469 1 471 1 476 1 500 1 512 1 516 1 
1 197 5 1 8 1 17 1 27 1 29 1 30 1 36 1 93 1 98 1 109 1 111 1 114 1 118 1 120 1 124 1 126 1 134 1 153 1 170 1 192 1 199 1 202 1 204 1 216 1 219 1 221 2 222 1 245 1 256 1 263 1 284 2 307 1 324 1 329 1 449 1 440 1 457 1 467 1 406 1 412 1 402 1 498 1 424 1 395 1 407 1 389 1 403 1 437 1 384 1 396 1 433 1 398 1 468 1 379 1 364 1 455 1 409 1 345 1 349 1 10 1 11 1 12 1 13 1 14 1 15 1 53 1 58 1 117 1 125 1 131 1 133 1 141 1 146 1 147 1 148 1 156 1 158 1 168 1 169 1 175 1 181 1 186 1 190 1 196 1 201 1 206 1 208 1 212 1 220 1 224 1 261 1 262 1 266 1 268 1 273 1 279 1 286 1 294 1 331 1 344 1 348 1 365 1 404 1 420 1 425 1 431 1 446 1 450 1 456 1 470 1 476 1 477 1 484 1 490 1 492 1 495 1 503 1 507 1 
1 191 2 1 6 1 7 1 8 1 20 1 21 1 22 1 35 1 107 1 110 1 126 1 133 1 153 1 155 1 161 1 168 1 177 1 181 2 186 1 189 1 192 2 193 1 198 1 222 1 232 1 237 1 248 1 249 1 250 1 254 1 267 1 271 1 279 2 285 1 299 1 300 1 310 1 330 1 393 1 447 1 376 2 498 2 400 1 465 2 423 1 453 1 495 1 448 1 419 1 379 1 414 1 458 2 353 1 454 1 422 1 343 1 433 1 446 1 9 1 27 1 30 1 51 1 57 1 59 1 65 1 67 1 85 1 87 1 95 1 100 1 105 1 124 1 128 1 140 1 150 1 164 1 183 1 195 1 197 1 212 1 214 1 228 1 253 1 260 1 272 1 294 1 305 1 307 1 311 1 323 1 345 1 356 1 361 1 365 1 368 1 382 1 385 1 401 1 408 1 413 1 417 1 420 1 439 1 442 1 451 1 459 1 481 1 
1 207 2 1 8 1 10 2 14 1 17 1 19 2 35 1 39 1 46 1 52 1 59 1 62 1 94 1 99 1 107 1 126 1 127 2 131 1 154 1 161 1 179 2 184 1 185 1 193 1 194 1 197 1 201 1 209 1 216 1 232 1 244 1 271 1 287 1 302 1 309 1 310 1 312 1 333 1 497 1 432 1 495 1 340 1 372 1 376 1 452 1 438 1 463 2 379 1 389 1 394 1 5 1 36 1 40 1 45 1 55 1 68 1 85 1 86 1 108 1 123 1 139 1 147 1 148 1 164 1 170 1 174 1 190 1 191 1 206 1 219 1 222 1 236 1 239 1 246 1 251 1 252 1 253 1 260 1 261 1 263 1 265 1 281 1 286 1 288 1 296 1 298 1 307 1 330 1 341 1 349 1 367 1 391 1 402 1 407 1 409 1 444 1 446 1 470 1 471 1 484 1 485 1 490 1 509 1 
1 189 1 1 14 1 24 1 25 1 27 1 31 1 59 1 79 1 80 1 93 1 105 1 116 1 117 1 130 1 144 1 147 1 148 1 150 1 165 1 171 1 175 1 189 1 196 1 199 1 210 1 217 1 229 1 232 1 237 1 257 1 262 1 264 1 269 1 271 1 281 1 286 2 299 1 309 1 314 1 414 1 472 1 404 1 406 1 462 1 453 1 477 1 429 1 454 1 450 1 346 1 339 1 461 1 434 1 419 1 3 1 6 1 12 1 42 1 47 1 56 1 60 1 63 1 67 1 86 1 92 1 95 1 103 1 109 1 119 1 122 1 124 1 142 1 151 1 152 1 156 1 159 1 167 1 169 1 173 1 197 1 201 1 208 1 216 1 225 1 228 1 238 1 242 1 246 1 259 1 263 1 277 1 279 1 283 1 291 1 307 1 347 1 350 1 351 1 369 1 391 1 399 1 407 1 411 1 416 1 423 1 426 1 448 1 457 1 465 1 466 1 470 1 471 1 475 1 486 1 491 1 499 1 
1 213 3 1 10 1 13 1 14 1 19 1 24 2 26 1 37 1 44 1 72 1 82 1 84 1 97 1 108 1 112 2 119 1 122 1 124 1 127 1 138 1 146 1 160 1 162 1 170 1 172 1 180 1 185 1 214 1 216 1 219 1 226 1 227 1 243 1 259 1 266 1 267 1 276 1 282 2 293 1 326 2 338 1 373 1 398 1 377 1 375 1 379 1 423 1 372 1 368 1 425 1 391 1 459 1 405 1 344 1 393 1 394 2 498 2 390 1 346 1 2 1 4 1 15 1 20 1 22 1 23 1 34 1 38 1 54 1 66 1 81 1 87 1 90 1 123 1 152 1 165 1 173 1 175 1 194 1 199 1 242 1 245 1 268 1 285 1 331 1 332 1 345 1 357 1 370 1 376 1 408 1 410 1 416 1 424 1 442 1 448 1 449 1 467 1 488 1 491 1 499 1 
1 222 14 1 15 1 39 1 46 2 50 1 52 2 61 1 72 1 79 1 87 1 109 1 111 1 117 1 131 1 136 1 141 2 149 1 150 1 159 1 160 1 172 1 181 1 183 1 187 1 195 1 196 1 202 1 208 1 212 1 214 1 219 2 236 1 238 1 248 2 255 1 259 1 264 1 276 1 287 1 289 1 292 1 301 1 311 1 315 2 337 1 436 1 477 1 386 1 440 1 431 1 439 1 414 1 448 1 443 1 457 1 359 1 347 2 349 1 493 2 404 1 487 1 481 1 442 1 375 1 1 1 24 1 31 1 34 1 45 1 62 1 69 1 82 1 99 1 101 1 129 1 139 1 142 1 144 1 163 1 165 1 173 1 182 1 184 1 191 1 206 1 211 1 237 1 251 1 268 1 271 1 275 1 277 1 285 1 286 1 305 1 341 1 345 1 348 1 350 1 357 1 370 1 376 1 388 1 450 1 452 1 465 1 466 1 467 1 468 1 472 1 485 1 488 1 
1 226 1 1 14 1 15 2 17 1 28 1 32 2 35 2 41 1 48 1 61 1 71 1 72 2 73 2 81 2 97 1 98 1 99 1 118 1 131 1 135 1 137 1 148 1 149 1 157 1 158 1 162 1 167 1 170 2 172 1 173 1 178 1 188 2 194 1 207 1 214 1 232 1 251 1 260 1 270 1 287 1 290 1 294 1 300 2 317 1 404 2 380 1 343 1 449 1 376 1 413 1 405 2 482 1 468 1 356 1 378 1 388 1 445 1 444 1 344 1 490 2 453 1 387 1 451 1 3 1 5 1 22 1 55 1 69 1 92 1 109 1 110 1 116 1 129 1 140 1 166 1 196 1 197 1 227 1 231 1 247 1 277 1 279 1 282 1 291 1 301 1 306 1 307 1 310 1 326 1 337 1 340 1 346 1 361 1 368 1 370 1 371 1 383 1 386 1 411 1 423 1 427 1 428 1 434 1 436 1 439 1 440 1 450 1 457 1 460 1 471 1 475 1 481 1 505 1 515 1 
1 199 16 1 18 1 19 2 20 1 24 1 25 1 29 1 32 1 35 1 37 1 41 2 44 1 47 1 48 1 51 1 58 1 69 1 71 2 74 2 80 1 89 1 95 2 109 1 130 1 141 1 147 1 148 2 180 1 187 1 188 1 197 1 206 1 210 1 211 1 262 1 278 1 283 1 290 2 295 1 298 2 317 1 500 1 400 1 344 1 405 1 464 1 417 1 463 1 371 1 352 1 397 2 380 1 385 1 451 1 454 1 484 1 3 1 4 1 8 1 26 1 30 1 61 1 68 1 70 1 78 1 90 1 99 1 107 1 108 1 113 1 139 1 152 1 157 1 165 1 204 1 235 1 240 1 244 1 245 1 247 1 265 1 268 1 287 1 288 1 297 1 309 1 311 1 346 1 355 1 378 1 384 1 393 1 398 1 399 1 407 1 409 1 441 1 456 1 465 1 466 1 468 1 475 1 479 1 498 1 512 1 517 1 
1 204 8 1 39 1 43 1 47 1 49 2 53 1 55 1 62 1 68 1 75 1 86 1 89 1 105 1 111 1 117 1 121 1 123 1 141 2 155 1 164 1 170 1 173 1 174 1 185 1 207 1 218 1 228 1 230 1 237 1 246 1 248 2 249 2 263 1 264 1 267 1 270 1 280 1 286 2 295 1 336 1 341 1 435 1 345 1 442 2 417 1 488 2 430 1 377 1 447 1 490 1 380 1 454 1 409 2 431 1 411 1 405 1 374 1 6 1 13 1 21 1 22 1 37 1 56 1 73 1 81 1 88 1 98 1 115 1 124 1 146 1 152 1 158 1 160 1 161 1 178 1 181 1 187 1 194 1 209 1 211 1 214 1 219 1 220 1 224 1 225 1 227 1 247 1 254 1 265 1 287 1 327 1 329 1 367 1 381 1 382 1 391 1 397 1 402 1 403 1 412 1 432 1 437 1 444 1 456 1 459 1 466 1 471 1 473 1 479 1 504 1 516 1 
1 207 1 1 4 1 14 1 26 1 30 1 46 1 67 1 77 1 86 1 97 1 102 1 111 1 115 2 146 1 149 1 156 1 159 2 164 1 187 1 217 1 219 1 220 1 228 1 229 1 230 1 243 1 244 1 259 1 267 1 276 1 277 1 287 1 302 1 316 1 339 1 341 1 342 1 419 2 488 1 409 1 473 1 475 1 351 1 469 1 427 2 408 1 472 1 435 2 362 1 446 1 371 1 346 1 2 1 5 1 34 1 35 1 39 1 49 1 63 1 66 1 75 1 83 1 88 1 96 1 105 1 128 1 130 1 142 1 150 1 151 1 162 1 169 1 170 1 189 1 199 1 200 1 206 1 208 1 210 1 211 1 215 1 223 1 237 1 240 1 241 1 242 1 249 1 257 1 291 1 294 1 299 1 305 1 313 1 317 1 335 1 348 1 370 1 375 1 396 1 401 1 403 1 434 1 436 1 448 1 458 1 459 1 468 1 499 1 
1 194 19 2 26 1 30 1 36 2 46 1 50 1 69 1 76 1 80 1 83 1 88 1 93 1 99 2 108 1 132 2 134 1 160 1 168 1 188 1 199 1 206 1 217 1 223 1 233 1 236 1 238 1 258 1 278 1 290 1 293 1 295 1 335 1 343 1 378 1 477 1 436 2 494 1 492 1 397 2 399 2 424 1 460 2 435 1 441 1 444 1 422 1 499 1 446 1 348 1 366 1 458 1 7 1 12 1 22 1 40 1 47 1 55 1 84 1 92 1 114 1 122 1 135 1 146 1 157 1 172 1 178 1 183 1 184 1 200 1 208 1 218 1 219 1 229 1 231 1 244 1 247 1 259 1 263 1 269 1 277 1 284 1 297 1 304 1 310 1 323 1 336 1 339 1 340 1 347 1 373 1 374 1 387 1 391 1 406 1 411 1 419 1 423 1 427 1 466 1 467 1 476 1 482 1 
1 214 38 1 40 2 41 1 50 1 56 1 63 1 71 2 81 1 92 1 117 1 126 1 143 1 151 1 169 1 176 1 186 1 191 1 192 1 205 1 212 1 214 1 222 2 232 1 235 1 236 1 238 1 246 1 247 1 253 1 268 1 271 1 295 1 306 2 310 1 331 1 338 1 339 1 344 1 384 1 468 1 485 1 455 2 412 1 408 1 484 2 464 1 357 2 476 1 469 2 428 1 465 1 391 1 480 1 456 2 393 1 414 1 427 1 434 1 373 1 1 1 19 1 30 1 42 1 44 1 62 1 80 1 96 1 113 1 114 1 119 1 120 1 127 1 129 1 141 1 158 1 162 1 172 1 178 1 183 1 185 1 209 1 225 1 251 1 294 1 297 1 300 1 304 1 314 1 341 1 342 1 353 1 379 1 386 1 401 1 406 1 420 1 440 1 462 1 478 1 482 1 486 1 487 1 497 1 498 1 499 1 508 1 
1 204 9 1 10 1 14 1 25 2 41 1 44 1 58 1 59 1 62 1 80 1 101 1 106 1 107 1 115 1 117 2 118 1 123 1 145 1 161 1 166 1 174 1 176 1 179 1 186 1 193 1 198 1 206 1 218 1 221 1 223 1 227 1 228 1 231 1 233 2 245 1 246 1 249 2 259 1 260 1 287 1 294 1 296 1 305 1 340 2 495 1 416 1 456 1 394 1 470 1 352 1 499 1 391 1 451 1 466 1 363 1 395 1 399 2 1 1 7 1 15 1 23 1 34 1 56 1 65 1 72 1 73 1 77 1 89 1 96 1 102 1 103 1 128 1 135 1 138 1 142 1 146 1 151 1 182 1 194 1 216 1 224 1 241 1 244 1 256 1 277 1 289 1 291 1 297 1 302 1 338 1 345 1 350 1 390 1 400 1 406 1 409 1 414 1 417 1 431 1 435 1 458 1 476 1 482 1 487 1 489 1 502 1 
1 228 11 2 30 1 34 2 39 1 47 1 53 1 56 1 59 1 60 1 61 1 62 1 70 1 78 1 80 2 85 1 87 1 102 1 108 1 109 1 110 1 130 1 132 1 147 1 148 1 156 1 166 1 168 1 178 1 181 1 190 1 198 1 203 1 212 1 226 1 231 1 241 1 243 2 293 1 315 1 316 1 320 1 345 1 405 1 382 1 498 1 352 1 494 2 398 1 414 1 444 1 424 1 447 1 393 2 416 1 497 1 427 2 6 1 10 1 12 1 25 1 42 1 45 1 49 1 54 1 57 1 58 1 77 1 83 1 95 1 101 1 106 1 112 1 125 1 136 1 175 1 193 1 197 1 205 1 210 1 250 1 252 1 256 1 258 1 265 1 280 1 287 1 311 1 312 1 335 1 340 1 344 1 349 1 354 1 392 1 396 1 401 1 403 1 410 1 412 1 426 1 432 1 449 1 450 1 461 1 466 1 477 1 485 1 488 1 496 1 504 1 506 1 507 1 512 1 513 1 
1 188 31 1 48 2 62 1 90 1 106 1 108 1 113 1 115 1 116 1 125 2 126 1 156 1 163 1 177 1 181 1 188 1 193 1 215 1 236 2 241 1 242 1 245 1 248 1 261 1 267 1 269 1 273 1 280 1 282 1 290 1 291 1 292 1 293 1 305 1 312 1 335 1 340 1 440 1 491 2 389 1 439 1 435 1 495 1 401 1 445 1 390 1 436 1 437 2 441 1 3 1 5 1 8 1 12 1 15 1 20 1 21 1 49 1 51 1 61 1 65 1 73 1 76 1 79 1 82 1 83 1 86 1 89 1 109 1 114 1 127 1 128 1 132 1 144 1 147 1 148 1 154 1 161 1 170 1 189 1 195 1 219 1 227 1 232 1 243 1 251 1 268 1 271 1 287 1 295 1 308 1 314 1 318 1 337 1 348 1 351 1 377 1 381 1 395 1 407 1 418 1 421 1 424 1 453 1 461 1 464 1 469 1 478 1 493 1 
1 220 4 1 5 1 7 1 9 1 22 1 44 1 71 1 72 1 75 1 79 1 88 1 94 2 111 1 115 1 121 1 123 1 131 1 141 1 147 1 152 1 158 1 160 1 178 1 197 1 198 1 208 1 215 1 221 1 226 1 228 2 236 1 267 1 269 1 301 1 309 1 310 1 482 1 351 1 356 1 445 1 470 1 494 1 390 1 404 1 414 1 363 1 398 1 402 2 452 1 17 1 39 1 42 1 45 1 46 1 51 1 55 1 59 1 66 1 96 1 106 1 138 1 143 1 162 1 163 1 172 1 180 1 182 1 188 1 190 1 207 1 209 1 213 1 214 1 219 1 224 1 232 1 233 1 240 1 246 1 254 1 256 1 257 1 282 1 295 1 316 1 318 1 338 1 340 1 347 1 357 1 360 1 376 1 378 1 389 1 407 1 425 1 426 1 427 1 433 1 447 1 463 1 468 1 486 1 495 1 507 1 512 1 
1 219 2 1 3 2 15 1 20 1 23 1 36 1 43 1 46 1 52 1 63 2 66 1 72 1 76 1 87 1 104 2 109 1 113 2 115 1 116 2 118 1 137 1 144 1 152 1 162 1 164 1 169 1 170 1 173 2 191 2 202 1 218 1 228 1 251 1 256 2 258 1 269 2 271 1 274 1 299 1 302 1 304 1 306 1 344 1 350 1 385 1 389 1 447 1 450 1 467 2 409 1 471 1 422 1 353 2 459 1 478 1 381 1 453 2 377 1 395 2 429 1 364 1 441 1 496 1 396 2 4 1 29 1 39 1 59 1 86 1 89 1 91 1 107 1 119 1 120 1 125 1 145 1 149 1 174 1 188 1 194 1 214 1 240 1 242 1 266 1 276 1 278 1 289 1 290 1 300 1 305 1 310 1 318 1 338 1 349 1 352 1 383 1 394 1 398 1 401 1 416 1 435 1 437 1 445 1 458 1 462 1 475 1 482 1 499 1 507 1 511 1 
1 205 1 1 19 1 21 1 25 1 30 1 33 1 36 1 51 1 62 1 75 1 77 1 109 1 123 1 126 1 127 1 161 1 167 1 172 2 173 1 175 1 195 1 198 1 201 2 202 1 205 2 222 1 228 1 230 1 244 1 247 2 249 1 250 1 251 1 253 1 260 1 266 1 268 2 271 1 277 1 279 1 283 1 287 2 296 1 301 1 307 1 318 1 342 1 347 1 348 1 385 1 475 2 392 1 423 1 378 1 466 1 381 1 395 2 407 1 389 2 354 1 469 1 489 1 362 1 368 1 8 1 32 1 37 1 60 1 76 1 89 1 90 1 93 1 95 1 103 1 112 1 117 1 135 1 139 1 142 1 155 1 156 1 166 1 169 1 176 1 183 1 189 1 220 1 224 1 227 1 236 1 256 1 276 1 286 1 290 1 291 1 295 1 298 1 303 1 304 1 319 1 333 1 351 1 376 1 383 1 388 1 394 1 405 1 411 1 414 1 418 1 424 1 454 1 455 1 464 1 477 1 482 1 510 1 
1 217 7 1 11 1 13 1 14 1 20 1 34 1 35 1 40 1 43 1 51 1 55 2 58 1 66 1 67 1 76 1 81 1 85 1 88 2 91 1 93 1 106 1 107 1 126 2 133 1 138 1 139 1 161 1 168 1 194 1 197 1 199 2 201 1 202 1 213 1 218 1 221 2 223 1 224 1 234 2 247 1 253 1 258 1 267 1 281 1 295 1 312 1 323 1 332 1 336 1 351 2 478 1 496 1 483 1 401 1 488 1 425 2 405 1 382 1 459 1 491 2 458 1 430 1 393 1 361 1 2 1 6 1 19 1 21 1 26 1 44 1 47 1 84 1 90 1 117 1 122 1 124 1 132 1 136 1 151 1 154 1 164 1 166 1 167 1 172 1 182 1 212 1 217 1 248 1 254 1 257 1 272 1 274 1 286 1 289 1 294 1 303 1 304 1 346 1 368 1 378 1 400 1 402 1 415 1 426 1 441 1 443 1 445 1 449 1 450 1 451 1 460 1 464 1 479 1 485 1 489 1 495 1 498 1 503 1 
1 217 13 1 20 1 21 1 23 1 24 1 30 1 43 1 47 1 62 2 76 2 90 1 101 2 110 1 115 2 116 1 133 1 137 2 139 1 154 1 160 1 162 2 180 1 181 1 187 1 202 1 217 1 219 1 223 1 227 1 240 1 247 1 274 1 283 1 286 1 293 1 294 1 300 1 306 1 311 2 313 1 328 1 352 1 473 1 488 1 464 1 440 1 453 1 426 1 429 2 494 1 481 1 465 1 362 1 421 1 462 1 449 1 467 1 406 1 399 1 358 2 497 2 10 1 11 1 12 1 18 1 25 1 27 1 28 1 33 1 52 1 61 1 71 1 86 1 111 1 118 1 157 1 161 1 165 1 168 1 169 1 185 1 196 1 231 1 237 1 251 1 262 1 265 1 284 1 291 1 297 1 304 1 312 1 317 1 318 1 330 1 348 1 357 1 386 1 391 1 392 1 397 1 403 1 404 1 414 1 425 1 427 1 448 1 451 1 457 1 480 1 493 1 501 1 
1 219 13 1 14 1 19 1 26 1 30 1 34 1 38 1 44 1 47 1 57 2 59 1 60 1 61 1 92 1 101 1 110 1 116 1 120 1 128 1 129 1 156 1 162 1 172 1 194 1 207 2 212 1 215 1 219 1 230 1 239 1 245 1 253 1 256 1 259 1 260 1 264 1 266 1 271 1 278 1 440 1 403 1 471 1 398 1 400 1 483 1 472 1 379 1 407 1 401 1 458 1 476 1 491 1 484 2 463 1 473 1 385 1 426 1 432 1 456 1 467 1 394 1 8 1 22 1 29 1 39 1 42 1 76 1 79 1 85 1 132 1 155 1 164 1 168 1 175 1 178 1 186 1 197 1 199 1 205 1 226 1 227 1 231 1 234 1 235 1 248 1 279 1 283 1 286 1 290 1 292 1 308 1 342 1 391 1 392 1 402 1 417 1 419 1 429 1 430 1 436 1 442 1 444 1 445 1 454 1 468 1 477 1 481 1 488 1 504 1 
1 204 3 1 36 1 43 1 44 2 46 1 48 1 49 1 54 1 59 2 63 1 66 1 67 1 69 1 80 1 87 1 113 1 124 1 130 1 132 2 135 1 156 1 159 1 160 1 164 1 168 1 179 2 193 2 196 1 198 1 201 1 202 1 211 1 212 1 214 1 232 1 241 1 253 2 255 1 257 1 264 1 270 1 298 2 300 1 314 1 319 1 322 1 323 1 324 1 328 1 341 1 350 1 393 1 418 1 499 1 408 1 415 1 435 1 420 1 391 1 397 2 379 1 394 1 440 1 381 1 372 1 462 1 4 1 12 1 29 1 33 1 34 1 37 1 42 1 47 1 60 1 61 1 72 1 73 1 81 1 85 1 86 1 91 1 94 1 111 1 121 1 144 1 169 1 177 1 180 1 186 1 190 1 191 1 228 1 236 1 238 1 239 1 248 1 252 1 258 1 259 1 269 1 306 1 312 1 336 1 358 1 360 1 377 1 387 1 390 1 413 1 430 1 436 1 441 1 449 1 468 1 498 1 516 1 
1 192 4 1 28 1 47 2 57 1 63 1 82 2 91 1 100 1 101 1 114 1 115 1 116 1 118 1 121 1 123 1 127 1 139 1 148 2 153 1 180 1 187 1 188 1 189 1 192 1 207 1 209 1 213 1 214 1 246 1 254 1 263 1 264 1 275 1 284 1 304 2 313 1 316 1 346 2 471 1 443 1 474 2 490 2 472 1 446 1 447 1 476 1 433 1 485 1 460 1 489 1 436 1 422 1 434 1 454 1 367 1 366 1 400 1 493 1 2 1 3 1 17 1 20 1 27 1 36 1 38 1 64 1 75 1 76 1 77 1 90 1 113 1 125 1 128 1 140 1 146 1 163 1 166 1 173 1 181 1 210 1 222 1 225 1 229 1 235 1 236 1 239 1 262 1 270 1 280 1 286 1 288 1 289 1 296 1 301 1 311 1 339 1 340 1 350 1 354 1 387 1 391 1 398 1 399 1 424 1 437 1 453 1 465 1 487 1 488 1 494 1 495 1 500 1 504 1 506 1 507 1 515 1 
1 216 1 1 13 1 16 1 26 1 27 2 32 1 47 1 53 1 58 1 81 1 94 1 97 2 118 1 121 1 129 1 133 1 138 1 145 1 154 1 160 1 162 1 167 1 192 1 202 1 207 1 212 1 215 1 219 1 222 1 230 1 232 1 241 1 243 1 252 2 261 1 268 1 269 2 271 1 284 1 291 1 322 1 324 2 328 1 334 1 354 2 406 1 394 1 481 1 480 2 399 1 459 1 390 1 387 1 471 1 418 1 421 1 435 1 491 1 408 1 363 1 424 2 405 1 415 1 3 1 7 1 8 1 17 1 40 1 41 1 48 1 57 1 68 1 77 1 90 1 120 1 128 1 136 1 137 1 148 1 169 1 200 1 247 1 250 1 254 1 257 1 258 1 266 1 276 1 282 1 287 1 292 1 296 1 300 1 308 1 310 1 319 1 356 1 369 1 383 1 384 1 389 1 401 1 402 1 431 1 432 1 434 1 440 1 453 1 469 1 479 1 514 1 
1 186 6 1 11 2 24 1 29 1 37 1 40 1 47 1 71 1 78 1 86 2 105 1 118 1 120 1 126 1 135 1 137 1 141 1 142 1 148 1 151 1 164 1 170 1 171 1 176 2 177 1 186 2 187 1 197 1 212 1 219 1 224 2 241 1 244 1 255 2 256 1 263 1 271 1 278 1 311 1 319 1 327 1 340 1 462 1 408 1 431 2 449 1 425 1 416 1 380 2 418 1 467 1 378 1 394 1 442 1 447 1 500 2 437 1 443 1 452 1 374 1 457 1 440 1 3 1 28 1 50 1 52 1 58 1 65 1 68 1 76 1 80 1 84 1 85 1 88 1 89 1 92 1 93 1 95 1 112 1 117 1 145 1 150 1 152 1 162 1 166 1 172 1 175 1 185 1 191 1 192 1 204 1 242 1 258 1 261 1 265 1 274 1 276 1 277 1 321 1 325 1 388 1 391 1 398 1 400 1 410 1 417 1 435 1 446 1 458 1 459 1 475 1 490 1 493 1 
1 222 4 1 20 2 38 1 41 2 56 1 62 1 64 1 65 1 75 1 79 2 84 1 86 1 87 1 88 1 95 2 96 1 105 1 111 2 119 1 123 2 130 1 140 1 147 1 151 1 153 1 179 1 187 1 189 1 195 2 196 1 209 1 217 1 221 1 233 1 250 2 257 1 261 1 291 1 311 1 448 1 439 1 413 1 494 2 389 1 430 2 385 1 444 1 438 1 472 1 449 1 488 1 434 2 414 1 498 1 368 1 14 1 25 1 39 1 42 1 44 1 68 1 70 1 100 1 101 1 109 1 127 1 142 1 152 1 154 1 155 1 164 1 183 1 191 1 201 1 213 1 214 1 215 1 231 1 241 1 252 1 253 1 259 1 267 1 271 1 276 1 279 1 281 1 288 1 296 1 314 1 318 1 332 1 350 1 356 1 396 1 400 1 418 1 424 1 428 1 431 1 450 1 453 1 466 1 474 1 478 1 495 1 510 1 515 1 
1 198 15 1 18 1 22 1 33 1 39 1 49 1 50 1 51 1 57 1 58 1 61 1 82 1 86 1 88 1 90 1 93 1 94 1 111 1 112 1 117 2 122 1 125 1 126 1 144 1 160 1 189 1 191 1 193 1 194 1 202 1 208 1 217 1 220 1 222 1 226 2 237 1 238 2 255 1 262 1 265 1 300 1 305 1 306 1 314 1 316 1 334 1 353 1 447 1 477 1 429 1 463 1 473 1 445 1 413 1 475 1 439 1 418 1 431 1 459 1 486 1 398 1 13 1 19 1 24 1 32 1 37 1 42 1 43 1 54 1 55 1 66 1 71 1 79 1 128 1 134 1 135 1 149 1 156 1 158 1 159 1 161 1 180 1 206 1 221 1 236 1 240 1 245 1 250 1 259 1 263 1 281 1 290 1 291 1 312 1 313 1 324 1 336 1 341 1 394 1 399 1 411 1 415 1 441 1 442 1 450 1 472 1 479 1 481 1 500 1 515 1 
1 199 15 1 16 1 19 1 62 1 68 1 73 1 85 1 86 1 112 1 117 1 118 1 132 1 139 1 141 2 143 1 149 1 186 1 188 1 200 1 206 1 210 2 214 1 226 2 227 1 233 1 236 2 243 2 260 1 276 1 279 1 283 1 286 1 298 2 310 1 311 1 314 1 315 1 317 1 325 1 327 1 344 1 352 1 354 1 483 1 430 1 386 1 404 1 441 1 405 2 466 1 399 1 400 1 456 1 366 1 392 1 478 1 493 1 414 2 365 1 424 1 458 1 2 1 8 1 14 1 31 1 34 1 35 1 43 1 49 1 55 1 60 1 61 1 69 1 70 1 92 1 104 1 105 1 125 1 142 1 153 1 158 1 165 1 176 1 198 1 204 1 212 1 222 1 225 1 244 1 248 1 249 1 257 1 262 1 263 1 270 1 285 1 294 1 313 1 319 1 367 1 370 1 381 1 389 1 393 1 408 1 410 1 426 1 427 1 432 1 435 1 439 1 449 1 455 1 469 1 475 1 485 1 488 1 489 1 515 1 
1 191 6 1 14 1 21 1 22 1 42 1 61 1 62 2 66 1 67 1 79 1 101 1 117 1 118 1 119 2 124 1 133 1 134 1 140 1 147 1 155 1 169 1 173 1 189 1 198 1 212 1 222 1 223 1 227 1 234 1 240 1 244 2 249 2 250 1 280 1 291 1 305 1 307 1 312 1 323 1 327 2 347 1 350 1 358 1 408 1 447 1 366 1 435 1 433 1 365 1 473 1 457 1 496 2 418 1 484 1 477 1 451 1 370 1 479 1 472 1 387 1 478 1 409 1 455 1 376 2 2 1 7 1 13 1 15 1 30 1 33 1 39 1 51 1 60 1 72 1 108 1 122 1 123 1 125 1 127 1 130 1 161 1 166 1 183 1 185 1 187 1 193 1 219 1 242 1 252 1 268 1 270 1 272 1 273 1 276 1 297 1 311 1 388 1 390 1 405 1 414 1 438 1 439 1 443 1 452 1 460 1 463 1 485 1 487 1 492 1 494 1 517 1 
1 220 12 1 17 1 20 1 25 1 37 1 47 1 51 1 52 1 61 1 62 1 67 1 84 1 85 1 108 2 109 1 135 1 141 1 155 1 167 1 171 1 172 1 182 1 202 1 204 1 210 2 218 1 222 1 223 1 224 1 227 1 228 1 243 1 247 1 259 1 269 1 273 1 274 1 277 2 283 1 290 1 296 1 301 1 303 1 310 1 312 1 316 1 317 1 324 2 333 1 335 1 351 1 491 1 419 1 432 1 447 1 454 1 439 1 434 1 488 1 368 1 433 1 461 1 490 1 480 1 421 1 423 1 494 2 472 1 457 1 462 1 3 1 5 1 7 1 22 1 24 1 40 1 60 1 64 1 74 1 87 1 91 1 113 1 139 1 154 1 178 1 180 1 185 1 205 1 209 1 215 1 217 1 220 1 262 1 298 1 305 1 307 1 320 1 329 1 330 1 365 1 370 1 377 1 391 1 394 1 395 1 430 1 448 1 451 1 456 1 481 1 500 1 501 1 
1 201 4 2 17 2 20 1 26 1 31 2 37 1 64 1 74 1 80 1 89 2 91 1 94 2 109 1 120 1 127 1 128 1 146 1 147 1 169 1 176 1 177 1 180 1 226 1 232 1 242 1 261 1 263 1 270 1 275 1 290 1 292 1 296 1 307 1 309 1 315 1 321 1 362 1 363 1 442 1 469 1 366 1 368 2 484 1 440 1 462 1 451 1 453 1 400 1 479 1 489 1 436 1 402 1 3 1 7 1 14 1 19 1 29 1 46 1 51 1 61 1 79 1 92 1 103 1 111 1 117 1 138 1 152 1 153 1 154 1 156 1 187 1 189 1 198 1 204 1 205 1 211 1 212 1 230 1 236 1 257 1 271 1 278 1 279 1 281 1 288 1 313 1 329 1 333 1 335 1 336 1 364 1 393 1 405 1 415 1 427 1 431 1 437 1 444 1 455 1 472 1 483 1 488 1 492 1 498 1 514 1 
1 203 1 1 15 1 17 1 22 1 23 2 29 1 32 1 36 1 37 1 44 1 50 1 52 1 64 2 76 1 83 1 87 1 91 2 92 1 98 1 101 1 116 1 124 2 128 1 142 1 153 1 154 1 162 2 172 1 173 1 177 1 183 1 188 1 198 2 200 1 202 1 208 1 212 2 219 1 230 1 235 1 236 2 243 1 255 1 268 1 270 1 273 1 275 1 283 1 285 1 286 1 309 1 318 1 319 1 323 2 331 1 345 1 357 1 362 1 363 1 365 1 422 1 408 1 430 1 446 1 404 1 472 1 405 1 475 1 467 1 398 1 378 1 492 1 457 1 442 2 403 1 16 1 27 1 30 1 57 1 59 1 77 1 80 1 95 1 103 1 106 1 115 1 117 1 137 1 143 1 149 1 163 1 174 1 178 1 179 1 184 1 194 1 196 1 203 1 226 1 267 1 271 1 282 1 316 1 328 1 332 1 397 1 417 1 420 1 432 1 433 1 436 1 438 1 474 1 484 1 488 1 490 1 493 1 
1 193 1 2 5 1 10 1 27 1 53 1 60 1 70 1 72 1 90 1 96 1 104 1 109 2 115 2 129 1 145 1 148 2 149 1 161 1 163 1 164 1 190 1 209 1 213 1 215 1 223 1 229 1 234 1 276 1 297 1 310 1 314 1 323 1 330 1 357 1 478 1 412 1 400 1 469 1 374 1 492 1 406 1 470 1 483 2 491 1 401 1 449 1 393 1 439 1 476 1 479 1 424 1 9 1 11 1 25 1 30 1 41 1 51 1 57 1 63 1 65 1 74 1 77 1 83 1 106 1 107 1 110 1 118 1 119 1 121 1 127 1 132 1 141 1 152 1 153 1 154 1 166 1 169 1 173 1 194 1 204 1 207 1 231 1 237 1 255 1 265 1 277 1 292 1 301 1 318 1 322 1 337 1 343 1 362 1 370 1 381 1 397 1 404 1 411 1 418 1 425 1 426 1 428 1 433 1 445 1 458 1 461 1 490 1 497 1 511 1 
1 210 12 1 17 1 21 1 23 1 25 1 28 1 29 1 32 1 57 1 81 2 89 1 104 1 109 2 131 1 136 1 146 1 148 1 183 1 186 1 191 1 207 1 210 1 215 1 218 2 221 1 224 1 227 2 228 1 234 1 241 1 257 1 259 2 276 2 287 2 290 1 298 1 299 1 308 1 310 2 331 1 339 1 352 1 360 1 364 1 365 2 486 1 403 1 491 1 461 1 471 1 419 1 429 1 487 1 407 1 490 1 438 1 488 1 2 1 7 1 8 1 18 1 30 1 31 1 35 1 37 1 52 1 62 1 65 1 82 1 84 1 90 1 98 1 102 1 123 1 125 1 139 1 176 1 178 1 198 1 211 1 230 1 247 1 252 1 256 1 275 1 278 1 293 1 320 1 332 1 333 1 336 1 341 1 353 1 391 1 398 1 414 1 417 1 420 1 431 1 449 1 455 1 464 1 476 1 478 1 484 1 510 1 
1 198 1 1 4 1 19 1 23 1 49 1 52 1 66 1 67 1 96 1 109 1 110 1 117 1 118 1 129 2 140 2 144 1 147 1 148 1 161 1 169 1 176 1 177 2 202 1 207 1 213 1 221 1 222 1 229 1 230 2 231 1 250 1 252 1 268 1 276 2 282 2 297 1 301 1 310 1 319 2 331 1 490 1 439 1 444 1 442 1 451 1 485 1 492 1 452 1 400 1 471 2 433 1 407 1 469 1 477 1 424 1 425 1 404 2 371 1 374 1 27 1 29 1 43 1 56 1 58 1 59 1 68 1 73 1 75 1 78 1 82 1 86 1 103 1 105 1 126 1 132 1 137 1 142 1 172 1 183 1 188 1 197 1 201 1 205 1 212 1 214 1 215 1 220 1 228 1 238 1 240 1 253 1 258 1 270 1 284 1 287 1 321 1 338 1 358 1 370 1 389 1 401 1 403 1 411 1 412 1 420 1 456 1 465 1 484 1 495 1 515 1 
1 195 8 2 15 1 34 1 51 1 60 1 64 1 73 1 82 1 95 1 116 1 121 1 153 1 158 1 188 1 192 1 196 1 198 1 199 1 204 2 238 1 244 1 252 1 259 1 263 1 264 1 278 1 283 1 288 1 291 1 295 1 296 1 301 1 315 2 363 1 490 1 450 1 414 1 495 1 475 1 419 1 426 2 451 1 376 1 420 1 408 1 473 1 500 1 489 1 491 1 457 1 401 1 441 1 9 1 11 1 26 1 43 1 54 1 84 1 99 1 124 1 136 1 148 1 151 1 154 1 175 1 181 1 185 1 193 1 201 1 209 1 219 1 220 1 240 1 270 1 272 1 304 1 308 1 327 1 333 1 339 1 340 1 341 1 344 1 362 1 364 1 367 1 369 1 400 1 412 1 415 1 418 1 434 1 455 1 458 1 468 1 474 1 481 1 493 1 506 1 507 1 512 1 
1 205 3 1 8 1 19 1 20 1 21 1 22 1 38 2 56 1 71 1 83 1 96 2 99 1 138 1 156 1 162 1 164 2 181 1 186 1 190 1 210 1 211 1 212 1 237 2 241 2 247 1 265 2 281 1 293 2 297 1 307 1 313 1 314 1 330 1 342 1 344 1 369 1 478 1 471 1 373 1 409 1 488 1 410 2 428 1 421 1 432 1 495 1 424 1 462 1 446 1 480 1 431 1 15 1 37 1 64 1 66 1 72 1 84 1 90 1 91 1 113 1 117 1 120 1 124 1 126 1 128 1 129 1 134 1 147 1 163 1 171 1 178 1 179 1 191 1 197 1 198 1 204 1 207 1 213 1 214 1 216 1 235 1 242 1 263 1 264 1 275 1 278 1 289 1 302 1 311 1 312 1 318 1 319 1 322 1 323 1 325 1 341 1 372 1 381 1 419 1 441 1 443 1 460 1 468 1 470 1 481 1 487 1 
1 210 2 1 3 1 6 2 7 2 10 1 14 1 19 2 32 1 38 2 53 1 72 1 75 2 83 1 101 1 106 1 111 1 114 1 125 1 129 1 130 1 140 1 143 2 147 1 149 1 159 1 162 1 177 1 186 1 197 1 212 1 213 1 239 1 259 1 261 1 264 1 270 2 272 1 292 1 293 1 304 2 309 1 310 1 311 1 320 1 326 1 333 2 337 1 339 1 356 1 481 1 463 2 498 1 379 1 408 1 461 1 429 1 494 1 499 1 443 1 414 1 402 1 4 1 24 1 39 1 49 1 59 1 65 1 66 1 70 1 71 1 74 1 91 1 94 1 98 1 105 1 110 1 112 1 138 1 151 1 164 1 167 1 169 1 176 1 182 1 206 1 208 1 209 1 225 1 246 1 265 1 266 1 283 1 284 1 295 1 297 1 305 1 308 1 318 1 321 1 331 1 334 1 371 1 376 1 382 1 405 1 406 1 409 1 410 1 442 1 465 1 478 1 483 1 485 1 493 1 496 1 500 1 509 1 
1 229 3 1 4 1 8 1 13 1 15 2 19 1 23 1 27 1 34 1 36 1 39 1 40 1 45 1 56 1 57 1 70 1 95 1 100 1 103 1 127 2 155 1 156 1 167 1 168 1 173 1 183 1 195 1 197 1 198 1 223 1 226 1 262 1 263 1 273 1 280 1 284 1 286 1 292 1 297 1 300 1 309 1 316 1 318 1 320 1 321 1 324 1 329 1 339 1 346 1 371 1 446 1 408 1 486 1 475 1 426 1 482 1 420 1 374 2 375 1 389 1 386 1 403 1 417 1 431 1 1 1 30 1 50 1 52 1 53 1 64 1 66 1 77 1 87 1 89 1 108 1 152 1 158 1 177 1 186 1 193 1 199 1 206 1 221 1 237 1 240 1 245 1 253 1 259 1 270 1 277 1 279 1 310 1 315 1 330 1 333 1 334 1 345 1 414 1 415 1 416 1 432 1 434 1 436 1 439 1 447 1 459 1 461 1 493 1 494 1 499 1 
1 183 16 1 23 1 30 1 34 1 39 1 41 1 55 1 67 1 78 1 94 1 99 2 105 1 146 1 149 1 165 2 170 1 190 1 191 1 192 1 200 1 201 1 212 2 213 1 232 1 243 1 245 1 252 2 257 1 264 1 266 1 268 1 277 2 283 2 304 2 312 1 320 1 323 1 324 1 343 1 359 1 367 1 369 1 373 2 413 1 471 1 375 1 436 1 415 1 487 2 411 1 461 1 5 1 6 1 21 1 26 1 38 1 46 1 48 1 59 1 81 1 86 1 89 1 121 1 132 1 147 1 152 1 164 1 174 1 181 1 185 1 189 1 194 1 204 1 205 1 207 1 220 1 248 1 263 1 275 1 289 1 290 1 309 1 313 1 345 1 376 1 380 1 382 1 386 1 390 1 403 1 465 1 477 1 491 1 494 1 508 1 
1 218 11 1 22 2 29 1 34 1 43 1 52 1 67 1 68 1 89 1 94 1 95 1 96 1 104 2 114 1 119 1 120 2 131 2 134 1 158 1 168 1 170 2 176 1 177 1 191 1 193 1 195 1 203 1 229 1 233 2 280 1 285 1 302 1 304 1 305 2 316 1 320 1 332 1 339 1 340 1 373 1 374 1 426 1 490 1 455 1 441 1 486 2 484 1 488 1 386 1 500 1 411 1 380 1 19 1 73 1 75 1 76 1 79 1 112 1 115 1 118 1 126 1 133 1 139 1 140 1 159 1 164 1 175 1 180 1 182 1 189 1 194 1 205 1 211 1 212 1 228 1 232 1 239 1 240 1 265 1 266 1 270 1 271 1 281 1 282 1 310 1 315 1 318 1 333 1 344 1 405 1 407 1 409 1 415 1 425 1 427 1 436 1 444 1 447 1 451 1 452 1 457 1 463 1 471 1 478 1 492 1 494 1 495 1 498 1 499 1 506 1 509 1 512 1 
1 208 6 1 8 1 15 1 24 2 36 1 54 1 59 1 64 1 67 1 69 2 70 2 95 1 97 1 104 1 113 1 114 1 138 1 161 2 163 1 166 1 173 1 198 1 207 1 211 2 222 1 230 2 240 1 247 1 249 1 255 1 257 1 261 1 267 1 271 1 272 1 282 2 299 1 300 1 317 1 322 1 325 1 326 1 330 1 336 2 337 1 341 1 363 2 370 1 409 1 421 1 453 1 442 1 415 1 433 1 456 1 470 1 447 1 474 1 378 1 419 2 500 2 463 1 383 1 482 1 4 1 10 1 18 1 19 1 29 1 33 1 39 1 43 1 52 1 56 1 73 1 96 1 107 1 121 1 128 1 155 1 157 1 180 1 189 1 195 1 199 1 209 1 218 1 264 1 275 1 277 1 278 1 285 1 292 1 298 1 308 1 320 1 339 1 340 1 350 1 352 1 372 1 374 1 427 1 432 1 439 1 452 1 454 1 459 1 461 1 462 1 471 1 477 1 494 1 
1 192 28 1 37 1 44 1 51 1 58 1 70 1 77 1 80 1 81 1 99 1 103 1 121 1 123 1 145 2 151 1 157 1 162 1 170 1 178 1 181 1 200 2 204 1 211 1 214 1 251 1 253 1 260 1 263 2 264 1 273 1 291 1 297 2 311 1 312 1 324 1 329 2 339 1 343 1 351 1 473 1 438 2 425 1 407 1 441 1 489 1 500 1 455 1 443 1 465 1 480 1 421 1 17 1 22 1 26 1 31 1 53 1 59 1 67 1 72 1 98 1 108 1 126 1 130 1 133 1 135 1 149 1 158 1 169 1 180 1 184 1 189 1 196 1 207 1 212 1 213 1 220 1 225 1 243 1 244 1 247 1 254 1 256 1 261 1 286 1 287 1 296 1 299 1 316 1 317 1 327 1 349 1 356 1 364 1 383 1 413 1 414 1 422 1 434 1 435 1 440 1 463 1 497 1 509 1 516 1 
1 202 3 1 32 2 33 1 45 2 52 1 56 1 75 1 79 1 83 2 87 1 91 1 92 1 97 1 99 1 105 1 107 2 119 1 125 1 127 1 143 1 165 1 167 1 174 1 176 1 182 2 192 1 205 1 206 1 228 1 236 1 257 2 259 2 264 1 277 1 284 1 292 1 330 1 341 1 345 1 352 1 359 1 366 1 376 1 473 1 458 2 413 2 485 1 467 2 478 1 498 1 446 1 487 1 389 1 439 1 489 1 444 1 1 1 8 1 11 1 13 1 14 1 15 1 19 1 20 1 46 1 53 1 55 1 78 1 90 1 98 1 108 1 120 1 121 1 132 1 149 1 158 1 164 1 170 1 189 1 210 1 217 1 225 1 227 1 234 1 241 1 246 1 248 1 253 1 260 1 273 1 279 1 282 1 305 1 306 1 308 1 318 1 322 1 342 1 350 1 353 1 388 1 471 1 483 1 491 1 494 1 505 1 
1 202 10 2 14 1 20 1 21 1 47 1 54 1 60 1 72 1 85 1 88 1 97 2 111 1 121 1 124 1 135 1 140 1 151 1 152 1 154 2 159 1 160 1 162 1 179 1 187 1 201 1 203 1 205 1 208 1 210 1 217 2 229 2 232 1 235 1 237 1 251 1 254 1 281 1 291 1 308 2 318 1 325 1 334 1 335 1 336 1 337 1 339 1 355 1 356 1 372 1 432 1 444 1 408 1 478 2 394 1 492 1 398 1 449 1 469 1 473 1 26 1 27 1 37 1 51 1 92 1 93 1 94 1 98 1 120 1 137 1 139 1 155 1 171 1 177 1 184 1 186 1 189 1 204 1 231 1 250 1 260 1 261 1 271 1 279 1 297 1 299 1 305 1 309 1 319 1 331 1 346 1 384 1 385 1 397 1 405 1 419 1 433 1 434 1 451 1 465 1 483 1 496 1 498 1 
1 212 2 2 8 2 18 2 26 1 39 1 42 1 57 1 59 1 80 1 89 2 98 1 101 1 108 1 111 1 125 1 155 1 157 1 163 1 164 1 168 1 171 1 174 1 180 1 181 1 183 1 197 1 206 1 215 1 218 1 220 1 222 1 229 1 232 1 236 1 245 1 252 1 258 2 262 1 264 1 279 1 281 1 300 1 307 1 316 2 324 1 329 2 332 1 341 1 342 1 343 1 359 2 375 1 422 1 480 1 435 1 433 1 464 1 445 1 431 1 477 1 468 1 443 1 408 1 476 2 386 1 441 1 442 1 489 1 402 1 429 1 467 1 400 1 14 1 29 1 30 1 36 1 55 1 63 1 74 1 90 1 102 1 112 1 115 1 120 1 124 1 143 1 146 1 172 1 188 1 190 1 194 1 196 1 210 1 213 1 244 1 247 1 256 1 257 1 266 1 302 1 306 1 315 1 318 1 374 1 395 1 409 1 413 1 415 1 423 1 430 1 450 1 460 1 470 1 473 1 479 1 487 1 491 1 493 1 494 1 500 1 507 1 511 1 
1 206 11 1 13 1 41 1 53 1 77 1 87 1 91 1 116 1 120 1 122 1 124 2 128 1 131 2 133 1 141 2 152 1 160 1 162 2 176 1 180 1 197 1 198 1 203 1 235 2 237 1 240 1 243 1 251 1 252 1 262 1 263 1 264 1 291 2 295 1 305 1 320 1 322 1 351 1 352 1 356 1 444 1 449 1 418 1 385 1 458 1 483 1 472 1 392 1 471 2 412 1 484 2 402 1 477 2 459 1 490 1 398 1 451 1 399 1 23 1 29 1 32 1 38 1 55 1 100 1 102 1 109 1 139 1 140 1 147 1 149 1 158 1 178 1 193 1 202 1 207 1 216 1 217 1 234 1 255 1 257 1 269 1 275 1 277 1 279 1 289 1 292 1 313 1 319 1 326 1 343 1 349 1 362 1 367 1 371 1 386 1 416 1 419 1 445 1 453 1 463 1 464 1 475 1 487 1 493 1 494 1 
1 208 1 1 10 1 15 1 20 1 35 1 46 2 63 1 70 2 89 1 98 2 107 1 115 2 123 2 147 1 152 1 159 1 161 1 166 1 173 1 176 1 191 2 200 1 202 1 207 1 209 1 226 1 232 1 244 1 246 1 247 1 253 1 254 1 262 1 263 1 267 2 272 1 278 1 284 1 307 1 316 1 320 1 328 1 334 1 348 1 353 1 451 1 484 1 445 1 432 1 446 1 479 1 422 1 470 1 391 1 386 1 436 1 466 1 384 1 25 1 39 1 45 1 66 1 71 1 72 1 80 1 91 1 94 1 95 1 97 1 104 1 114 1 125 1 134 1 169 1 170 1 183 1 185 1 187 1 204 1 213 1 218 1 225 1 228 1 230 1 237 1 256 1 257 1 260 1 273 1 287 1 289 1 303 1 314 1 330 1 336 1 343 1 372 1 374 1 418 1 421 1 423 1 442 1 455 1 463 1 464 1 467 1 468 1 497 1 513 1 515 1 
1 181 9 1 10 1 54 1 56 1 66 1 76 2 80 1 86 1 88 1 89 1 94 2 103 1 108 1 111 1 113 1 120 1 122 1 129 1 134 1 135 1 136 1 137 1 146 1 150 1 154 1 165 1 169 1 195 1 205 1 216 1 238 1 245 1 250 1 258 1 260 1 267 1 268 1 274 1 285 2 301 2 305 1 311 2 317 1 326 1 376 1 427 1 479 1 482 1 445 1 438 1 396 1 436 1 452 1 465 1 470 1 435 1 485 1 390 1 415 1 410 1 2 1 28 1 38 1 42 1 49 1 59 1 71 1 75 1 99 1 105 1 125 1 148 1 158 1 170 1 173 1 184 1 186 1 187 1 191 1 194 1 196 1 197 1 200 1 235 1 241 1 248 1 252 1 255 1 275 1 293 1 296 1 299 1 310 1 322 1 330 1 341 1 351 1 352 1 358 1 377 1 432 1 433 1 442 1 454 1 456 1 471 1 494 1 501 1 
1 219 2 1 9 1 10 1 11 1 17 1 36 1 46 1 48 1 53 1 57 1 58 1 61 1 62 1 65 1 66 1 76 1 80 1 89 1 90 1 93 2 96 1 98 1 112 1 136 1 138 1 150 1 151 1 172 1 191 1 195 1 217 1 221 1 222 1 248 1 258 1 262 1 271 1 278 1 279 1 282 1 283 1 285 1 289 1 291 1 294 1 297 1 326 1 327 1 335 1 346 1 382 1 476 1 500 1 450 1 436 1 442 1 390 1 429 2 478 1 497 1 488 1 468 1 446 1 25 1 27 1 37 1 42 1 86 1 109 1 113 1 121 1 125 1 129 1 156 1 175 1 181 1 183 1 187 1 189 1 198 1 214 1 223 1 242 1 246 1 251 1 257 1 261 1 264 1 296 1 298 1 303 1 306 1 313 1 322 1 323 1 329 1 342 1 358 1 379 1 401 1 405 1 411 1 420 1 422 1 426 1 432 1 435 1 437 1 467 1 480 1 489 1 
1 203 7 2 11 1 13 1 16 2 30 1 32 1 40 1 47 1 48 1 65 1 76 1 89 1 91 1 96 2 114 1 116 2 118 1 119 1 123 1 125 1 128 1 130 2 133 1 143 1 151 1 164 1 170 1 178 1 188 1 204 1 225 1 233 1 239 1 253 1 269 1 272 1 274 1 309 1 311 1 314 1 321 1 329 1 342 1 351 1 352 1 355 1 360 1 381 1 415 2 464 1 436 1 456 1 445 1 466 1 434 1 452 1 487 1 444 1 2 1 4 1 31 1 34 1 42 1 57 1 68 1 78 1 84 1 85 1 97 1 103 1 105 1 144 1 163 1 174 1 176 1 177 1 183 1 187 1 190 1 193 1 197 1 200 1 218 1 220 1 228 1 232 1 240 1 248 1 264 1 271 1 283 1 295 1 298 1 303 1 313 1 320 1 331 1 336 1 379 1 386 1 394 1 404 1 412 1 417 1 430 1 446 1 455 1 461 1 470 1 475 1 490 1 491 1 492 1 500 1 507 1 
1 201 5 1 11 1 14 1 21 1 23 1 40 1 48 2 77 1 79 1 86 1 87 1 91 1 98 1 101 1 122 1 132 1 140 1 141 1 152 1 157 1 158 1 162 1 172 1 174 2 179 1 181 1 184 1 185 1 211 1 220 1 227 1 234 1 235 1 243 1 245 1 253 2 275 1 295 1 300 1 310 2 312 1 317 1 324 1 327 1 328 1 340 1 362 1 373 1 375 1 380 1 382 1 438 1 494 1 439 1 423 1 421 1 429 1 428 1 460 1 432 1 448 1 440 1 464 1 433 1 390 1 419 1 1 1 3 1 6 1 10 1 29 1 36 1 51 1 69 1 89 1 97 1 105 1 109 1 110 1 115 1 130 1 137 1 146 1 160 1 166 1 167 1 169 1 170 1 194 1 201 1 218 1 219 1 229 1 278 1 303 1 305 1 311 1 326 1 331 1 341 1 346 1 354 1 374 1 381 1 385 1 391 1 427 1 431 1 436 1 445 1 447 1 466 1 513 1 
1 201 7 1 14 1 21 2 25 1 30 1 34 1 59 1 62 1 73 1 79 2 89 1 97 1 115 1 116 1 118 2 125 1 128 1 139 1 141 1 146 1 157 2 165 1 170 1 183 1 195 1 196 1 210 1 214 1 237 1 247 1 256 1 258 1 289 1 299 1 302 1 306 1 325 1 334 1 341 1 358 1 363 1 488 1 464 1 424 1 487 1 500 2 480 1 493 1 458 1 481 1 388 1 445 1 1 1 13 1 23 1 39 1 56 1 87 1 88 1 112 1 119 1 167 1 171 1 184 1 187 1 194 1 204 1 231 1 233 1 236 1 241 1 250 1 262 1 274 1 280 1 284 1 285 1 290 1 293 1 316 1 322 1 331 1 345 1 356 1 357 1 389 1 398 1 402 1 403 1 418 1 419 1 431 1 461 1 479 1 483 1 497 1 508 1 
1 218 6 1 29 2 34 1 37 1 43 2 45 1 50 1 75 1 77 1 130 1 137 1 144 1 145 1 147 1 148 1 150 1 153 1 163 1 172 2 185 1 198 2 200 1 202 1 218 1 220 1 231 1 255 1 272 1 280 1 281 1 283 1 284 1 286 1 293 1 300 1 313 1 321 1 322 1 327 1 341 1 387 1 429 1 457 1 499 2 481 1 470 1 416 1 436 1 445 1 5 1 8 1 11 1 16 1 20 1 26 1 44 1 48 1 52 1 54 1 59 1 64 1 67 1 68 1 83 1 87 1 88 1 89 1 90 1 92 1 107 1 116 1 127 1 141 1 146 1 152 1 155 1 162 1 169 1 179 1 187 1 209 1 213 1 239 1 244 1 246 1 253 1 257 1 266 1 285 1 296 1 309 1 310 1 314 1 332 1 340 1 352 1 359 1 363 1 378 1 415 1 444 1 447 1 451 1 452 1 454 1 459 1 466 1 471 1 492 1 497 1 
1 222 8 1 23 1 30 1 36 1 42 1 47 2 62 2 94 1 100 1 115 1 123 1 125 1 126 1 127 2 130 1 136 1 149 1 153 1 156 1 158 1 164 2 165 1 169 2 173 1 174 1 192 1 209 1 214 1 237 1 246 1 247 1 260 2 262 1 265 1 275 1 278 1 288 2 296 1 300 2 302 1 305 1 314 1 319 1 320 1 328 1 331 1 335 1 337 1 349 1 351 1 352 2 360 1 373 1 378 1 467 1 437 2 423 2 484 1 488 1 438 1 473 2 500 1 450 1 426 1 13 1 20 1 21 1 25 1 26 1 44 1 53 1 60 1 64 1 70 1 77 1 82 1 93 1 101 1 106 1 112 1 138 1 139 1 162 1 163 1 166 1 170 1 171 1 179 1 190 1 191 1 199 1 211 1 223 1 232 1 236 1 249 1 250 1 263 1 266 1 267 1 290 1 294 1 299 1 309 1 310 1 334 1 350 1 358 1 362 1 369 1 387 1 409 1 418 1 434 1 441 1 446 1 453 1 456 1 477 1 482 1 492 1 496 1 
1 209 9 1 17 2 29 1 70 1 87 1 95 1 101 1 104 1 124 1 128 1 131 1 146 1 150 1 156 2 158 1 161 1 165 1 187 1 197 1 203 1 204 1 216 1 223 1 225 2 229 2 234 1 253 1 263 1 274 2 275 1 281 1 288 1 289 1 301 2 309 2 319 2 323 1 328 2 332 1 339 1 349 1 350 1 358 1 383 1 384 1 386 1 489 1 470 1 477 1 425 1 468 1 432 1 434 1 442 1 395 2 476 1 440 1 421 1 443 1 1 1 14 1 18 1 22 1 23 1 30 1 32 1 40 1 42 1 50 1 55 1 57 1 60 1 61 1 85 1 108 1 109 1 114 1 122 1 123 1 126 1 127 1 139 1 147 1 149 1 155 1 163 1 191 1 214 1 221 1 252 1 259 1 315 1 330 1 331 1 347 1 356 1 363 1 374 1 397 1 398 1 406 1 433 1 463 1 484 1 487 1 488 1 491 1 493 1 494 1 500 1 
1 203 3 1 6 2 12 1 21 1 28 1 30 1 32 1 35 1 52 1 56 2 68 1 82 1 87 1 97 1 110 1 116 2 130 1 131 1 137 1 146 1 149 1 155 2 158 1 162 1 165 1 166 1 169 1 178 1 180 1 183 1 184 1 194 1 202 1 207 1 211 1 218 1 234 1 246 1 248 1 273 1 281 1 284 1 285 1 297 2 301 1 322 1 339 1 346 1 347 1 356 1 382 1 465 1 439 2 402 1 464 1 446 1 444 1 453 1 499 1 423 1 448 2 462 1 496 1 14 1 16 1 20 1 37 1 44 1 47 1 53 1 54 1 58 1 65 1 69 1 76 1 89 1 91 1 112 1 115 1 135 1 167 1 179 1 200 1 204 1 208 1 220 1 240 1 249 1 251 1 266 1 275 1 280 1 287 1 299 1 319 1 337 1 338 1 343 1 345 1 354 1 355 1 357 1 359 1 364 1 368 1 386 1 392 1 428 1 463 1 475 1 476 1 486 1 497 1 498 1 
1 206 4 1 14 2 20 1 26 1 36 1 39 1 48 2 52 1 54 1 57 1 58 1 74 1 76 1 79 1 80 1 81 2 85 1 90 1 96 1 99 1 109 2 115 1 129 1 145 1 147 1 148 1 152 1 154 1 156 1 159 1 185 1 191 2 196 1 197 1 212 1 214 1 246 2 250 1 252 1 262 1 295 1 304 2 318 1 331 1 333 1 334 1 352 1 362 1 381 1 393 1 496 1 491 1 421 2 476 1 473 1 498 1 479 2 423 1 488 1 499 1 477 1 468 1 492 1 441 2 407 1 454 1 8 1 10 1 27 1 37 1 53 1 55 1 78 1 83 1 126 1 135 1 144 1 167 1 193 1 209 1 213 1 218 1 227 1 244 1 251 1 260 1 266 1 291 1 319 1 320 1 322 1 348 1 354 1 355 1 391 1 419 1 424 1 431 1 438 1 439 1 443 1 450 1 458 1 481 1 
1 190 1 1 9 1 54 1 57 1 58 1 61 1 79 1 87 1 93 1 124 1 131 1 138 1 141 1 143 2 148 1 155 1 172 2 186 1 217 1 220 2 233 2 261 1 269 2 273 1 280 1 284 2 301 1 327 1 328 1 330 1 336 1 339 1 346 1 348 2 353 1 356 1 367 1 392 1 476 1 425 1 444 1 462 1 464 1 484 1 442 1 479 2 500 1 456 1 428 1 411 1 18 1 25 1 27 1 29 1 34 1 44 1 51 1 52 1 70 1 84 1 100 1 112 1 114 1 115 1 117 1 128 1 135 1 142 1 159 1 163 1 169 1 187 1 198 1 207 1 229 1 230 1 235 1 249 1 253 1 256 1 263 1 270 1 277 1 287 1 289 1 305 1 314 1 322 1 325 1 342 1 362 1 365 1 402 1 407 1 420 1 427 1 429 1 431 1 451 1 455 1 457 1 458 1 461 1 474 1 499 1 
1 213 3 1 8 1 9 1 47 2 52 1 63 2 74 2 76 1 87 1 93 2 96 1 111 1 113 2 117 1 124 1 130 1 139 1 160 1 163 1 168 1 171 1 181 1 187 1 190 1 202 1 205 2 237 1 239 1 257 1 259 1 262 1 273 1 278 1 296 1 301 1 302 2 316 2 322 1 327 1 332 1 337 1 339 2 347 1 355 1 356 1 358 1 359 1 379 1 437 1 479 1 425 1 435 1 494 1 482 1 477 1 472 1 440 2 429 1 396 1 450 1 423 1 30 1 38 1 101 1 107 1 123 1 125 1 127 1 128 1 136 1 155 1 164 1 165 1 169 1 178 1 189 1 197 1 200 1 213 1 224 1 233 1 235 1 245 1 246 1 254 1 261 1 279 1 287 1 294 1 298 1 318 1 319 1 321 1 325 1 329 1 333 1 351 1 352 1 361 1 364 1 385 1 395 1 398 1 401 1 432 1 444 1 460 1 499 1 500 1 
1 195 16 1 18 1 26 1 33 1 35 1 38 1 39 1 41 1 45 1 46 1 53 1 82 1 84 1 91 1 105 1 108 1 121 1 131 1 154 1 157 1 158 1 162 2 168 1 175 1 197 1 218 1 227 1 236 1 238 2 242 1 244 2 251 1 260 1 270 1 276 1 285 1 289 1 311 1 313 1 316 2 328 1 335 1 347 1 351 2 352 2 390 2 424 1 448 2 493 1 471 1 464 1 434 1 462 2 444 1 497 1 489 1 475 1 412 1 415 1 432 1 492 1 42 1 43 1 48 1 56 1 58 1 59 1 68 1 78 1 92 1 96 1 98 1 110 1 138 1 140 1 151 1 152 1 184 1 193 1 199 1 214 1 224 1 233 1 249 1 252 1 265 1 266 1 267 1 275 1 281 1 286 1 291 1 295 1 298 1 305 1 314 1 320 1 322 1 324 1 349 1 364 1 380 1 394 1 453 1 457 1 472 1 498 1 500 1 503 1 
1 208 1 1 4 1 6 1 10 1 28 1 45 2 46 2 89 1 105 1 106 1 107 1 108 1 113 1 116 1 120 2 124 1 132 1 138 1 152 1 156 2 168 2 186 1 187 2 188 1 195 1 199 1 201 1 205 1 214 1 227 1 238 1 240 1 247 1 248 1 251 1 258 1 271 1 277 1 280 2 284 1 289 2 295 1 301 1 313 1 315 2 335 1 351 2 383 1 394 1 430 1 472 2 401 1 426 1 403 1 485 1 452 1 2 1 11 1 38 1 44 1 48 1 50 1 51 1 62 1 65 1 88 1 97 1 122 1 141 1 149 1 150 1 153 1 165 1 179 1 202 1 203 1 217 1 221 1 222 1 241 1 261 1 265 1 268 1 291 1 309 1 310 1 319 1 327 1 330 1 344 1 348 1 360 1 400 1 454 1 464 1 469 1 478 1 502 1 506 1 
1 183 7 1 13 1 24 1 37 1 57 1 62 1 63 1 86 1 88 1 89 1 105 1 119 1 130 1 135 1 141 1 142 1 144 1 163 1 164 1 170 1 173 1 181 1 189 1 192 1 197 1 204 1 208 1 213 1 269 1 280 2 283 1 284 1 285 1 288 1 290 1 317 1 321 1 332 1 342 2 345 2 356 2 465 1 485 1 449 1 474 1 478 1 400 1 476 1 479 1 5 1 18 1 20 1 29 1 46 1 49 1 54 1 67 1 68 1 70 1 76 1 81 1 107 1 110 1 115 1 116 1 120 1 158 1 176 1 180 1 184 1 194 1 195 1 207 1 220 1 237 1 240 1 253 1 262 1 268 1 272 1 277 1 286 1 289 1 297 1 300 1 307 1 312 1 315 1 323 1 329 1 343 1 354 1 366 1 367 1 379 1 390 1 428 1 430 1 438 1 440 1 441 1 448 1 451 1 470 1 499 1 504 1 506 1 
1 214 2 2 11 1 21 1 24 2 26 1 27 1 33 1 53 1 60 1 63 2 74 1 75 1 87 1 120 1 128 1 129 1 137 1 142 2 143 2 145 2 149 1 156 1 157 1 160 1 161 1 166 1 177 2 194 1 200 1 201 1 202 2 204 1 211 1 212 1 218 1 227 1 238 1 250 1 252 1 259 1 262 2 266 1 268 1 273 1 274 1 282 1 284 1 287 1 294 1 296 1 321 1 324 2 335 1 339 1 348 1 350 1 355 1 361 1 366 1 379 1 381 1 433 1 473 1 405 1 457 1 449 1 448 1 432 2 460 1 439 1 9 1 14 1 16 1 17 1 18 1 19 1 46 1 59 1 64 1 67 1 93 1 97 1 107 1 130 1 134 1 141 1 148 1 150 1 152 1 153 1 159 1 174 1 179 1 185 1 189 1 196 1 222 1 229 1 232 1 236 1 239 1 247 1 249 1 257 1 264 1 286 1 288 1 307 1 309 1 319 1 322 1 328 1 329 1 342 1 351 1 357 1 359 1 368 1 387 1 390 1 394 1 401 1 451 1 452 1 462 1 463 1 469 1 489 1 494 1 
1 196 1 1 9 1 13 1 21 2 26 1 40 1 54 1 60 2 68 2 69 1 72 1 88 1 94 1 109 1 113 2 116 1 122 1 132 1 139 1 150 1 153 1 160 1 168 1 171 1 199 1 200 2 213 1 215 1 228 1 231 1 233 2 240 1 251 1 254 1 255 1 277 1 278 2 280 1 286 1 289 1 293 1 301 1 307 1 313 1 327 1 328 1 329 1 345 2 347 2 354 1 358 1 362 1 381 1 472 1 446 1 2 1 18 1 30 1 39 1 41 1 44 1 48 1 50 1 52 1 56 1 59 1 64 1 70 1 71 1 73 1 89 1 103 1 123 1 124 1 133 1 134 1 152 1 159 1 181 1 187 1 190 1 219 1 221 1 243 1 252 1 257 1 260 1 264 1 295 1 298 1 310 1 338 1 342 1 357 1 361 1 409 1 434 1 438 1 461 1 479 1 
1 178 1 1 17 1 20 1 32 1 38 1 44 2 53 1 62 1 66 1 85 2 91 1 112 1 148 1 163 1 165 1 172 1 187 1 199 1 208 1 226 1 228 1 232 1 245 2 252 1 259 1 262 1 287 1 289 1 301 1 317 1 331 1 332 1 336 1 342 1 355 1 357 1 362 1 365 1 367 1 369 1 380 1 397 1 474 1 468 1 467 2 401 2 493 1 465 1 433 1 480 1 441 1 415 1 469 1 476 1 473 1 405 1 13 1 15 1 18 1 31 1 34 1 36 1 39 1 82 1 90 1 99 1 100 1 103 1 113 1 118 1 120 1 121 1 122 1 125 1 128 1 129 1 133 1 156 1 186 1 216 1 225 1 239 1 247 1 251 1 271 1 272 1 285 1 302 1 306 1 307 1 327 1 347 1 353 1 359 1 360 1 370 1 396 1 410 1 414 1 440 1 443 1 459 1 463 1 466 1 486 1 492 1 497 1 517 1 
1 210 30 1 38 1 44 1 57 1 82 1 96 1 101 1 119 1 131 1 151 1 154 1 157 1 158 1 161 1 165 1 178 1 181 1 182 1 185 1 189 1 197 1 206 1 213 1 234 1 238 1 245 1 263 2 265 1 274 2 282 1 293 1 301 1 310 1 325 1 349 1 353 1 355 1 367 1 370 1 396 1 400 2 464 1 490 1 477 1 433 2 485 1 456 2 448 2 481 1 484 1 410 1 494 1 473 1 489 2 1 1 3 1 6 1 11 1 13 1 15 1 19 1 36 1 37 1 41 1 43 1 61 1 68 1 88 1 98 1 102 1 110 1 120 1 124 1 128 1 139 1 145 1 147 1 152 1 171 1 193 1 211 1 243 1 254 1 258 1 272 1 277 1 284 1 285 1 286 1 290 1 300 1 308 1 318 1 324 1 326 1 336 1 344 1 346 1 348 1 351 1 358 1 369 1 384 1 394 1 398 1 429 1 432 1 442 1 458 1 461 1 467 1 468 1 476 1 478 1 491 1 
1 216 1 2 3 1 20 1 22 1 28 2 35 1 38 1 39 1 49 1 65 1 66 1 67 1 73 1 81 1 88 1 94 1 99 1 101 1 107 1 121 1 122 1 128 1 129 1 148 1 149 1 150 1 157 1 191 1 194 1 202 1 213 1 224 1 264 1 266 1 282 1 286 2 300 1 301 1 311 1 324 1 329 1 332 1 335 1 350 2 365 1 372 1 380 1 381 1 391 1 404 1 460 2 453 1 436 1 473 1 445 1 450 2 417 1 449 1 412 1 463 1 10 1 14 1 15 1 16 1 37 1 41 1 43 1 45 1 46 1 52 1 71 1 75 1 115 1 116 1 136 1 137 1 141 1 143 1 161 1 164 1 181 1 192 1 195 1 218 1 238 1 242 1 244 1 247 1 250 1 254 1 256 1 262 1 310 1 314 1 337 1 343 1 353 1 355 1 358 1 387 1 393 1 413 1 435 1 438 1 443 1 444 1 447 1 454 1 465 1 466 1 467 1 470 1 481 1 482 1 493 1 506 1 515 1 
1 196 3 1 5 1 22 2 48 1 53 1 54 1 68 1 72 1 75 2 81 1 87 1 102 1 112 1 124 1 136 1 142 1 144 1 147 1 153 2 167 2 181 1 182 1 198 1 199 1 220 1 229 1 230 1 235 1 237 1 239 1 245 1 246 1 249 1 256 1 257 1 259 1 261 1 274 1 275 1 280 1 281 1 285 1 294 1 297 1 301 1 312 1 321 1 335 1 355 1 366 1 368 1 373 1 396 1 499 1 483 1 442 2 406 1 486 1 444 1 462 1 440 1 460 1 490 1 6 1 11 1 13 1 14 1 18 1 39 1 40 1 49 1 52 1 59 1 60 1 83 1 104 1 106 1 119 1 132 1 145 1 152 1 154 1 172 1 173 1 190 1 202 1 217 1 219 1 223 1 232 1 238 1 247 1 260 1 262 1 263 1 276 1 279 1 300 1 304 1 313 1 320 1 324 1 343 1 344 1 348 1 354 1 369 1 374 1 387 1 410 1 434 1 437 1 446 1 450 1 474 1 481 1 485 1 500 1 
1 182 8 2 15 1 18 1 26 1 42 1 57 1 65 1 76 1 79 1 93 1 113 1 122 1 131 1 137 2 145 1 149 1 150 1 171 1 221 2 224 1 232 1 242 1 245 1 250 1 258 1 273 2 284 1 285 2 288 2 297 2 315 1 329 1 338 1 340 1 341 2 350 1 362 1 366 1 369 2 402 1 481 1 485 2 484 1 478 1 436 1 461 1 488 1 470 1 412 1 413 1 14 1 16 1 17 1 20 1 34 1 38 1 44 1 50 1 56 1 59 1 69 1 75 1 78 1 95 1 103 1 108 1 114 1 151 1 154 1 162 1 168 1 169 1 178 1 179 1 185 1 186 1 201 1 214 1 217 1 220 1 226 1 227 1 233 1 257 1 265 1 266 1 267 1 270 1 275 1 281 1 289 1 301 1 304 1 335 1 354 1 367 1 385 1 409 1 432 1 446 1 453 1 454 1 468 1 472 1 490 1 496 1 514 1 
1 195 4 1 12 1 31 1 47 1 48 1 52 1 56 1 70 1 82 1 116 1 122 1 124 2 129 1 135 1 161 1 163 1 165 1 166 1 174 1 176 2 180 1 185 1 190 1 196 1 199 1 203 1 225 1 227 1 237 2 238 1 255 2 261 1 279 1 282 1 293 1 301 2 305 2 308 1 315 1 316 1 318 1 322 1 332 1 339 1 341 2 342 1 343 1 348 1 353 1 358 1 362 2 366 1 398 1 400 1 486 2 485 2 494 1 451 1 474 1 500 1 479 1 483 2 436 1 410 1 490 2 452 1 408 1 407 1 8 1 20 1 23 1 30 1 35 1 43 1 53 1 62 1 81 1 86 1 96 1 104 1 117 1 127 1 158 1 167 1 175 1 197 1 205 1 209 1 217 1 226 1 243 1 245 1 258 1 266 1 273 1 274 1 276 1 280 1 285 1 288 1 295 1 317 1 329 1 330 1 352 1 363 1 365 1 372 1 375 1 379 1 384 1 406 1 415 1 417 1 461 1 487 1 501 1 517 1 
1 200 23 1 36 1 39 1 50 1 57 2 61 1 62 1 66 1 69 2 85 1 113 2 146 1 155 1 157 2 161 1 175 1 179 1 187 1 194 1 198 1 218 1 248 2 251 1 253 1 258 1 271 1 275 2 281 1 293 2 306 1 308 1 309 1 326 1 331 1 335 1 338 1 354 1 358 1 367 1 403 1 458 1 494 2 409 1 440 1 472 1 413 1 496 2 439 1 418 1 486 1 468 1 422 1 4 1 14 1 17 1 20 1 24 1 56 1 81 1 82 1 118 1 119 1 126 1 127 1 134 1 143 1 149 1 160 1 188 1 196 1 202 1 222 1 227 1 230 1 240 1 247 1 259 1 260 1 269 1 286 1 300 1 311 1 314 1 315 1 322 1 323 1 332 1 345 1 346 1 347 1 372 1 390 1 405 1 408 1 456 1 479 1 495 1 497 1 498 1 500 1 504 1 507 1 
1 191 15 1 18 1 22 1 30 1 37 1 42 1 74 1 80 1 90 2 103 2 104 1 114 2 115 2 120 1 121 1 133 1 134 1 142 1 143 1 146 1 148 2 151 1 154 1 170 1 187 1 207 1 209 2 214 1 217 1 231 1 235 1 309 1 311 1 319 1 329 1 333 2 335 1 352 1 355 1 368 1 369 1 377 1 392 1 405 1 470 1 462 1 478 1 446 1 444 2 448 1 492 1 483 1 69 1 79 1 81 1 88 1 89 1 97 1 100 1 102 1 109 1 112 1 119 1 125 1 127 1 128 1 136 1 144 1 157 1 163 1 166 1 167 1 177 1 178 1 180 1 181 1 188 1 193 1 213 1 234 1 237 1 243 1 247 1 253 1 259 1 261 1 270 1 274 1 277 1 287 1 294 1 308 1 310 1 314 1 324 1 325 1 330 1 337 1 338 1 342 1 349 1 350 1 375 1 393 1 454 1 471 1 473 1 490 1 504 1 505 1 
1 207 4 1 6 1 15 1 22 1 24 1 33 1 34 1 38 1 45 1 46 1 69 1 71 1 76 1 108 1 117 1 120 1 123 1 125 1 126 2 139 2 146 1 179 1 188 1 190 1 192 1 196 2 197 1 205 1 206 1 208 1 222 1 224 2 225 1 237 1 239 1 247 1 266 1 281 1 292 2 295 1 298 1 344 1 346 1 356 1 358 1 359 1 363 1 366 1 370 1 372 1 373 1 379 1 380 1 405 1 495 2 410 1 446 1 454 2 415 1 469 1 421 1 411 1 474 1 1 1 19 1 32 1 73 1 79 1 85 1 88 1 106 1 133 1 138 1 147 1 154 1 160 1 177 1 186 1 207 1 213 1 226 1 241 1 248 1 249 1 252 1 270 1 276 1 278 1 336 1 339 1 362 1 406 1 442 1 448 1 449 1 463 1 464 1 467 1 491 1 496 1 509 1 
1 196 3 1 17 1 19 1 21 1 37 1 41 1 45 1 58 2 91 2 96 1 101 1 102 1 113 1 118 1 127 1 132 1 133 1 138 1 154 1 163 1 175 1 177 1 183 1 184 1 194 1 201 1 208 1 231 2 232 2 256 2 261 1 266 1 273 1 274 1 275 1 306 1 313 1 321 1 325 1 328 1 331 1 335 1 343 2 344 1 351 1 363 1 371 1 376 1 406 1 411 1 446 1 444 1 455 1 491 1 422 1 410 1 465 1 2 1 18 1 25 1 28 1 33 1 54 1 85 1 123 1 128 1 136 1 165 1 171 1 187 1 188 1 189 1 196 1 203 1 225 1 254 1 257 1 263 1 264 1 269 1 283 1 294 1 302 1 309 1 324 1 329 1 333 1 337 1 342 1 347 1 372 1 375 1 380 1 389 1 399 1 404 1 413 1 430 1 440 1 462 1 468 1 485 1 507 1 
1 183 14 1 20 1 25 1 28 1 32 1 33 2 38 1 41 1 45 1 50 1 53 1 57 1 64 1 86 1 87 1 117 1 122 1 127 2 130 1 133 1 134 1 136 1 140 2 167 2 169 1 175 1 180 1 213 1 219 2 223 1 249 2 254 1 265 1 267 1 279 1 297 2 306 1 327 1 333 2 371 2 383 1 401 1 405 1 408 1 409 1 454 1 458 1 463 1 461 1 412 1 496 1 481 1 421 1 459 1 436 1 456 1 426 1 450 1 468 2 5 1 15 1 17 1 34 1 36 1 39 1 68 1 94 1 96 1 97 1 107 1 108 1 113 1 114 1 116 1 119 1 145 1 160 1 162 1 166 1 168 1 171 1 181 1 240 1 243 1 252 1 259 1 262 1 269 1 275 1 277 1 292 1 299 1 339 1 348 1 359 1 362 1 372 1 400 1 403 1 414 1 439 1 443 1 465 1 475 1 476 1 495 1 
1 207 15 2 35 1 54 1 58 1 63 1 64 1 88 1 98 1 99 1 104 1 105 1 106 1 107 1 111 1 114 1 128 1 150 1 168 1 182 1 188 1 191 1 203 1 207 1 208 1 216 1 219 1 225 1 228 1 233 1 237 1 238 1 249 2 259 1 260 1 266 1 269 1 284 1 288 1 292 2 300 1 303 1 320 1 326 1 331 1 343 1 374 1 375 1 393 1 408 1 409 1 414 1 415 1 466 1 468 1 467 1 485 1 451 1 492 1 443 1 8 1 9 1 13 1 16 1 24 1 26 1 28 1 32 1 34 1 42 1 46 1 84 1 90 1 94 1 97 1 122 1 144 1 145 1 146 1 156 1 179 1 180 1 189 1 193 1 209 1 214 1 223 1 226 1 246 1 256 1 273 1 286 1 290 1 293 1 298 1 299 1 301 1 302 1 311 1 318 1 338 1 341 1 345 1 352 1 361 1 367 1 369 1 384 1 417 1 438 1 452 1 465 1 484 1 501 1 510 1 
1 205 2 1 15 1 51 2 54 1 70 1 84 1 99 1 102 1 114 1 149 1 150 1 152 1 173 2 195 1 197 1 201 2 203 1 207 1 208 2 213 1 214 2 216 1 218 1 230 1 236 2 254 1 261 1 263 1 275 1 281 1 289 1 309 1 324 1 330 1 333 1 335 1 346 1 367 1 381 1 395 1 402 1 404 1 410 1 476 1 492 1 458 1 417 1 449 1 487 1 461 1 497 1 4 1 10 1 18 1 20 1 33 1 35 1 43 1 46 1 72 1 75 1 88 1 98 1 104 1 107 1 122 1 151 1 153 1 160 1 182 1 183 1 187 1 191 1 194 1 198 1 199 1 204 1 209 1 217 1 222 1 239 1 246 1 298 1 299 1 305 1 306 1 310 1 311 1 322 1 343 1 348 1 369 1 370 1 385 1 460 1 464 1 467 1 468 1 475 1 478 1 484 1 486 1 505 1 513 1 
1 212 4 1 7 1 10 1 13 1 21 1 34 1 35 1 55 1 61 1 64 2 68 1 82 2 142 1 147 1 164 1 178 1 179 1 190 1 191 1 192 1 213 1 237 1 244 1 245 1 255 1 268 1 275 2 295 1 301 1 305 1 306 1 312 1 317 1 320 1 322 1 331 1 341 1 360 1 361 1 374 1 378 2 404 1 406 1 483 1 459 1 449 1 421 1 466 1 437 1 447 2 431 1 6 1 12 1 31 1 32 1 46 1 48 1 72 1 74 1 95 1 102 1 103 1 121 1 122 1 128 1 140 1 149 1 152 1 156 1 163 1 167 1 196 1 200 1 220 1 222 1 223 1 234 1 241 1 251 1 252 1 273 1 280 1 281 1 290 1 292 1 298 1 315 1 318 1 319 1 326 1 336 1 356 1 377 1 380 1 402 1 409 1 417 1 435 1 450 1 453 1 457 1 468 1 470 1 472 1 487 1 499 1 
1 196 8 1 11 1 29 1 36 1 43 1 46 1 60 1 63 1 72 1 81 1 85 1 89 1 90 2 94 1 95 1 119 1 131 1 139 1 144 1 150 1 157 1 163 1 165 1 169 1 188 1 201 1 210 1 217 1 221 1 233 1 259 1 260 1 263 1 273 1 276 1 287 1 288 1 290 1 294 1 295 1 312 1 336 1 338 1 340 1 346 1 348 1 350 1 360 1 362 2 370 1 372 1 411 1 417 1 493 1 496 1 436 1 491 1 495 1 470 1 488 1 473 1 30 1 32 1 39 1 45 1 50 1 53 1 69 1 84 1 86 1 97 1 107 1 110 1 116 1 155 1 159 1 174 1 175 1 181 1 187 1 189 1 213 1 241 1 242 1 247 1 277 1 282 1 299 1 303 1 308 1 314 1 321 1 323 1 330 1 347 1 352 1 354 1 363 1 368 1 373 1 377 1 400 1 410 1 420 1 429 1 452 1 456 1 476 1 499 1 500 1 505 1 
1 201 17 1 19 1 23 2 41 1 42 2 46 1 56 2 64 1 88 1 92 1 95 1 100 1 107 2 110 2 124 1 134 1 139 2 154 1 171 1 238 2 249 1 266 1 269 1 271 2 283 1 314 1 318 1 319 1 321 1 325 1 356 1 358 1 374 1 376 1 383 1 385 2 395 1 400 1 408 1 411 1 479 1 499 1 470 1 448 1 419 1 466 1 447 1 431 1 482 1 6 1 7 1 11 1 12 1 21 1 22 1 26 1 33 1 60 1 63 1 65 1 81 1 84 1 99 1 108 1 116 1 128 1 145 1 147 1 157 1 166 1 172 1 176 1 178 1 181 1 206 1 207 1 227 1 235 1 239 1 240 1 246 1 250 1 255 1 291 1 292 1 309 1 311 1 322 1 353 1 361 1 365 1 370 1 373 1 375 1 380 1 388 1 405 1 445 1 455 1 468 1 489 1 500 1 506 1 507 1 512 1 
1 180 2 1 4 1 10 1 11 1 24 1 58 1 64 1 65 1 79 1 98 1 113 1 127 1 143 1 146 2 148 1 154 1 157 1 159 1 161 1 168 1 169 1 181 1 183 1 192 1 198 1 231 1 235 1 237 1 239 1 249 2 267 1 269 1 280 1 284 1 287 2 300 1 305 2 318 1 347 1 348 1 359 1 388 1 497 1 467 1 428 1 423 1 449 1 446 2 420 1 439 1 3 1 20 1 21 1 23 1 26 1 28 1 30 1 36 1 39 1 43 1 51 1 53 1 56 1 81 1 85 1 106 1 110 1 122 1 126 1 133 1 134 1 139 1 167 1 179 1 187 1 216 1 219 1 232 1 233 1 236 1 247 1 248 1 251 1 252 1 253 1 255 1 259 1 263 1 266 1 276 1 296 1 312 1 315 1 320 1 325 1 326 1 331 1 338 1 339 1 351 1 373 1 381 1 417 1 424 1 427 1 436 1 445 1 451 1 454 1 456 1 459 1 468 1 508 1 510 1 
1 226 24 1 31 1 32 1 44 1 49 1 50 1 52 1 59 2 82 1 83 2 86 1 104 1 109 1 110 1 113 1 116 1 119 1 124 1 126 1 127 1 136 1 140 1 146 2 155 2 158 1 163 1 166 1 173 1 184 1 185 2 189 1 194 1 197 1 203 1 221 1 238 1 254 1 273 1 276 1 282 1 315 2 330 1 334 1 342 1 343 1 373 1 402 1 412 1 414 1 468 1 481 1 422 1 454 1 8 1 15 1 29 1 33 1 40 1 55 1 58 1 63 1 87 1 102 1 105 1 115 1 117 1 125 1 131 1 142 1 143 1 157 1 176 1 180 1 187 1 190 1 191 1 234 1 237 1 243 1 248 1 263 1 267 1 274 1 284 1 287 1 294 1 296 1 299 1 308 1 309 1 317 1 321 1 323 1 336 1 347 1 355 1 359 1 366 1 368 1 385 1 405 1 411 1 413 1 416 1 430 1 432 1 452 1 461 1 473 1 474 1 514 1 
1 217 5 1 16 2 17 1 18 1 19 1 22 1 24 1 47 1 53 1 76 1 82 1 94 1 100 1 119 1 138 1 141 1 144 2 148 1 150 2 159 1 167 1 177 1 187 1 189 1 198 2 204 1 223 1 234 2 239 1 244 1 246 1 250 1 253 1 268 1 270 1 282 1 288 1 294 1 301 1 324 1 329 1 332 1 356 1 358 1 359 1 361 1 363 1 381 1 406 1 471 2 463 1 456 1 499 1 451 1 457 1 455 1 452 1 458 1 428 1 481 1 453 1 13 1 15 1 33 1 36 1 42 1 52 1 54 1 65 1 71 1 77 1 79 1 86 1 91 1 106 1 113 1 115 1 128 1 152 1 164 1 165 1 171 1 180 1 183 1 196 1 213 1 218 1 219 1 228 1 242 1 247 1 257 1 258 1 260 1 266 1 271 1 284 1 302 1 304 1 306 1 308 1 312 1 317 1 321 1 325 1 349 1 352 1 360 1 367 1 370 1 382 1 387 1 389 1 430 1 436 1 466 1 469 1 485 1 488 1 497 1 498 1 508 1 515 1 
1 199 10 2 15 2 20 1 26 1 28 1 34 1 39 2 42 2 46 1 63 1 66 1 74 1 86 1 91 1 96 1 104 1 113 1 115 1 131 1 133 1 137 1 145 1 152 1 163 1 166 2 172 1 179 1 184 1 200 1 236 1 243 1 244 1 270 1 277 1 285 1 294 1 299 2 301 2 334 2 336 1 338 1 344 2 364 1 368 1 370 1 376 2 386 1 415 1 471 1 475 1 466 1 495 1 421 1 455 1 458 1 424 1 454 2 2 1 4 1 6 1 52 1 72 1 107 1 120 1 135 1 138 1 140 1 141 1 143 1 151 1 183 1 198 1 215 1 216 1 218 1 219 1 227 1 230 1 247 1 258 1 260 1 261 1 262 1 265 1 273 1 282 1 287 1 289 1 309 1 319 1 322 1 325 1 328 1 329 1 331 1 345 1 355 1 371 1 379 1 381 1 387 1 392 1 422 1 423 1 429 1 432 1 467 1 480 1 490 1 491 1 497 1 
1 185 16 1 21 1 30 2 48 1 51 1 65 1 70 1 82 1 87 1 89 1 93 1 98 1 109 1 118 1 120 1 150 1 159 1 191 1 193 1 196 1 213 2 217 2 227 1 242 1 244 1 252 2 253 1 255 1 261 1 263 1 282 1 286 2 293 1 294 1 315 1 324 1 327 1 329 1 356 1 370 1 373 1 416 1 474 1 494 1 428 2 469 1 458 1 481 1 9 1 11 1 15 1 19 1 28 1 36 1 49 1 54 1 57 1 84 1 112 1 121 1 136 1 145 1 148 1 155 1 176 1 186 1 198 1 206 1 215 1 232 1 245 1 257 1 258 1 271 1 283 1 291 1 292 1 295 1 308 1 321 1 326 1 333 1 335 1 336 1 346 1 366 1 368 1 369 1 384 1 393 1 414 1 434 1 443 1 447 1 456 1 466 1 467 1 480 1 487 1 491 1 500 1 505 1 514 1 
1 204 2 1 12 1 33 1 43 1 48 1 55 1 76 1 85 1 92 1 98 1 108 1 112 1 114 1 120 1 123 1 126 2 127 1 133 2 175 1 176 1 191 1 192 1 193 1 199 1 211 1 224 2 238 1 242 1 257 1 268 1 277 1 286 1 291 2 300 1 334 1 354 1 358 1 364 1 371 1 376 1 377 1 386 1 390 1 392 2 408 1 410 1 413 1 419 1 461 1 478 1 497 1 422 1 463 1 468 1 477 1 427 1 19 1 21 1 54 1 58 1 80 1 82 1 93 1 100 1 105 1 130 1 166 1 168 1 169 1 172 1 174 1 186 1 207 1 209 1 213 1 215 1 220 1 223 1 227 1 235 1 246 1 262 1 273 1 280 1 287 1 296 1 311 1 313 1 326 1 333 1 349 1 382 1 426 1 451 1 469 1 491 1 496 1 
1 185 6 1 7 1 14 1 19 1 42 1 45 1 51 1 59 1 69 1 72 1 81 1 88 1 96 1 100 1 107 1 109 1 118 1 134 2 138 1 156 1 158 1 161 1 165 1 176 1 181 1 192 2 200 1 206 1 217 1 249 1 260 1 272 2 273 1 288 1 291 1 292 1 301 1 317 1 318 1 322 1 336 1 345 1 351 1 357 1 366 1 380 1 382 1 406 1 409 1 417 1 421 1 494 1 460 1 469 1 465 1 491 1 453 1 440 2 478 1 499 1 485 1 10 1 11 1 22 1 30 1 49 1 50 1 57 1 101 1 104 1 105 1 106 1 112 1 119 1 124 1 130 1 133 1 150 1 159 1 166 1 167 1 168 1 198 1 209 1 257 1 261 1 262 1 267 1 278 1 281 1 305 1 311 1 314 1 316 1 324 1 325 1 377 1 384 1 419 1 448 1 452 1 462 1 472 1 504 1 
1 211 4 1 9 1 12 1 14 1 32 2 36 1 39 1 52 1 81 1 86 1 90 1 97 1 98 1 101 2 114 1 119 1 124 1 126 1 134 1 137 1 141 1 143 1 168 1 179 1 180 1 184 1 209 1 215 1 229 1 237 1 245 2 250 1 257 1 268 2 282 1 283 1 291 2 293 1 299 1 314 1 318 1 320 1 334 1 336 1 339 1 352 1 364 1 386 1 389 2 391 1 392 1 394 1 416 1 431 1 428 1 496 2 498 1 484 1 499 1 7 1 10 1 20 1 21 1 38 1 50 1 54 1 55 1 61 1 68 1 70 1 71 1 75 1 88 1 99 1 100 1 103 1 105 1 109 1 112 1 122 1 139 1 145 1 152 1 165 1 174 1 231 1 242 1 251 1 260 1 273 1 275 1 278 1 289 1 302 1 304 1 307 1 319 1 324 1 329 1 333 1 338 1 341 1 345 1 380 1 382 1 419 1 436 1 461 1 473 1 495 1 497 1 
1 203 5 1 10 1 11 1 15 1 18 1 30 1 37 2 47 1 65 2 66 1 70 1 74 1 77 1 79 1 81 1 94 2 95 1 103 1 120 1 122 1 129 1 133 1 138 1 141 1 145 1 163 1 225 1 229 1 234 1 238 1 239 1 253 1 264 1 273 1 274 1 288 1 299 1 302 1 310 1 315 1 329 1 335 1 345 1 348 1 358 2 362 1 367 1 369 1 371 1 387 1 395 1 419 1 435 1 493 1 456 1 463 2 441 2 439 2 12 1 42 1 68 1 73 1 83 1 86 1 92 1 93 1 96 1 105 1 132 1 143 1 156 1 159 1 161 1 165 1 174 1 181 1 186 1 189 1 206 1 222 1 237 1 242 1 249 1 258 1 281 1 282 1 285 1 292 1 295 1 304 1 309 1 311 1 330 1 332 1 334 1 339 1 349 1 352 1 357 1 360 1 392 1 416 1 427 1 450 1 453 1 462 1 474 1 478 1 503 1 
1 210 12 2 19 1 22 1 36 1 41 1 44 1 47 1 52 1 54 1 62 1 71 1 76 1 79 1 82 1 86 1 103 1 136 1 138 1 141 1 147 1 168 1 174 2 182 1 194 1 199 1 207 1 210 1 230 1 245 1 246 1 250 1 254 1 256 1 270 1 276 1 281 1 290 1 294 1 310 2 319 2 320 1 333 1 339 1 353 2 359 1 369 1 377 1 390 1 393 1 394 1 460 1 495 1 428 1 496 1 481 1 464 1 477 1 16 1 18 1 21 1 42 1 43 1 45 1 46 1 49 1 57 1 63 1 66 1 87 1 102 1 112 1 123 1 135 1 139 1 164 1 166 1 188 1 208 1 219 1 221 1 252 1 259 1 286 1 306 1 309 1 330 1 335 1 350 1 354 1 367 1 375 1 427 1 429 1 430 1 433 1 455 1 456 1 482 1 486 1 488 1 490 1 491 1 493 1 494 1 498 1 506 1 510 1 
1 214 4 1 6 1 27 1 37 1 38 1 41 1 52 1 65 1 81 1 84 1 92 1 93 1 103 1 110 1 116 1 117 1 134 1 138 1 150 1 152 2 153 1 157 2 158 2 159 1 161 2 179 1 180 1 195 2 200 1 204 1 211 2 213 1 219 1 222 2 224 1 228 1 235 1 245 1 254 1 259 1 262 1 273 1 277 1 287 1 294 1 301 1 315 1 317 1 354 1 355 1 370 2 373 1 375 1 389 1 396 1 410 1 498 1 466 2 490 1 497 1 439 1 2 1 3 1 46 1 56 1 58 1 68 1 71 1 77 1 78 1 135 1 140 1 144 1 146 1 148 1 155 1 171 1 174 1 189 1 190 1 199 1 242 1 247 1 257 1 261 1 270 1 278 1 295 1 300 1 308 1 318 1 338 1 348 1 350 1 353 1 362 1 367 1 384 1 421 1 427 1 429 1 433 1 440 1 465 1 475 1 478 1 505 1 
1 198 1 1 8 2 13 1 36 1 41 1 42 1 45 1 55 2 56 1 67 1 71 2 78 1 96 2 105 1 110 1 120 1 122 1 145 1 148 1 151 2 160 1 175 1 193 1 196 1 215 1 220 1 227 1 239 1 242 1 248 1 265 1 294 1 295 1 300 1 314 2 328 1 331 1 332 1 344 2 346 1 348 2 383 1 421 1 456 1 484 1 486 2 464 1 460 1 431 1 498 1 446 1 4 1 16 1 25 1 34 1 37 1 59 1 81 1 94 1 115 1 127 1 130 1 157 1 165 1 185 1 222 1 224 1 228 1 235 1 257 1 258 1 271 1 275 1 280 1 283 1 288 1 304 1 324 1 341 1 345 1 350 1 354 1 362 1 365 1 375 1 376 1 386 1 393 1 416 1 424 1 425 1 426 1 428 1 453 1 481 1 490 1 496 1 
1 195 19 1 21 1 24 1 28 1 30 2 40 1 44 1 48 1 53 1 60 1 75 1 81 1 92 1 93 1 94 1 96 1 106 1 126 1 139 1 148 1 158 1 203 1 232 1 233 1 246 1 248 1 250 1 258 2 270 2 286 1 297 1 310 1 320 2 322 1 331 1 346 1 371 1 386 1 393 1 416 1 418 1 420 2 423 1 425 1 474 1 479 1 490 1 457 1 439 1 10 1 37 1 39 1 70 1 76 1 77 1 86 1 99 1 103 1 105 1 119 1 138 1 142 1 143 1 147 1 160 1 165 1 168 1 169 1 180 1 189 1 200 1 202 1 207 1 211 1 227 1 237 1 243 1 265 1 269 1 276 1 283 1 291 1 292 1 293 1 299 1 301 1 303 1 319 1 321 1 341 1 360 1 367 1 391 1 397 1 427 1 432 1 433 1 438 1 441 1 467 1 468 1 472 1 483 1 488 1 495 1 497 1 
1 195 6 1 7 1 12 2 16 1 22 2 32 1 39 1 42 1 51 1 57 1 75 1 86 1 93 1 111 2 113 1 130 1 138 1 140 1 144 1 152 1 157 2 164 1 176 1 177 1 181 1 186 1 188 2 189 2 192 1 200 1 206 1 211 1 213 1 226 1 254 1 297 2 310 1 331 1 338 1 351 1 354 2 361 1 368 1 372 1 380 1 384 2 386 1 388 1 394 1 494 2 440 1 488 1 500 1 435 1 477 1 454 2 2 1 26 1 44 1 60 1 69 1 73 1 76 1 78 1 81 1 84 1 95 1 99 1 100 1 107 1 110 1 118 1 121 1 122 1 139 1 146 1 150 1 158 1 165 1 175 1 212 1 215 1 233 1 235 1 238 1 245 1 256 1 257 1 269 1 271 1 272 1 277 1 287 1 299 1 309 1 319 1 321 1 322 1 325 1 355 1 393 1 401 1 414 1 419 1 425 1 426 1 439 1 462 1 465 1 468 1 473 1 486 1 
1 184 6 1 11 1 15 1 33 1 43 1 59 1 60 1 63 1 72 1 73 1 76 1 83 1 96 1 98 1 100 1 113 1 114 1 122 1 128 1 145 1 156 1 157 1 163 2 164 1 179 1 195 1 212 1 215 2 216 1 220 2 244 2 252 1 257 1 260 1 263 1 264 1 269 1 286 2 295 1 297 1 305 1 309 2 324 1 329 2 333 1 343 1 353 1 360 2 362 1 366 1 396 1 497 1 500 2 468 1 478 1 479 2 486 2 457 1 466 1 445 1 441 1 2 1 8 1 9 1 13 1 48 1 56 1 64 1 78 1 85 1 89 1 92 1 104 1 106 1 109 1 110 1 111 1 118 1 132 1 146 1 158 1 160 1 169 1 170 1 175 1 183 1 187 1 190 1 193 1 202 1 208 1 209 1 219 1 259 1 265 1 270 1 280 1 282 1 288 1 291 1 298 1 303 1 310 1 332 1 355 1 356 1 364 1 380 1 385 1 397 1 409 1 417 1 418 1 425 1 440 1 461 1 470 1 
1 204 19 1 22 1 42 1 44 1 49 1 50 1 51 1 56 2 66 1 70 2 83 1 86 1 97 1 101 1 107 1 135 1 145 1 146 2 172 1 179 1 184 1 185 1 186 1 192 1 199 1 201 1 209 1 220 1 222 1 229 1 230 1 235 2 249 1 264 1 276 1 281 1 284 1 298 1 314 1 340 1 343 1 359 2 361 1 371 1 373 1 380 1 413 1 415 1 423 1 427 1 473 1 463 1 483 1 434 2 474 1 495 1 494 1 472 1 1 1 4 1 7 1 14 1 37 1 53 1 61 1 64 1 81 1 84 1 85 1 89 1 116 1 162 1 175 1 181 1 193 1 197 1 198 1 204 1 208 1 213 1 216 1 221 1 237 1 238 1 243 1 252 1 266 1 268 1 271 1 291 1 294 1 304 1 325 1 335 1 347 1 358 1 360 1 365 1 368 1 386 1 387 1 392 1 393 1 448 1 457 1 461 1 468 1 469 1 486 1 488 1 489 1 492 1 502 1 514 1 
1 199 7 1 19 1 42 1 45 1 51 1 72 1 76 1 82 1 83 1 106 2 109 1 120 1 123 1 128 1 135 1 156 1 167 1 172 1 177 1 180 1 206 1 211 1 220 1 224 1 241 1 282 1 286 1 320 1 330 1 333 1 337 1 355 1 364 1 371 1 379 1 382 1 386 1 390 1 395 1 398 2 472 1 467 2 440 1 491 1 463 1 458 1 480 1 436 2 465 1 500 1 484 1 471 1 2 1 3 1 25 1 33 1 39 1 47 1 49 1 79 1 84 1 91 1 95 1 114 1 117 1 143 1 150 1 187 1 189 1 196 1 212 1 215 1 230 1 231 1 232 1 236 1 244 1 248 1 252 1 273 1 280 1 281 1 283 1 329 1 343 1 348 1 358 1 362 1 366 1 373 1 376 1 383 1 384 1 394 1 401 1 404 1 417 1 419 1 428 1 435 1 457 1 478 1 479 1 493 1 494 1 508 1 
1 219 8 1 22 1 40 1 47 1 50 2 54 1 60 1 81 1 93 1 94 1 95 1 97 1 104 1 106 1 107 1 111 1 112 1 126 1 129 1 142 1 146 1 150 1 166 1 168 1 172 2 179 1 184 1 202 1 207 1 212 1 216 2 218 1 241 1 256 2 274 1 280 1 295 1 308 1 309 1 316 1 321 1 325 1 326 1 327 1 333 1 335 1 336 1 357 1 363 1 364 1 369 1 376 1 380 1 386 1 398 1 400 1 401 2 485 1 490 1 436 1 475 1 438 2 444 1 460 1 17 1 18 1 19 1 28 1 29 1 34 1 42 1 43 1 58 1 61 1 69 1 86 1 90 1 91 1 117 1 127 1 131 1 132 1 133 1 177 1 196 1 220 1 228 1 247 1 252 1 260 1 261 1 263 1 267 1 284 1 300 1 302 1 304 1 305 1 312 1 322 1 323 1 350 1 366 1 367 1 379 1 383 1 390 1 425 1 426 1 428 1 459 1 461 1 468 1 493 1 508 1 
1 198 2 1 8 1 48 1 57 1 81 1 83 1 86 1 88 2 99 2 101 1 103 1 110 1 111 1 128 1 132 1 133 2 153 1 158 1 161 1 180 1 181 2 185 1 187 1 202 1 215 1 229 1 232 1 240 1 243 1 248 1 252 1 259 1 263 1 266 1 275 1 276 1 277 1 281 1 296 1 299 1 319 1 329 1 333 1 338 1 346 1 357 1 360 2 364 1 385 1 390 1 395 1 431 2 473 1 499 1 487 1 435 1 496 1 26 1 31 1 43 1 77 1 94 1 122 1 125 1 129 1 135 1 146 1 147 1 170 1 176 1 189 1 207 1 213 1 218 1 235 1 257 1 258 1 260 1 265 1 282 1 313 1 317 1 322 1 330 1 341 1 344 1 358 1 370 1 373 1 377 1 379 1 389 1 399 1 403 1 420 1 436 1 437 1 459 1 476 1 503 1 505 1 509 1 516 1 
1 192 13 1 18 1 26 1 29 1 37 1 40 1 42 1 60 1 70 1 88 1 90 2 95 1 112 1 129 1 131 1 148 1 162 1 173 1 204 2 218 1 226 1 251 1 267 1 274 1 288 1 289 2 315 2 316 1 343 1 344 2 345 1 349 1 356 1 358 1 363 1 380 1 383 1 394 1 424 1 429 1 434 1 494 1 437 1 490 1 493 1 470 1 460 1 443 1 497 1 12 1 24 1 32 1 33 1 34 1 58 1 80 1 84 1 94 1 105 1 111 1 116 1 122 1 126 1 128 1 141 1 142 1 146 1 147 1 150 1 153 1 155 1 156 1 166 1 178 1 182 1 189 1 198 1 201 1 238 1 246 1 266 1 275 1 277 1 301 1 308 1 310 1 313 1 318 1 319 1 330 1 347 1 351 1 359 1 362 1 377 1 384 1 402 1 413 1 432 1 458 1 461 1 462 1 464 1 475 1 478 1 480 1 501 1 
1 204 17 1 40 1 42 1 51 1 52 2 57 2 59 1 73 1 91 1 104 2 119 1 140 1 154 1 175 1 187 1 209 1 210 1 218 1 237 1 245 1 250 1 260 1 261 1 263 1 268 1 290 2 312 1 320 1 321 1 328 1 340 1 345 2 349 1 357 1 365 1 374 1 382 1 383 1 384 1 385 1 388 1 402 1 404 1 405 1 410 1 414 1 432 2 433 1 470 1 467 1 486 1 468 1 492 2 483 2 447 1 8 1 16 1 25 1 46 1 54 1 55 1 65 1 67 1 85 1 92 1 100 1 106 1 138 1 142 1 151 1 174 1 182 1 201 1 214 1 220 1 223 1 240 1 241 1 246 1 249 1 258 1 274 1 277 1 278 1 305 1 308 1 309 1 314 1 341 1 344 1 355 1 356 1 366 1 373 1 375 1 386 1 416 1 418 1 423 1 434 1 441 1 444 1 449 1 469 1 475 1 481 1 498 1 499 1 517 1 
1 204 3 1 29 1 41 1 42 1 56 1 63 1 72 1 84 1 98 1 107 1 113 1 118 1 133 1 156 1 163 2 175 1 184 1 203 1 209 2 210 1 218 1 237 1 240 1 250 1 253 1 258 1 261 1 268 1 269 1 277 1 287 1 293 1 295 1 335 1 349 2 359 1 389 2 394 1 413 1 435 1 497 2 440 2 469 2 485 1 483 1 448 1 5 1 6 1 22 1 34 1 50 1 52 1 53 1 67 1 73 1 76 1 79 1 80 1 102 1 109 1 121 1 123 1 130 1 190 1 204 1 216 1 223 1 229 1 242 1 251 1 270 1 271 1 275 1 283 1 288 1 297 1 298 1 300 1 303 1 304 1 319 1 329 1 343 1 351 1 357 1 365 1 384 1 403 1 434 1 464 1 468 1 471 1 484 1 506 1 516 1 
1 185 11 1 38 1 72 1 82 1 86 1 92 1 100 1 103 1 106 1 112 1 117 1 142 1 144 1 162 1 165 1 174 1 176 1 201 1 213 1 219 2 238 1 240 1 243 1 252 1 261 1 280 1 281 1 283 1 285 1 293 1 299 1 303 1 310 1 323 1 337 1 360 1 368 1 377 2 383 1 386 1 389 1 433 2 463 1 487 1 491 1 494 1 1 1 5 1 8 1 9 1 19 1 22 1 27 1 49 1 50 1 51 1 75 1 88 1 94 1 95 1 110 1 115 1 123 1 130 1 149 1 150 1 169 1 171 1 175 1 186 1 203 1 205 1 208 1 227 1 229 1 234 1 257 1 258 1 263 1 267 1 270 1 290 1 309 1 333 1 363 1 366 1 392 1 397 1 399 1 402 1 411 1 428 1 450 1 454 1 465 1 478 1 488 1 490 1 510 1 
1 200 13 1 31 1 43 1 47 1 51 1 59 1 63 1 64 1 74 1 82 1 83 1 84 2 89 1 97 1 103 1 116 1 117 1 128 2 134 1 144 1 147 1 150 1 154 1 173 2 208 2 224 1 234 1 235 1 242 1 258 1 260 1 287 1 295 2 317 1 340 1 349 1 360 1 361 1 364 1 367 1 369 1 378 1 386 1 391 2 398 1 406 1 416 1 424 2 426 1 428 1 468 1 442 1 486 1 470 1 475 1 497 2 10 1 14 1 22 1 34 1 37 1 45 1 52 1 53 1 61 1 62 1 72 1 87 1 88 1 90 1 96 1 101 1 112 1 122 1 130 1 170 1 175 1 207 1 213 1 221 1 229 1 231 1 239 1 246 1 252 1 253 1 257 1 275 1 276 1 288 1 292 1 294 1 301 1 303 1 306 1 313 1 330 1 336 1 341 1 362 1 363 1 373 1 376 1 392 1 410 1 429 1 466 1 467 1 495 1 
1 200 13 1 21 1 29 1 35 1 37 1 39 2 52 1 59 1 60 1 63 2 67 1 72 1 86 1 90 1 99 1 104 1 116 1 131 1 151 1 154 1 155 1 171 1 187 1 191 1 193 1 195 1 202 1 213 1 239 1 242 1 253 1 255 1 263 1 265 1 268 1 281 1 313 1 319 1 332 1 335 1 340 1 349 1 354 1 355 1 356 1 359 1 365 1 386 1 390 1 394 2 403 1 406 1 422 2 429 1 432 1 437 2 472 1 473 1 478 1 500 1 453 1 471 1 470 2 481 1 1 1 8 1 23 1 27 1 41 1 53 1 56 1 58 1 62 1 68 1 84 1 117 1 139 1 149 1 172 1 198 1 208 1 219 1 224 1 229 1 241 1 246 1 250 1 252 1 270 1 275 1 321 1 341 1 346 1 358 1 377 1 397 1 400 1 409 1 426 1 430 1 446 1 476 1 499 1 
1 207 5 1 14 1 20 1 32 1 35 2 37 1 39 1 43 2 52 1 59 1 61 1 71 1 82 1 83 2 88 2 98 1 111 1 119 1 123 1 146 1 158 1 161 1 175 1 184 2 206 1 214 1 227 1 229 1 231 1 264 1 267 2 268 1 278 1 285 1 301 1 311 1 314 1 345 1 349 1 351 1 362 1 370 1 375 1 377 1 380 1 392 2 400 1 424 2 430 1 478 1 446 1 459 1 492 1 1 1 8 1 10 1 26 1 27 1 44 1 58 1 66 1 78 1 101 1 105 1 115 1 126 1 132 1 138 1 153 1 159 1 160 1 172 1 187 1 257 1 266 1 274 1 282 1 290 1 307 1 342 1 353 1 356 1 361 1 371 1 389 1 397 1 428 1 436 1 442 1 443 1 472 1 476 1 481 1 484 1 486 1 487 1 496 1 507 1 
1 197 6 1 7 2 12 1 20 1 24 1 32 1 43 1 44 2 55 1 56 1 72 1 80 1 87 1 120 1 136 1 140 1 151 1 160 2 162 1 163 1 166 1 178 1 185 1 194 1 212 2 218 1 226 2 229 1 231 1 241 1 253 1 275 1 278 2 287 1 295 1 296 1 297 2 301 1 304 1 305 1 316 2 324 1 329 1 340 1 343 2 359 1 365 1 366 2 369 1 376 1 380 1 384 1 390 1 393 1 403 2 439 1 496 1 474 1 472 1 459 1 14 1 25 1 33 1 46 1 49 1 61 1 66 1 71 1 83 1 89 1 90 1 112 1 117 1 131 1 154 1 161 1 167 1 177 1 189 1 195 1 198 1 210 1 228 1 232 1 233 1 246 1 256 1 261 1 266 1 269 1 281 1 283 1 309 1 314 1 319 1 327 1 336 1 339 1 355 1 361 1 372 1 382 1 383 1 401 1 408 1 441 1 451 1 455 1 468 1 473 1 487 1 489 1 516 1 
1 206 4 1 5 1 6 1 8 2 11 1 14 1 24 1 36 1 37 1 38 1 56 1 64 1 68 1 70 1 78 1 105 1 115 1 126 1 129 1 132 1 145 1 157 1 177 1 178 1 200 1 207 1 211 1 220 2 227 1 233 2 234 1 242 1 243 1 260 1 278 1 304 1 317 1 318 1 321 1 327 1 340 1 357 1 359 1 372 1 377 1 380 1 390 1 411 1 435 1 470 1 495 1 448 1 478 1 461 1 2 1 3 1 13 1 23 1 35 1 54 1 62 1 71 1 82 1 87 1 101 1 108 1 113 1 117 1 135 1 141 1 148 1 164 1 169 1 170 1 191 1 193 1 205 1 206 1 217 1 226 1 229 1 249 1 268 1 270 1 279 1 286 1 292 1 293 1 302 1 314 1 353 1 363 1 371 1 392 1 400 1 402 1 410 1 420 1 441 1 460 1 475 1 477 1 479 1 483 1 491 1 500 1 506 1 512 1 
1 220 10 1 14 1 42 1 46 1 49 1 56 1 58 1 75 1 83 1 85 1 86 1 88 1 90 1 95 1 98 1 100 1 105 1 108 1 112 2 118 1 124 2 132 1 149 1 153 1 161 1 163 1 165 1 170 1 173 1 177 1 208 1 223 1 235 1 283 1 301 1 303 2 306 1 312 1 321 1 341 1 345 1 348 1 360 1 369 1 378 1 379 1 381 1 385 1 391 1 393 1 395 1 403 1 407 2 409 1 433 1 476 1 454 1 500 1 490 1 477 1 462 1 496 1 460 1 6 1 13 1 16 1 21 1 31 1 33 1 34 1 61 1 62 1 69 1 70 1 72 1 80 1 92 1 93 1 99 1 109 1 116 1 130 1 144 1 167 1 181 1 198 1 202 1 228 1 230 1 233 1 236 1 237 1 248 1 251 1 273 1 275 1 281 1 298 1 310 1 311 1 318 1 329 1 337 1 343 1 355 1 365 1 375 1 388 1 394 1 402 1 436 1 445 1 456 1 458 1 459 1 461 1 480 1 482 1 494 1 507 1 509 1 510 1 516 1 
1 212 4 1 19 1 22 1 23 1 26 1 40 2 41 1 47 1 48 1 50 1 52 1 57 1 63 1 67 1 76 1 77 1 87 1 89 1 121 1 123 2 130 1 134 1 146 1 165 1 179 1 186 1 189 1 199 1 201 2 211 2 214 1 217 2 237 2 242 1 246 1 252 1 254 1 267 1 273 1 284 2 298 1 312 1 324 1 330 1 341 1 349 1 350 1 361 1 380 1 382 1 383 1 385 1 387 1 388 1 402 1 430 1 492 1 486 1 495 1 478 1 484 1 498 1 446 1 465 1 17 1 20 1 25 1 29 1 46 1 53 1 54 1 60 1 69 1 78 1 86 1 94 1 96 1 97 1 104 1 114 1 116 1 117 1 122 1 127 1 132 1 141 1 145 1 160 1 163 1 183 1 184 1 207 1 208 1 231 1 240 1 244 1 247 1 248 1 264 1 271 1 272 1 296 1 301 1 305 1 317 1 319 1 323 1 351 1 353 1 355 1 367 1 381 1 386 1 415 1 416 1 444 1 476 1 502 1 510 1 
1 221 31 1 38 1 40 1 47 1 54 2 57 1 67 2 69 1 96 1 98 1 101 1 102 1 103 1 112 1 131 1 151 1 157 1 164 2 166 1 181 1 186 1 198 1 204 1 221 1 226 1 227 1 242 1 250 2 252 2 257 1 264 1 277 1 293 1 298 1 309 2 310 1 315 1 336 1 344 1 345 1 357 1 366 1 371 1 373 1 378 1 382 1 384 1 391 1 399 1 407 1 408 1 409 1 416 2 427 1 441 1 445 1 450 1 487 1 500 1 489 1 477 1 455 2 497 1 485 1 488 1 14 1 21 1 25 1 51 1 52 1 55 1 61 1 71 1 77 1 100 1 104 1 110 1 116 1 120 1 123 1 132 1 135 1 137 1 140 1 153 1 172 1 193 1 208 1 213 1 225 1 234 1 240 1 246 1 253 1 261 1 266 1 268 1 285 1 288 1 290 1 311 1 321 1 324 1 332 1 334 1 335 1 337 1 359 1 385 1 389 1 403 1 404 1 440 1 454 1 464 1 483 1 490 1 493 1 508 1 
1 209 3 1 16 1 33 1 38 2 40 1 56 1 58 1 70 1 75 1 80 1 81 1 83 1 91 1 95 1 99 1 104 1 108 1 118 2 121 1 129 1 134 1 148 1 149 1 151 1 153 1 154 2 155 1 156 1 159 1 175 2 186 1 190 1 196 1 234 1 243 1 249 1 250 2 255 1 267 2 272 1 274 1 284 2 292 1 304 1 320 1 336 1 343 1 348 1 351 1 357 1 359 1 361 1 363 1 364 1 376 1 413 2 415 1 436 1 499 1 465 1 448 1 14 1 15 1 21 1 31 1 34 1 37 1 42 1 52 1 65 1 87 1 90 1 92 1 93 1 96 1 98 1 109 1 130 1 136 1 140 1 164 1 168 1 179 1 197 1 203 1 209 1 221 1 224 1 225 1 227 1 236 1 239 1 246 1 248 1 297 1 315 1 321 1 326 1 331 1 334 1 350 1 373 1 375 1 386 1 388 1 402 1 420 1 452 1 453 1 473 1 477 1 490 1 495 1 510 1 
1 192 4 1 5 1 16 2 22 1 35 1 66 1 81 1 84 1 88 1 110 1 122 1 126 1 134 1 136 1 138 1 159 1 164 1 180 2 184 1 189 1 194 1 197 1 215 1 217 1 221 1 227 1 229 1 241 2 243 1 245 1 259 1 261 1 266 2 275 1 278 1 282 1 286 1 289 2 293 1 307 1 329 1 331 2 336 1 340 1 360 1 386 1 391 2 395 2 398 1 401 2 407 1 415 1 437 1 443 1 447 1 481 1 476 1 10 1 15 1 23 1 34 1 51 1 52 1 54 1 107 1 119 1 139 1 145 1 149 1 155 1 177 1 201 1 206 1 211 1 213 1 232 1 236 1 249 1 265 1 270 1 272 1 288 1 301 1 306 1 317 1 318 1 319 1 338 1 339 1 344 1 354 1 364 1 397 1 408 1 422 1 431 1 458 1 483 1 488 1 514 1 
1 212 10 1 24 1 27 1 41 1 49 1 57 1 82 1 89 1 97 1 99 1 103 1 118 1 124 1 129 1 131 2 141 1 144 1 148 1 152 1 155 1 156 1 160 1 168 1 170 1 173 1 174 1 176 1 180 1 205 1 215 1 230 1 234 1 241 1 256 1 261 1 266 2 270 2 277 1 283 1 296 1 307 1 316 1 321 1 330 1 332 1 335 1 341 1 354 1 359 1 360 1 367 1 379 1 381 1 397 1 398 1 402 1 412 1 413 1 416 1 484 1 493 1 488 1 468 1 499 2 478 1 4 1 19 1 20 1 36 1 42 1 60 1 65 1 85 1 106 1 113 1 114 1 116 1 128 1 132 1 133 1 138 1 140 1 143 1 146 1 151 1 192 1 195 1 218 1 225 1 233 1 244 1 246 1 248 1 255 1 268 1 284 1 287 1 303 1 314 1 328 1 329 1 333 1 339 1 348 1 353 1 356 1 362 1 368 1 408 1 436 1 455 1 496 1 497 1 501 1 508 1 510 1 
1 209 17 2 20 1 29 1 30 1 43 1 45 1 52 1 60 2 67 2 68 1 72 1 80 1 101 2 116 1 128 1 141 1 147 1 160 1 161 1 163 1 168 1 181 1 182 1 191 2 200 1 206 2 227 2 229 1 234 1 238 1 242 1 243 2 247 2 252 1 254 2 268 1 281 1 288 1 292 1 297 1 315 2 320 1 338 1 351 1 370 1 384 1 389 1 394 1 402 2 410 1 446 1 496 1 458 1 453 1 478 1 464 1 5 1 8 1 23 1 36 1 37 1 61 1 74 1 75 1 84 1 94 1 115 1 119 1 132 1 136 1 144 1 154 1 156 1 162 1 166 1 173 1 187 1 203 1 222 1 223 1 240 1 256 1 257 1 294 1 314 1 321 1 331 1 335 1 340 1 341 1 348 1 353 1 360 1 361 1 380 1 392 1 403 1 413 1 424 1 438 1 461 1 485 1 486 1 489 1 
1 194 39 1 57 1 66 1 74 1 77 1 90 1 98 1 111 1 125 1 129 1 132 1 134 1 142 2 146 1 182 1 193 1 217 1 222 1 224 2 239 1 240 1 244 1 245 1 246 1 251 1 256 1 260 1 270 1 280 1 295 1 302 1 326 1 329 1 341 1 342 1 347 1 363 1 365 1 369 1 370 1 381 1 382 1 405 1 411 1 418 1 478 1 495 1 491 1 1 1 2 1 4 1 24 1 28 1 46 1 64 1 69 1 70 1 71 1 81 1 95 1 106 1 123 1 140 1 141 1 148 1 149 1 157 1 158 1 159 1 164 1 167 1 173 1 243 1 268 1 285 1 292 1 313 1 315 1 319 1 320 1 336 1 353 1 354 1 364 1 375 1 379 1 388 1 393 1 397 1 398 1 416 1 421 1 442 1 453 1 456 1 458 1 463 1 466 1 467 1 480 1 481 1 488 1 493 1 496 1 501 1 
1 208 2 1 17 1 19 1 26 1 29 1 31 1 35 2 38 1 42 1 67 1 77 1 80 1 95 1 104 2 108 1 124 1 126 1 132 1 139 1 146 1 158 1 168 1 172 1 177 1 183 1 184 1 190 1 197 1 202 1 205 1 228 1 243 1 247 1 259 1 266 1 276 1 277 1 282 1 290 1 294 1 295 1 313 1 329 1 331 1 334 1 337 1 350 1 359 1 369 1 383 1 385 1 396 1 405 1 418 1 489 1 487 1 496 1 495 1 479 1 4 1 45 1 47 1 48 1 55 1 57 1 63 1 69 1 82 1 92 1 130 1 135 1 137 1 141 1 145 1 152 1 179 1 180 1 187 1 199 1 209 1 212 1 216 1 221 1 225 1 226 1 240 1 248 1 265 1 286 1 292 1 293 1 315 1 319 1 323 1 340 1 363 1 375 1 376 1 388 1 398 1 411 1 414 1 417 1 422 1 447 1 458 1 459 1 476 1 482 1 
1 192 13 1 14 2 34 1 38 1 59 1 62 2 67 1 89 1 91 1 98 1 101 2 103 1 135 1 137 1 139 1 143 1 149 1 157 1 174 2 178 1 186 1 205 1 209 1 213 1 216 1 217 1 243 1 254 1 266 2 269 1 270 1 271 1 274 1 275 1 283 1 295 1 296 1 303 1 332 1 334 1 336 1 338 1 341 1 351 2 354 1 365 1 376 1 391 1 402 1 418 1 422 1 440 1 450 1 496 1 461 1 7 1 11 1 15 1 17 1 30 1 32 1 37 1 39 1 57 1 72 1 74 1 77 1 88 1 127 1 145 1 159 1 160 1 162 1 176 1 179 1 188 1 203 1 204 1 222 1 231 1 247 1 260 1 261 1 267 1 279 1 288 1 290 1 291 1 299 1 317 1 318 1 322 1 349 1 357 1 358 1 360 1 381 1 389 1 395 1 404 1 413 1 424 1 427 1 447 1 451 1 463 1 469 1 472 1 490 1 498 1 506 1 
1 194 5 1 10 1 21 1 23 1 32 1 36 1 49 1 52 1 65 1 80 2 89 1 101 2 108 2 113 2 117 1 120 1 142 1 157 1 158 1 164 2 169 1 177 1 178 1 183 1 185 1 189 1 203 1 212 1 216 1 227 1 235 1 240 1 248 1 257 1 266 1 281 1 286 2 293 1 298 1 301 1 303 1 308 1 312 1 321 1 336 1 338 1 342 1 343 1 357 1 364 1 392 1 408 2 410 1 417 1 419 2 429 2 444 1 496 1 481 1 474 1 488 1 8 1 12 1 25 1 34 1 37 1 39 1 56 1 69 1 71 1 91 1 92 1 104 1 114 1 131 1 140 1 159 1 181 1 191 1 192 1 194 1 199 1 208 1 219 1 226 1 232 1 238 1 239 1 243 1 260 1 261 1 297 1 352 1 355 1 376 1 383 1 388 1 396 1 402 1 404 1 407 1 416 1 438 1 446 1 463 1 492 1 497 1 
1 204 3 1 5 1 15 1 19 1 27 2 48 1 57 1 65 1 67 1 72 2 77 1 91 1 100 1 102 2 114 1 116 1 131 1 138 1 155 1 174 1 186 1 192 1 198 1 203 1 219 1 221 1 222 1 227 1 230 2 242 1 243 1 244 1 245 1 250 1 252 2 258 1 259 1 272 1 276 1 285 1 287 1 292 1 303 2 305 1 307 1 331 1 335 1 346 2 363 1 375 1 377 1 409 1 418 1 419 1 446 2 496 1 466 1 491 1 500 2 494 1 17 1 23 1 28 1 30 1 38 1 85 1 86 1 103 1 107 1 141 1 143 1 147 1 157 1 167 1 171 1 184 1 195 1 200 1 201 1 218 1 220 1 223 1 238 1 247 1 257 1 264 1 267 1 273 1 279 1 295 1 319 1 325 1 330 1 352 1 362 1 365 1 368 1 370 1 382 1 385 1 393 1 415 1 425 1 442 1 449 1 456 1 459 1 462 1 484 1 489 1 515 1 516 1 
1 189 4 1 6 1 9 2 17 1 34 1 44 1 63 1 95 2 96 1 106 1 111 1 121 1 142 1 145 1 146 1 152 1 183 1 188 1 195 1 260 1 261 1 264 1 276 1 281 1 288 2 307 1 317 1 346 2 347 1 355 1 362 1 376 1 385 1 393 1 401 2 410 1 418 1 424 1 427 1 498 1 481 1 499 1 486 1 7 1 14 1 33 1 36 1 55 1 57 1 77 1 83 1 84 1 90 1 100 1 102 1 109 1 117 1 129 1 139 1 150 1 151 1 163 1 164 1 185 1 193 1 202 1 223 1 226 1 229 1 233 1 240 1 241 1 242 1 243 1 249 1 251 1 259 1 262 1 270 1 279 1 283 1 300 1 302 1 303 1 311 1 332 1 335 1 342 1 343 1 364 1 369 1 383 1 389 1 406 1 414 1 416 1 420 1 425 1 444 1 451 1 455 1 462 1 487 1 495 1 501 1 
1 210 32 1 37 1 42 2 53 1 62 1 77 2 92 2 94 1 106 1 107 2 112 1 115 1 116 1 125 1 126 2 127 1 128 1 129 1 134 1 138 1 139 1 147 1 155 2 157 1 171 1 186 2 194 1 198 1 202 1 219 2 225 1 241 1 261 1 269 1 274 2 281 1 303 1 313 1 320 1 325 1 335 1 340 1 359 1 363 1 364 1 366 1 370 1 388 1 398 1 418 1 428 1 430 1 490 1 499 1 459 1 462 1 485 1 487 2 458 2 471 1 467 1 12 1 17 1 25 1 41 1 45 1 51 1 57 1 63 1 81 1 85 1 86 1 95 1 96 1 109 1 111 1 113 1 142 1 145 1 159 1 166 1 173 1 193 1 206 1 214 1 248 1 275 1 283 1 285 1 289 1 294 1 295 1 304 1 309 1 314 1 321 1 324 1 326 1 338 1 341 1 354 1 375 1 393 1 395 1 413 1 431 1 432 1 500 1 501 1 
1 204 10 1 11 1 17 1 24 1 29 1 37 1 62 1 79 1 83 1 89 1 99 1 100 1 103 1 104 1 112 1 119 1 123 2 125 1 130 1 152 1 157 1 165 2 185 1 189 1 191 2 199 1 207 1 208 1 211 2 226 1 233 1 241 1 247 1 256 1 272 1 274 1 280 1 283 1 287 1 288 2 297 1 311 1 330 1 334 2 336 2 345 1 353 1 355 1 362 1 378 2 381 1 387 1 406 1 410 1 412 1 418 1 419 1 420 1 432 1 450 1 457 2 495 1 462 1 489 1 3 1 13 1 15 1 28 1 47 1 65 1 74 1 78 1 90 1 121 1 124 1 147 1 154 1 155 1 161 1 168 1 194 1 204 1 218 1 229 1 239 1 243 1 264 1 265 1 296 1 303 1 314 1 321 1 344 1 347 1 351 1 359 1 367 1 370 1 392 1 393 1 401 1 435 1 444 1 448 1 451 1 452 1 463 1 481 1 494 1 498 1 505 1 
1 187 26 1 27 1 38 2 44 1 51 1 60 1 76 1 89 1 94 1 131 1 133 1 135 1 136 1 138 1 144 1 148 1 150 2 153 1 155 1 168 1 176 1 184 2 185 1 204 1 208 1 211 2 222 1 239 1 242 1 243 1 252 2 261 2 268 1 270 1 278 1 279 1 285 1 290 1 318 1 321 1 339 1 351 1 353 1 358 1 361 1 381 1 410 1 413 1 441 1 442 1 457 1 490 1 500 1 462 1 474 1 488 1 12 1 14 1 18 1 28 1 30 1 33 1 40 1 41 1 43 1 55 1 72 1 85 1 120 1 147 1 177 1 193 1 196 1 231 1 235 1 244 1 291 1 294 1 302 1 309 1 317 1 336 1 343 1 344 1 359 1 373 1 376 1 388 1 400 1 416 1 433 1 434 1 444 1 452 1 455 1 469 1 472 1 486 1 489 1 
1 209 15 1 17 1 23 1 25 1 37 1 47 1 78 1 84 2 90 1 92 1 99 1 101 1 113 1 128 1 136 1 165 1 168 1 170 1 186 1 197 1 211 1 218 1 222 1 225 1 229 1 230 2 232 1 248 1 250 1 251 1 253 1 255 1 257 1 258 1 260 1 267 1 306 1 309 1 330 1 331 1 333 1 345 2 357 1 386 1 398 1 402 2 403 1 422 1 425 1 427 1 433 1 435 1 444 1 493 1 462 1 469 1 472 1 468 1 10 1 21 1 36 1 40 1 42 1 46 1 51 1 66 1 67 1 76 1 89 1 105 1 107 1 108 1 109 1 114 1 127 1 146 1 151 1 159 1 174 1 175 1 183 1 189 1 195 1 226 1 243 1 247 1 254 1 259 1 281 1 286 1 295 1 327 1 334 1 341 1 353 1 363 1 371 1 380 1 394 1 412 1 443 1 483 1 491 1 500 1 510 1 515 1 
1 199 7 1 13 1 42 1 48 1 49 2 70 1 77 1 85 1 94 1 99 1 114 2 119 1 128 1 130 1 135 1 137 1 139 1 147 1 168 1 171 2 173 1 188 1 190 1 195 1 203 1 208 2 232 1 233 1 237 1 239 1 245 1 252 1 256 1 261 1 265 1 272 1 285 1 288 1 306 1 313 1 317 1 321 1 330 1 338 1 364 1 368 1 372 1 374 1 404 1 410 1 412 1 421 1 443 1 453 1 489 1 4 1 14 1 18 1 24 1 29 1 31 1 32 1 38 1 52 1 54 1 61 1 65 1 67 1 92 1 93 1 112 1 154 1 159 1 180 1 193 1 196 1 206 1 211 1 234 1 246 1 259 1 264 1 273 1 292 1 304 1 320 1 323 1 348 1 349 1 367 1 373 1 376 1 385 1 387 1 393 1 399 1 401 1 405 1 417 1 423 1 430 1 431 1 433 1 435 1 444 1 450 1 484 1 486 1 499 1 
1 202 16 1 19 1 37 1 40 2 43 1 58 1 66 1 68 1 75 1 83 1 85 1 90 1 91 1 94 1 95 1 99 1 100 1 110 1 117 1 132 1 148 1 162 1 176 1 187 2 194 1 195 1 216 1 231 1 244 1 252 1 274 1 277 1 285 1 291 1 300 1 310 2 315 2 326 1 328 1 338 1 354 1 356 1 359 1 364 1 365 1 371 1 391 1 393 1 395 2 403 1 407 1 444 1 457 1 458 1 459 1 460 1 490 1 483 1 473 1 8 1 29 1 38 1 51 1 56 1 63 1 84 1 93 1 105 1 108 1 115 1 122 1 125 1 126 1 134 1 142 1 145 1 167 1 190 1 191 1 196 1 198 1 213 1 217 1 221 1 245 1 248 1 254 1 263 1 267 1 268 1 281 1 289 1 298 1 308 1 346 1 351 1 376 1 398 1 409 1 422 1 424 1 429 1 435 1 455 1 456 1 498 1 
1 203 1 1 3 1 8 1 11 1 13 1 28 1 32 1 46 1 56 1 59 1 64 1 75 1 102 1 115 1 119 1 138 1 142 1 144 2 147 1 167 1 168 1 172 1 183 1 184 1 195 1 204 1 214 1 232 1 235 1 241 1 249 1 269 1 297 1 301 1 304 2 305 1 306 1 311 1 315 1 322 1 337 2 342 1 355 1 361 1 372 2 376 1 402 1 410 1 418 1 421 1 424 2 431 1 432 1 438 1 495 1 496 1 476 1 469 1 14 1 17 1 22 1 24 1 31 1 42 1 44 1 53 1 65 1 69 1 71 1 120 1 124 1 134 1 174 1 182 1 194 1 202 1 208 1 216 1 240 1 244 1 256 1 258 1 268 1 276 1 286 1 298 1 310 1 316 1 321 1 333 1 334 1 350 1 363 1 375 1 377 1 381 1 382 1 390 1 391 1 398 1 400 1 408 1 451 1 453 1 454 1 458 1 508 1 
1 200 25 1 27 1 33 1 34 2 37 1 48 1 56 1 67 2 87 1 89 1 91 1 102 1 109 1 117 1 126 1 135 2 142 1 146 1 153 1 154 1 162 1 169 1 171 1 175 1 183 1 185 1 192 1 205 1 213 1 227 1 229 1 232 1 236 2 243 1 246 1 254 1 255 1 256 1 263 1 270 1 279 1 281 1 293 1 302 1 308 2 321 1 325 1 342 1 346 1 354 1 380 1 385 1 386 1 387 1 391 1 393 1 395 1 401 1 425 1 427 1 450 1 489 1 466 1 497 1 468 1 486 1 11 1 18 1 19 1 31 1 80 1 81 1 84 1 94 1 103 1 105 1 120 1 127 1 139 1 144 1 145 1 155 1 156 1 163 1 172 1 178 1 179 1 182 1 196 1 199 1 201 1 203 1 209 1 215 1 220 1 224 1 250 1 262 1 265 1 266 1 269 1 278 1 287 1 300 1 304 1 309 1 313 1 326 1 328 1 333 1 334 1 349 1 352 1 353 1 368 1 381 1 382 1 396 1 408 1 412 1 435 1 437 1 446 1 495 1 501 1 514 1 
1 206 9 1 39 2 41 1 43 1 51 1 57 1 58 1 97 1 102 1 114 1 118 1 124 2 125 1 126 1 130 1 133 1 134 1 145 1 168 1 177 1 181 1 185 1 208 1 209 1 212 1 243 1 246 1 269 1 271 1 278 1 282 1 284 1 306 1 308 1 313 1 329 1 336 2 346 1 354 1 377 1 383 1 391 1 397 1 400 1 409 1 422 1 432 1 445 1 447 1 487 1 470 1 7 1 13 1 15 1 16 1 56 1 62 1 63 1 88 1 94 1 95 1 96 1 103 1 109 1 122 1 129 1 135 1 141 1 164 1 171 1 184 1 190 1 199 1 203 1 218 1 222 1 226 1 237 1 240 1 251 1 260 1 268 1 270 1 272 1 281 1 307 1 310 1 338 1 340 1 342 1 357 1 369 1 372 1 374 1 379 1 402 1 410 1 411 1 426 1 429 1 438 1 468 1 473 1 477 1 492 1 500 1 
1 207 6 1 9 1 24 1 29 1 51 1 55 1 60 1 62 1 64 1 67 1 77 1 82 1 83 1 85 1 98 1 112 1 123 1 126 1 132 1 135 1 153 1 157 1 165 1 172 1 175 1 185 1 186 1 196 1 202 1 205 1 217 1 232 1 244 1 261 1 273 1 276 1 281 1 291 1 320 1 324 1 330 1 347 1 352 1 362 1 382 1 385 1 411 1 413 1 415 1 419 1 426 2 430 1 455 1 464 1 492 2 500 1 491 1 474 1 13 1 19 1 35 1 38 1 39 1 43 1 47 1 49 1 50 1 61 1 63 1 70 1 94 1 119 1 136 1 145 1 149 1 158 1 159 1 162 1 171 1 177 1 222 1 224 1 225 1 226 1 230 1 280 1 306 1 318 1 322 1 338 1 340 1 342 1 343 1 345 1 348 1 360 1 386 1 388 1 400 1 402 1 418 1 420 1 439 1 451 1 480 1 485 1 495 1 499 1 506 1 508 1 517 1 
1 210 2 1 24 1 30 1 43 1 47 1 50 2 53 1 55 2 58 1 59 1 75 1 76 1 86 1 92 1 93 1 101 1 103 1 104 1 106 1 110 1 113 2 118 1 126 1 131 1 139 1 143 1 147 1 159 1 172 1 173 1 188 1 193 1 198 1 200 1 226 2 229 1 230 1 234 1 241 1 277 1 280 1 281 1 283 1 290 1 292 1 297 1 314 1 316 1 321 1 324 1 335 1 351 2 354 1 355 1 359 1 366 1 378 2 380 1 389 1 400 2 411 1 416 1 432 2 436 1 457 1 491 1 471 1 6 1 14 1 19 1 33 1 40 1 45 1 77 1 89 1 100 1 109 1 117 1 120 1 124 1 128 1 150 1 154 1 161 1 166 1 170 1 179 1 181 1 187 1 208 1 246 1 288 1 289 1 293 1 296 1 302 1 307 1 313 1 319 1 328 1 330 1 334 1 339 1 340 1 345 1 382 1 384 1 401 1 402 1 408 1 412 1 419 1 420 1 428 1 439 1 451 1 469 1 487 1 488 1 500 1 
1 203 9 1 14 1 32 2 34 1 46 1 59 2 69 2 79 1 83 1 89 2 90 1 95 1 101 1 107 1 113 1 120 1 127 1 151 1 160 1 164 1 178 1 180 1 187 2 191 1 197 2 199 1 205 1 206 1 209 1 217 2 224 1 233 2 239 1 254 2 261 1 263 1 267 1 271 2 285 1 299 1 308 2 326 1 334 1 335 1 341 1 346 1 380 1 384 1 390 1 392 1 400 1 406 1 410 2 411 1 417 1 421 1 430 1 436 1 439 1 449 1 460 1 464 1 489 1 469 1 8 1 12 1 28 1 55 1 74 1 75 1 86 1 88 1 96 1 103 1 106 1 109 1 111 1 114 1 116 1 129 1 159 1 169 1 172 1 177 1 196 1 198 1 208 1 223 1 227 1 232 1 234 1 235 1 258 1 260 1 292 1 310 1 312 1 313 1 325 1 340 1 342 1 344 1 350 1 355 1 356 1 370 1 371 1 382 1 401 1 404 1 409 1 412 1 413 1 415 1 416 1 428 1 429 1 431 1 433 1 437 1 442 1 465 1 472 1 475 1 506 1 
1 218 9 2 22 1 23 1 26 2 32 1 44 1 45 1 49 1 58 1 72 1 79 1 84 1 103 1 106 2 113 1 115 1 116 1 123 1 150 1 155 2 163 1 164 1 183 1 184 1 193 1 195 1 209 1 212 1 233 1 238 1 240 1 256 1 264 1 271 1 273 1 277 1 281 1 297 1 305 1 313 1 323 1 326 1 331 1 344 1 346 2 352 1 365 1 367 1 369 1 379 1 400 1 408 1 420 1 422 1 437 2 460 1 463 1 468 1 471 1 500 1 472 1 480 1 473 1 1 1 3 1 35 1 46 1 61 1 67 1 77 1 92 1 105 1 126 1 136 1 143 1 154 1 156 1 157 1 177 1 187 1 213 1 214 1 216 1 217 1 221 1 225 1 227 1 262 1 270 1 296 1 301 1 307 1 324 1 328 1 334 1 349 1 358 1 362 1 396 1 398 1 418 1 421 1 431 1 436 1 453 1 459 1 467 1 475 1 492 1 494 1 495 1 505 1 514 1 
1 211 2 1 17 1 21 1 29 1 40 1 48 1 64 1 79 1 86 1 92 1 98 1 102 1 130 1 133 1 143 1 148 1 159 2 171 1 172 1 181 1 182 1 186 2 188 1 192 1 194 1 201 1 210 1 219 1 221 1 223 1 236 2 237 1 240 1 243 1 249 1 251 1 261 1 270 1 282 1 287 1 292 1 296 2 306 1 312 1 315 1 321 1 324 2 347 1 350 1 367 1 376 1 382 1 383 1 388 1 390 1 404 1 407 1 414 1 415 1 435 1 436 1 439 1 440 2 443 1 465 1 478 1 495 1 51 1 53 1 55 1 60 1 63 1 71 1 88 1 94 1 110 1 111 1 114 1 118 1 121 1 166 1 167 1 184 1 185 1 193 1 203 1 206 1 211 1 214 1 226 1 230 1 234 1 244 1 254 1 257 1 264 1 265 1 279 1 280 1 281 1 283 1 304 1 305 1 335 1 337 1 338 1 371 1 380 1 385 1 397 1 402 1 413 1 430 1 481 1 497 1 
1 208 11 1 12 1 22 1 27 1 30 1 33 2 55 1 59 1 64 1 65 1 71 1 76 1 96 1 99 1 110 1 112 1 143 1 147 1 155 1 164 1 168 1 178 1 200 2 204 1 211 2 219 1 220 1 222 1 257 1 260 1 269 1 285 1 291 1 306 1 312 1 319 2 351 1 355 1 357 1 358 1 368 1 369 2 371 1 374 1 381 2 395 1 418 2 419 1 432 1 440 1 457 1 467 1 469 1 488 2 478 1 481 1 3 1 13 1 17 1 29 1 41 1 44 1 50 1 54 1 62 1 69 1 87 1 97 1 101 1 113 1 115 1 117 1 121 1 124 1 129 1 135 1 140 1 150 1 153 1 170 1 182 1 185 1 194 1 214 1 273 1 281 1 287 1 288 1 295 1 299 1 300 1 314 1 334 1 337 1 338 1 341 1 343 1 375 1 376 1 378 1 383 1 388 1 407 1 437 1 473 1 496 1 
1 201 7 1 15 1 42 1 76 1 78 1 96 1 111 1 115 1 117 1 132 1 141 1 145 1 147 1 152 1 161 1 166 2 213 1 216 1 223 1 225 1 231 1 235 2 244 2 254 1 260 1 273 1 275 1 276 1 281 1 287 1 298 1 310 2 315 1 326 1 330 1 338 1 344 1 355 1 357 1 360 1 363 1 364 1 366 1 381 1 394 1 396 2 399 1 406 1 431 1 432 1 440 1 442 1 460 1 469 1 473 1 477 1 498 1 480 1 18 1 20 1 45 1 46 1 53 1 65 1 73 1 74 1 90 1 102 1 110 1 118 1 125 1 126 1 129 1 135 1 150 1 155 1 158 1 164 1 167 1 171 1 178 1 184 1 186 1 189 1 193 1 197 1 200 1 203 1 219 1 228 1 236 1 248 1 256 1 269 1 285 1 289 1 297 1 299 1 300 1 311 1 318 1 323 1 331 1 340 1 361 1 365 1 395 1 404 1 413 1 422 1 428 1 441 1 453 1 459 1 468 1 475 1 488 1 
1 201 12 1 13 1 32 1 49 1 53 1 80 2 82 2 92 1 93 2 96 1 97 1 98 1 103 1 113 1 128 2 129 1 132 1 143 1 144 1 149 1 155 1 167 1 170 1 177 1 182 2 187 1 191 1 192 1 194 1 200 1 220 1 259 1 268 2 274 1 275 1 276 1 292 2 325 1 344 1 354 1 355 1 361 1 363 1 370 1 377 1 378 1 379 1 389 2 392 1 398 1 400 1 401 1 402 1 414 1 431 1 434 1 440 1 462 1 469 1 472 1 474 1 494 2 484 1 2 1 7 1 47 1 57 1 71 1 78 1 85 1 109 1 115 1 119 1 136 1 157 1 172 1 174 1 178 1 180 1 209 1 210 1 212 1 225 1 226 1 233 1 241 1 242 1 254 1 258 1 267 1 289 1 299 1 304 1 306 1 307 1 316 1 317 1 320 1 343 1 380 1 407 1 417 1 423 1 429 1 442 1 447 1 465 1 471 1 
1 206 2 1 4 1 5 1 15 1 16 1 20 1 32 1 38 1 74 1 87 1 97 1 98 1 113 1 123 1 129 1 133 1 139 1 156 1 158 1 166 1 169 1 170 1 173 1 176 1 178 1 181 1 182 1 184 1 186 1 192 1 212 2 226 1 231 1 239 1 240 1 242 1 245 1 247 1 248 1 257 1 264 1 291 1 309 2 318 1 332 1 357 2 376 1 397 1 400 1 405 1 408 1 420 1 428 1 431 1 442 1 454 1 459 1 466 1 473 1 490 2 482 1 9 1 19 1 33 1 34 1 35 1 47 1 49 1 56 1 71 1 75 1 83 1 107 1 108 1 112 1 115 1 116 1 134 1 136 1 152 1 155 1 163 1 183 1 188 1 190 1 197 1 198 1 218 1 230 1 251 1 255 1 299 1 307 1 308 1 310 1 311 1 313 1 315 1 323 1 327 1 360 1 366 1 370 1 393 1 403 1 417 1 424 1 476 1 484 1 495 1 497 1 
1 225 5 1 18 1 19 1 26 1 32 1 36 1 38 1 62 1 71 1 73 1 76 1 79 1 82 1 85 2 86 2 87 1 88 1 89 1 97 1 98 1 99 1 111 1 112 1 114 1 119 1 123 1 124 1 128 1 131 1 137 1 155 1 159 1 163 1 166 1 175 1 181 1 199 1 202 1 220 2 244 1 260 2 266 1 277 1 282 1 295 2 300 1 301 1 303 1 304 2 319 1 328 1 334 1 344 1 352 2 361 1 366 1 370 1 373 1 395 1 419 1 433 1 439 1 497 1 498 1 9 1 33 1 37 1 46 1 47 1 53 1 59 1 74 1 75 1 78 1 83 1 84 1 102 1 108 1 130 1 139 1 187 1 225 1 226 1 232 1 241 1 247 1 258 1 259 1 281 1 284 1 290 1 297 1 309 1 311 1 313 1 322 1 329 1 338 1 341 1 342 1 351 1 359 1 362 1 381 1 385 1 391 1 410 1 412 1 426 1 435 1 436 1 443 1 468 1 469 1 472 1 503 1 
1 203 10 1 11 1 14 1 25 1 27 1 30 1 34 1 48 1 62 2 63 1 69 1 71 1 77 1 82 2 87 1 100 2 102 1 114 2 117 1 122 1 126 2 130 2 143 1 144 1 148 1 161 1 169 1 180 1 182 1 183 1 192 1 197 1 208 1 210 1 211 1 218 1 219 1 222 1 230 1 236 1 237 1 260 2 267 1 285 1 288 1 305 2 309 2 324 1 326 1 346 1 355 1 357 1 367 1 380 2 384 1 390 1 392 1 393 1 397 1 400 1 412 1 444 1 448 1 463 1 481 1 483 1 488 1 15 1 17 1 28 1 41 1 51 1 57 1 59 1 66 1 74 1 88 1 89 1 91 1 96 1 108 1 118 1 121 1 131 1 149 1 170 1 203 1 209 1 235 1 239 1 248 1 281 1 312 1 318 1 320 1 327 1 328 1 334 1 335 1 345 1 347 1 368 1 391 1 401 1 410 1 414 1 434 1 440 1 441 1 445 1 452 1 474 1 486 1 504 1 
1 206 8 1 11 1 22 1 24 1 28 1 45 1 77 1 84 1 89 1 96 1 97 1 113 1 131 1 162 1 170 1 172 1 174 1 177 1 193 1 203 1 207 1 218 1 220 1 232 1 235 1 260 1 264 1 265 1 268 1 272 1 279 1 280 1 284 1 287 1 290 2 293 1 297 1 300 1 316 1 318 1 319 1 320 1 323 1 330 1 338 1 340 1 345 1 361 1 363 1 369 1 380 1 381 2 390 1 392 1 394 1 401 1 421 1 425 1 429 1 444 1 446 1 472 1 483 1 29 1 86 1 91 1 99 1 106 1 123 1 133 1 152 1 167 1 179 1 188 1 199 1 215 1 226 1 237 1 238 1 244 1 245 1 247 1 249 1 251 1 258 1 267 1 291 1 294 1 299 1 301 1 326 1 335 1 348 1 352 1 355 1 374 1 376 1 389 1 443 1 447 1 465 1 484 1 486 1 
1 214 20 1 22 1 25 1 33 1 38 1 46 1 56 1 66 1 70 2 84 1 101 1 106 2 109 1 122 1 126 1 136 1 142 1 170 1 186 1 204 2 211 1 215 1 216 1 237 1 244 1 249 1 258 1 259 1 263 1 276 1 278 2 279 2 287 1 303 1 305 1 311 1 316 1 326 2 351 1 353 1 362 1 363 1 367 1 371 1 378 1 379 2 384 1 397 1 404 1 407 1 421 1 422 1 430 1 440 1 441 1 443 1 445 1 449 1 450 1 451 1 470 1 471 1 480 2 490 1 9 1 18 1 27 1 29 1 32 1 53 1 63 1 64 1 87 1 93 1 96 1 133 1 137 1 145 1 154 1 156 1 164 1 168 1 177 1 219 1 224 1 239 1 247 1 268 1 297 1 308 1 309 1 323 1 332 1 346 1 349 1 360 1 368 1 372 1 375 1 396 1 401 1 412 1 424 1 426 1 432 1 435 1 438 1 484 1 513 1 
1 203 21 1 39 1 77 1 85 1 102 1 104 1 105 2 108 1 118 1 119 1 120 1 138 1 147 1 153 2 159 1 161 1 169 1 175 1 178 1 182 1 188 2 194 1 197 1 202 1 221 1 225 1 231 1 237 1 240 1 242 1 244 1 245 1 253 1 254 1 258 1 259 1 260 1 266 1 271 1 272 1 278 1 287 1 288 1 290 1 294 1 296 1 299 1 303 1 321 1 333 2 363 1 365 1 367 1 382 1 383 1 392 2 393 2 394 1 397 1 405 1 415 1 428 1 430 2 452 1 3 1 27 1 36 1 38 1 44 1 57 1 62 1 75 1 82 1 91 1 94 1 106 1 131 1 137 1 141 1 158 1 163 1 165 1 176 1 181 1 184 1 224 1 226 1 229 1 248 1 251 1 276 1 301 1 302 1 308 1 313 1 332 1 342 1 343 1 353 1 358 1 361 1 380 1 387 1 399 1 406 1 432 1 443 1 508 1 509 1 512 1 
1 206 36 1 38 1 41 1 55 1 62 2 65 1 67 1 69 2 71 1 84 1 85 1 92 1 97 1 113 1 114 1 137 1 153 1 159 1 163 1 168 1 171 1 176 2 197 1 202 1 222 1 223 2 228 1 231 1 233 1 247 1 249 1 256 1 257 1 268 1 273 1 274 1 281 1 284 1 285 1 291 1 293 1 308 2 310 1 314 1 320 1 332 1 333 2 346 1 358 2 364 1 371 1 377 1 380 1 387 1 400 1 432 1 469 1 472 1 478 2 487 1 497 1 11 1 24 1 29 1 40 1 43 1 46 1 47 1 51 1 70 1 103 1 110 1 111 1 124 1 129 1 135 1 138 1 140 1 145 1 147 1 149 1 150 1 158 1 166 1 169 1 172 1 184 1 193 1 204 1 209 1 215 1 221 1 227 1 252 1 262 1 263 1 264 1 278 1 299 1 317 1 354 1 384 1 419 1 420 1 435 1 444 1 451 1 466 1 483 1 486 1 505 1 
1 231 18 1 32 1 52 1 62 1 78 1 81 1 84 1 89 1 96 1 97 1 106 1 107 1 109 1 134 1 137 1 138 1 144 1 164 1 165 2 183 1 184 1 186 1 198 2 208 1 228 1 229 1 230 1 234 1 238 1 239 2 252 1 303 1 314 1 317 1 329 1 330 1 340 1 354 1 358 1 372 1 387 1 388 1 401 1 404 1 410 1 417 1 418 1 420 1 425 1 440 1 448 1 454 1 456 1 471 1 476 1 487 1 482 1 497 1 16 1 17 1 20 1 27 1 31 1 41 1 56 1 66 1 79 1 123 1 135 1 145 1 149 1 152 1 157 1 167 1 168 1 170 1 172 1 180 1 182 1 195 1 204 1 214 1 215 1 216 1 217 1 219 1 232 1 245 1 249 1 251 1 267 1 268 1 269 1 272 1 276 1 293 1 294 1 331 1 336 1 341 1 355 1 361 1 364 1 370 1 371 1 392 1 402 1 403 1 427 1 436 1 441 1 451 1 458 1 470 1 483 1 496 1 
1 194 42 1 48 1 50 1 59 1 62 1 65 1 68 2 74 1 78 1 79 1 81 2 89 1 99 1 113 1 114 1 127 1 128 1 129 1 130 2 134 1 139 1 142 1 143 1 151 1 153 1 160 1 164 2 173 1 185 2 192 1 193 1 204 2 208 1 210 1 213 1 217 2 218 1 220 1 225 1 235 1 238 1 239 1 241 1 243 1 246 1 251 1 258 1 276 1 293 1 295 1 305 1 314 1 321 1 341 1 350 1 373 1 376 1 383 1 394 1 415 1 474 1 481 1 488 1 38 1 40 1 57 1 63 1 94 1 118 1 121 1 122 1 140 1 146 1 156 1 177 1 201 1 223 1 226 1 229 1 232 1 247 1 259 1 261 1 266 1 278 1 280 1 286 1 287 1 289 1 306 1 323 1 332 1 345 1 346 1 347 1 351 1 352 1 389 1 402 1 425 1 444 1 452 1 
1 209 28 1 43 1 61 1 66 1 106 2 111 2 119 1 121 1 131 1 140 1 142 1 155 2 159 1 164 1 189 1 190 1 194 1 198 1 213 1 221 1 224 1 228 1 233 1 239 2 250 1 265 1 267 1 268 1 274 2 279 1 293 1 327 1 330 2 353 1 355 1 362 1 367 2 381 1 403 1 405 2 407 1 413 1 431 1 436 2 437 1 462 1 476 1 477 1 485 1 493 1 4 1 13 1 35 1 37 1 39 1 71 1 85 1 86 1 107 1 108 1 110 1 129 1 148 1 149 1 150 1 156 1 175 1 186 1 210 1 215 1 219 1 226 1 236 1 244 1 251 1 298 1 304 1 318 1 319 1 328 1 365 1 372 1 378 1 379 1 387 1 428 1 443 1 446 1 448 1 460 1 480 1 481 1 491 1 509 1 512 1 
1 219 1 1 6 1 9 1 17 2 27 1 34 1 41 1 50 1 52 1 60 1 71 1 74 1 75 1 79 1 82 1 93 2 95 1 97 1 102 2 104 1 106 1 108 1 117 1 121 1 122 1 135 1 162 1 163 2 177 1 178 2 188 1 195 2 207 1 218 2 229 1 239 1 251 1 257 1 264 1 293 1 296 1 300 1 342 1 346 2 355 2 363 1 365 1 375 1 381 2 382 1 389 1 393 1 401 1 404 1 423 1 427 1 432 1 445 1 449 1 473 1 500 1 14 1 18 1 28 1 45 1 57 1 76 1 77 1 94 1 103 1 107 1 110 1 116 1 118 1 123 1 142 1 155 1 179 1 180 1 181 1 202 1 206 1 210 1 219 1 231 1 246 1 248 1 250 1 256 1 261 1 274 1 277 1 280 1 292 1 309 1 315 1 323 1 326 1 328 1 335 1 337 1 366 1 368 1 369 1 390 1 411 1 412 1 437 1 441 1 455 1 461 1 474 1 477 1 478 1 485 1 514 1 
1 205 14 2 27 1 32 2 33 1 40 1 44 1 48 1 56 1 71 1 72 1 78 1 82 1 91 1 98 1 110 2 121 1 122 1 127 1 152 1 160 1 168 1 169 1 171 1 181 1 202 1 206 1 212 1 221 1 224 1 226 1 230 1 231 1 253 1 254 1 264 1 265 1 269 1 275 1 283 1 286 1 289 2 291 1 298 1 305 1 306 1 319 1 323 1 330 1 346 1 357 1 369 1 378 1 383 1 396 1 397 1 401 1 404 2 405 2 411 1 422 1 433 1 437 1 446 1 457 1 483 1 1 1 4 1 8 1 19 1 29 1 34 1 42 1 66 1 68 1 76 1 86 1 101 1 114 1 115 1 117 1 130 1 153 1 163 1 172 1 173 1 179 1 188 1 201 1 220 1 235 1 263 1 276 1 284 1 308 1 337 1 340 1 348 1 353 1 362 1 363 1 372 1 403 1 409 1 418 1 450 1 466 1 484 1 489 1 508 1 
1 218 15 1 19 1 33 1 35 1 39 1 42 1 46 1 56 1 70 1 77 1 87 1 95 2 96 1 97 1 113 1 114 1 121 1 126 1 132 1 134 1 139 2 155 1 178 1 186 1 201 1 210 1 211 1 215 2 240 1 255 2 260 1 263 1 277 1 279 2 284 1 296 1 305 1 308 1 309 1 310 1 324 1 325 1 330 1 361 1 368 1 373 1 375 2 403 1 405 2 406 1 427 2 430 2 436 1 439 1 445 1 456 1 464 1 6 1 37 1 47 1 48 1 51 1 52 1 55 1 60 1 66 1 74 1 80 1 86 1 104 1 112 1 120 1 130 1 140 1 164 1 166 1 175 1 176 1 187 1 195 1 199 1 208 1 231 1 234 1 237 1 239 1 243 1 251 1 253 1 270 1 280 1 303 1 326 1 332 1 338 1 346 1 350 1 391 1 400 1 412 1 425 1 429 1 431 1 441 1 450 1 459 1 461 1 476 1 477 1 480 1 490 1 494 1 
1 206 1 2 8 1 27 1 28 2 29 1 34 1 39 1 45 1 64 1 65 1 68 2 69 1 94 1 101 1 108 1 114 2 130 1 133 1 142 1 144 1 160 1 173 2 177 1 181 1 224 1 230 1 232 1 237 1 242 1 247 1 256 1 267 1 269 2 272 1 294 1 318 1 327 1 340 1 368 1 374 2 378 1 385 1 387 1 412 1 434 1 438 1 446 1 452 1 457 2 465 1 480 1 481 1 489 1 19 1 35 1 49 1 58 1 61 1 71 1 75 1 77 1 86 1 98 1 124 1 134 1 143 1 164 1 165 1 170 1 179 1 188 1 203 1 205 1 209 1 217 1 226 1 260 1 274 1 286 1 292 1 322 1 328 1 331 1 332 1 333 1 346 1 347 1 357 1 363 1 371 1 380 1 381 1 390 1 405 1 413 1 420 1 441 1 442 1 456 1 467 1 499 1 
1 200 16 1 29 1 41 1 45 1 65 1 66 1 70 1 73 2 74 1 87 1 100 1 101 1 105 2 109 1 127 1 140 1 141 1 149 1 151 1 158 1 187 1 194 2 202 1 208 1 218 1 234 1 235 1 241 1 263 1 270 1 278 1 285 1 292 1 297 1 301 1 310 1 313 1 343 2 344 1 353 1 354 1 360 1 364 1 368 1 371 1 375 1 384 1 387 1 389 1 392 1 404 1 414 1 429 1 446 1 449 1 454 1 459 1 471 2 476 1 482 1 491 1 496 1 498 1 22 1 25 1 47 1 52 1 59 1 61 1 64 1 67 1 75 1 80 1 96 1 107 1 110 1 111 1 134 1 138 1 142 1 144 1 150 1 171 1 173 1 181 1 189 1 191 1 203 1 207 1 219 1 231 1 233 1 239 1 240 1 245 1 269 1 316 1 322 1 328 1 330 1 333 1 339 1 340 1 348 1 355 1 357 1 362 1 365 1 366 1 390 1 418 1 425 1 428 1 431 1 438 1 448 1 451 1 467 1 472 1 
1 200 22 1 26 1 29 1 32 2 49 1 50 1 52 2 55 1 58 1 99 2 113 1 131 1 140 1 149 1 162 1 165 1 179 1 183 1 186 1 199 2 203 1 204 2 221 2 231 1 244 1 245 1 255 1 290 1 310 1 322 1 324 1 328 1 352 1 357 1 365 1 370 1 377 1 378 1 380 1 390 1 395 1 401 2 446 1 452 1 458 1 461 1 464 1 468 1 487 1 499 1 494 2 19 1 20 1 21 1 34 1 37 1 74 1 94 1 104 1 118 1 128 1 136 1 138 1 152 1 154 1 169 1 180 1 189 1 190 1 212 1 215 1 219 1 229 1 234 1 246 1 257 1 258 1 274 1 291 1 299 1 301 1 307 1 309 1 320 1 321 1 332 1 347 1 353 1 362 1 384 1 398 1 415 1 431 1 442 1 450 1 455 1 459 1 485 1 496 1 509 1 511 1 512 1 
1 221 5 1 35 2 40 1 63 1 67 1 69 2 88 1 91 1 102 1 112 1 116 1 119 1 121 1 142 1 147 1 154 1 161 1 177 2 187 1 188 1 197 1 201 1 204 1 206 1 213 1 215 1 216 1 219 1 220 2 221 1 224 1 235 1 245 1 251 1 252 1 258 2 271 1 273 1 275 1 286 1 299 1 301 1 308 1 309 1 341 2 343 1 357 2 364 1 368 1 369 1 370 1 375 1 381 1 401 1 403 1 405 2 426 1 428 1 433 1 435 1 444 1 457 1 459 1 462 1 474 2 478 1 492 1 1 1 7 1 30 1 36 1 38 1 52 1 60 1 71 1 86 1 97 1 106 1 109 1 117 1 137 1 155 1 158 1 174 1 192 1 198 1 203 1 207 1 211 1 223 1 238 1 262 1 263 1 321 1 329 1 335 1 337 1 359 1 366 1 367 1 385 1 404 1 407 1 419 1 425 1 427 1 438 1 446 1 447 1 453 1 486 1 491 1 499 1 504 1 516 1 517 1 
1 205 24 1 26 1 27 1 29 1 56 1 61 1 62 1 87 1 91 1 105 2 106 2 110 1 125 1 127 1 144 2 150 1 153 1 163 1 176 1 177 2 190 1 193 1 198 1 199 1 207 1 213 1 214 1 217 1 223 1 225 1 234 1 245 1 259 1 268 1 269 1 271 1 285 1 287 1 291 1 298 1 312 1 321 2 322 1 334 1 349 2 353 2 355 1 358 1 364 1 367 1 368 1 370 1 392 1 409 1 414 1 422 1 432 1 438 1 451 1 455 1 466 1 467 1 488 1 496 1 21 1 37 1 49 1 50 1 55 1 63 1 68 1 73 1 75 1 92 1 103 1 107 1 116 1 124 1 133 1 140 1 165 1 175 1 182 1 195 1 197 1 206 1 220 1 232 1 246 1 266 1 277 1 295 1 296 1 306 1 310 1 317 1 330 1 338 1 339 1 374 1 378 1 380 1 385 1 390 1 401 1 408 1 419 1 420 1 421 1 425 1 443 1 460 1 483 1 490 1 506 1 508 1 
1 208 11 1 14 1 35 1 43 1 54 1 71 1 72 1 79 2 84 1 87 1 96 1 97 1 105 1 108 1 111 1 149 1 171 1 177 1 181 1 197 1 203 2 206 1 212 1 216 1 218 1 219 1 222 1 235 2 237 1 238 1 239 1 240 1 243 2 248 1 254 1 262 1 272 1 276 1 283 1 288 1 292 1 293 1 303 1 317 1 320 1 329 2 345 1 366 1 367 1 369 1 379 1 392 1 395 1 407 1 411 1 412 1 436 2 441 1 445 1 466 2 490 1 7 1 26 1 28 1 50 1 59 1 62 1 66 1 73 1 75 1 90 1 91 1 92 1 102 1 119 1 155 1 157 1 161 1 167 1 176 1 194 1 202 1 207 1 241 1 257 1 263 1 270 1 289 1 335 1 363 1 365 1 375 1 385 1 388 1 389 1 400 1 431 1 454 1 465 1 469 1 511 1 515 1 
1 179 4 1 45 1 50 1 70 1 76 1 84 1 87 1 94 1 101 1 109 1 110 2 114 1 133 1 143 1 165 1 182 1 188 1 191 1 192 2 216 1 219 1 220 1 243 1 248 1 252 1 258 1 260 1 267 1 272 1 281 1 292 1 302 1 331 1 340 2 357 1 362 1 387 1 395 1 400 1 414 1 424 1 435 1 449 1 460 1 483 1 496 2 500 1 5 1 9 1 26 1 51 1 52 1 57 1 59 1 66 1 67 1 80 1 96 1 103 1 115 1 138 1 153 1 158 1 164 1 166 1 195 1 231 1 234 1 255 1 263 1 269 1 271 1 284 1 286 1 287 1 301 1 304 1 308 1 315 1 329 1 330 1 349 1 354 1 359 1 366 1 370 1 372 1 373 1 380 1 381 1 390 1 402 1 425 1 432 1 433 1 446 1 451 1 
1 214 5 2 7 1 25 1 47 1 54 1 61 1 68 1 90 1 108 1 110 1 111 1 123 1 126 1 134 2 135 1 142 1 147 1 154 2 163 1 164 2 165 1 171 1 181 1 187 1 197 1 201 1 204 1 209 1 219 2 226 2 232 1 236 1 237 1 246 1 252 1 254 1 265 2 269 2 275 2 284 1 286 1 287 1 290 1 304 1 305 1 309 1 319 1 324 1 345 1 348 2 350 1 354 1 360 2 364 2 372 1 386 1 394 1 401 1 405 1 406 2 420 1 422 1 429 2 431 1 435 1 438 1 455 1 473 2 489 2 30 1 39 1 40 1 44 1 50 1 52 1 71 1 73 1 74 1 75 1 101 1 120 1 136 1 137 1 138 1 143 1 151 1 152 1 158 1 162 1 169 1 177 1 179 1 206 1 207 1 210 1 220 1 222 1 243 1 251 1 256 1 272 1 282 1 308 1 311 1 330 1 357 1 363 1 373 1 374 1 375 1 376 1 378 1 380 1 381 1 383 1 390 1 398 1 425 1 432 1 444 1 458 1 469 1 486 1 506 1 
1 215 7 1 26 1 30 1 48 1 49 1 52 1 59 1 60 1 75 1 81 1 83 1 84 1 93 1 106 1 108 2 119 1 121 1 133 1 152 1 157 1 173 1 174 1 190 2 199 1 200 1 203 1 210 2 215 1 216 1 227 2 231 1 232 1 248 1 259 1 268 1 272 2 276 1 279 1 281 1 283 1 286 1 298 1 308 1 312 1 319 1 320 1 325 1 331 2 336 1 337 1 347 1 349 1 370 1 371 1 408 2 414 1 419 1 425 1 431 1 443 1 445 1 451 1 452 1 458 1 463 1 470 1 6 1 31 1 42 1 50 1 68 1 73 1 74 1 90 1 103 1 112 1 126 1 129 1 134 1 137 1 138 1 149 1 151 1 179 1 181 1 186 1 193 1 198 1 201 1 208 1 213 1 226 1 230 1 242 1 249 1 256 1 258 1 262 1 266 1 290 1 295 1 301 1 335 1 350 1 353 1 357 1 360 1 369 1 375 1 406 1 410 1 423 1 428 1 439 1 447 1 456 1 464 1 466 1 469 1 474 1 517 1 
1 215 1 1 4 1 9 1 10 1 24 1 27 1 33 1 35 1 42 1 55 2 60 1 62 1 87 1 94 1 107 1 114 1 140 1 141 1 149 1 156 1 158 1 159 1 160 1 171 1 175 2 178 2 186 1 193 1 195 1 215 1 230 1 248 1 278 1 282 1 286 1 288 1 289 1 302 1 351 1 353 1 363 2 391 1 392 1 406 2 410 1 414 1 423 2 425 1 434 1 442 1 444 1 450 1 452 1 453 1 454 1 455 1 463 1 488 1 491 1 493 2 17 1 28 1 31 1 32 1 52 1 54 1 63 1 72 1 85 1 86 1 102 1 103 1 105 1 106 1 116 1 134 1 146 1 168 1 170 1 181 1 182 1 197 1 222 1 226 1 261 1 273 1 279 1 300 1 306 1 319 1 332 1 348 1 372 1 379 1 389 1 404 1 408 1 421 1 427 1 441 1 449 1 451 1 471 1 481 1 489 1 498 1 
1 190 2 1 7 1 9 1 14 1 27 2 38 1 43 1 56 2 58 1 61 1 62 1 64 1 92 1 102 1 103 1 118 1 120 1 122 1 133 1 145 1 146 1 162 1 163 1 188 1 193 1 197 1 201 1 212 2 216 1 228 1 230 1 246 1 248 1 263 1 266 1 278 1 279 1 300 1 307 2 327 1 337 1 348 1 354 2 384 1 395 1 412 1 416 1 421 1 426 1 430 1 435 1 437 2 439 2 446 1 464 1 475 1 480 1 481 1 24 1 29 1 33 1 37 1 49 1 54 1 66 1 78 1 79 1 82 1 84 1 95 1 100 1 106 1 112 1 113 1 130 1 131 1 150 1 159 1 169 1 172 1 174 1 179 1 183 1 187 1 194 1 196 1 198 1 200 1 204 1 219 1 236 1 241 1 250 1 259 1 261 1 262 1 265 1 269 1 270 1 282 1 283 1 288 1 292 1 295 1 304 1 323 1 346 1 367 1 377 1 382 1 387 1 388 1 391 1 400 1 406 1 418 1 419 1 423 1 428 1 449 1 454 1 470 1 474 1 
1 212 27 1 29 1 32 1 37 1 40 1 51 1 54 2 59 2 61 1 68 2 70 1 72 2 75 1 84 1 114 1 132 2 140 1 148 1 151 1 154 1 165 1 167 1 173 1 174 1 181 2 189 1 196 1 199 1 200 1 205 1 214 1 238 1 247 1 272 1 273 1 285 1 293 1 295 1 296 1 309 1 315 1 335 1 336 2 339 2 348 1 360 1 372 1 378 1 392 1 423 1 426 1 427 1 445 1 456 1 472 1 475 1 488 1 3 1 10 1 25 1 28 1 31 1 49 1 52 1 56 1 73 1 80 1 89 1 93 1 96 1 103 1 104 1 115 1 122 1 136 1 141 1 147 1 149 1 162 1 169 1 206 1 213 1 222 1 232 1 255 1 260 1 271 1 292 1 306 1 308 1 311 1 318 1 329 1 342 1 346 1 353 1 356 1 365 1 375 1 379 1 391 1 395 1 406 1 418 1 425 1 436 1 453 1 458 1 462 1 496 1 512 1 
1 203 9 2 23 2 35 1 38 2 41 1 44 1 53 1 58 1 83 1 91 1 108 1 110 1 117 2 125 1 129 1 132 1 147 1 173 1 187 1 200 1 203 1 205 1 210 1 211 1 219 1 220 1 221 1 226 1 232 1 238 1 247 1 254 1 270 1 276 1 285 1 289 1 291 1 295 2 302 1 303 1 308 2 325 1 332 1 345 1 347 1 356 1 372 1 388 2 391 1 392 1 403 1 415 1 418 1 422 1 423 1 434 1 447 1 449 2 456 1 457 1 489 1 500 1 13 1 16 1 27 1 28 1 32 1 39 1 56 1 64 1 82 1 85 1 86 1 92 1 93 1 98 1 112 1 119 1 123 1 128 1 130 1 143 1 152 1 158 1 162 1 165 1 175 1 181 1 185 1 190 1 207 1 251 1 287 1 305 1 321 1 322 1 338 1 339 1 344 1 346 1 351 1 373 1 375 1 393 1 394 1 397 1 413 1 414 1 436 1 440 1 461 1 466 1 487 1 490 1 
1 199 1 1 6 1 8 1 39 1 49 1 63 2 79 1 94 1 110 1 122 1 125 2 127 1 133 1 138 1 144 1 146 1 147 1 156 1 160 1 170 1 182 1 199 1 203 1 216 1 217 1 219 1 255 1 267 1 275 1 293 2 297 1 302 1 305 1 308 1 315 1 323 1 330 1 342 1 359 2 370 1 375 1 376 2 377 1 384 1 387 2 389 1 393 1 405 1 429 1 430 2 432 1 440 1 444 1 446 1 455 2 459 1 466 1 469 1 484 1 493 1 499 1 15 1 62 1 64 1 69 1 75 1 76 1 100 1 101 1 107 1 108 1 112 1 113 1 114 1 120 1 121 1 132 1 135 1 136 1 141 1 158 1 171 1 186 1 190 1 210 1 256 1 258 1 262 1 283 1 309 1 314 1 334 1 357 1 361 1 364 1 372 1 380 1 385 1 390 1 394 1 395 1 403 1 406 1 414 1 415 1 420 1 443 1 457 1 460 1 465 1 467 1 511 1 
1 0 257 1 185 1 383 1 109 1 435 1 315 1 201 1 456 1 260 1 212 1 451 1 318 1 464 1 243 1 364 1 449 1 298 1 354 1 152 1 117 1 254 1 162 1 405 1 181 1 44 1 300 1 411 1 325 1 457 1 
1 0 67 1 55 1 4 1 101 1 83 1 187 1 121 1 106 1 149 1 245 1 163 1 431 1 276 1 158 1 268 1 347 1 97 1 70 1 396 1 229 1 155 1 315 1 312 1 135 1 445 1 144 1 117 1 150 1 3 1 
1 0 424 1 475 1 241 1 318 1 228 1 7 1 353 1 213 1 305 1 125 1 247 1 90 1 97 1 260 1 141 1 30 1 335 1 99 1 74 1 299 1 36 1 69 1 116 1 434 1 232 1 19 1 103 1 395 1 153 1 79 1 94 1 
1 0 93 1 343 1 107 1 111 1 476 1 406 1 99 1 88 1 355 1 332 1 224 1 407 1 175 1 237 1 292 1 397 1 321 1 225 1 348 1 91 1 82 1 316 1 105 1 204 1 422 1 357 1 57 1 490 1 27 1 
1 0 480 1 116 1 99 1 292 1 426 1 414 1 298 1 52 1 303 1 214 1 317 1 407 1 458 1 213 1 254 1 308 1 314 1 15 1 282 1 305 1 181 1 311 1 469 1 412 1 134 1 378 1 341 1 225 1 110 1 420 1 191 1 61 1 434 1 156 1 
1 0 250 1 453 1 224 1 357 1 30 1 294 1 494 1 443 1 425 1 375 1 149 1 466 1 257 1 415 1 200 1 326 1 120 1 33 1 54 1 348 1 491 1 468 1 396 1 402 1 437 1 43 1 220 1 370 1 223 1 397 1 195 1 279 1 180 1 63 1 
1 0 415 1 380 1 195 1 273 1 287 1 315 1 133 1 118 1 22 1 335 1 348 1 441 1 406 1 87 1 132 1 158 1 385 1 69 1 245 1 203 1 351 1 350 1 130 1 370 1 14 1 409 1 357 1 444 1 308 1 
1 0 209 1 374 1 418 1 387 1 238 1 282 1 292 1 96 1 485 1 479 1 256 1 446 1 115 1 326 1 182 1 14 1 284 1 449 1 416 1 432 1 260 1 289 1 491 1 13 1 305 1 279 1 232 1 433 1 466 1 321 1 243 1 319 1 463 1 346 1 179 1 
1 0 52 1 479 1 203 1 291 1 275 1 408 1 202 1 183 1 483 1 45 1 75 1 372 1 241 1 51 1 377 1 282 1 337 1 286 1 375 1 434 1 117 1 144 1 237 1 119 1 262 1 444 1 245 1 489 1 
1 0 425 1 460 1 44 1 197 1 63 1 271 1 41 1 60 1 449 1 438 1 138 1 368 1 76 1 187 1 360 1 332 1 447 1 445 1 306 1 233 1 300 1 352 1 88 1 146 1 264 1 411 1 150 1 286 1 71 1 327 1 182 1 416 1 444 1 313 1 141 1 
1 0 73 1 351 1 107 1 380 1 94 1 367 1 492 1 17 1 162 1 104 1 80 1 134 1 500 1 197 1 258 1 270 1 316 1 109 1 256 1 129 1 217 1 489 1 67 1 140 1 260 1 106 1 31 1 160 1 269 1 245 1 
1 0 291 1 303 1 232 1 218 1 348 1 258 1 498 1 317 1 342 1 202 1 375 1 320 1 334 1 214 1 230 1 350 1 10 1 171 1 415 1 145 1 483 1 20 1 205 1 329 1 489 1 370 1 38 1 223 1 479 1 16 1 443 1 
1 0 149 1 260 1 138 1 302 1 348 1 119 1 66 1 52 1 251 1 93 1 215 1 98 1 160 1 191 1 29 1 321 1 143 1 145 1 220 1 166 1 386 1 412 1 332 1 280 1 174 1 94 1 240 1 254 1 382 1 117 1 178 1 478 1 297 1 
1 0 97 1 464 1 51 1 325 1 469 1 203 1 365 1 233 1 229 1 448 1 484 1 122 1 162 1 230 1 420 1 221 1 358 1 63 1 78 1 431 1 207 1 49 1 417 1 298 1 404 1 182 1 56 1 
1 0 341 1 418 1 288 1 492 1 360 1 369 1 135 1 168 1 138 1 402 1 320 1 382 1 357 1 82 1 224 1 226 1 250 1 460 1 126 1 203 1 455 1 199 1 8 1 361 1 66 1 207 1 111 1 319 1 276 1 362 1 
1 0 87 1 235 1 138 1 224 1 201 1 64 1 444 1 377 1 103 1 455 1 100 1 246 1 442 1 173 1 63 1 125 1 118 1 343 1 334 1 82 1 34 1 298 1 356 1 437 1 110 1 434 1 490 1 139 1 273 1 
1 0 79 1 153 1 279 1 38 1 490 1 342 1 69 1 187 1 400 1 82 1 313 1 405 1 45 1 121 1 237 1 495 1 213 1 147 1 363 1 466 1 320 1 332 1 258 1 199 1 300 1 163 1 436 1 
