521 27739 011 2
1 192 395 1 96 1 286 1 257 2 398 1 433 1 351 1 255 1 424 1 184 1 439 1 138 2 125 1 148 1 425 1 227 1 336 1 205 1 359 1 358 1 444 1 196 1 177 2 400 1 404 1 389 1 386 1 495 2 243 1 418 1 206 1 161 1 392 1 46 2 85 1 460 1 71 1 462 1 3 2 116 1 124 1 379 1 254 1 281 1 66 1 178 1 272 1 266 2 104 2 330 1 251 1 67 1 8 1 193 2 111 1 36 1 128 2 134 1 27 1 294 1 14 1 32 1 35 1 37 1 41 1 43 1 63 1 72 1 83 1 117 1 119 1 131 1 137 1 147 1 159 1 164 1 166 1 180 1 214 1 217 1 218 1 229 1 234 1 238 1 246 1 250 1 283 1 296 1 324 1 329 1 334 1 345 1 371 1 373 1 391 1 409 1 427 1 437 1 440 1 449 1 454 1 464 1 483 1 492 1 497 1 503 1 506 1 508 1 512 1 
1 235 128 1 51 2 241 1 231 1 42 1 233 1 112 2 228 1 396 1 8 1 221 1 48 1 199 1 283 1 197 1 424 2 451 2 37 1 200 1 234 2 247 1 248 2 397 1 71 1 92 1 254 1 58 1 245 1 281 1 354 1 123 1 150 1 454 1 361 1 286 1 99 2 446 1 207 1 149 1 400 1 47 2 230 1 201 1 431 2 191 1 482 1 137 1 481 1 192 1 27 1 383 1 453 1 391 1 102 1 35 1 59 1 65 1 72 1 77 1 79 1 81 1 82 1 84 1 88 1 97 1 100 1 103 1 120 1 122 1 129 1 131 1 135 1 145 1 146 1 159 1 162 1 172 1 193 1 198 1 209 1 220 1 256 1 259 1 274 1 292 1 293 1 310 1 320 1 325 1 327 1 345 1 355 1 363 1 365 1 373 1 404 1 406 1 410 1 420 1 421 1 422 1 425 1 427 1 435 1 462 1 465 1 468 1 499 1 501 1 521 1 
1 186 1 2 160 1 191 2 154 2 446 1 187 2 103 1 467 1 196 1 377 1 177 1 382 1 224 2 74 1 318 1 405 1 170 1 163 1 201 1 444 2 62 1 350 1 233 1 51 1 262 1 369 1 17 2 286 1 235 1 393 1 340 1 462 2 250 1 228 1 239 1 303 1 218 2 381 1 172 1 162 1 25 1 344 1 429 1 341 1 468 1 35 1 289 2 266 1 493 1 421 1 96 1 317 1 158 1 484 1 234 1 267 2 415 1 83 1 39 1 310 1 4 1 5 1 13 1 21 1 38 1 43 1 63 1 70 1 72 1 115 1 117 1 127 1 142 1 143 1 148 1 164 1 166 1 171 1 190 1 192 1 203 1 210 1 213 1 254 1 256 1 272 1 273 1 279 1 281 1 296 1 311 1 313 1 320 1 330 1 346 1 355 1 372 1 374 1 378 1 385 1 387 1 390 1 395 1 406 1 414 1 433 1 434 1 445 1 448 1 457 1 
1 216 54 1 258 1 110 1 220 1 411 1 47 1 365 1 274 2 281 1 76 1 68 1 345 1 122 1 432 1 193 1 211 1 468 1 453 1 96 1 128 1 181 1 340 1 93 1 322 1 323 1 463 1 158 1 352 1 333 1 450 1 80 1 491 1 337 2 170 1 79 1 289 1 372 1 397 1 148 1 22 1 225 1 118 1 119 1 138 1 206 1 50 1 77 1 264 1 347 1 415 1 447 1 368 1 159 1 123 1 278 2 250 1 3 1 6 1 33 1 53 1 57 1 70 1 75 1 88 1 94 1 99 1 105 1 111 1 114 1 120 1 127 1 147 1 153 1 163 1 166 1 172 1 176 1 179 1 182 1 205 1 208 1 227 1 234 1 245 1 269 1 271 1 272 1 293 1 296 1 297 1 302 1 317 1 338 1 343 1 344 1 348 1 363 1 366 1 371 1 378 1 379 1 390 1 394 1 395 1 418 1 438 1 440 1 442 1 451 1 470 1 484 1 488 1 501 1 
1 200 459 1 369 1 78 1 395 1 176 1 391 2 63 1 435 2 190 1 45 2 76 1 91 1 207 1 452 2 107 1 8 1 20 1 198 1 70 1 292 2 498 2 363 1 453 1 336 1 274 1 279 1 470 1 165 1 10 1 74 1 95 1 48 1 311 1 21 1 477 1 111 1 388 1 349 1 273 1 449 1 299 1 11 1 387 1 407 1 162 1 296 1 213 1 157 1 410 1 259 1 236 1 3 1 26 1 28 1 35 1 37 1 51 1 54 1 61 1 80 1 88 1 103 1 135 1 153 1 158 1 170 1 172 1 173 1 194 1 195 1 200 1 202 1 209 1 221 1 227 1 251 1 256 1 295 1 305 1 310 1 332 1 338 1 354 1 365 1 397 1 409 1 422 1 426 1 432 1 433 1 437 1 439 1 454 1 456 1 466 1 497 1 503 1 
1 194 424 1 320 1 441 2 34 1 324 1 200 1 382 2 159 1 416 1 470 1 345 1 189 1 183 1 72 1 224 1 448 1 99 1 80 1 377 1 202 1 173 1 241 1 174 1 365 1 170 1 307 2 169 1 47 1 113 1 196 2 499 2 178 1 299 1 464 1 400 1 120 1 90 1 115 1 474 2 231 1 340 1 344 1 145 1 61 1 88 1 346 1 104 1 475 1 301 1 111 1 458 1 168 2 352 1 161 1 4 1 23 1 36 1 38 1 44 1 64 1 66 1 77 1 81 1 86 1 92 1 94 1 95 1 97 1 103 1 126 1 128 1 149 1 155 1 157 1 160 1 162 1 164 1 176 1 182 1 197 1 208 1 216 1 236 1 244 1 247 1 257 1 266 1 288 1 291 1 296 1 306 1 310 1 318 1 327 1 328 1 338 1 339 1 395 1 402 1 422 1 433 1 438 1 439 1 453 1 463 1 495 1 517 1 
1 195 306 1 452 1 112 1 141 2 433 1 294 1 139 1 456 1 423 1 91 1 420 1 165 1 411 1 196 1 328 1 166 1 147 1 48 1 99 1 225 1 276 1 145 1 150 1 227 1 158 1 439 1 11 1 60 1 303 1 262 2 38 1 28 1 68 1 241 1 485 1 14 1 188 1 120 1 307 1 277 2 108 1 250 2 88 1 425 1 293 1 43 1 300 1 454 1 254 1 398 1 496 1 8 1 17 1 23 1 46 1 47 1 65 1 69 1 71 1 85 1 87 1 94 1 95 1 101 1 103 1 127 1 134 1 144 1 152 1 154 1 160 1 177 1 184 1 191 1 192 1 194 1 200 1 208 1 215 1 223 1 229 1 233 1 236 1 253 1 269 1 275 1 284 1 286 1 308 1 310 1 313 1 331 1 332 1 339 1 354 1 355 1 357 1 361 1 379 1 383 1 391 1 393 1 402 1 419 1 431 1 432 1 470 1 472 1 499 1 
1 217 1 1 2 1 5 1 49 1 259 1 70 2 305 1 104 1 272 2 96 1 97 1 450 1 269 1 201 1 445 1 114 1 351 1 373 1 157 1 121 1 69 1 174 1 331 1 224 1 42 1 437 1 19 1 226 1 233 2 394 1 132 1 328 1 92 1 81 1 325 2 21 1 449 1 463 1 64 1 376 2 200 1 281 1 353 1 455 1 235 1 395 1 285 2 434 1 165 1 347 1 67 1 362 1 473 1 280 1 7 1 20 1 32 1 37 1 39 1 55 1 63 1 72 1 85 1 90 1 98 1 99 1 116 1 122 1 134 1 155 1 203 1 213 1 218 1 225 1 230 1 241 1 268 1 286 1 293 1 301 1 312 1 327 1 333 1 336 1 342 1 348 1 352 1 360 1 365 1 402 1 419 1 422 1 426 1 433 1 451 1 456 1 457 1 459 1 466 1 468 1 476 1 479 1 487 1 492 1 519 1 
1 203 287 1 74 1 71 2 336 1 460 1 38 1 284 1 201 2 407 1 402 1 433 1 328 1 81 2 10 1 426 1 195 1 392 2 14 1 129 1 212 1 235 1 118 2 164 2 142 1 362 1 459 1 252 2 65 1 273 1 396 1 61 1 40 1 309 1 424 2 58 1 248 2 436 1 169 1 87 1 453 1 185 1 36 1 104 1 281 1 188 1 159 1 256 1 183 1 431 1 282 1 452 1 355 1 413 1 33 1 372 1 403 1 477 1 223 1 31 1 35 1 41 1 62 1 68 1 86 1 95 1 110 1 132 1 141 1 143 1 152 1 168 1 178 1 186 1 199 1 203 1 205 1 207 1 220 1 221 1 232 1 253 1 268 1 278 1 302 1 305 1 319 1 325 1 333 1 354 1 361 1 376 1 381 1 398 1 400 1 411 1 415 1 423 1 425 1 430 1 435 1 457 1 458 1 462 1 465 1 496 1 
1 204 5 1 9 1 170 1 305 1 456 1 277 1 408 1 349 1 132 1 405 1 199 1 415 1 43 1 256 1 115 2 260 1 77 1 399 2 208 1 156 1 72 1 306 1 332 1 371 1 337 1 457 1 266 1 206 1 397 1 125 1 431 1 210 1 495 1 318 1 191 1 129 1 155 1 466 1 67 1 223 2 329 2 106 1 87 1 293 1 152 1 179 1 381 1 178 1 31 1 252 1 402 2 14 1 25 1 26 1 28 1 38 1 47 1 51 1 66 1 68 1 69 1 70 1 73 1 82 1 85 1 86 1 88 1 97 1 116 1 122 1 142 1 144 1 154 1 182 1 205 1 219 1 222 1 225 1 227 1 229 1 232 1 243 1 245 1 259 1 273 1 280 1 281 1 287 1 301 1 334 1 339 1 364 1 366 1 370 1 374 1 388 1 390 1 401 1 424 1 430 1 440 1 442 1 464 1 473 1 480 1 491 1 510 1 519 1 
1 220 5 1 7 1 372 1 460 1 357 1 403 1 249 2 164 1 296 1 186 2 126 2 297 1 35 1 227 1 352 1 161 1 215 1 312 2 369 1 430 1 359 2 55 2 202 1 166 1 88 1 457 1 123 1 344 1 441 1 151 1 258 1 206 1 285 1 315 1 13 1 208 1 376 1 246 1 245 1 142 1 39 2 51 1 349 1 358 1 110 2 388 1 409 1 294 1 414 2 236 1 387 2 431 1 224 1 129 1 229 1 199 1 102 1 497 1 125 1 176 1 396 1 16 1 19 1 25 1 36 1 42 1 56 1 72 1 74 1 117 1 127 1 148 1 156 1 163 1 173 1 181 1 188 1 189 1 195 1 200 1 213 1 219 1 228 1 251 1 252 1 253 1 270 1 271 1 292 1 303 1 305 1 326 1 340 1 346 1 368 1 385 1 393 1 404 1 408 1 412 1 415 1 417 1 456 1 464 1 465 1 469 1 477 1 505 1 516 1 
1 202 367 1 125 1 41 1 262 1 363 1 264 1 57 1 128 1 275 1 440 1 344 1 258 1 189 1 333 1 209 1 208 1 111 1 153 1 377 1 375 1 219 1 129 1 385 2 234 1 178 1 457 1 73 1 85 1 405 1 54 1 252 1 235 1 386 1 176 1 328 1 301 1 43 1 233 1 261 2 397 2 433 1 364 1 71 1 287 1 286 1 388 2 260 1 284 1 383 1 392 1 170 1 452 1 84 1 26 1 131 1 185 1 53 1 419 1 404 1 50 2 14 1 21 1 33 1 39 1 47 1 48 1 58 1 67 1 83 1 90 1 97 1 98 1 101 1 106 1 112 1 158 1 172 1 175 1 181 1 188 1 194 1 210 1 214 1 226 1 227 1 236 1 253 1 257 1 265 1 272 1 278 1 285 1 297 1 311 1 314 1 321 1 329 1 340 1 349 1 351 1 361 1 370 1 374 1 379 1 391 1 436 1 442 1 453 1 454 1 478 1 488 1 
1 212 11 1 105 1 192 1 439 2 326 1 136 1 372 1 168 2 416 1 309 1 459 1 85 1 460 1 130 1 269 1 66 1 351 2 354 1 239 1 334 1 370 1 109 2 257 1 396 1 216 1 24 1 127 2 137 2 161 2 330 1 320 2 89 1 495 1 446 1 379 1 288 1 359 1 302 1 292 1 79 1 141 1 55 1 357 1 412 1 189 1 355 1 256 1 96 1 3 1 21 1 28 1 40 1 57 1 62 1 67 1 68 1 83 1 86 1 88 1 111 1 115 1 144 1 146 1 147 1 152 1 154 1 157 1 158 1 169 1 175 1 180 1 195 1 206 1 219 1 232 1 242 1 249 1 253 1 254 1 259 1 264 1 280 1 282 1 301 1 328 1 331 1 339 1 348 1 350 1 358 1 360 1 361 1 373 1 401 1 407 1 414 1 419 1 421 1 429 1 437 1 442 1 447 1 451 1 455 1 456 1 462 1 467 1 472 1 473 1 498 1 510 1 520 1 
1 209 7 1 9 1 275 1 129 1 236 1 265 1 365 1 435 1 439 2 158 1 169 1 243 1 397 1 134 1 461 2 291 1 322 1 340 1 60 1 401 1 336 1 148 1 456 1 384 1 310 1 262 2 113 2 70 1 453 2 378 1 152 2 92 1 311 1 426 1 317 1 249 2 364 1 199 2 73 1 326 1 354 2 363 1 418 1 183 2 204 1 276 1 207 1 55 1 394 1 475 1 358 1 44 1 309 1 133 1 141 1 468 1 54 1 147 1 170 1 1 1 10 1 12 1 45 1 49 1 52 1 67 1 69 1 71 1 82 1 85 1 86 1 98 1 110 1 114 1 117 1 128 1 135 1 149 1 153 1 156 1 157 1 167 1 173 1 203 1 214 1 216 1 230 1 231 1 233 1 252 1 257 1 261 1 264 1 271 1 295 1 298 1 299 1 307 1 308 1 321 1 328 1 334 1 345 1 377 1 395 1 398 1 412 1 425 1 434 1 437 1 445 1 465 1 479 1 481 1 490 1 
1 212 367 1 310 1 106 1 127 1 156 1 132 2 155 2 233 1 474 2 48 1 282 1 479 2 223 1 126 1 202 1 122 1 429 1 175 1 372 1 420 2 89 2 401 1 278 1 361 1 285 1 96 1 46 1 349 1 464 1 52 1 134 1 266 1 298 1 242 2 313 1 26 1 179 1 47 1 102 1 252 1 450 1 394 1 72 1 129 1 194 1 388 1 315 2 21 1 319 1 168 1 235 1 208 1 463 1 66 1 272 1 256 1 326 2 152 1 230 1 250 1 468 1 42 1 325 1 328 1 177 1 436 1 281 1 31 1 320 1 414 1 38 1 43 1 83 1 85 1 88 1 94 1 98 1 101 1 115 1 124 1 131 1 157 1 167 1 169 1 184 1 187 1 195 1 209 1 212 1 216 1 248 1 254 1 261 1 312 1 314 1 322 1 327 1 337 1 345 1 347 1 353 1 354 1 360 1 364 1 366 1 378 1 379 1 386 1 389 1 390 1 393 1 396 1 415 1 424 1 427 1 437 1 442 1 447 1 460 1 467 1 473 1 483 1 503 1 515 1 
1 209 203 1 295 1 74 1 392 2 200 1 382 1 464 2 73 1 77 1 442 1 87 1 207 1 247 1 474 1 122 1 335 1 461 1 118 1 441 1 322 2 305 1 243 1 296 2 476 1 71 1 430 1 237 1 435 2 369 1 298 1 146 2 346 1 367 1 89 2 270 1 189 1 308 1 333 1 445 1 186 1 226 1 161 1 311 2 124 1 86 1 424 1 477 1 144 2 427 1 49 1 446 1 210 1 455 1 439 1 393 1 158 1 11 1 18 1 44 1 55 1 56 1 58 1 59 1 64 1 84 1 92 1 121 1 126 1 132 1 133 1 156 1 176 1 181 1 182 1 214 1 217 1 250 1 251 1 252 1 256 1 261 1 271 1 284 1 297 1 307 1 316 1 334 1 352 1 371 1 377 1 380 1 385 1 400 1 401 1 402 1 408 1 420 1 426 1 436 1 444 1 459 1 473 1 487 1 504 1 511 1 513 1 514 1 515 1 
1 236 3 2 229 1 391 1 242 1 187 1 355 1 375 2 200 1 471 1 137 1 368 1 110 1 247 1 120 2 288 2 222 1 18 1 163 2 244 1 389 2 482 1 390 1 467 1 442 1 354 2 401 2 277 1 40 1 405 1 271 1 186 1 376 1 421 1 327 1 191 1 42 2 478 1 428 1 472 1 251 1 360 1 148 1 449 1 303 1 193 1 480 1 312 1 284 1 29 1 88 1 278 2 196 1 237 1 103 1 172 1 58 1 322 1 7 1 22 1 23 1 25 1 46 1 54 1 71 1 80 1 86 1 109 1 118 1 129 1 130 1 131 1 141 1 143 1 153 1 159 1 168 1 171 1 173 1 177 1 183 1 194 1 202 1 219 1 220 1 232 1 249 1 253 1 254 1 256 1 259 1 266 1 273 1 289 1 307 1 313 1 318 1 323 1 326 1 328 1 357 1 364 1 380 1 384 1 392 1 393 1 411 1 416 1 418 1 425 1 431 1 434 1 438 1 440 1 443 1 448 1 455 1 461 1 463 1 466 1 469 1 483 1 505 1 506 1 
1 214 17 1 318 1 140 1 150 2 91 1 368 1 125 1 204 1 333 2 401 1 118 1 199 1 431 1 232 1 400 1 377 1 320 1 439 1 154 2 107 1 247 1 256 1 462 1 63 1 161 1 145 1 340 1 451 1 99 1 264 1 371 1 442 1 249 1 45 1 25 1 147 1 425 1 244 1 76 2 138 2 299 1 408 2 423 1 388 1 231 1 323 1 57 2 452 1 174 1 343 1 156 1 218 2 360 1 441 1 405 1 16 1 19 1 40 1 42 1 56 1 61 1 65 1 82 1 85 1 86 1 103 1 117 1 139 1 149 1 153 1 163 1 164 1 167 1 172 1 175 1 183 1 191 1 195 1 197 1 201 1 210 1 211 1 223 1 236 1 250 1 255 1 282 1 285 1 286 1 287 1 295 1 312 1 316 1 326 1 334 1 345 1 359 1 362 1 364 1 365 1 367 1 382 1 406 1 413 1 414 1 426 1 440 1 458 1 472 1 473 1 476 1 480 1 482 1 508 1 
1 202 8 1 189 1 290 1 96 1 351 1 419 1 369 1 252 1 457 1 42 2 335 1 102 1 357 1 67 1 95 1 297 1 206 1 272 1 383 1 414 1 421 2 90 1 186 1 348 1 97 1 433 1 427 1 355 1 117 2 306 1 140 1 238 1 143 1 53 1 293 1 29 1 334 1 165 1 278 2 476 1 440 1 223 2 101 1 236 1 243 1 314 1 195 1 362 1 274 1 46 2 170 1 447 1 32 1 246 1 406 1 484 1 456 1 375 1 11 1 18 1 21 1 30 1 49 1 57 1 61 1 65 1 74 1 93 1 108 1 112 1 115 1 121 1 125 1 127 1 128 1 129 1 132 1 136 1 138 1 148 1 150 1 173 1 194 1 196 1 199 1 212 1 214 1 221 1 222 1 230 1 232 1 263 1 268 1 269 1 271 1 285 1 287 1 316 1 317 1 337 1 343 1 378 1 384 1 413 1 417 1 422 1 445 1 449 1 451 1 452 1 453 1 468 1 474 1 498 1 506 1 
1 188 5 1 414 1 333 1 299 2 349 1 204 1 300 1 124 1 157 1 285 1 279 1 82 1 148 1 473 1 212 1 123 1 59 1 217 1 251 1 22 1 478 2 466 1 312 2 64 1 92 1 484 1 474 1 301 1 424 1 91 1 291 1 454 1 120 2 260 1 238 1 159 1 296 1 139 1 152 1 235 1 324 1 477 1 434 1 377 1 43 1 167 1 23 1 188 1 230 1 47 1 191 1 346 1 264 1 186 1 408 1 360 1 50 1 449 2 185 2 283 1 428 1 76 1 490 1 165 1 8 1 34 1 55 1 58 1 61 1 65 1 70 1 74 1 83 1 87 1 96 1 98 1 99 1 101 1 108 1 110 1 140 1 158 1 161 1 169 1 170 1 177 1 180 1 193 1 223 1 226 1 229 1 231 1 249 1 292 1 298 1 329 1 339 1 350 1 357 1 366 1 382 1 389 1 402 1 411 1 435 1 442 1 445 1 452 1 459 1 465 1 472 1 494 1 
1 204 5 1 8 1 15 1 432 1 174 1 331 1 105 1 159 1 343 1 69 1 255 1 443 1 239 1 57 1 398 1 262 1 409 1 367 1 187 1 261 1 317 1 157 1 445 1 109 1 337 2 49 2 167 1 87 1 30 1 379 1 474 1 380 1 366 1 265 1 28 1 26 1 43 2 373 1 147 1 485 1 288 2 444 1 135 1 383 1 136 1 352 2 425 1 218 1 223 1 3 1 12 1 13 1 19 1 56 1 58 1 60 1 61 1 74 1 75 1 89 1 93 1 97 1 116 1 119 1 128 1 132 1 137 1 138 1 140 1 165 1 166 1 168 1 169 1 184 1 190 1 202 1 205 1 208 1 209 1 217 1 229 1 245 1 273 1 290 1 293 1 307 1 329 1 330 1 355 1 392 1 400 1 403 1 407 1 437 1 453 1 454 1 460 1 461 1 467 1 473 1 475 1 481 1 504 1 
1 204 4 1 20 1 339 1 300 1 380 1 282 1 325 1 415 1 227 1 336 1 368 1 424 1 426 1 208 1 122 2 344 1 173 1 251 2 473 1 295 1 447 1 362 1 234 1 136 2 396 1 150 1 323 2 476 2 402 1 56 1 442 2 305 1 367 1 203 1 452 1 366 1 101 1 430 1 403 1 303 1 280 1 51 1 46 1 439 1 219 1 385 1 437 1 297 1 340 1 433 1 404 1 245 1 322 1 421 1 276 1 26 1 17 1 27 1 32 1 52 1 74 1 82 1 83 1 85 1 96 1 113 1 117 1 141 1 145 1 146 1 161 1 162 1 165 1 166 1 171 1 194 1 199 1 205 1 207 1 209 1 216 1 223 1 233 1 238 1 247 1 258 1 275 1 279 1 284 1 287 1 289 1 301 1 304 1 311 1 316 1 345 1 387 1 389 1 414 1 451 1 457 1 462 1 463 1 465 1 
1 191 20 1 58 1 168 1 470 1 159 1 457 1 262 1 238 1 300 2 150 1 355 1 67 1 74 1 234 2 411 1 269 1 447 1 236 1 375 1 459 1 414 1 87 1 363 1 245 1 451 1 184 1 400 1 115 1 398 1 291 1 377 1 59 1 258 1 484 1 464 1 256 2 44 1 122 1 196 1 294 2 386 1 335 1 439 1 51 1 404 1 102 1 373 1 270 1 285 1 327 1 496 1 323 1 6 1 7 1 17 1 80 1 83 1 96 1 100 1 133 1 148 1 151 1 162 1 177 1 185 1 197 1 199 1 204 1 206 1 215 1 266 1 306 1 326 1 332 1 345 1 351 1 359 1 360 1 362 1 374 1 381 1 395 1 402 1 416 1 424 1 436 1 442 1 462 1 483 1 485 1 487 1 498 1 516 1 
1 207 13 1 280 1 400 1 232 1 124 2 80 1 145 1 357 2 251 1 359 1 104 1 143 1 196 1 358 1 102 1 455 1 155 1 253 1 466 2 174 1 76 1 228 1 55 1 172 2 194 1 408 1 345 1 335 1 192 1 302 1 51 1 265 1 79 1 183 1 317 1 360 1 331 1 478 1 458 1 327 1 353 2 70 1 244 1 297 1 384 2 115 1 429 1 322 1 148 1 461 2 403 2 292 1 291 2 50 1 54 1 61 1 84 1 87 1 88 1 93 1 103 1 128 1 133 1 138 1 158 1 163 1 168 1 173 1 186 1 195 1 200 1 208 1 212 1 217 1 218 1 221 1 225 1 237 1 247 1 248 1 250 1 258 1 260 1 263 1 269 1 277 1 286 1 304 1 343 1 349 1 350 1 351 1 373 1 388 1 389 1 404 1 428 1 436 1 437 1 445 1 447 1 453 1 473 1 475 1 521 1 
1 206 3 1 18 1 138 1 486 1 112 2 445 1 194 1 428 1 107 1 284 1 274 2 103 2 273 1 267 1 295 1 258 1 325 1 424 1 320 1 210 1 164 1 377 1 205 1 477 1 239 1 45 1 55 1 306 1 336 1 293 1 188 1 303 1 280 1 401 1 77 1 472 1 344 1 232 1 334 1 252 1 121 1 157 2 10 1 11 1 17 1 47 1 54 1 62 1 81 1 85 1 94 1 102 1 127 1 131 1 153 1 159 1 161 1 163 1 172 1 176 1 191 1 201 1 208 1 218 1 220 1 223 1 225 1 233 1 247 1 250 1 262 1 271 1 285 1 297 1 298 1 302 1 305 1 309 1 313 1 316 1 324 1 347 1 350 1 376 1 383 1 398 1 408 1 412 1 421 1 433 1 439 1 443 1 453 1 467 1 478 1 488 1 503 1 507 1 
1 207 12 1 15 1 21 1 22 1 100 1 476 1 450 1 236 1 443 1 135 1 299 1 188 1 422 1 173 1 404 2 94 1 98 1 185 1 270 1 403 2 284 1 209 1 463 1 442 1 219 1 336 1 315 1 424 1 447 1 338 1 214 1 197 1 370 1 193 1 278 1 316 1 451 1 191 1 258 1 341 1 423 1 354 2 342 1 36 1 380 1 198 1 405 1 61 1 235 2 358 2 330 1 62 1 233 1 5 1 10 1 28 1 38 1 48 1 50 1 55 1 58 1 60 1 63 1 65 1 68 1 76 1 81 1 85 1 146 1 148 1 165 1 168 1 182 1 199 1 210 1 223 1 225 1 231 1 238 1 246 1 247 1 248 1 264 1 279 1 304 1 326 1 327 1 335 1 351 1 360 1 402 1 416 1 418 1 420 1 421 1 425 1 441 1 444 1 466 1 470 1 472 1 477 1 496 1 
1 204 1 1 2 1 387 2 428 1 301 1 65 1 192 1 305 1 406 1 423 1 444 1 128 1 469 1 185 1 409 1 472 1 70 1 306 1 312 1 111 1 52 1 458 1 307 1 136 1 248 1 468 1 373 1 166 1 278 1 396 2 125 1 443 1 459 1 290 2 143 1 431 1 322 2 400 1 57 1 485 1 260 1 246 1 176 1 79 1 258 1 63 1 170 1 425 1 343 1 32 1 254 1 483 1 410 1 94 1 220 1 39 1 154 2 211 1 464 1 450 1 73 1 366 1 22 1 40 1 62 1 66 1 67 1 68 1 77 1 82 1 90 1 101 1 104 1 105 1 113 1 115 1 127 1 133 1 141 1 158 1 162 1 169 1 173 1 183 1 193 1 219 1 231 1 238 1 284 1 287 1 297 1 317 1 318 1 321 1 326 1 338 1 347 1 355 1 367 1 370 1 388 1 389 1 393 1 417 1 433 1 441 1 442 1 481 1 501 1 
1 205 7 1 21 1 154 1 100 1 404 2 185 1 467 1 174 1 494 1 144 1 480 1 231 1 434 1 111 1 181 1 393 1 460 1 492 1 99 1 170 2 70 1 262 2 255 1 118 1 424 1 228 2 324 1 163 1 358 2 96 1 392 2 267 1 445 1 371 1 207 1 279 1 368 1 304 1 190 1 71 1 394 1 37 1 33 1 121 1 192 1 254 1 365 1 264 2 212 1 375 1 171 1 129 1 39 2 5 1 10 1 13 1 26 1 53 1 60 1 64 1 76 1 94 1 103 1 109 1 119 1 127 1 132 1 148 1 152 1 161 1 168 1 180 1 183 1 203 1 205 1 214 1 229 1 235 1 238 1 250 1 260 1 282 1 288 1 328 1 333 1 341 1 347 1 348 1 351 1 364 1 384 1 396 1 398 1 415 1 430 1 435 1 442 1 444 1 447 1 453 1 514 1 518 1 
1 221 17 1 19 1 445 1 213 1 411 1 377 1 184 1 260 1 245 2 153 1 181 2 292 1 276 1 362 1 146 2 357 1 423 1 165 1 273 1 352 1 247 2 135 1 162 1 282 1 30 1 378 1 294 1 315 1 387 1 299 1 173 1 136 1 326 1 168 1 401 1 190 1 286 1 115 1 475 1 48 1 93 1 116 1 235 1 101 1 219 1 462 2 52 1 332 1 227 2 71 2 303 1 49 2 198 1 448 1 335 1 279 1 108 2 483 1 87 1 39 1 59 1 69 1 78 1 85 1 98 1 125 1 132 1 142 1 143 1 183 1 185 1 207 1 210 1 211 1 228 1 242 1 251 1 255 1 259 1 274 1 281 1 301 1 312 1 347 1 351 1 366 1 367 1 381 1 389 1 391 1 394 1 396 1 399 1 406 1 422 1 428 1 430 1 441 1 446 1 450 1 456 1 460 1 464 1 465 1 468 1 469 1 472 1 482 1 489 1 509 1 520 1 
1 211 21 1 29 1 497 1 128 1 55 1 63 1 121 1 387 1 307 1 186 2 108 1 141 1 475 1 399 1 142 1 301 1 343 1 379 2 198 1 381 1 79 1 376 2 259 2 305 1 350 1 185 2 382 1 298 1 474 1 183 1 34 2 37 1 107 1 469 1 423 1 316 1 355 1 408 1 203 1 467 1 106 1 197 1 272 1 215 1 486 1 394 1 68 1 392 1 81 2 102 1 470 1 222 1 43 1 44 1 276 1 291 1 19 1 32 1 35 1 39 1 53 1 58 1 64 1 74 1 111 1 112 1 117 1 119 1 147 1 152 1 166 1 204 1 220 1 228 1 236 1 239 1 245 1 246 1 248 1 264 1 270 1 275 1 278 1 280 1 296 1 304 1 313 1 324 1 354 1 365 1 370 1 373 1 375 1 393 1 400 1 401 1 405 1 422 1 431 1 435 1 451 1 454 1 456 1 462 1 463 1 466 1 500 1 514 1 515 1 
1 200 10 1 15 1 274 1 401 1 56 2 119 1 298 1 384 2 403 1 126 1 100 1 101 2 129 1 314 1 372 2 202 1 237 1 465 1 124 1 463 1 392 1 258 1 488 1 320 1 423 1 66 1 161 1 388 1 455 1 367 2 324 1 397 1 71 1 382 1 192 1 45 1 414 1 269 1 450 1 369 1 245 1 37 1 184 1 326 1 386 2 468 1 216 1 58 1 139 1 218 1 279 1 163 1 189 2 273 1 98 1 243 1 228 1 319 1 42 1 385 1 9 1 64 1 72 1 75 1 87 1 94 1 95 1 116 1 118 1 122 1 131 1 146 1 156 1 181 1 182 1 183 1 191 1 199 1 209 1 213 1 215 1 222 1 238 1 263 1 265 1 281 1 285 1 289 1 290 1 297 1 302 1 315 1 332 1 335 1 339 1 354 1 373 1 376 1 380 1 389 1 413 1 415 1 416 1 425 1 430 1 432 1 479 1 495 1 506 1 509 1 514 1 
1 215 19 1 27 1 341 1 346 1 160 1 455 1 246 1 92 1 499 1 488 2 144 1 127 1 460 1 317 2 89 1 78 1 235 1 237 1 434 1 461 1 65 1 337 1 126 1 413 1 281 2 489 1 333 1 329 1 279 1 232 2 322 1 178 2 205 1 85 1 417 1 150 1 151 1 112 1 181 2 79 1 87 1 494 1 101 2 481 1 304 2 113 1 306 1 477 1 249 1 274 1 315 1 71 2 260 1 298 1 288 1 154 1 324 1 431 1 371 1 42 2 199 1 257 2 109 1 82 1 273 2 1 1 8 1 22 1 30 1 58 1 62 1 64 1 68 1 96 1 121 1 124 1 132 1 153 1 157 1 163 1 168 1 188 1 194 1 203 1 210 1 222 1 239 1 240 1 247 1 256 1 259 1 266 1 296 1 297 1 309 1 311 1 318 1 327 1 330 1 336 1 347 1 363 1 383 1 388 1 400 1 404 1 415 1 428 1 451 1 464 1 475 1 495 1 517 1 
1 199 9 1 28 1 302 1 240 1 362 1 376 1 378 1 373 1 199 1 183 1 181 1 273 1 242 1 158 1 67 1 323 1 65 1 418 1 423 1 226 1 481 1 394 1 182 1 222 1 453 1 160 1 289 1 463 1 278 1 236 1 66 1 331 1 43 1 118 1 447 1 495 1 136 1 293 1 98 1 63 1 330 1 337 2 157 1 238 1 328 1 147 1 360 1 202 1 355 1 280 2 269 1 211 1 198 1 4 1 12 1 85 1 90 1 100 1 128 1 134 1 137 1 144 1 150 1 163 1 197 1 205 1 210 1 216 1 227 1 248 1 251 1 253 1 264 1 266 1 274 1 281 1 283 1 285 1 296 1 297 1 311 1 316 1 364 1 374 1 375 1 385 1 388 1 397 1 403 1 405 1 406 1 415 1 422 1 427 1 435 1 448 1 449 1 456 1 489 1 491 1 492 1 493 1 499 1 515 1 
1 205 6 1 30 2 451 1 483 1 444 1 499 1 261 1 299 1 106 1 168 1 317 1 365 1 398 1 272 1 115 1 146 1 90 1 147 1 386 1 38 1 148 1 138 2 102 1 429 1 402 1 203 1 356 1 364 1 82 1 120 1 196 2 153 1 379 1 260 1 220 1 77 1 244 1 405 1 286 1 374 2 290 1 347 1 470 1 461 1 335 1 257 1 467 1 438 1 185 1 83 2 36 1 229 1 84 1 189 1 465 1 184 1 52 1 294 2 305 1 199 1 404 1 413 1 55 1 329 1 280 1 446 2 150 1 20 1 44 1 73 1 92 1 114 1 128 1 151 1 162 1 163 1 178 1 190 1 214 1 217 1 224 1 227 1 241 1 250 1 254 1 284 1 293 1 297 1 309 1 315 1 322 1 355 1 366 1 373 1 406 1 412 1 419 1 423 1 426 1 433 1 434 1 436 1 447 1 450 1 455 1 458 1 468 1 469 1 480 1 481 1 487 1 491 1 497 1 515 1 
1 212 3 1 11 1 109 1 142 1 475 1 360 1 478 1 385 1 82 1 453 1 494 1 394 1 441 1 354 1 397 1 158 1 373 1 470 1 491 1 297 2 480 1 240 1 103 1 435 1 97 1 113 1 310 1 461 1 76 1 268 1 415 1 377 2 474 1 300 1 293 1 228 1 135 1 327 1 332 1 148 1 353 2 384 1 477 1 338 1 203 1 445 1 320 1 419 1 195 1 147 1 333 1 129 1 267 1 121 1 331 1 52 1 433 2 369 1 1 1 2 1 5 1 9 1 30 1 40 1 51 1 59 1 69 1 79 1 87 1 88 1 93 1 98 1 130 1 136 1 146 1 149 1 152 1 157 1 162 1 169 1 179 1 184 1 186 1 201 1 234 1 247 1 261 1 276 1 280 1 285 1 287 1 292 1 295 1 307 1 319 1 324 1 328 1 342 1 348 1 349 1 362 1 364 1 390 1 404 1 407 1 418 1 430 1 436 1 440 1 455 1 456 1 459 1 460 1 492 1 505 1 508 1 517 1 
1 194 1 1 9 1 26 1 34 1 188 1 356 1 399 1 484 2 324 2 147 1 269 1 87 1 232 1 305 2 353 1 297 1 105 1 284 1 272 1 150 1 173 2 497 1 44 1 285 2 490 1 395 1 295 1 345 1 368 1 330 1 127 1 182 1 244 1 99 1 200 2 415 1 288 2 155 1 181 1 204 1 301 1 48 1 152 1 409 1 319 1 428 1 480 1 239 1 183 2 339 1 311 2 420 1 332 1 342 1 205 1 218 1 465 1 187 1 6 1 11 1 54 1 78 1 79 1 82 1 84 1 90 1 103 1 116 1 120 1 144 1 157 1 160 1 172 1 186 1 196 1 208 1 212 1 220 1 222 1 249 1 260 1 283 1 287 1 328 1 337 1 354 1 376 1 380 1 388 1 389 1 405 1 425 1 429 1 434 1 436 1 454 1 455 1 460 1 467 1 468 1 474 1 498 1 
1 207 2 1 28 1 30 1 31 1 340 1 402 2 432 1 463 1 160 1 327 1 248 1 434 1 173 1 389 1 121 1 270 1 142 1 88 1 193 1 259 1 119 1 213 1 478 1 487 1 359 1 354 1 403 1 440 1 496 1 476 1 246 2 492 1 178 1 461 2 177 1 92 1 228 2 250 1 200 1 358 1 216 1 113 1 226 1 238 1 260 1 497 1 338 1 491 1 47 2 96 1 451 1 1 1 5 1 8 1 49 1 54 1 86 1 90 1 97 1 103 1 112 1 117 1 133 1 152 1 156 1 158 1 161 1 168 1 176 1 185 1 188 1 192 1 204 1 214 1 229 1 233 1 236 1 242 1 254 1 255 1 261 1 265 1 267 1 279 1 298 1 310 1 326 1 328 1 331 1 350 1 356 1 371 1 374 1 377 1 381 1 386 1 405 1 433 1 435 1 438 1 439 1 452 1 455 1 462 1 464 1 472 1 474 1 486 1 488 1 
1 219 7 1 9 1 34 1 271 1 260 1 85 2 237 1 155 1 74 2 442 1 402 2 288 1 409 1 76 1 362 2 389 1 245 2 335 1 146 1 450 1 184 1 137 1 355 1 73 1 416 1 266 1 51 1 337 1 427 1 297 1 364 1 370 1 109 1 163 1 275 2 134 1 157 1 446 1 368 1 200 1 175 1 475 1 243 1 462 1 213 1 120 1 273 1 289 1 3 1 6 1 10 1 15 1 26 1 39 1 77 1 78 1 79 1 81 1 87 1 98 1 102 1 106 1 114 1 116 1 130 1 132 1 140 1 148 1 170 1 186 1 210 1 216 1 224 1 228 1 232 1 235 1 241 1 250 1 252 1 254 1 263 1 265 1 267 1 268 1 287 1 295 1 311 1 315 1 331 1 336 1 344 1 347 1 369 1 378 1 384 1 387 1 388 1 429 1 437 1 439 1 449 1 451 1 466 1 468 1 481 1 492 1 499 1 503 1 504 1 517 1 519 1 
1 213 3 1 11 2 27 1 28 2 449 1 207 1 224 1 115 1 309 1 286 1 409 1 323 1 107 1 125 1 106 1 74 2 284 1 98 1 205 1 456 1 194 1 375 1 374 2 122 1 134 1 235 1 92 2 150 1 441 1 405 1 465 1 164 1 493 2 229 1 451 1 453 1 410 1 419 1 379 1 365 2 218 1 145 1 206 1 272 1 247 1 178 1 413 1 404 1 112 1 158 2 257 1 113 2 262 1 71 1 110 1 8 1 12 1 29 1 30 1 38 1 46 1 62 1 87 1 89 1 93 1 94 1 111 1 151 1 153 1 154 1 165 1 172 1 175 1 196 1 204 1 210 1 220 1 221 1 226 1 237 1 256 1 263 1 266 1 279 1 283 1 300 1 319 1 320 1 340 1 341 1 348 1 361 1 369 1 422 1 427 1 432 1 469 1 480 1 486 1 487 1 496 1 511 1 519 1 521 1 
1 188 9 1 17 1 207 1 212 1 119 1 149 1 111 1 220 1 427 1 260 1 219 2 452 1 473 1 199 1 102 1 342 1 303 2 89 2 90 1 328 1 385 1 225 2 126 1 273 1 201 1 363 1 418 1 272 2 463 1 195 1 218 1 322 2 162 1 357 1 52 1 97 1 242 1 54 1 145 1 224 1 438 1 489 1 79 1 91 1 41 1 399 1 88 1 166 1 378 2 312 1 434 1 348 1 157 1 337 1 105 1 280 2 140 1 123 1 184 1 425 1 132 1 495 1 382 1 42 2 433 1 203 1 222 2 223 1 13 1 18 1 27 1 35 1 61 1 104 1 108 1 122 1 147 1 165 1 168 1 178 1 208 1 209 1 226 1 229 1 235 1 248 1 254 1 266 1 267 1 278 1 285 1 292 1 318 1 347 1 364 1 377 1 383 1 386 1 388 1 400 1 406 1 413 1 444 1 457 1 462 1 471 1 477 1 479 1 
1 220 12 1 40 1 335 1 344 1 183 1 402 1 157 1 424 1 394 2 108 1 115 1 332 1 358 1 184 1 351 1 419 1 383 1 270 2 83 1 175 2 354 1 281 1 103 1 156 1 444 1 406 1 186 1 171 1 473 1 409 1 155 1 380 1 74 1 237 1 220 1 263 1 484 1 307 1 279 1 162 1 105 1 432 1 463 1 489 1 338 1 403 1 295 1 1 1 9 1 68 1 81 1 90 1 96 1 116 1 127 1 151 1 159 1 163 1 164 1 182 1 193 1 196 1 203 1 205 1 206 1 221 1 222 1 228 1 239 1 261 1 265 1 272 1 276 1 305 1 309 1 330 1 333 1 336 1 340 1 352 1 361 1 365 1 369 1 379 1 382 1 384 1 387 1 390 1 393 1 398 1 412 1 417 1 440 1 451 1 458 1 465 1 466 1 468 1 477 1 485 1 487 1 488 1 492 1 495 1 500 1 518 1 
1 205 2 1 8 1 15 1 17 2 19 2 31 1 32 2 40 2 85 1 417 1 284 2 386 1 433 1 443 1 162 1 431 1 442 1 485 1 409 1 475 2 423 1 48 1 182 1 300 1 43 1 154 2 391 1 323 2 470 1 467 1 221 1 174 1 360 1 148 1 145 1 487 1 180 2 52 1 254 1 471 1 279 1 118 1 437 1 370 1 236 1 93 1 399 2 411 1 354 1 310 1 51 1 105 1 410 1 218 1 456 2 149 1 281 1 480 1 11 1 18 1 59 1 101 1 107 1 111 1 115 1 133 1 171 1 177 1 192 1 197 1 210 1 223 1 235 1 241 1 249 1 283 1 286 1 291 1 297 1 314 1 317 1 334 1 340 1 346 1 351 1 400 1 403 1 404 1 435 1 463 1 469 1 473 1 477 1 478 1 479 1 483 1 492 1 498 1 513 1 
1 215 7 1 10 1 12 1 20 1 21 2 30 1 33 1 42 1 467 1 475 1 190 1 217 1 424 1 276 1 297 1 459 1 396 1 286 1 346 1 187 1 344 1 387 1 195 1 147 1 496 1 95 1 219 1 320 2 270 1 122 1 359 2 374 1 60 1 224 1 223 1 91 1 447 1 330 2 480 2 364 1 415 1 416 1 294 1 337 1 461 1 205 1 492 1 216 1 394 1 79 1 277 1 271 1 169 1 105 1 1 1 3 1 15 1 53 1 67 1 80 1 89 1 108 1 117 1 121 1 129 1 136 1 150 1 155 1 162 1 176 1 181 1 182 1 189 1 198 1 199 1 221 1 222 1 227 1 228 1 229 1 243 1 246 1 250 1 257 1 258 1 262 1 274 1 282 1 283 1 291 1 308 1 311 1 316 1 317 1 319 1 324 1 328 1 342 1 345 1 353 1 372 1 375 1 377 1 378 1 383 1 401 1 405 1 431 1 469 1 476 1 485 1 495 1 
1 215 14 1 23 1 30 1 36 1 256 2 110 1 387 1 381 1 340 1 222 1 309 1 346 1 199 1 136 1 116 1 212 1 102 1 274 1 123 1 370 1 405 1 359 1 392 1 443 1 336 1 76 1 114 1 161 1 185 2 486 1 390 1 492 1 47 1 317 1 391 1 440 1 143 2 127 1 360 1 490 1 248 1 112 1 93 2 280 1 117 1 178 1 145 1 483 1 297 2 255 1 6 1 16 1 34 1 59 1 81 1 83 1 85 1 107 1 108 1 111 1 137 1 142 1 166 1 167 1 171 1 188 1 250 1 251 1 259 1 278 1 279 1 291 1 311 1 315 1 318 1 322 1 323 1 334 1 361 1 369 1 378 1 400 1 408 1 418 1 430 1 439 1 454 1 458 1 460 1 467 1 469 1 472 1 477 1 481 1 487 1 494 1 497 1 498 1 510 1 515 1 520 1 
1 202 5 2 18 1 25 1 31 1 458 1 244 1 245 2 426 1 130 1 227 1 340 1 269 1 356 1 495 1 129 1 473 1 123 1 414 1 120 1 257 1 103 1 348 1 138 1 224 1 150 1 278 1 486 1 455 1 385 1 153 1 342 1 239 1 58 1 276 2 176 1 59 1 298 1 148 1 324 1 363 1 280 1 139 1 57 1 286 1 442 1 498 1 162 1 159 1 333 2 460 1 53 1 258 1 320 1 382 2 434 1 191 1 101 1 485 2 422 1 181 1 14 1 65 1 87 1 95 1 96 1 98 1 108 1 109 1 115 1 127 1 142 1 143 1 155 1 177 1 180 1 192 1 208 1 226 1 230 1 231 1 252 1 263 1 268 1 274 1 282 1 296 1 323 1 327 1 336 1 338 1 341 1 350 1 351 1 358 1 362 1 368 1 374 1 378 1 395 1 408 1 411 1 418 1 423 1 431 1 436 1 467 1 478 1 482 1 491 1 
1 199 1 2 15 1 19 2 22 1 89 2 425 1 209 1 332 1 428 1 290 1 240 1 287 2 49 1 271 1 488 1 94 1 136 1 460 1 146 1 139 1 177 1 370 1 213 1 412 1 113 1 444 1 197 1 122 1 310 1 423 1 215 1 275 1 167 1 304 1 324 1 196 1 439 1 466 1 183 1 399 2 174 1 438 1 485 2 134 1 102 1 61 1 312 1 159 1 272 1 288 1 470 1 60 1 48 1 263 1 374 1 382 1 437 1 110 1 237 2 156 1 7 1 17 1 39 1 52 1 66 1 84 1 85 1 92 1 96 1 112 1 126 1 130 1 150 1 158 1 186 1 216 1 230 1 248 1 260 1 268 1 279 1 294 1 295 1 306 1 318 1 325 1 328 1 344 1 345 1 367 1 368 1 386 1 397 1 403 1 419 1 430 1 434 1 441 1 443 1 450 1 459 1 464 1 473 1 477 1 480 1 486 1 497 1 519 1 
1 217 2 2 4 1 6 1 15 1 20 1 37 2 44 1 269 2 494 1 349 1 493 1 343 1 479 1 285 1 126 1 473 2 356 1 262 2 374 2 472 2 299 1 131 1 83 1 128 1 465 1 228 1 474 1 165 1 355 1 196 1 233 1 435 1 205 1 219 1 51 1 200 1 272 1 144 1 375 1 125 1 138 1 353 1 304 2 368 1 421 1 268 1 338 1 187 2 248 1 341 1 68 1 155 2 145 1 226 1 161 1 444 1 97 1 412 1 369 1 7 1 10 1 12 1 25 1 74 1 98 1 101 1 104 1 141 1 146 1 147 1 159 1 178 1 194 1 202 1 207 1 256 1 261 1 270 1 271 1 287 1 303 1 307 1 312 1 313 1 320 1 329 1 332 1 340 1 345 1 359 1 360 1 362 1 363 1 365 1 379 1 380 1 382 1 385 1 386 1 389 1 395 1 403 1 405 1 406 1 424 1 438 1 440 1 449 1 459 1 461 1 463 1 476 1 503 1 517 1 520 1 
1 219 2 1 5 1 7 1 15 1 29 1 36 1 42 1 46 1 364 2 244 1 457 1 296 1 379 1 360 2 164 1 344 1 447 1 92 2 295 1 389 1 446 1 492 1 367 1 376 1 291 1 420 1 219 1 494 1 160 1 108 1 465 1 213 1 117 2 282 1 357 1 428 1 233 1 134 1 191 1 456 2 402 1 203 1 320 2 338 1 401 1 132 1 325 1 314 1 307 1 271 1 209 2 88 1 288 1 294 1 150 1 115 1 345 1 248 1 340 1 53 2 305 1 253 1 137 1 60 2 62 1 476 1 12 1 26 1 49 1 54 1 78 1 91 1 96 1 99 1 100 1 102 1 104 1 126 1 128 1 130 1 140 1 148 1 149 1 155 1 157 1 163 1 166 1 168 1 185 1 196 1 198 1 226 1 230 1 234 1 254 1 277 1 279 1 303 1 311 1 315 1 328 1 334 1 335 1 346 1 359 1 371 1 392 1 427 1 432 1 441 1 444 1 455 1 460 1 468 1 475 1 483 1 487 1 490 1 506 1 514 1 
1 187 8 1 16 1 21 2 29 2 46 1 292 2 456 1 222 1 184 1 121 1 284 1 336 2 480 1 427 1 474 1 291 1 349 1 327 1 363 1 147 2 224 1 214 1 493 1 477 1 286 1 94 2 65 1 162 1 212 2 421 1 104 1 228 2 67 2 442 1 186 1 232 1 95 1 113 1 452 1 236 1 379 1 316 1 499 1 394 1 210 1 254 1 436 1 318 1 373 1 132 1 422 1 285 1 261 1 414 1 396 1 274 1 101 1 256 1 100 1 14 1 19 1 37 1 48 1 57 1 62 1 92 1 103 1 107 1 116 1 122 1 130 1 141 1 143 1 145 1 151 1 156 1 159 1 175 1 187 1 225 1 230 1 234 1 239 1 250 1 255 1 263 1 273 1 278 1 289 1 296 1 306 1 321 1 330 1 338 1 347 1 354 1 376 1 385 1 399 1 408 1 411 1 424 1 425 1 429 1 432 1 458 1 476 1 481 1 488 1 489 1 510 1 
1 206 4 1 12 2 20 1 185 1 353 2 318 1 93 1 334 1 486 1 241 1 387 1 316 1 212 1 465 1 200 2 208 1 428 1 375 1 448 1 365 1 437 1 435 1 206 1 127 1 266 1 446 1 377 1 238 1 253 2 364 2 111 1 271 1 366 1 94 1 254 1 227 1 247 1 109 1 380 1 202 1 367 1 96 1 368 1 163 1 220 1 291 2 178 1 277 1 471 1 101 1 467 1 24 1 26 1 54 1 62 1 71 1 85 1 95 1 115 1 120 1 122 1 125 1 126 1 139 1 154 1 156 1 171 1 177 1 180 1 187 1 199 1 201 1 217 1 224 1 226 1 240 1 248 1 249 1 257 1 284 1 292 1 298 1 301 1 303 1 306 1 309 1 310 1 331 1 347 1 379 1 392 1 408 1 411 1 421 1 422 1 436 1 442 1 443 1 457 1 464 1 469 1 484 1 489 1 492 1 
1 208 2 2 3 1 11 1 22 1 23 1 24 1 38 1 42 1 47 1 93 1 347 1 196 1 306 1 272 1 145 2 231 2 492 2 276 1 356 1 424 1 289 1 166 1 156 1 86 1 490 2 240 1 324 1 67 1 114 1 379 1 440 1 280 1 403 1 68 1 451 1 127 1 71 1 302 2 392 1 89 1 387 1 56 1 468 1 354 1 102 1 220 1 444 1 217 1 455 1 187 1 183 1 185 1 180 1 474 2 215 1 432 1 466 1 165 2 153 1 201 1 310 1 399 1 104 1 5 1 10 1 35 1 66 1 83 1 87 1 92 1 96 1 100 1 101 1 111 1 136 1 144 1 149 1 155 1 168 1 191 1 205 1 207 1 209 1 212 1 219 1 222 1 251 1 262 1 275 1 279 1 307 1 313 1 325 1 327 1 334 1 335 1 341 1 342 1 343 1 352 1 362 1 368 1 376 1 397 1 414 1 415 1 425 1 430 1 431 1 442 1 446 1 458 1 479 1 482 1 489 1 497 1 503 1 511 1 516 1 
1 203 15 1 27 1 29 1 34 1 35 1 40 1 42 1 494 1 132 1 157 1 269 1 361 1 308 1 299 1 223 1 454 1 153 1 347 1 174 1 203 1 497 1 453 1 404 1 377 1 89 1 281 1 240 1 393 2 264 1 331 1 483 1 378 2 109 1 260 1 102 1 228 1 349 1 205 1 395 1 151 1 165 1 107 1 267 1 462 1 184 1 336 1 384 2 70 1 379 1 482 1 434 1 190 1 301 1 457 1 298 1 279 1 498 1 212 1 458 1 88 1 440 1 366 1 14 1 22 1 46 1 55 1 57 1 66 1 90 1 104 1 105 1 116 1 126 1 133 1 146 1 161 1 163 1 168 1 218 1 222 1 230 1 233 1 237 1 238 1 245 1 248 1 256 1 266 1 274 1 280 1 291 1 293 1 315 1 323 1 325 1 351 1 354 1 362 1 363 1 375 1 386 1 389 1 396 1 402 1 408 1 422 1 423 1 431 1 433 1 435 1 445 1 456 1 466 1 476 1 484 1 486 1 487 1 499 1 
1 198 12 1 19 1 45 1 48 2 235 1 381 1 392 1 459 1 100 1 233 2 469 1 484 1 413 1 470 1 146 1 231 1 221 1 114 1 254 1 232 1 84 1 173 1 105 1 486 1 364 2 436 1 333 1 112 1 281 1 159 1 373 1 322 2 85 1 426 1 429 1 328 1 311 1 368 1 161 1 203 1 395 1 212 2 423 1 376 1 447 1 137 1 172 1 266 1 417 2 409 2 234 1 308 1 462 1 250 2 204 1 4 1 28 1 30 1 43 1 98 1 101 1 121 1 130 1 132 1 135 1 141 1 144 1 157 1 162 1 169 1 195 1 196 1 214 1 222 1 226 1 242 1 248 1 253 1 285 1 286 1 287 1 288 1 289 1 309 1 310 1 326 1 346 1 350 1 351 1 370 1 378 1 405 1 438 1 445 1 451 1 452 1 460 1 463 1 478 1 495 1 496 1 497 1 
1 221 4 1 12 1 14 1 40 1 96 2 114 1 185 1 239 1 446 1 380 2 168 1 445 1 474 1 266 1 245 1 170 1 125 1 197 1 195 1 487 1 483 1 355 2 493 1 92 1 86 2 84 2 164 1 340 2 417 1 242 1 426 1 443 1 151 1 56 1 82 1 189 1 433 1 318 1 497 1 381 2 150 1 357 1 247 1 62 1 127 1 473 1 213 1 461 1 321 1 174 1 5 1 17 1 24 1 25 1 36 1 37 1 48 1 50 1 59 1 80 1 93 1 99 1 100 1 111 1 140 1 148 1 154 1 158 1 162 1 163 1 192 1 199 1 202 1 204 1 220 1 228 1 236 1 240 1 249 1 252 1 253 1 264 1 271 1 274 1 280 1 281 1 283 1 293 1 298 1 308 1 310 1 331 1 336 1 349 1 361 1 367 1 370 1 377 1 412 1 423 1 428 1 454 1 462 1 467 1 480 1 494 1 505 1 
1 220 11 2 13 1 14 1 24 1 25 1 30 1 34 1 120 1 169 1 376 1 82 1 490 1 449 1 238 1 214 1 240 2 493 1 232 1 476 1 305 1 160 1 332 1 138 1 475 1 320 1 139 1 91 1 453 1 390 1 87 1 279 2 61 1 111 1 189 1 60 1 460 1 197 1 440 1 459 1 178 1 101 1 267 1 288 1 485 2 396 1 358 1 152 1 198 2 245 1 271 1 215 1 175 1 381 1 306 1 365 1 80 1 370 1 439 1 310 1 389 1 117 1 270 2 141 1 107 1 8 1 16 1 20 1 26 1 52 1 84 1 95 1 100 1 114 1 124 1 130 1 131 1 133 1 140 1 150 1 158 1 168 1 177 1 205 1 216 1 217 1 218 1 225 1 227 1 237 1 241 1 250 1 266 1 268 1 273 1 276 1 280 1 286 1 291 1 301 1 308 1 319 1 323 1 334 1 335 1 341 1 349 1 357 1 368 1 371 1 372 1 374 1 378 1 385 1 392 1 407 1 415 1 424 1 426 1 428 1 457 1 482 1 499 1 
1 212 22 1 31 2 51 1 54 1 365 1 205 1 304 1 421 1 321 1 125 1 306 1 478 2 284 1 142 1 498 1 121 1 322 1 467 2 94 1 476 1 429 1 379 1 381 1 180 1 334 1 164 1 404 1 425 1 383 1 281 1 465 1 422 1 119 1 297 1 268 1 290 1 130 1 133 1 377 1 315 1 328 2 466 1 239 1 158 1 184 2 437 2 355 1 204 1 93 1 461 1 474 2 458 1 440 1 432 1 260 1 112 1 336 1 111 1 11 1 16 1 18 1 21 1 62 1 64 1 96 1 98 1 101 1 105 1 115 1 116 1 127 1 148 1 183 1 186 1 189 1 201 1 213 1 226 1 236 1 245 1 247 1 251 1 270 1 278 1 288 1 316 1 318 1 324 1 358 1 360 1 362 1 363 1 385 1 387 1 391 1 393 1 399 1 406 1 407 1 409 1 411 1 412 1 424 1 434 1 441 1 446 1 449 1 452 1 459 1 470 1 473 1 477 1 479 1 495 1 497 1 499 1 507 1 521 1 
1 207 12 1 18 2 21 1 27 1 45 1 350 1 365 1 213 1 244 1 465 1 455 1 197 1 136 1 151 1 98 1 340 1 222 1 83 1 122 1 175 1 161 1 206 1 477 1 107 1 275 1 409 1 229 1 196 1 141 1 416 1 265 1 428 1 286 1 308 1 69 1 218 1 137 1 489 1 356 1 358 1 298 1 170 1 220 1 126 1 183 1 93 1 89 1 432 1 464 1 412 2 242 1 457 1 72 1 382 1 90 1 467 1 484 1 318 1 4 1 13 1 19 1 49 1 52 1 59 1 87 1 120 1 147 1 153 1 155 1 165 1 169 1 174 1 178 1 195 1 202 1 212 1 217 1 219 1 221 1 223 1 245 1 251 1 262 1 264 1 277 1 279 1 292 1 297 1 305 1 310 1 341 1 344 1 375 1 380 1 395 1 417 1 418 1 430 1 438 1 453 1 466 1 473 1 475 1 482 1 504 1 
1 208 2 1 9 1 17 1 23 1 31 1 45 1 88 1 192 1 371 1 499 1 262 1 453 1 190 1 165 1 374 1 485 1 213 1 417 1 248 1 134 1 143 1 310 1 317 1 416 2 289 1 217 1 358 1 186 2 312 1 249 1 149 1 256 1 412 1 71 1 298 2 362 1 372 2 320 1 271 1 486 1 234 1 483 1 422 1 191 1 139 1 138 2 183 1 436 1 424 1 297 1 494 1 274 1 263 1 402 1 316 1 429 1 281 1 85 1 201 1 315 1 12 1 16 1 20 1 21 1 26 1 30 1 32 1 59 1 65 1 106 1 112 1 113 1 114 1 115 1 119 1 132 1 133 1 142 1 147 1 152 1 153 1 173 1 174 1 178 1 193 1 195 1 215 1 229 1 242 1 250 1 254 1 261 1 266 1 304 1 322 1 323 1 332 1 366 1 380 1 384 1 397 1 398 1 403 1 414 1 423 1 425 1 430 1 447 1 454 1 455 1 462 1 478 1 498 1 508 1 
1 195 20 1 23 1 45 1 111 1 283 1 281 1 454 1 174 1 157 1 411 1 380 1 452 1 121 1 158 1 90 1 428 1 497 1 294 1 274 1 377 1 351 1 92 1 102 1 355 1 94 1 397 1 291 2 138 1 219 1 383 1 421 1 260 1 230 1 407 1 117 1 204 1 364 1 394 1 424 1 278 1 69 2 354 1 305 1 227 1 241 1 403 1 401 1 156 1 494 1 88 1 109 1 171 1 188 1 342 1 363 1 76 1 290 2 134 2 345 2 2 1 16 1 29 1 35 1 42 1 44 1 54 1 57 1 58 1 96 1 115 1 120 1 136 1 145 1 152 1 153 1 165 1 191 1 199 1 201 1 211 1 233 1 236 1 238 1 250 1 256 1 272 1 273 1 327 1 331 1 336 1 374 1 375 1 381 1 390 1 395 1 416 1 423 1 426 1 434 1 441 1 451 1 457 1 461 1 462 1 463 1 469 1 472 1 474 1 490 1 516 1 520 1 
1 191 7 1 14 1 43 1 46 1 48 2 55 1 484 1 450 1 100 1 423 1 124 2 319 1 493 1 91 2 370 1 210 1 487 1 150 2 496 1 382 2 160 2 219 1 130 1 183 1 226 2 476 2 318 1 169 1 485 1 83 1 68 1 421 1 132 2 483 1 465 1 480 1 304 1 194 1 408 1 266 1 138 2 234 2 133 1 201 1 391 1 478 1 214 1 298 1 381 1 237 1 80 1 293 1 457 1 76 1 105 1 296 1 367 1 21 1 26 1 28 1 86 1 89 1 90 1 110 1 129 1 137 1 149 1 155 1 171 1 180 1 181 1 205 1 224 1 228 1 241 1 262 1 283 1 287 1 302 1 321 1 328 1 329 1 334 1 338 1 346 1 363 1 366 1 380 1 394 1 411 1 412 1 417 1 418 1 442 1 469 1 481 1 488 1 495 1 497 1 503 1 504 1 516 1 
1 206 6 1 9 1 26 1 46 1 55 1 418 1 89 1 201 2 205 1 248 1 278 1 138 1 483 1 301 1 245 1 475 2 409 1 173 1 134 1 232 1 373 1 419 1 237 1 316 1 230 1 384 1 131 1 499 2 246 2 440 1 290 1 159 1 423 1 306 1 188 1 220 1 361 1 200 1 466 1 368 1 429 1 321 1 296 1 474 1 256 1 328 1 63 1 347 1 5 1 18 1 19 1 20 1 21 1 24 1 40 1 62 1 65 1 67 1 100 1 102 1 108 1 112 1 127 1 144 1 148 1 155 1 160 1 181 1 187 1 191 1 206 1 213 1 215 1 247 1 255 1 260 1 261 1 287 1 308 1 309 1 310 1 312 1 313 1 319 1 327 1 331 1 332 1 335 1 354 1 357 1 378 1 379 1 383 1 399 1 404 1 414 1 421 1 425 1 437 1 460 1 482 1 494 1 519 1 
1 213 3 1 26 1 48 1 54 1 176 1 462 1 404 1 346 1 182 1 256 1 235 1 153 1 459 1 287 1 428 1 495 1 89 1 339 1 333 1 189 1 494 1 92 2 403 1 298 1 145 1 387 1 406 1 392 1 444 1 109 1 402 2 205 2 91 1 279 2 212 2 499 1 131 1 137 1 248 1 372 1 211 1 449 1 481 1 405 1 267 1 284 1 286 1 361 1 76 1 261 1 479 1 421 1 210 1 143 1 9 1 13 1 25 1 27 1 32 1 39 1 49 1 50 1 56 1 61 1 66 1 68 1 93 1 95 1 101 1 116 1 140 1 147 1 148 1 152 1 155 1 165 1 170 1 173 1 175 1 177 1 184 1 194 1 195 1 197 1 208 1 216 1 218 1 237 1 238 1 240 1 251 1 252 1 254 1 272 1 291 1 306 1 314 1 322 1 324 1 325 1 326 1 328 1 330 1 331 1 337 1 351 1 354 1 358 1 363 1 377 1 409 1 412 1 413 1 432 1 452 1 458 1 460 1 468 1 480 1 483 1 488 1 489 1 498 1 513 1 518 1 
1 218 5 1 18 1 27 1 30 1 33 1 61 1 182 1 191 2 367 1 230 1 198 1 364 1 234 1 348 1 377 1 266 1 155 2 254 1 493 1 214 2 177 1 431 1 402 1 369 1 491 1 192 1 249 1 72 1 492 1 341 1 332 1 103 1 444 2 486 1 320 1 190 1 197 1 454 1 107 1 147 1 293 1 201 1 469 1 118 1 383 1 161 1 97 1 495 1 334 1 144 1 359 1 301 1 338 1 1 1 3 1 8 1 26 1 65 1 69 1 75 1 89 1 93 1 104 1 110 1 148 1 151 1 152 1 159 1 202 1 215 1 227 1 231 1 232 1 233 1 243 1 245 1 256 1 262 1 263 1 280 1 294 1 295 1 315 1 331 1 339 1 356 1 360 1 382 1 384 1 388 1 390 1 394 1 399 1 404 1 409 1 415 1 416 1 429 1 430 1 433 1 435 1 448 1 471 1 475 1 477 1 496 1 518 1 
1 212 8 1 20 1 451 1 167 1 285 1 91 1 280 2 435 1 247 1 192 1 409 1 368 1 108 1 165 1 174 2 274 1 483 1 287 1 436 1 209 1 457 1 208 1 317 1 445 2 113 1 485 1 252 1 258 1 376 1 324 2 465 1 323 1 99 1 272 1 290 2 105 1 399 1 486 1 104 1 166 2 327 1 497 1 440 1 151 1 353 1 148 1 477 1 216 1 204 1 6 1 16 1 28 1 30 1 31 1 32 1 56 1 70 1 73 1 88 1 124 1 133 1 138 1 155 1 162 1 191 1 193 1 205 1 210 1 218 1 230 1 238 1 251 1 256 1 303 1 322 1 331 1 338 1 343 1 345 1 346 1 350 1 355 1 360 1 361 1 372 1 380 1 385 1 392 1 395 1 398 1 401 1 423 1 424 1 428 1 430 1 433 1 437 1 441 1 447 1 448 1 456 1 463 1 468 1 478 1 490 1 503 1 510 1 513 1 
1 205 9 1 27 1 32 1 33 1 49 1 104 1 249 1 235 1 180 1 170 1 215 1 465 1 100 2 283 1 489 1 256 1 258 1 236 1 166 1 195 1 188 2 197 1 145 1 334 1 401 1 493 1 358 2 121 2 201 1 343 1 478 1 471 1 243 1 260 1 94 1 435 1 384 1 407 2 169 1 252 1 292 1 210 1 338 1 436 1 300 1 311 1 118 1 424 1 186 1 114 1 146 1 86 1 314 1 238 2 414 1 378 2 483 2 469 1 91 1 499 1 354 1 214 1 2 1 7 1 18 1 19 1 20 1 26 1 45 1 58 1 61 1 63 1 66 1 73 1 84 1 85 1 98 1 101 1 109 1 112 1 113 1 125 1 127 1 160 1 167 1 168 1 171 1 176 1 177 1 208 1 225 1 234 1 267 1 273 1 278 1 286 1 288 1 301 1 303 1 313 1 315 1 319 1 320 1 324 1 325 1 340 1 368 1 390 1 402 1 410 1 430 1 437 1 441 1 477 1 491 1 498 1 507 1 511 1 517 1 
1 194 1 1 13 1 15 1 31 1 33 1 327 1 379 1 273 1 295 1 456 1 344 1 200 1 203 1 186 2 132 1 155 1 439 1 156 1 444 1 130 1 106 1 161 1 93 1 143 2 304 1 212 1 224 1 450 1 241 1 118 1 443 1 223 1 84 1 122 1 378 1 262 1 197 1 430 1 498 2 418 1 479 1 302 2 177 1 263 2 359 1 394 1 346 1 490 1 405 1 111 1 267 1 6 1 10 1 27 1 46 1 51 1 52 1 62 1 65 1 89 1 91 1 96 1 103 1 110 1 133 1 137 1 153 1 164 1 180 1 190 1 209 1 213 1 216 1 220 1 236 1 244 1 251 1 252 1 288 1 293 1 298 1 316 1 337 1 338 1 345 1 347 1 353 1 372 1 374 1 382 1 385 1 389 1 400 1 401 1 422 1 427 1 434 1 459 1 466 1 473 1 488 1 489 1 496 1 
1 219 1 1 8 1 10 1 19 1 23 1 33 1 49 2 51 1 373 1 338 1 421 1 142 1 403 2 379 1 88 1 390 1 458 1 362 1 113 1 367 1 408 2 450 1 126 1 270 1 323 1 286 1 184 1 241 1 344 1 358 1 365 1 295 1 300 1 250 2 419 1 187 1 306 1 232 1 432 1 130 2 267 1 473 1 100 1 319 1 447 1 266 1 440 1 93 1 359 1 72 1 370 1 230 1 137 2 186 1 378 1 79 1 199 1 162 1 490 1 287 1 12 1 13 1 14 1 27 1 43 1 61 1 73 1 83 1 89 1 90 1 104 1 106 1 109 1 119 1 127 1 143 1 144 1 157 1 164 1 166 1 167 1 169 1 178 1 181 1 195 1 219 1 237 1 242 1 246 1 272 1 279 1 282 1 294 1 301 1 305 1 313 1 325 1 346 1 357 1 376 1 377 1 381 1 386 1 388 1 406 1 409 1 411 1 424 1 439 1 441 1 455 1 464 1 465 1 468 1 474 1 483 1 484 1 485 1 488 1 489 1 498 1 517 1 519 1 
1 204 4 1 7 1 30 1 47 1 51 1 60 1 451 1 478 1 95 1 214 1 141 2 350 1 128 1 133 1 450 1 466 1 276 1 289 1 393 1 283 1 467 1 317 1 177 1 229 1 102 1 242 1 208 1 101 1 91 1 461 1 400 1 151 1 303 1 110 1 176 2 69 1 293 1 438 1 100 1 75 1 417 1 261 1 241 1 108 1 325 2 416 1 181 1 455 1 195 1 326 1 409 1 139 1 345 1 479 1 440 1 376 1 115 1 253 1 9 1 10 1 13 1 26 1 27 1 32 1 41 1 62 1 78 1 85 1 94 1 105 1 113 1 118 1 126 1 145 1 153 1 158 1 160 1 173 1 185 1 186 1 190 1 199 1 217 1 218 1 222 1 230 1 246 1 263 1 270 1 272 1 297 1 302 1 321 1 322 1 334 1 335 1 337 1 355 1 372 1 383 1 391 1 392 1 396 1 401 1 404 1 423 1 437 1 443 1 446 1 459 1 462 1 468 1 475 1 480 1 484 1 485 1 491 1 499 1 501 1 521 1 
1 208 8 1 21 1 57 1 59 2 68 1 323 1 270 1 335 1 158 1 137 1 187 1 422 1 408 1 347 1 266 1 350 1 265 1 277 1 124 1 400 1 209 1 378 1 249 1 180 1 399 1 355 1 103 1 475 1 307 1 414 1 90 1 370 1 306 1 104 1 320 1 471 1 314 1 463 1 369 1 440 1 197 2 458 1 92 1 479 1 274 2 352 1 269 1 258 1 200 1 190 1 453 1 84 1 409 1 492 1 7 1 10 1 14 1 29 1 35 1 63 1 97 1 98 1 100 1 107 1 131 1 134 1 143 1 162 1 173 1 174 1 188 1 195 1 198 1 201 1 206 1 207 1 210 1 212 1 213 1 229 1 235 1 242 1 252 1 259 1 268 1 275 1 284 1 300 1 303 1 310 1 324 1 326 1 330 1 348 1 357 1 362 1 363 1 364 1 365 1 371 1 376 1 377 1 383 1 394 1 395 1 398 1 401 1 418 1 419 1 444 1 447 1 450 1 457 1 481 1 488 1 489 1 509 1 
1 208 5 1 8 2 14 1 24 1 27 1 28 1 52 1 154 1 313 1 380 2 221 1 356 1 428 1 279 1 476 1 262 1 383 1 142 1 238 2 187 1 437 1 192 1 215 1 109 1 210 1 214 1 138 1 391 1 392 2 115 1 292 2 274 1 359 1 378 1 317 1 461 1 396 1 270 1 406 1 273 1 144 1 446 1 483 2 195 1 424 1 320 1 389 1 165 1 231 1 394 1 94 1 271 1 3 1 4 1 10 1 20 1 64 1 71 1 76 1 114 1 125 1 167 1 171 1 172 1 183 1 198 1 199 1 218 1 228 1 245 1 248 1 250 1 254 1 266 1 267 1 281 1 294 1 310 1 312 1 336 1 349 1 352 1 363 1 370 1 379 1 382 1 402 1 405 1 419 1 430 1 431 1 443 1 456 1 466 1 470 1 480 1 486 1 489 1 494 1 498 1 516 1 
1 227 1 1 2 1 9 2 12 1 16 1 28 1 29 2 31 1 32 2 39 1 51 1 58 1 410 1 337 2 292 1 474 1 286 2 268 1 190 1 226 1 232 2 326 1 271 1 284 1 76 1 94 1 124 1 484 1 456 1 115 1 188 2 77 1 130 1 101 1 413 1 340 1 123 1 262 1 259 1 178 1 98 1 228 1 141 1 408 2 114 1 142 1 368 1 235 1 385 1 425 1 283 1 240 1 147 1 438 2 447 1 463 2 215 2 352 1 264 1 7 1 14 1 17 1 50 1 70 1 91 1 96 1 106 1 110 1 112 1 116 1 134 1 143 1 144 1 150 1 151 1 156 1 160 1 179 1 189 1 203 1 209 1 225 1 227 1 236 1 239 1 247 1 272 1 311 1 324 1 335 1 342 1 343 1 370 1 371 1 384 1 389 1 395 1 398 1 403 1 415 1 419 1 426 1 434 1 440 1 443 1 446 1 452 1 455 1 458 1 465 1 479 1 481 1 504 1 511 1 
1 194 6 1 10 1 15 1 57 1 63 1 67 1 99 1 320 1 234 1 295 1 286 2 387 1 278 1 233 1 184 1 412 1 316 1 389 1 114 1 218 1 420 1 458 1 427 1 464 1 239 2 366 1 160 1 119 1 480 1 401 1 215 1 493 1 106 1 468 1 296 2 382 2 224 1 211 1 152 1 205 1 342 2 231 2 478 1 354 2 140 1 240 1 274 1 369 1 490 1 377 1 422 2 341 1 391 1 456 1 287 1 77 1 116 1 232 1 488 2 338 1 394 1 266 1 271 1 76 1 1 1 2 1 3 1 8 1 11 1 31 1 89 1 94 1 109 1 117 1 123 1 142 1 147 1 154 1 155 1 165 1 166 1 171 1 172 1 178 1 193 1 200 1 210 1 213 1 222 1 230 1 242 1 247 1 249 1 250 1 263 1 264 1 281 1 291 1 298 1 299 1 326 1 346 1 348 1 357 1 373 1 403 1 433 1 467 1 506 1 512 1 
1 215 12 1 14 1 16 1 27 1 38 1 267 1 404 1 450 1 494 1 321 1 140 1 316 1 390 1 491 1 440 1 154 1 283 1 443 1 97 1 355 1 346 1 148 1 499 1 180 1 463 1 448 1 439 1 273 1 375 1 467 1 111 1 250 2 398 1 480 1 478 1 363 1 312 1 470 1 160 1 481 1 425 2 253 1 276 1 464 1 278 1 327 1 175 1 104 2 420 1 181 1 232 1 364 1 473 1 279 1 294 1 393 1 332 1 472 1 212 1 323 1 270 1 461 1 208 2 391 1 340 1 416 1 138 1 10 1 34 1 64 1 65 1 67 1 95 1 107 1 119 1 129 1 141 1 159 1 166 1 167 1 172 1 174 1 182 1 184 1 188 1 205 1 206 1 216 1 218 1 230 1 236 1 262 1 268 1 304 1 318 1 325 1 338 1 339 1 343 1 359 1 382 1 387 1 402 1 406 1 423 1 438 1 444 1 446 1 451 1 465 1 466 1 469 1 477 1 483 1 490 1 496 1 498 1 521 1 
1 205 3 1 5 1 9 1 16 1 23 1 38 2 39 2 41 1 100 1 98 2 323 2 335 1 379 1 126 1 431 2 331 1 303 1 356 1 104 1 116 1 276 1 470 1 479 1 359 1 346 1 121 1 293 1 268 1 350 1 465 1 193 1 296 1 182 1 259 1 199 1 136 1 365 1 414 1 272 1 283 2 85 1 167 1 458 1 400 2 175 1 449 1 94 1 357 1 415 1 454 2 467 2 410 1 192 1 237 1 328 1 413 1 319 2 11 1 19 1 20 1 21 1 22 1 30 1 47 1 75 1 103 1 122 1 154 1 160 1 170 1 172 1 174 1 200 1 219 1 226 1 235 1 241 1 245 1 253 1 261 1 269 1 282 1 288 1 290 1 295 1 298 1 321 1 332 1 337 1 344 1 345 1 351 1 355 1 358 1 361 1 368 1 375 1 383 1 389 1 406 1 408 1 412 1 436 1 439 1 455 1 460 1 462 1 463 1 464 1 469 1 480 1 483 1 492 1 513 1 
1 202 68 1 480 1 399 2 119 1 207 1 477 1 105 1 419 1 294 1 445 1 229 1 302 1 323 1 210 1 476 1 243 1 192 1 222 1 298 1 379 1 267 2 325 1 104 1 78 1 214 1 292 2 231 2 495 1 291 2 136 2 468 1 401 1 177 1 300 1 237 2 297 1 127 1 83 1 499 1 208 1 398 1 426 1 164 1 452 1 320 1 128 1 301 1 459 1 358 1 474 1 352 2 4 1 21 1 31 1 63 1 74 1 82 1 86 1 94 1 125 1 132 1 141 1 165 1 167 1 170 1 173 1 174 1 181 1 185 1 194 1 236 1 248 1 252 1 254 1 266 1 272 1 282 1 290 1 296 1 299 1 317 1 321 1 328 1 332 1 340 1 344 1 349 1 366 1 368 1 369 1 371 1 391 1 396 1 397 1 402 1 403 1 406 1 408 1 410 1 416 1 433 1 434 1 442 1 447 1 456 1 467 1 491 1 
1 213 4 1 5 1 18 2 20 1 24 1 35 1 38 1 44 1 59 1 60 1 62 1 71 1 72 1 114 1 441 1 308 1 326 1 186 1 412 1 424 1 129 1 457 1 324 1 191 2 78 1 125 1 228 1 284 1 416 1 293 1 443 1 487 1 260 1 98 1 319 1 297 1 397 1 445 1 404 1 478 1 462 1 311 1 331 1 272 1 359 1 112 1 367 1 196 1 393 1 339 1 453 1 484 1 234 1 336 1 493 1 368 1 335 1 202 1 497 1 26 1 28 1 70 1 85 1 102 1 131 1 133 1 137 1 139 1 169 1 175 1 203 1 208 1 212 1 222 1 226 1 267 1 281 1 285 1 287 1 295 1 325 1 328 1 329 1 332 1 340 1 344 1 345 1 354 1 382 1 388 1 389 1 395 1 396 1 400 1 401 1 405 1 409 1 422 1 426 1 440 1 444 1 455 1 459 1 477 1 507 1 511 1 
1 214 4 1 10 1 16 1 25 1 34 1 71 1 72 1 228 1 354 2 273 1 423 1 145 2 355 1 346 1 430 1 264 1 216 1 118 1 340 1 337 1 196 1 297 1 378 1 364 1 397 1 302 1 394 1 371 1 210 1 80 1 382 1 256 1 268 1 442 1 194 1 487 2 246 1 95 1 277 1 456 1 167 2 134 1 236 1 290 2 418 2 190 1 432 2 288 1 431 1 416 1 312 1 244 1 467 1 370 1 454 1 398 1 287 1 248 1 459 1 424 1 208 1 2 1 6 1 27 1 38 1 82 1 86 1 98 1 105 1 115 1 120 1 122 1 139 1 144 1 146 1 154 1 163 1 170 1 175 1 176 1 178 1 181 1 207 1 226 1 229 1 263 1 266 1 285 1 289 1 299 1 309 1 315 1 319 1 324 1 329 1 332 1 336 1 352 1 357 1 359 1 363 1 375 1 411 1 434 1 465 1 470 1 474 1 479 1 486 1 493 1 494 1 498 1 505 1 521 1 
1 208 5 1 32 1 75 1 76 1 402 2 332 1 444 1 416 1 473 1 399 1 230 1 191 1 205 1 331 1 269 1 397 1 396 1 350 1 163 1 197 1 221 2 112 2 228 1 282 1 108 1 273 1 433 1 295 1 287 1 294 1 414 1 347 1 196 1 373 1 476 1 116 1 472 1 211 1 136 1 159 2 156 1 180 2 83 1 457 1 336 1 274 1 293 1 349 1 177 1 387 1 245 1 84 1 462 1 194 1 431 1 29 1 36 1 38 1 48 1 68 1 105 1 111 1 113 1 121 1 133 1 141 1 169 1 178 1 185 1 204 1 213 1 214 1 220 1 231 1 243 1 260 1 276 1 291 1 296 1 299 1 304 1 305 1 309 1 313 1 325 1 329 1 337 1 345 1 348 1 352 1 375 1 376 1 381 1 409 1 415 1 425 1 441 1 447 1 450 1 454 1 459 1 494 1 496 1 505 1 513 1 
1 220 4 1 13 1 24 1 27 1 30 1 32 1 40 1 43 1 67 1 413 2 445 1 120 1 406 1 289 1 119 1 101 2 161 1 155 1 274 1 207 2 426 1 385 1 461 1 148 1 164 2 429 1 428 2 337 1 381 2 404 1 199 1 212 1 146 1 221 1 491 1 137 1 498 2 431 2 123 1 234 1 403 1 159 1 302 1 252 1 383 1 485 1 82 1 416 1 331 1 479 1 294 1 314 1 470 1 351 2 158 1 96 1 418 1 476 1 219 1 455 1 2 1 35 1 36 1 38 1 81 1 83 1 85 1 100 1 106 1 112 1 115 1 122 1 135 1 139 1 154 1 160 1 184 1 185 1 225 1 230 1 232 1 241 1 284 1 288 1 291 1 298 1 305 1 343 1 344 1 352 1 355 1 357 1 359 1 365 1 369 1 377 1 382 1 398 1 417 1 422 1 440 1 452 1 456 1 467 1 478 1 481 1 483 1 487 1 514 1 519 1 
1 216 4 1 6 1 24 1 55 1 60 1 77 1 386 1 301 1 315 1 178 1 127 2 270 1 288 1 384 1 423 1 204 1 136 2 274 1 313 1 228 1 369 2 268 1 346 1 229 1 261 1 129 1 499 1 383 1 413 2 275 1 323 2 447 1 490 2 308 1 139 1 169 1 224 1 316 1 240 1 454 1 273 2 196 1 248 1 376 1 421 1 232 1 348 1 410 1 161 1 164 1 201 1 412 1 300 1 424 1 199 1 145 1 198 2 5 1 17 1 23 1 43 1 54 1 100 1 106 1 107 1 118 1 122 1 123 1 124 1 130 1 131 1 142 1 144 1 151 1 154 1 157 1 160 1 168 1 192 1 193 1 208 1 209 1 230 1 231 1 235 1 239 1 246 1 247 1 283 1 293 1 304 1 312 1 331 1 332 1 338 1 340 1 347 1 362 1 365 1 366 1 371 1 382 1 406 1 430 1 438 1 444 1 460 1 482 1 511 1 
1 200 8 1 9 2 30 2 144 1 399 1 287 2 220 1 152 1 300 1 241 1 127 2 98 1 400 2 454 1 168 1 123 1 335 1 376 1 207 1 480 1 211 1 313 1 143 1 414 1 407 1 362 1 322 1 216 1 340 1 210 1 438 1 170 1 397 1 259 1 356 2 402 1 403 1 149 1 317 1 422 1 217 1 341 1 446 2 251 1 161 1 494 1 171 1 106 2 483 1 260 1 185 1 327 2 404 1 413 2 2 1 6 1 25 1 26 1 38 1 41 1 44 1 79 1 95 1 107 1 119 1 126 1 129 1 137 1 139 1 151 1 166 1 188 1 189 1 192 1 198 1 215 1 223 1 225 1 261 1 265 1 268 1 280 1 281 1 293 1 294 1 297 1 298 1 306 1 307 1 332 1 339 1 343 1 346 1 375 1 405 1 409 1 410 1 419 1 420 1 432 1 445 1 450 1 452 1 457 1 485 1 496 1 510 1 515 1 
1 205 20 1 32 1 34 1 35 1 54 1 55 1 79 1 367 1 320 1 498 1 304 1 363 1 131 1 373 1 431 1 258 2 405 1 339 1 374 1 196 1 135 2 443 1 340 2 449 2 263 1 334 1 175 1 462 1 151 1 394 1 181 1 143 1 409 1 375 1 372 2 413 2 236 1 149 1 292 2 368 1 154 1 114 1 377 1 174 2 406 1 145 1 476 1 225 1 484 1 86 1 284 1 327 1 494 1 399 1 295 2 2 1 10 1 14 1 18 1 22 1 27 1 36 1 75 1 77 1 105 1 118 1 122 1 123 1 127 1 144 1 159 1 165 1 169 1 170 1 171 1 191 1 200 1 205 1 216 1 222 1 237 1 256 1 260 1 261 1 281 1 283 1 308 1 343 1 352 1 354 1 360 1 362 1 378 1 393 1 402 1 415 1 429 1 444 1 445 1 446 1 447 1 450 1 465 1 479 1 480 1 485 1 488 1 492 1 501 1 
1 196 3 1 34 2 41 1 47 1 57 1 60 1 75 1 78 1 336 1 187 1 206 2 251 1 432 1 331 1 225 1 448 2 379 1 137 1 380 1 116 1 340 1 278 1 399 1 315 1 107 1 409 1 217 1 358 1 332 1 115 1 142 1 275 1 127 1 427 1 342 1 240 1 290 1 287 1 440 1 141 1 351 1 318 1 395 1 111 1 481 1 289 1 91 1 249 1 202 1 327 1 211 1 499 1 97 1 174 1 310 1 389 1 437 1 1 1 12 1 13 1 15 1 20 1 22 1 23 1 44 1 51 1 67 1 79 1 92 1 109 1 120 1 128 1 139 1 145 1 147 1 157 1 173 1 178 1 186 1 189 1 198 1 207 1 215 1 235 1 255 1 284 1 292 1 324 1 325 1 337 1 357 1 365 1 374 1 378 1 383 1 387 1 417 1 418 1 435 1 441 1 465 1 467 1 482 1 491 1 513 1 
1 205 12 1 34 1 53 1 54 2 66 1 69 1 78 1 439 1 279 1 435 1 246 2 140 1 324 1 173 1 316 1 260 1 351 1 330 1 259 1 352 2 311 1 455 1 194 1 459 1 400 1 273 1 128 1 313 1 266 1 366 1 320 1 180 1 326 1 442 1 166 1 178 1 300 1 379 2 305 2 212 1 249 1 161 1 417 1 488 1 2 1 16 1 24 1 36 1 46 1 55 1 65 1 89 1 93 1 103 1 126 1 133 1 144 1 147 1 154 1 177 1 183 1 185 1 193 1 196 1 201 1 206 1 210 1 217 1 220 1 229 1 243 1 250 1 258 1 268 1 270 1 285 1 286 1 287 1 294 1 310 1 328 1 343 1 348 1 355 1 358 1 365 1 370 1 384 1 385 1 397 1 423 1 429 1 440 1 441 1 470 1 471 1 473 1 481 1 487 1 491 1 497 1 
1 226 1 1 12 1 13 1 32 1 38 2 42 1 53 1 58 1 74 1 497 1 191 2 327 1 199 2 405 1 408 1 229 1 302 2 171 1 292 1 185 2 120 1 238 1 365 2 493 1 139 1 311 1 249 1 349 1 193 1 205 1 410 1 268 1 204 1 180 1 184 1 291 2 133 1 196 1 449 1 471 1 463 1 461 1 211 1 232 1 372 1 477 1 138 2 494 1 203 1 324 1 384 1 407 1 465 2 496 2 206 1 418 2 154 1 7 1 8 1 10 1 14 1 15 1 18 1 22 1 25 1 26 1 29 1 33 1 44 1 46 1 50 1 65 1 68 1 76 1 79 1 86 1 88 1 95 1 132 1 141 1 149 1 177 1 198 1 200 1 220 1 240 1 254 1 256 1 264 1 269 1 277 1 307 1 314 1 320 1 333 1 340 1 341 1 344 1 347 1 354 1 366 1 370 1 383 1 406 1 411 1 416 1 419 1 423 1 426 1 428 1 441 1 450 1 455 1 459 1 478 1 484 1 486 1 508 1 516 1 
1 204 16 1 51 1 54 2 65 1 82 1 490 2 179 1 196 1 356 1 157 1 353 1 373 1 318 1 302 1 156 1 165 1 431 1 199 1 232 1 188 1 358 1 223 1 249 2 447 1 357 1 289 1 283 1 268 2 424 2 158 1 134 1 133 1 180 1 410 1 135 1 376 1 425 1 163 1 387 1 316 1 167 1 230 1 482 1 313 1 329 1 218 1 140 1 337 1 201 2 103 1 280 1 161 1 458 1 479 1 385 1 360 1 484 1 160 1 6 1 9 1 10 1 13 1 14 1 17 1 18 1 37 1 60 1 75 1 77 1 85 1 94 1 118 1 131 1 141 1 152 1 153 1 166 1 176 1 197 1 205 1 210 1 227 1 235 1 258 1 262 1 264 1 267 1 272 1 285 1 287 1 288 1 300 1 301 1 306 1 312 1 333 1 335 1 342 1 344 1 346 1 349 1 368 1 404 1 408 1 426 1 446 1 467 1 471 1 473 1 491 1 492 1 496 1 497 1 498 1 517 1 
1 203 9 1 10 1 16 1 21 1 23 1 29 1 32 1 36 1 55 1 226 1 263 1 460 1 157 1 126 2 440 1 347 1 423 1 173 1 147 1 315 1 483 1 272 1 253 1 281 1 427 1 406 1 417 1 372 1 491 1 495 1 192 1 497 1 146 1 348 1 225 2 212 1 196 1 467 1 401 1 166 1 167 1 278 1 429 1 234 1 158 1 220 1 150 1 324 1 204 1 230 1 496 1 200 1 183 1 105 1 287 1 254 1 380 1 184 1 342 1 151 1 395 2 179 1 218 1 375 1 378 1 7 1 20 1 24 1 31 1 35 1 38 1 39 1 45 1 51 1 57 1 106 1 161 1 162 1 169 1 186 1 188 1 195 1 233 1 238 1 242 1 244 1 248 1 273 1 277 1 279 1 288 1 307 1 309 1 327 1 330 1 332 1 336 1 352 1 363 1 374 1 393 1 438 1 461 1 462 1 468 1 472 1 480 1 499 1 503 1 508 1 519 1 
1 210 6 1 7 1 11 1 17 1 37 1 40 1 48 1 52 1 58 1 59 1 67 1 199 1 389 2 155 1 241 2 301 1 420 1 234 1 186 1 318 2 363 2 364 1 469 1 171 1 319 1 183 1 132 1 194 1 405 1 208 1 162 1 385 1 225 1 281 1 344 1 213 1 133 2 200 1 391 1 184 1 383 1 463 2 311 1 239 1 302 1 139 1 279 2 464 1 435 1 181 1 151 1 152 1 223 1 95 1 336 1 303 1 272 1 449 2 289 1 233 2 2 1 4 1 5 1 10 1 13 1 15 1 24 1 35 1 64 1 85 1 107 1 116 1 144 1 146 1 157 1 161 1 167 1 177 1 201 1 209 1 224 1 232 1 254 1 258 1 261 1 263 1 270 1 276 1 295 1 307 1 316 1 317 1 328 1 351 1 361 1 362 1 371 1 380 1 393 1 400 1 408 1 413 1 418 1 424 1 442 1 450 1 456 1 458 1 461 1 466 1 483 1 484 1 485 1 486 1 495 1 497 1 499 1 501 1 511 1 514 1 
1 207 13 1 15 2 16 2 32 1 40 2 46 2 51 1 52 1 57 1 61 1 62 1 492 1 467 1 329 1 397 1 131 1 135 1 458 1 413 1 253 1 387 2 486 1 208 2 459 1 482 1 189 1 495 1 324 1 364 1 234 1 274 1 402 1 262 1 316 1 127 1 270 2 370 1 321 1 283 1 123 1 310 1 481 1 496 1 320 1 462 1 132 1 152 1 422 1 379 1 448 1 388 1 314 1 164 1 390 1 429 2 471 1 416 1 362 1 348 1 93 2 124 1 180 2 226 1 411 1 161 1 219 1 330 1 376 2 21 1 39 1 43 1 60 1 63 1 66 1 67 1 72 1 84 1 104 1 109 1 114 1 144 1 150 1 168 1 172 1 187 1 202 1 203 1 205 1 213 1 214 1 248 1 275 1 297 1 300 1 315 1 317 1 323 1 334 1 341 1 355 1 361 1 363 1 369 1 372 1 395 1 399 1 409 1 414 1 431 1 450 1 453 1 454 1 457 1 470 1 472 1 473 1 476 1 478 1 480 1 494 1 
1 210 6 1 19 1 34 1 40 1 57 1 59 1 69 1 304 1 209 1 242 1 425 1 238 1 315 1 403 1 283 1 244 1 203 1 290 1 202 1 479 1 359 1 205 1 265 2 200 1 256 1 253 1 150 1 311 1 490 1 267 1 172 1 475 2 369 1 318 1 262 1 338 1 488 1 255 1 137 1 368 2 351 1 409 1 455 1 99 1 122 1 421 1 344 2 229 1 441 1 234 1 457 1 188 1 231 1 132 2 371 1 302 1 258 2 8 1 12 1 27 1 33 1 36 1 37 1 41 1 52 1 60 1 67 1 127 1 143 1 149 1 157 1 159 1 160 1 162 1 178 1 194 1 207 1 212 1 235 1 246 1 254 1 266 1 277 1 291 1 296 1 297 1 319 1 336 1 349 1 352 1 378 1 397 1 407 1 408 1 418 1 420 1 426 1 440 1 443 1 444 1 471 1 484 1 485 1 486 1 495 1 511 1 520 1 
1 197 5 1 7 1 18 1 20 1 40 1 43 1 55 1 60 2 62 1 64 1 65 1 68 1 83 1 328 1 317 1 322 1 141 1 137 1 403 1 467 1 276 1 396 1 308 1 371 1 167 1 210 1 296 1 193 1 362 1 257 1 211 1 339 1 316 1 304 1 168 1 301 1 404 1 429 1 191 1 313 1 364 1 142 1 145 1 440 1 433 1 258 1 272 1 374 1 166 1 144 1 414 1 305 2 265 1 48 1 66 1 71 1 97 1 112 1 118 1 127 1 133 1 135 1 140 1 146 1 148 1 150 1 170 1 182 1 196 1 203 1 207 1 216 1 218 1 225 1 226 1 250 1 252 1 263 1 266 1 271 1 279 1 288 1 299 1 307 1 319 1 335 1 343 1 344 1 354 1 363 1 367 1 368 1 381 1 401 1 407 1 411 1 432 1 436 1 444 1 451 1 455 1 460 1 465 1 496 1 499 1 509 1 514 1 520 1 
1 217 2 1 8 1 14 1 20 1 32 1 37 1 39 2 48 2 54 1 59 1 62 2 69 1 433 1 476 1 353 1 456 1 258 1 364 1 157 1 282 1 418 1 391 1 303 1 186 2 498 1 319 2 371 2 352 1 228 1 190 1 311 1 345 1 133 1 143 1 413 1 100 1 343 1 381 1 336 2 338 1 375 2 490 1 287 1 158 1 411 1 480 1 487 1 386 1 103 1 151 1 358 1 347 1 367 1 107 1 216 1 141 1 268 1 426 1 152 1 458 1 492 1 403 1 122 1 6 1 16 1 34 1 46 1 49 1 51 1 83 1 104 1 116 1 137 1 139 1 154 1 175 1 189 1 196 1 199 1 202 1 212 1 217 1 219 1 222 1 223 1 224 1 229 1 239 1 265 1 270 1 284 1 285 1 289 1 292 1 316 1 317 1 324 1 335 1 346 1 351 1 365 1 374 1 416 1 435 1 444 1 448 1 450 1 452 1 455 1 459 1 471 1 482 1 485 1 486 1 509 1 
1 189 4 1 29 1 42 1 44 2 50 1 51 1 56 1 57 1 66 1 67 1 89 2 387 1 170 1 392 1 455 1 143 1 265 1 489 1 287 2 282 1 292 1 310 1 494 1 371 1 182 1 149 1 474 1 465 1 165 1 130 1 437 1 128 1 353 1 307 1 479 1 480 1 289 1 102 1 111 1 203 1 433 1 483 1 495 1 233 2 408 1 472 1 344 1 309 1 257 1 493 2 184 1 445 1 251 1 106 1 19 1 21 1 24 1 35 1 39 1 54 1 62 1 63 1 84 1 95 1 123 1 133 1 135 1 141 1 144 1 147 1 160 1 164 1 168 1 187 1 188 1 193 1 194 1 199 1 232 1 236 1 240 1 247 1 258 1 259 1 274 1 276 1 277 1 284 1 286 1 291 1 294 1 318 1 331 1 333 1 341 1 347 1 352 1 364 1 369 1 382 1 397 1 410 1 414 1 426 1 434 1 443 1 457 1 460 1 461 1 478 1 
1 210 26 1 27 1 46 1 49 2 50 1 56 1 59 1 65 1 70 1 71 1 74 1 185 1 187 1 324 1 171 1 342 2 175 1 437 1 481 1 411 2 263 2 456 1 366 1 260 1 363 1 129 1 376 1 440 1 298 1 259 2 439 1 424 1 126 1 365 1 341 1 385 1 174 1 426 1 173 1 453 1 256 2 429 1 381 1 482 1 115 1 276 1 405 2 360 1 452 1 390 1 274 2 140 1 247 1 179 2 205 1 291 1 483 1 169 1 190 2 215 2 415 1 343 1 4 1 6 1 7 1 15 1 25 1 28 1 31 1 39 1 68 1 72 1 75 1 86 1 100 1 110 1 134 1 135 1 147 1 149 1 152 1 159 1 186 1 188 1 191 1 197 1 214 1 220 1 227 1 268 1 292 1 294 1 316 1 317 1 318 1 347 1 351 1 375 1 391 1 399 1 410 1 412 1 431 1 438 1 454 1 466 1 486 1 490 1 494 1 498 1 499 1 
1 205 5 1 19 1 43 1 49 1 68 1 77 1 88 1 144 1 475 1 443 1 324 1 131 1 166 1 295 1 431 1 356 1 337 1 180 1 207 2 201 1 277 1 196 1 241 1 317 1 193 1 388 1 441 1 304 1 339 1 459 1 108 1 262 1 316 2 451 1 255 1 374 1 427 1 187 1 307 1 250 1 383 1 145 1 468 1 248 1 155 1 167 1 219 1 216 1 411 1 483 1 221 1 269 1 470 1 169 2 331 1 177 1 375 1 401 1 148 1 481 1 117 1 176 1 6 1 7 1 9 1 31 1 45 1 50 1 55 1 62 1 73 1 81 1 85 1 93 1 96 1 106 1 107 1 137 1 142 1 143 1 151 1 154 1 164 1 175 1 179 1 186 1 194 1 214 1 231 1 242 1 244 1 253 1 256 1 266 1 268 1 280 1 296 1 299 1 314 1 325 1 338 1 348 1 351 1 353 1 355 1 362 1 368 1 380 1 387 1 390 1 402 1 412 1 426 1 452 1 458 1 467 1 497 1 
1 206 1 1 3 1 4 1 8 1 13 1 15 1 19 1 28 1 37 1 50 1 54 2 79 1 140 1 339 2 265 1 457 1 334 1 201 1 428 1 294 1 369 1 145 1 311 1 463 2 268 1 431 1 101 1 493 1 133 1 451 1 146 1 191 1 341 1 155 1 284 1 244 1 307 1 279 1 225 1 226 1 205 1 253 1 109 1 139 1 329 1 105 1 274 1 112 1 410 1 426 1 492 1 344 2 20 1 22 1 23 1 32 1 41 1 45 1 46 1 48 1 51 1 56 1 59 1 66 1 71 1 95 1 98 1 152 1 157 1 158 1 161 1 169 1 171 1 177 1 184 1 188 1 210 1 219 1 249 1 259 1 272 1 287 1 296 1 297 1 308 1 314 1 319 1 323 1 324 1 331 1 335 1 374 1 412 1 413 1 424 1 430 1 433 1 434 1 440 1 450 1 452 1 453 1 456 1 486 1 496 1 511 1 520 1 
1 202 8 1 19 1 35 1 40 1 47 1 63 1 73 1 83 1 130 1 264 1 362 1 272 1 482 1 257 1 306 2 368 1 188 1 302 1 438 1 169 2 146 1 213 1 299 1 293 1 200 1 440 1 105 1 265 2 100 1 301 1 216 1 240 1 156 1 369 1 187 1 388 1 481 1 473 1 291 1 189 1 341 1 211 1 428 1 331 1 343 2 234 1 374 1 372 2 292 1 386 1 383 1 358 2 402 1 449 2 486 1 179 1 443 1 466 1 2 1 6 1 10 1 12 1 21 1 37 1 69 1 91 1 113 1 131 1 160 1 174 1 177 1 178 1 183 1 186 1 199 1 207 1 208 1 227 1 229 1 237 1 244 1 250 1 252 1 259 1 274 1 278 1 279 1 281 1 290 1 297 1 305 1 312 1 317 1 326 1 336 1 349 1 352 1 373 1 381 1 390 1 404 1 415 1 420 1 424 1 430 1 431 1 437 1 451 1 453 1 458 1 462 1 465 1 470 1 479 1 496 1 501 1 517 1 518 1 
1 182 26 1 31 1 33 1 39 1 57 1 71 1 74 2 76 1 81 1 309 2 180 1 354 1 466 1 291 2 214 2 376 1 446 1 243 1 292 1 421 2 255 1 328 2 254 1 172 1 327 1 472 1 152 1 219 1 175 1 260 1 131 1 250 1 157 1 398 1 153 1 384 1 445 1 419 1 285 1 169 1 440 1 426 1 377 1 296 1 109 1 259 1 176 1 288 1 99 2 213 1 491 2 271 2 262 1 304 1 457 1 8 1 12 1 14 1 15 1 20 1 29 1 35 1 38 1 45 1 47 1 53 1 56 1 65 1 69 1 77 1 96 1 113 1 116 1 133 1 135 1 142 1 151 1 160 1 163 1 170 1 173 1 182 1 184 1 187 1 189 1 193 1 207 1 217 1 224 1 235 1 236 1 248 1 272 1 307 1 341 1 349 1 351 1 362 1 364 1 406 1 410 1 434 1 439 1 449 1 454 1 462 1 479 1 480 1 483 1 502 1 511 1 515 1 519 1 
1 203 2 2 6 1 7 1 18 1 28 1 36 1 64 1 72 1 90 1 98 2 394 1 445 1 228 1 462 1 336 1 301 1 481 1 392 2 427 1 136 1 285 1 175 1 151 1 203 1 154 1 405 2 410 1 459 1 248 1 357 1 281 1 105 2 374 1 190 1 415 1 303 1 401 1 328 2 181 1 288 1 438 1 346 1 146 1 426 2 227 1 364 1 245 1 177 1 429 1 299 1 483 1 259 2 141 2 496 1 451 1 233 1 378 1 234 1 409 1 406 1 102 1 198 1 298 1 104 1 337 1 386 2 4 1 8 1 20 1 48 1 54 1 147 1 157 1 160 1 172 1 178 1 209 1 236 1 237 1 239 1 246 1 252 1 264 1 276 1 280 1 306 1 307 1 333 1 356 1 368 1 372 1 380 1 398 1 407 1 408 1 414 1 416 1 465 1 471 1 482 1 499 1 
1 203 26 1 28 1 31 1 49 1 53 1 60 1 65 2 67 1 68 1 74 1 92 1 97 1 226 1 423 1 371 1 313 1 319 1 425 1 249 1 149 1 365 1 198 2 268 1 336 1 218 2 157 1 130 1 364 1 272 1 224 2 414 2 302 1 192 1 453 1 412 1 389 1 479 1 213 1 292 1 439 1 117 1 440 1 491 1 150 1 163 2 442 1 384 1 443 1 142 2 391 1 185 1 362 1 170 2 492 1 348 1 434 1 375 1 161 1 2 1 23 1 33 1 48 1 51 1 54 1 55 1 61 1 69 1 79 1 80 1 94 1 103 1 113 1 135 1 151 1 160 1 169 1 182 1 187 1 194 1 199 1 207 1 210 1 217 1 219 1 223 1 225 1 230 1 231 1 242 1 243 1 254 1 271 1 273 1 283 1 296 1 303 1 305 1 325 1 339 1 351 1 367 1 368 1 372 1 373 1 376 1 392 1 395 1 413 1 427 1 441 1 449 1 455 1 456 1 467 1 472 1 473 1 484 1 498 1 
1 202 19 1 22 1 29 1 31 2 32 2 45 1 49 1 50 1 55 1 68 1 71 1 79 2 96 1 187 1 184 1 401 1 453 1 222 2 219 1 331 1 200 2 378 1 198 1 197 1 341 1 384 1 395 1 469 1 242 1 157 1 183 1 382 1 431 1 181 1 291 1 347 1 318 1 440 1 293 1 436 1 354 1 203 1 158 1 451 1 290 1 185 1 256 1 194 1 454 1 413 1 478 1 315 1 232 1 322 1 7 1 12 1 15 1 20 1 27 1 42 1 47 1 51 1 53 1 56 1 62 1 65 1 103 1 141 1 154 1 161 1 171 1 205 1 211 1 216 1 233 1 236 1 237 1 258 1 263 1 264 1 267 1 269 1 273 1 280 1 284 1 303 1 326 1 328 1 343 1 372 1 374 1 385 1 386 1 388 1 390 1 420 1 435 1 444 1 448 1 458 1 460 1 472 1 497 1 501 1 
1 205 2 1 11 1 15 1 19 1 23 1 24 1 30 1 34 1 40 1 44 1 46 1 51 1 52 1 59 1 68 1 93 1 99 1 201 1 496 1 464 1 248 1 418 1 265 1 190 1 157 1 435 1 185 1 460 1 216 1 419 1 451 1 395 1 307 1 433 2 434 1 206 1 326 1 350 1 448 1 143 1 272 1 188 1 450 1 414 1 276 1 292 1 233 1 459 1 240 1 167 1 299 1 497 1 109 1 462 1 424 1 386 2 271 1 346 1 146 2 200 1 163 1 406 1 239 1 362 1 25 1 38 1 48 1 61 1 76 1 111 1 117 1 121 1 139 1 159 1 164 1 176 1 183 1 199 1 211 1 228 1 235 1 237 1 251 1 260 1 270 1 274 1 277 1 286 1 310 1 315 1 344 1 347 1 352 1 353 1 361 1 372 1 397 1 428 1 430 1 456 1 463 1 473 1 476 1 486 1 494 1 498 1 502 1 509 1 
1 229 3 1 17 1 25 2 35 1 41 1 45 1 63 1 69 1 86 1 92 1 428 1 142 1 453 1 243 1 217 2 297 1 354 1 385 1 429 1 323 1 402 1 173 1 178 1 269 1 287 1 477 1 144 1 272 1 199 2 246 1 270 1 264 1 154 1 487 1 107 1 205 1 419 1 396 1 106 2 206 1 156 1 218 1 320 1 352 1 187 1 159 1 253 2 123 1 361 2 108 1 112 1 442 2 437 1 220 1 495 2 334 1 221 2 140 2 244 1 377 1 417 1 317 1 461 1 393 2 2 1 5 1 6 1 7 1 18 1 24 1 28 1 36 1 37 1 49 1 66 1 74 1 84 1 100 1 101 1 114 1 126 1 131 1 166 1 186 1 227 1 229 1 234 1 236 1 237 1 258 1 288 1 293 1 302 1 310 1 315 1 318 1 319 1 321 1 332 1 341 1 367 1 387 1 400 1 408 1 410 1 426 1 439 1 459 1 464 1 476 1 480 1 484 1 500 1 511 1 514 1 519 1 
1 211 1 2 6 1 8 1 9 1 24 1 49 1 51 1 64 1 65 1 69 1 73 2 74 1 75 1 99 1 342 1 232 2 189 1 366 1 480 1 180 1 145 1 407 1 368 2 452 1 156 1 308 1 361 1 158 1 140 1 113 1 171 1 159 1 304 1 384 2 483 1 222 1 458 1 209 1 333 2 133 1 434 1 326 1 357 1 226 1 249 1 200 1 468 2 299 1 110 1 182 2 341 1 363 1 377 1 277 1 178 1 153 2 214 1 462 1 295 2 196 1 329 1 343 1 149 1 395 2 185 1 425 1 349 1 400 1 470 1 27 1 40 1 47 1 48 1 52 1 63 1 67 1 89 1 92 1 109 1 114 1 120 1 148 1 154 1 161 1 162 1 193 1 207 1 224 1 225 1 228 1 231 1 242 1 246 1 250 1 265 1 269 1 271 1 275 1 286 1 290 1 294 1 311 1 315 1 334 1 347 1 353 1 376 1 392 1 409 1 426 1 437 1 442 1 447 1 457 1 461 1 474 1 506 1 
1 202 13 1 21 1 36 1 40 1 41 1 42 1 43 1 53 1 60 1 64 1 75 1 87 1 96 1 97 1 99 2 432 1 420 1 460 1 427 2 253 1 356 1 302 1 465 1 145 1 468 1 266 2 327 1 313 1 393 1 409 1 197 1 117 1 447 1 267 1 314 1 310 1 480 1 221 1 430 1 352 1 153 1 421 1 493 1 280 1 400 1 325 2 482 1 492 1 466 1 113 1 413 1 423 1 265 1 324 1 389 1 398 1 308 1 426 1 224 1 106 1 448 1 435 1 135 1 122 1 499 1 478 1 384 1 172 1 4 1 27 1 52 1 56 1 68 1 77 1 78 1 82 1 107 1 110 1 118 1 127 1 139 1 142 1 156 1 198 1 203 1 225 1 229 1 234 1 254 1 262 1 273 1 278 1 281 1 282 1 286 1 292 1 298 1 299 1 303 1 307 1 317 1 329 1 339 1 353 1 357 1 362 1 388 1 399 1 401 1 402 1 408 1 412 1 425 1 436 1 444 1 446 1 469 1 494 1 510 1 
1 193 10 1 15 1 30 1 34 1 39 1 66 1 72 1 81 2 93 1 103 2 105 1 150 1 415 1 425 1 345 1 285 1 295 1 496 1 241 1 159 1 418 2 136 1 158 1 314 1 190 1 438 1 433 2 216 1 232 1 422 1 202 1 388 1 457 1 157 1 237 1 448 1 121 1 245 1 323 1 221 1 378 1 386 1 238 1 149 1 376 1 455 1 273 1 375 1 488 1 242 1 117 2 306 1 352 1 311 1 436 1 318 1 207 1 423 2 12 1 38 1 58 1 67 1 71 1 79 1 80 1 87 1 95 1 120 1 130 1 177 1 181 1 187 1 188 1 191 1 192 1 213 1 215 1 219 1 222 1 226 1 254 1 257 1 261 1 282 1 299 1 309 1 332 1 343 1 350 1 356 1 370 1 371 1 390 1 408 1 413 1 419 1 443 1 447 1 460 1 471 1 475 1 479 1 
1 211 5 1 18 1 25 1 30 1 39 1 52 1 55 1 57 1 63 1 83 1 92 1 103 1 185 1 224 1 343 1 293 1 348 1 313 1 493 1 415 1 227 2 133 2 389 1 306 1 255 1 175 1 251 1 243 1 132 1 292 1 349 1 499 1 112 1 262 1 121 1 498 1 425 1 465 1 164 1 241 1 323 1 296 1 119 1 450 1 268 1 307 1 331 1 161 1 197 1 210 1 394 1 233 1 373 2 300 2 367 1 273 1 42 1 44 1 49 1 69 1 73 1 80 1 81 1 88 1 95 1 105 1 113 1 117 1 118 1 127 1 138 1 160 1 191 1 192 1 195 1 202 1 204 1 213 1 230 1 246 1 257 1 263 1 285 1 290 1 333 1 334 1 345 1 354 1 368 1 372 1 379 1 387 1 391 1 396 1 398 1 410 1 417 1 418 1 442 1 443 1 449 1 451 1 452 1 460 1 474 1 483 1 500 1 
1 189 7 1 29 2 30 1 41 1 48 1 64 1 68 1 78 1 95 1 103 1 375 1 464 1 210 1 257 1 274 1 447 1 326 1 426 1 336 1 298 2 347 1 216 2 391 2 365 2 471 1 324 1 423 1 290 1 175 1 289 1 454 2 388 2 439 1 383 1 487 1 329 1 301 1 116 1 156 1 355 2 294 1 432 2 262 1 403 1 249 1 363 1 441 1 370 1 415 1 19 1 20 1 40 1 43 1 44 1 45 1 61 1 114 1 132 1 145 1 146 1 151 1 154 1 170 1 183 1 203 1 208 1 228 1 243 1 245 1 253 1 266 1 271 1 284 1 293 1 305 1 323 1 331 1 340 1 350 1 352 1 392 1 401 1 417 1 420 1 433 1 437 1 448 1 452 1 453 1 463 1 467 1 473 1 486 1 
1 195 13 2 21 1 32 1 35 1 38 1 50 1 52 1 59 1 62 1 70 1 96 1 98 1 102 1 218 1 200 1 398 1 296 1 222 1 435 1 315 1 342 1 361 1 328 1 282 1 206 1 146 1 135 1 287 1 221 2 416 1 295 1 379 1 169 1 211 1 303 2 257 1 276 1 442 1 446 1 116 1 360 2 419 1 459 1 452 1 374 1 341 1 466 1 399 1 167 1 378 1 421 1 382 2 336 1 369 1 170 2 349 1 461 1 428 1 443 1 450 1 244 2 289 1 487 1 17 1 28 1 45 1 65 1 67 1 72 1 83 1 89 1 104 1 119 1 133 1 164 1 182 1 183 1 210 1 214 1 215 1 217 1 231 1 245 1 253 1 259 1 261 1 317 1 318 1 325 1 331 1 334 1 340 1 345 1 357 1 372 1 394 1 412 1 413 1 437 1 439 1 464 1 475 1 486 1 504 1 
1 202 4 1 11 2 17 1 39 1 44 1 46 1 68 1 104 1 133 1 248 2 281 1 362 1 375 2 315 1 197 1 317 1 263 1 170 2 195 1 252 1 205 1 202 1 471 1 301 1 193 1 163 2 406 1 182 2 135 1 229 2 346 1 366 1 391 1 359 1 356 1 485 1 287 1 256 1 377 1 213 1 331 1 363 1 262 2 286 1 383 1 264 1 138 1 418 1 238 1 9 1 14 1 20 1 60 1 63 1 66 1 71 1 94 1 105 1 140 1 144 1 155 1 161 1 173 1 174 1 183 1 184 1 191 1 210 1 220 1 225 1 228 1 233 1 241 1 245 1 251 1 254 1 255 1 268 1 270 1 277 1 309 1 313 1 321 1 327 1 334 1 348 1 351 1 381 1 398 1 403 1 433 1 455 1 484 1 504 1 507 1 508 1 
1 209 1 1 5 1 6 1 12 1 27 1 28 1 40 1 50 1 55 1 56 1 59 1 66 1 73 1 83 1 93 1 206 1 253 2 333 1 285 1 338 1 317 1 454 2 452 1 236 1 185 1 413 1 436 1 227 1 359 1 293 1 246 1 374 1 146 1 167 1 491 1 152 1 153 1 318 2 456 1 221 2 188 2 126 1 250 1 309 2 339 1 331 1 385 1 271 1 437 1 233 1 330 1 119 2 166 1 389 1 430 1 462 1 131 1 190 1 295 2 301 1 138 1 421 1 4 1 13 1 30 1 39 1 42 1 44 1 51 1 54 1 78 1 102 1 116 1 121 1 149 1 173 1 177 1 179 1 181 1 184 1 192 1 198 1 204 1 208 1 217 1 229 1 232 1 251 1 267 1 319 1 320 1 326 1 328 1 335 1 337 1 345 1 347 1 356 1 361 1 362 1 365 1 367 1 370 1 383 1 388 1 398 1 407 1 440 1 443 1 446 1 463 1 468 1 473 1 479 1 496 1 505 1 515 1 520 1 
1 215 2 2 7 1 25 2 32 1 39 1 44 1 53 1 56 1 76 1 78 2 96 1 103 1 107 1 421 1 168 1 224 1 254 1 258 2 246 1 149 2 170 2 361 1 423 2 184 2 272 1 253 1 255 1 445 1 439 1 458 1 402 2 435 1 167 1 311 1 305 1 474 1 188 1 425 1 400 1 176 1 497 2 473 1 297 1 321 1 437 1 475 1 494 2 484 1 385 1 146 1 333 1 180 1 302 1 316 1 446 1 434 1 275 1 215 1 370 1 285 2 12 1 19 1 30 1 37 1 46 1 58 1 61 1 65 1 71 1 79 1 91 1 113 1 120 1 135 1 136 1 143 1 148 1 189 1 191 1 202 1 221 1 222 1 223 1 242 1 248 1 252 1 259 1 264 1 278 1 286 1 289 1 292 1 294 1 314 1 322 1 326 1 337 1 338 1 341 1 347 1 351 1 366 1 371 1 380 1 381 1 401 1 403 1 410 1 412 1 431 1 443 1 448 1 462 1 468 1 476 1 479 1 501 1 
1 201 6 1 14 2 32 1 35 1 37 1 39 2 46 1 49 1 64 1 67 1 104 1 105 1 422 1 299 1 175 2 182 1 308 1 417 1 344 1 242 1 219 1 445 1 430 1 290 2 186 1 259 1 472 1 251 1 446 1 248 2 265 1 460 1 235 1 395 1 474 1 310 1 435 1 154 1 497 2 410 1 198 1 389 1 202 1 409 1 179 1 218 1 490 1 228 1 160 2 372 1 124 1 200 1 262 2 330 1 357 2 412 1 239 1 309 1 470 1 226 1 334 1 322 1 22 1 27 1 58 1 65 1 68 1 78 1 97 1 98 1 100 1 107 1 112 1 116 1 122 1 128 1 157 1 162 1 173 1 197 1 199 1 221 1 224 1 230 1 233 1 255 1 264 1 282 1 288 1 305 1 314 1 317 1 342 1 353 1 359 1 361 1 370 1 391 1 400 1 413 1 424 1 433 1 444 1 457 1 484 1 513 1 
1 209 8 1 44 1 51 1 53 1 54 1 65 1 71 1 72 1 76 1 82 1 483 1 339 1 415 1 200 1 475 1 142 1 279 1 284 2 482 1 446 1 435 1 477 2 164 1 213 1 345 1 328 1 116 1 319 1 401 1 217 1 449 1 316 1 378 1 298 1 299 1 431 1 497 1 470 1 337 1 259 2 255 1 491 1 207 2 445 2 234 2 251 1 368 1 383 1 358 1 430 1 274 1 309 1 182 2 239 1 203 1 175 1 4 1 14 1 34 1 38 1 55 1 58 1 70 1 89 1 103 1 104 1 108 1 119 1 125 1 126 1 141 1 144 1 149 1 157 1 161 1 167 1 181 1 183 1 196 1 202 1 204 1 211 1 229 1 235 1 246 1 266 1 270 1 273 1 278 1 281 1 285 1 301 1 302 1 323 1 326 1 333 1 382 1 386 1 395 1 397 1 411 1 420 1 428 1 434 1 436 1 450 1 452 1 474 1 478 1 481 1 485 1 488 1 494 1 505 1 509 1 
1 193 6 1 10 2 23 1 24 1 29 1 34 1 39 1 41 1 48 1 68 1 70 1 71 1 83 1 94 1 355 1 329 1 385 1 469 1 244 1 431 1 347 1 358 1 186 1 176 1 299 1 136 1 404 1 403 1 173 1 160 1 202 1 423 1 249 1 192 1 387 2 180 1 356 1 315 1 203 1 270 1 475 1 261 1 359 1 231 1 179 1 335 2 120 1 450 1 377 1 158 1 144 1 212 1 371 1 275 1 392 1 352 1 153 1 425 1 333 1 446 1 479 2 370 1 3 1 13 1 15 1 19 1 27 1 42 1 45 1 50 1 56 1 58 1 59 1 77 1 79 1 163 1 164 1 168 1 178 1 196 1 197 1 213 1 219 1 225 1 230 1 239 1 256 1 257 1 264 1 279 1 292 1 294 1 308 1 322 1 360 1 361 1 372 1 381 1 390 1 393 1 398 1 407 1 409 1 426 1 435 1 436 1 449 1 457 1 476 1 478 1 480 1 484 1 497 1 520 1 
1 194 1 1 29 1 44 1 72 1 74 1 78 1 83 1 108 1 109 1 114 1 336 1 332 1 193 1 226 1 231 1 341 1 278 1 365 1 146 1 272 1 199 2 375 2 153 1 435 1 455 2 282 1 154 2 145 1 117 2 164 2 311 1 434 1 465 1 437 1 201 1 206 1 384 1 233 1 268 1 491 1 294 1 160 1 266 1 313 1 252 1 286 1 383 1 409 1 416 2 235 1 234 1 381 1 280 1 360 1 431 1 270 1 190 1 8 1 10 1 21 1 31 1 36 1 38 1 41 1 49 1 52 1 56 1 62 1 71 1 88 1 92 1 98 1 111 1 113 1 128 1 140 1 142 1 152 1 155 1 161 1 187 1 191 1 216 1 219 1 221 1 228 1 232 1 267 1 274 1 277 1 292 1 304 1 321 1 347 1 353 1 359 1 368 1 393 1 395 1 405 1 420 1 424 1 453 1 461 1 466 1 483 1 494 1 498 1 
1 189 19 2 44 1 48 2 55 1 59 1 95 1 100 1 105 1 106 2 116 2 410 1 388 1 188 1 324 2 466 1 458 1 415 1 167 1 321 1 311 1 138 1 420 1 363 1 283 1 444 1 378 1 391 1 414 1 201 1 352 1 171 1 483 1 362 1 257 2 356 1 130 1 271 1 490 1 322 1 172 2 279 1 235 1 409 1 151 1 468 1 469 1 1 1 3 1 11 1 14 1 18 1 22 1 30 1 37 1 43 1 72 1 102 1 107 1 141 1 143 1 155 1 160 1 169 1 179 1 181 1 182 1 186 1 189 1 190 1 210 1 216 1 245 1 255 1 258 1 264 1 272 1 284 1 287 1 289 1 293 1 309 1 315 1 332 1 333 1 372 1 381 1 384 1 424 1 425 1 453 1 464 1 472 1 491 1 502 1 504 1 
1 197 4 1 9 2 16 1 18 1 28 1 33 1 42 1 63 1 65 1 66 1 77 1 247 1 333 1 185 1 300 1 142 1 452 1 278 1 263 1 414 1 253 1 206 2 164 1 202 1 293 1 289 2 292 1 355 1 471 1 383 1 240 1 357 1 276 1 374 1 382 1 230 1 310 1 366 1 267 1 433 1 155 1 445 1 311 1 226 1 259 1 212 1 125 1 229 1 182 2 130 1 427 2 440 1 227 1 154 1 180 1 119 1 456 2 425 1 269 1 17 1 31 1 68 1 80 1 82 1 86 1 91 1 105 1 107 1 120 1 143 1 150 1 161 1 168 1 169 1 176 1 207 1 217 1 222 1 224 1 249 1 255 1 264 1 268 1 270 1 297 1 317 1 325 1 328 1 342 1 356 1 376 1 379 1 391 1 392 1 398 1 399 1 401 1 411 1 416 1 424 1 431 1 437 1 443 1 460 1 475 1 478 1 491 1 497 1 498 1 516 1 
1 207 4 1 31 1 37 1 40 1 56 1 72 1 75 1 79 1 107 1 111 2 118 1 183 1 393 1 323 2 168 2 262 1 276 1 429 1 226 1 207 1 205 1 230 1 419 1 234 1 150 1 203 1 289 1 339 1 259 1 399 1 350 2 152 1 148 1 389 1 345 1 450 1 318 1 250 2 218 2 199 1 175 1 421 1 251 1 129 1 182 1 307 1 263 1 185 1 319 1 272 2 481 1 180 1 467 1 1 1 21 1 28 1 30 1 58 1 67 1 73 1 81 1 109 1 114 1 121 1 126 1 144 1 154 1 174 1 214 1 228 1 242 1 252 1 253 1 284 1 303 1 327 1 331 1 334 1 353 1 354 1 363 1 372 1 374 1 378 1 388 1 395 1 396 1 397 1 416 1 426 1 437 1 438 1 447 1 452 1 454 1 462 1 471 1 474 1 478 1 482 1 494 1 496 1 499 1 512 1 
1 203 6 1 7 1 17 2 20 2 34 1 38 1 45 1 55 1 79 1 85 1 115 1 274 1 296 1 209 2 221 1 309 1 302 1 207 1 263 1 330 1 233 1 486 2 257 1 371 1 242 1 275 1 188 1 388 1 157 1 199 2 264 1 476 1 310 2 312 1 170 1 362 1 353 1 342 1 406 1 182 1 431 1 144 2 377 1 448 1 124 1 158 1 322 1 195 1 131 1 145 1 380 1 482 2 227 1 283 2 417 1 340 1 332 1 277 2 300 1 337 1 440 1 2 1 4 1 36 1 50 1 57 1 59 1 77 1 83 1 104 1 106 1 112 1 118 1 122 1 147 1 152 1 166 1 177 1 180 1 197 1 210 1 217 1 219 1 236 1 241 1 255 1 285 1 303 1 317 1 334 1 336 1 343 1 344 1 361 1 370 1 395 1 399 1 401 1 405 1 427 1 430 1 432 1 445 1 449 1 459 1 468 1 473 1 479 1 480 1 
1 220 8 1 25 1 28 1 30 1 35 1 37 1 49 1 56 1 59 1 65 2 74 1 106 1 107 1 324 1 398 1 151 1 436 1 397 1 361 1 373 1 166 2 218 1 437 1 206 1 224 1 368 1 196 1 159 1 233 2 467 1 234 1 191 1 313 1 273 1 149 1 430 1 216 1 274 1 263 1 219 1 375 2 140 2 417 1 257 1 280 1 476 1 333 1 147 2 126 1 278 1 306 1 298 1 160 1 468 1 162 1 226 1 244 1 489 1 474 1 481 1 16 1 19 1 32 1 43 1 53 1 78 1 102 1 111 1 119 1 122 1 123 1 155 1 157 1 168 1 170 1 171 1 177 1 182 1 192 1 207 1 209 1 220 1 240 1 248 1 255 1 256 1 259 1 271 1 311 1 314 1 322 1 332 1 340 1 344 1 350 1 367 1 370 1 377 1 381 1 386 1 400 1 401 1 409 1 413 1 415 1 420 1 428 1 456 1 457 1 459 1 461 1 471 1 487 1 491 1 492 1 507 1 
1 197 4 1 15 1 16 1 22 2 23 1 39 1 43 1 46 1 57 1 66 1 90 1 92 1 105 1 478 1 324 1 230 1 399 1 405 1 359 1 237 2 213 1 273 1 475 1 274 2 217 1 147 1 187 2 265 1 496 1 250 2 279 1 125 1 235 1 227 1 186 1 222 2 215 1 304 1 148 1 180 1 190 1 404 1 398 2 221 1 129 1 299 1 471 1 468 1 284 1 160 1 149 2 301 1 313 2 232 1 396 1 255 1 387 1 238 1 2 1 8 1 10 1 31 1 40 1 49 1 50 1 74 1 77 1 79 1 80 1 82 1 113 1 120 1 121 1 134 1 145 1 155 1 158 1 159 1 164 1 179 1 184 1 193 1 205 1 229 1 231 1 241 1 251 1 253 1 260 1 266 1 288 1 289 1 295 1 334 1 376 1 383 1 406 1 411 1 421 1 425 1 451 1 462 1 467 1 480 1 487 1 499 1 503 1 509 1 512 1 
1 199 2 1 4 1 11 1 20 1 40 1 44 1 45 1 71 1 79 1 81 1 89 1 103 1 326 1 402 1 217 1 302 1 350 1 294 1 383 2 441 1 435 1 438 2 472 1 396 1 218 1 362 1 399 1 452 1 449 1 237 1 300 1 445 2 499 1 473 1 307 1 165 1 408 1 196 1 185 1 457 1 155 1 226 1 373 1 130 1 126 1 203 1 282 1 131 1 411 1 474 1 200 1 276 1 166 2 72 1 80 1 82 1 93 1 121 1 125 1 129 1 137 1 161 1 162 1 167 1 169 1 171 1 175 1 177 1 183 1 195 1 215 1 221 1 230 1 234 1 240 1 245 1 254 1 255 1 262 1 265 1 267 1 277 1 293 1 303 1 308 1 330 1 355 1 367 1 381 1 390 1 391 1 406 1 407 1 410 1 416 1 419 1 443 1 446 1 447 1 451 1 465 1 469 1 490 1 494 1 
1 224 1 1 16 1 20 1 24 2 31 1 60 2 69 1 71 1 89 1 113 1 120 1 178 1 362 1 281 1 410 1 159 1 307 2 250 1 402 1 346 1 358 1 204 1 359 1 390 1 256 1 308 2 293 2 274 1 466 1 361 2 450 1 225 1 306 1 147 1 424 1 302 1 203 1 338 1 432 1 473 2 165 1 413 1 370 1 423 1 405 1 418 1 138 1 377 1 269 1 453 2 128 2 15 1 32 1 55 1 64 1 80 1 133 1 139 1 145 1 146 1 153 1 155 1 160 1 163 1 168 1 174 1 197 1 200 1 211 1 242 1 260 1 261 1 270 1 276 1 277 1 282 1 284 1 285 1 294 1 314 1 326 1 344 1 381 1 385 1 386 1 388 1 397 1 412 1 414 1 417 1 420 1 421 1 436 1 441 1 442 1 451 1 454 1 462 1 480 1 481 1 494 1 497 1 521 1 
1 187 1 1 10 1 11 1 12 1 18 1 27 1 39 1 47 1 54 1 56 1 76 1 118 1 122 1 235 1 314 1 394 1 257 1 447 1 439 1 497 1 280 1 454 1 217 1 372 1 473 1 341 1 399 1 227 1 448 1 268 1 371 1 231 1 432 1 346 1 312 1 278 1 406 1 245 1 390 1 309 1 269 1 212 1 407 1 133 1 252 1 349 2 261 2 300 1 276 1 495 1 136 1 415 1 132 1 181 1 377 1 401 2 19 1 29 1 50 1 65 1 70 1 75 1 114 1 123 1 128 1 129 1 145 1 158 1 163 1 183 1 187 1 193 1 223 1 224 1 242 1 244 1 260 1 265 1 266 1 267 1 279 1 289 1 290 1 292 1 293 1 295 1 303 1 329 1 348 1 350 1 354 1 367 1 381 1 408 1 414 1 418 1 421 1 426 1 431 1 435 1 453 1 460 1 508 1 
1 202 11 2 15 1 31 1 32 1 40 1 47 1 57 1 67 1 74 1 87 2 94 1 111 1 121 1 123 1 440 1 379 1 244 1 466 1 497 1 330 2 391 1 485 1 214 1 288 1 478 1 495 1 339 2 268 1 283 1 209 2 200 1 273 1 406 1 199 1 408 1 189 1 226 1 326 1 293 1 462 1 205 1 308 1 148 1 247 2 281 1 155 1 259 1 481 1 309 1 474 1 175 1 349 1 400 2 457 1 188 1 260 1 269 1 6 1 16 1 46 1 48 1 50 1 52 1 68 1 81 1 84 1 103 1 114 1 119 1 137 1 147 1 151 1 158 1 168 1 182 1 190 1 203 1 236 1 242 1 243 1 254 1 255 1 292 1 298 1 301 1 306 1 311 1 321 1 332 1 333 1 334 1 335 1 338 1 353 1 368 1 381 1 385 1 387 1 395 1 401 1 403 1 428 1 437 1 443 1 450 1 451 1 460 1 468 1 473 1 499 1 
1 176 13 2 15 1 32 1 36 1 44 1 50 1 51 1 54 1 75 1 80 2 81 2 83 1 89 1 386 1 212 2 199 1 158 1 207 1 191 1 492 1 466 1 381 1 178 1 444 1 155 1 229 1 374 1 385 1 456 1 169 1 219 1 491 1 344 1 455 1 193 1 317 1 486 1 484 1 419 1 454 1 280 2 300 1 206 1 309 2 179 1 387 1 182 1 394 1 421 1 168 2 202 1 487 1 470 1 441 1 275 1 449 1 406 1 307 1 352 1 165 1 304 1 3 1 4 1 7 1 11 1 19 1 25 1 27 1 28 1 41 1 45 1 56 1 61 1 65 1 67 1 82 1 90 1 91 1 105 1 107 1 149 1 167 1 172 1 177 1 194 1 200 1 225 1 235 1 255 1 268 1 297 1 299 1 312 1 321 1 337 1 340 1 341 1 359 1 380 1 390 1 405 1 413 1 415 1 417 1 428 1 430 1 476 1 483 1 489 1 490 1 509 1 510 1 520 1 
1 190 1 2 2 1 4 1 12 1 27 1 30 1 47 1 68 1 75 1 84 1 93 1 124 2 343 1 213 1 382 1 217 1 339 1 210 1 389 1 489 1 360 2 353 1 251 1 438 1 406 1 476 1 417 2 486 1 287 1 473 1 242 1 311 1 368 1 321 1 130 2 300 1 418 1 440 1 136 1 428 2 384 1 324 1 414 1 256 2 271 1 268 1 269 1 229 1 336 1 483 1 266 1 390 1 6 1 14 1 19 1 21 1 24 1 33 1 34 1 48 1 83 1 113 1 116 1 125 1 135 1 159 1 163 1 165 1 169 1 176 1 177 1 194 1 211 1 254 1 257 1 259 1 262 1 264 1 278 1 279 1 291 1 293 1 308 1 310 1 322 1 331 1 333 1 338 1 356 1 363 1 367 1 381 1 416 1 433 1 435 1 442 1 456 1 461 1 469 1 480 1 487 1 
1 208 9 1 10 1 11 1 12 1 14 1 15 1 28 1 31 1 35 1 45 1 76 1 80 1 94 1 119 1 122 1 243 1 171 1 266 1 202 1 198 1 424 1 354 1 474 1 283 1 452 1 397 1 337 1 335 1 220 1 275 1 350 1 393 1 295 2 484 1 391 1 420 1 167 2 187 1 246 1 465 1 451 2 237 1 448 1 241 1 219 1 161 2 383 1 440 1 286 1 305 1 297 1 442 2 319 1 301 1 436 2 242 1 2 1 17 1 19 1 43 1 60 1 73 1 81 1 123 1 125 1 160 1 162 1 173 1 178 1 192 1 211 1 218 1 228 1 233 1 235 1 245 1 253 1 254 1 258 1 280 1 288 1 298 1 318 1 320 1 329 1 341 1 355 1 363 1 372 1 376 1 390 1 392 1 398 1 408 1 409 1 425 1 427 1 429 1 438 1 439 1 453 1 468 1 469 1 477 1 494 1 518 1 
1 218 13 1 45 1 56 1 60 1 66 1 67 2 71 1 93 1 97 1 100 1 117 1 118 1 123 1 128 2 228 1 444 2 408 1 384 1 377 2 296 1 207 1 432 1 441 1 493 1 340 1 272 1 336 1 198 1 406 1 161 1 353 1 193 1 275 1 137 1 310 1 450 1 237 1 477 2 260 1 208 1 196 1 218 1 339 2 365 1 17 1 35 1 38 1 46 1 48 1 49 1 53 1 55 1 80 1 106 1 140 1 141 1 182 1 192 1 199 1 210 1 212 1 213 1 217 1 224 1 230 1 231 1 244 1 245 1 249 1 252 1 256 1 267 1 280 1 281 1 291 1 293 1 294 1 297 1 298 1 306 1 308 1 315 1 323 1 335 1 338 1 360 1 363 1 367 1 380 1 388 1 389 1 390 1 402 1 407 1 418 1 443 1 445 1 458 1 459 1 464 1 468 1 471 1 489 1 509 1 
1 205 12 1 47 1 61 1 62 1 82 1 89 1 95 1 98 1 111 1 120 1 123 1 224 1 183 1 387 1 276 1 426 1 310 1 222 1 303 1 251 1 403 1 487 1 301 2 351 2 328 2 225 1 235 1 455 1 278 2 136 1 375 1 213 1 459 1 355 2 323 1 472 1 476 1 209 1 174 1 175 1 424 1 478 1 339 1 137 1 260 1 279 1 298 1 374 1 449 2 466 1 372 2 456 2 1 1 2 1 15 1 17 1 25 1 31 1 55 1 69 1 76 1 80 1 86 1 97 1 103 1 138 1 147 1 173 1 177 1 191 1 192 1 228 1 234 1 238 1 239 1 245 1 252 1 254 1 256 1 258 1 262 1 266 1 274 1 282 1 286 1 294 1 302 1 324 1 337 1 338 1 363 1 368 1 370 1 383 1 404 1 405 1 408 1 411 1 414 1 441 1 467 1 485 1 493 1 495 1 515 1 
1 217 8 1 10 1 15 2 40 1 48 1 49 1 52 1 60 2 66 1 88 1 89 1 90 2 107 1 125 1 467 1 343 1 211 1 392 1 449 1 393 1 485 1 388 1 205 1 359 1 404 2 310 1 175 1 219 2 208 1 277 1 403 1 326 1 300 1 332 1 237 2 168 2 440 1 450 1 489 1 233 1 287 2 267 1 425 1 477 1 339 1 314 1 464 2 140 1 180 1 169 2 348 1 366 1 408 1 249 2 453 1 178 1 216 1 441 1 376 1 475 1 367 1 226 1 422 2 353 1 384 1 396 2 9 1 16 1 19 1 21 1 28 1 29 1 32 1 38 1 53 1 58 1 75 1 85 1 108 1 166 1 167 1 174 1 181 1 195 1 215 1 231 1 239 1 248 1 257 1 265 1 278 1 288 1 293 1 296 1 307 1 312 1 317 1 323 1 340 1 347 1 349 1 356 1 361 1 372 1 401 1 405 1 417 1 419 1 430 1 436 1 438 1 443 1 457 1 461 1 466 1 478 1 484 1 493 1 
1 206 14 1 56 1 60 1 68 1 85 1 86 1 88 2 92 1 96 1 104 1 107 2 110 1 125 1 278 2 293 1 377 1 213 1 398 1 272 1 399 1 452 1 498 1 465 1 166 1 417 1 186 1 389 1 251 1 218 2 182 1 245 1 204 2 406 1 303 1 316 1 330 2 499 1 479 1 379 2 396 1 175 1 385 2 256 1 442 1 170 1 383 1 269 1 246 1 261 1 241 1 378 1 233 1 254 1 345 2 420 1 336 1 482 1 268 1 16 1 23 1 24 1 27 1 37 1 42 1 52 1 55 1 58 1 64 1 66 1 76 1 78 1 84 1 91 1 93 1 98 1 109 1 124 1 140 1 187 1 190 1 205 1 223 1 225 1 231 1 232 1 235 1 266 1 280 1 284 1 290 1 312 1 319 1 321 1 328 1 344 1 348 1 358 1 359 1 365 1 366 1 381 1 395 1 397 1 403 1 407 1 433 1 440 1 473 1 485 1 489 1 490 1 507 1 
1 214 1 1 14 1 15 1 38 1 39 1 46 1 48 1 58 1 59 2 61 1 77 1 86 1 376 1 432 1 426 1 331 1 266 2 342 1 175 1 364 1 171 1 425 1 201 1 136 1 145 1 413 1 436 2 318 2 217 1 482 1 206 1 287 1 339 1 349 1 382 1 449 1 346 1 301 1 498 2 440 1 276 1 288 1 387 1 328 1 321 1 260 1 259 1 489 1 253 1 255 1 254 1 7 1 8 1 33 1 69 1 71 1 94 1 122 1 140 1 143 1 144 1 153 1 166 1 167 1 169 1 178 1 195 1 197 1 199 1 207 1 208 1 224 1 250 1 252 1 265 1 273 1 285 1 294 1 303 1 306 1 314 1 322 1 323 1 325 1 329 1 337 1 350 1 353 1 363 1 371 1 379 1 380 1 390 1 394 1 410 1 420 1 423 1 441 1 460 1 465 1 471 1 477 1 490 1 
1 191 21 1 26 1 29 1 35 1 82 2 86 1 89 1 105 1 109 1 110 1 412 1 240 1 380 1 364 1 358 1 230 1 454 1 300 1 188 1 447 1 307 1 330 1 253 1 341 1 404 1 499 1 336 1 245 1 394 1 257 1 274 1 217 2 175 1 340 1 261 1 201 1 250 1 309 1 184 1 421 1 347 1 262 1 224 1 414 1 173 1 399 1 487 2 152 1 278 1 371 1 478 1 256 1 272 1 314 1 155 1 226 1 328 2 138 1 2 1 5 1 14 1 53 1 79 1 91 1 93 1 94 1 98 1 100 1 112 1 128 1 137 1 159 1 171 1 180 1 182 1 185 1 202 1 209 1 222 1 241 1 243 1 264 1 265 1 290 1 315 1 322 1 339 1 343 1 345 1 350 1 377 1 378 1 384 1 390 1 391 1 402 1 409 1 448 1 463 1 464 1 473 1 474 1 480 1 
1 225 13 1 21 1 22 2 27 1 29 1 33 1 44 1 46 1 57 1 74 1 75 2 78 1 80 2 99 1 106 1 115 1 125 1 128 1 131 1 134 1 235 1 428 1 243 1 226 1 432 1 380 1 485 2 483 1 238 1 312 1 315 1 335 1 439 1 369 1 383 2 180 1 174 1 298 1 348 1 276 1 309 1 366 1 430 1 473 1 157 1 448 1 242 1 229 2 305 2 406 1 206 1 314 2 464 1 210 2 215 1 286 1 319 1 283 1 316 1 390 2 486 1 19 1 35 1 43 1 51 1 59 1 112 1 142 1 154 1 156 1 168 1 178 1 187 1 231 1 240 1 249 1 255 1 264 1 279 1 294 1 296 1 306 1 307 1 320 1 339 1 357 1 376 1 384 1 392 1 418 1 427 1 431 1 442 1 450 1 476 1 481 1 498 1 502 1 517 1 
1 211 2 1 13 2 17 1 38 1 48 1 53 1 57 1 62 1 67 2 69 1 79 1 83 1 90 1 91 1 130 1 131 1 198 1 479 1 365 1 381 1 462 2 220 1 200 1 421 1 311 1 140 1 360 1 444 1 400 1 482 1 385 1 195 1 168 1 347 1 149 1 213 1 332 1 386 2 411 1 362 1 388 1 268 1 288 1 470 1 139 2 152 1 205 1 494 2 219 1 484 1 414 1 416 1 477 1 265 2 329 1 252 2 312 1 318 1 269 1 1 1 21 1 33 1 44 1 60 1 66 1 76 1 81 1 92 1 95 1 123 1 126 1 135 1 145 1 146 1 147 1 156 1 166 1 167 1 169 1 180 1 183 1 186 1 190 1 194 1 206 1 217 1 223 1 233 1 244 1 276 1 301 1 304 1 307 1 324 1 358 1 371 1 378 1 380 1 384 1 408 1 427 1 447 1 448 1 461 1 483 1 487 1 498 1 
1 222 1 2 4 1 18 2 25 1 34 2 45 1 47 1 55 1 58 2 59 1 60 2 61 1 70 1 73 1 85 2 110 1 111 1 117 1 124 1 135 1 352 1 201 1 255 1 274 1 325 1 246 1 487 1 414 1 392 1 216 1 396 1 405 1 382 1 450 1 363 1 237 1 383 1 302 1 252 1 270 2 422 1 357 1 226 2 224 2 310 1 438 1 210 1 290 1 155 1 222 1 250 1 490 1 283 1 194 2 371 2 340 2 347 2 208 1 200 1 319 1 228 1 269 2 454 1 19 1 21 1 24 1 64 1 107 1 131 1 168 1 178 1 182 1 183 1 195 1 199 1 209 1 227 1 240 1 242 1 257 1 300 1 306 1 312 1 315 1 316 1 317 1 330 1 336 1 348 1 353 1 374 1 377 1 381 1 384 1 418 1 423 1 428 1 434 1 435 1 441 1 451 1 458 1 463 1 465 1 472 1 477 1 480 1 500 1 517 1 
1 205 7 1 20 1 31 1 45 1 46 1 55 1 58 1 68 1 80 1 85 1 88 1 96 1 137 2 239 1 462 1 221 1 172 1 359 1 445 1 192 1 291 1 437 1 401 1 188 1 499 1 467 2 231 1 276 1 315 1 429 2 362 1 216 1 441 2 200 1 330 1 432 1 249 1 469 1 422 1 147 1 304 1 418 1 354 1 478 1 257 2 352 1 417 2 396 1 431 1 491 1 474 1 295 1 413 2 201 1 247 1 463 1 158 1 18 1 50 1 76 1 77 1 79 1 81 1 83 1 92 1 102 1 105 1 124 1 144 1 152 1 156 1 183 1 185 1 194 1 205 1 206 1 220 1 229 1 232 1 233 1 237 1 240 1 253 1 259 1 267 1 288 1 289 1 299 1 300 1 312 1 346 1 348 1 349 1 351 1 358 1 373 1 430 1 452 1 455 1 475 1 483 1 494 1 
1 194 18 1 19 1 40 1 72 1 73 1 84 1 86 1 94 1 96 1 103 2 104 1 121 2 132 1 137 1 336 2 225 1 407 1 180 1 390 1 338 2 331 1 237 1 342 1 247 1 222 1 413 1 232 2 324 1 244 1 417 1 486 1 152 1 363 1 211 1 219 1 220 1 148 1 314 1 392 1 365 1 358 1 374 1 223 1 377 1 341 1 296 1 354 1 476 2 173 1 378 1 380 1 323 1 492 1 200 1 488 1 158 1 493 1 20 1 21 1 38 1 48 1 54 1 55 1 62 1 91 1 110 1 116 1 130 1 133 1 134 1 151 1 154 1 156 1 184 1 217 1 248 1 257 1 267 1 275 1 277 1 283 1 284 1 313 1 316 1 322 1 330 1 332 1 346 1 350 1 384 1 394 1 396 1 423 1 427 1 428 1 444 1 450 1 455 1 470 1 481 1 485 1 506 1 
1 199 7 2 13 1 14 1 30 1 55 1 57 1 68 2 71 1 83 1 91 1 92 1 99 2 362 1 493 1 217 1 481 1 312 2 407 1 462 1 183 1 308 1 367 1 494 2 343 1 434 1 499 1 466 1 157 1 224 2 458 1 483 1 446 1 229 1 227 2 304 1 387 1 155 1 272 1 211 1 447 1 172 1 315 1 445 1 339 2 472 1 406 1 9 1 17 1 22 1 27 1 47 1 49 1 53 1 73 1 75 1 78 1 85 1 86 1 93 1 101 1 114 1 117 1 130 1 177 1 180 1 190 1 199 1 207 1 209 1 219 1 221 1 223 1 240 1 242 1 245 1 254 1 261 1 269 1 288 1 290 1 297 1 298 1 300 1 317 1 328 1 333 1 346 1 377 1 386 1 388 1 394 1 396 1 399 1 400 1 421 1 422 1 424 1 433 1 437 1 439 1 457 1 468 1 484 1 491 1 519 1 
1 203 9 1 11 1 30 1 35 1 37 1 56 1 67 1 70 1 71 1 83 1 91 1 100 2 103 1 114 1 118 1 413 2 424 1 284 1 234 1 307 1 417 1 467 1 239 1 263 1 180 1 173 1 412 1 286 1 363 1 498 1 350 1 411 1 407 1 236 1 306 1 189 1 451 1 396 1 297 1 493 1 343 1 351 2 3 1 10 1 29 1 44 1 45 1 58 1 72 1 80 1 95 1 98 1 105 1 116 1 136 1 186 1 192 1 194 1 196 1 198 1 202 1 210 1 217 1 220 1 223 1 231 1 243 1 246 1 249 1 254 1 256 1 268 1 282 1 288 1 300 1 302 1 305 1 319 1 347 1 374 1 393 1 394 1 410 1 415 1 438 1 439 1 444 1 453 1 458 1 463 1 473 1 486 1 490 1 496 1 508 1 513 1 519 1 520 1 
1 192 19 1 24 1 27 1 44 2 58 1 62 1 66 2 81 1 82 1 92 1 93 1 102 1 203 1 412 2 262 1 496 1 467 1 192 1 150 1 345 1 393 1 433 1 486 2 497 1 303 1 314 1 215 1 348 2 243 2 341 1 376 1 234 1 297 1 350 1 414 1 278 2 161 1 232 1 485 1 417 2 454 1 462 1 355 1 250 1 383 1 490 1 302 1 176 1 3 1 9 1 17 1 29 1 45 1 49 1 67 1 69 1 71 1 90 1 95 1 112 1 117 1 118 1 134 1 153 1 177 1 187 1 206 1 217 1 226 1 228 1 238 1 245 1 246 1 248 1 256 1 269 1 287 1 301 1 305 1 309 1 310 1 312 1 326 1 357 1 373 1 380 1 384 1 396 1 415 1 420 1 427 1 431 1 466 1 483 1 491 1 
1 183 16 2 28 1 32 1 47 1 63 1 70 1 81 1 91 1 95 1 103 1 115 1 120 2 380 1 275 1 177 1 469 1 402 1 367 1 447 1 308 1 242 1 463 1 476 1 457 1 419 1 212 2 443 1 227 1 259 1 339 1 413 2 181 1 182 1 370 1 237 1 411 2 147 1 206 1 472 1 424 1 329 1 299 1 201 2 415 1 316 1 209 1 484 1 363 1 313 1 450 2 186 1 321 1 414 1 320 1 145 1 254 1 317 1 397 1 483 1 374 1 172 1 195 1 7 1 10 1 13 1 33 1 36 1 51 1 53 1 61 1 67 1 71 1 77 1 80 1 82 1 84 1 88 1 89 1 93 1 110 1 114 1 119 1 134 1 139 1 192 1 197 1 202 1 220 1 235 1 236 1 238 1 241 1 251 1 260 1 277 1 280 1 294 1 298 1 315 1 328 1 330 1 335 1 341 1 359 1 371 1 387 1 400 1 417 1 438 1 448 1 475 1 481 1 482 1 491 1 492 1 513 1 
1 199 6 1 7 1 18 1 24 1 39 1 40 1 42 1 44 1 47 1 51 2 62 1 65 1 77 2 80 1 82 1 91 1 95 1 96 1 104 1 105 1 116 1 120 1 134 1 144 1 361 1 273 1 318 1 486 1 369 1 465 1 426 1 211 1 288 1 240 1 323 1 236 1 406 1 422 1 346 1 485 1 458 1 274 1 300 2 238 1 305 2 412 1 150 1 148 1 341 1 334 1 444 1 365 1 235 1 208 1 377 1 270 1 177 1 362 1 331 1 366 1 384 2 442 1 200 2 214 2 180 1 399 1 358 2 210 1 383 1 188 1 335 1 2 1 22 1 49 1 59 1 68 1 83 1 108 1 122 1 124 1 125 1 137 1 157 1 174 1 175 1 186 1 187 1 190 1 199 1 202 1 232 1 239 1 245 1 253 1 259 1 261 1 281 1 285 1 293 1 332 1 356 1 367 1 374 1 375 1 382 1 394 1 398 1 416 1 433 1 454 1 478 1 480 1 483 1 484 1 487 1 495 1 501 1 514 1 
1 214 16 2 29 2 34 1 38 1 46 1 53 1 65 1 79 1 87 1 96 1 97 1 99 1 102 2 109 1 111 1 112 1 116 1 496 1 400 1 307 1 248 1 228 1 434 1 472 1 368 1 388 1 482 1 325 1 230 1 408 1 391 1 271 1 495 1 349 1 487 1 184 2 389 1 281 1 481 1 189 1 158 2 382 2 288 1 305 1 338 1 160 1 336 1 159 1 303 1 373 1 417 1 162 1 151 1 383 1 233 1 392 1 483 1 290 1 190 2 240 1 179 1 2 1 13 1 22 1 26 1 31 1 35 1 47 1 52 1 77 1 88 1 91 1 108 1 124 1 137 1 153 1 168 1 176 1 229 1 232 1 234 1 241 1 250 1 256 1 268 1 282 1 306 1 308 1 313 1 324 1 327 1 328 1 332 1 362 1 364 1 365 1 367 1 371 1 379 1 397 1 404 1 407 1 422 1 423 1 437 1 445 1 449 1 450 1 464 1 484 1 488 1 504 1 510 1 521 1 
1 216 7 1 14 1 18 1 21 1 33 1 34 1 35 1 36 1 43 1 49 2 63 1 71 1 87 1 121 2 122 1 124 1 139 1 144 1 361 1 470 1 390 1 368 2 426 1 402 1 293 1 379 1 258 1 371 1 327 1 292 1 399 1 155 2 411 1 294 1 182 1 234 1 256 1 447 1 150 1 332 1 253 1 397 2 374 1 213 1 417 2 264 1 156 1 178 2 207 1 302 1 281 1 319 1 434 1 449 1 325 1 263 1 419 2 149 1 300 1 329 2 229 1 1 1 4 1 13 1 30 1 40 1 47 1 57 1 58 1 62 1 72 1 83 1 84 1 93 1 94 1 99 1 120 1 126 1 131 1 137 1 159 1 169 1 177 1 191 1 218 1 225 1 231 1 233 1 237 1 249 1 250 1 255 1 261 1 291 1 304 1 305 1 311 1 315 1 330 1 335 1 336 1 350 1 373 1 380 1 385 1 386 1 393 1 396 1 418 1 431 1 433 1 439 1 440 1 441 1 448 1 464 1 466 1 473 1 474 1 480 1 500 1 519 1 521 1 
1 210 1 1 4 1 14 1 17 1 20 1 24 1 34 1 35 1 42 1 45 1 64 1 73 1 79 1 95 1 119 1 122 1 126 1 140 1 145 1 417 1 255 1 240 1 479 1 367 1 410 1 184 1 244 1 276 1 346 1 197 1 265 1 332 1 396 1 348 1 353 1 489 1 292 1 226 1 380 1 280 2 294 1 284 2 242 1 186 1 469 1 209 1 465 1 470 1 206 1 161 1 494 1 329 1 306 1 327 1 413 2 493 1 406 1 463 1 432 1 347 1 309 1 257 1 282 1 343 2 3 1 11 1 19 1 23 1 26 1 28 1 38 1 48 1 54 1 56 1 61 1 62 1 63 1 91 1 104 1 112 1 152 1 159 1 187 1 190 1 195 1 196 1 201 1 208 1 211 1 215 1 216 1 227 1 236 1 241 1 245 1 247 1 256 1 266 1 268 1 281 1 307 1 310 1 314 1 321 1 324 1 331 1 333 1 339 1 350 1 354 1 366 1 368 1 370 1 385 1 401 1 409 1 414 1 418 1 423 1 425 1 427 1 428 1 431 1 433 1 461 1 486 1 491 1 
1 203 2 1 40 1 42 1 58 1 81 1 82 1 93 1 100 1 104 1 106 1 112 2 121 1 122 2 137 1 147 1 413 1 233 1 486 1 352 1 380 1 391 1 316 1 229 1 421 2 484 1 422 1 475 1 373 1 255 1 206 1 362 2 410 1 398 1 451 1 356 1 179 1 160 1 163 1 416 1 309 1 455 2 433 1 310 1 350 1 387 2 323 1 447 2 276 2 301 1 385 1 325 1 333 1 459 1 405 1 181 1 381 1 345 1 466 2 6 1 14 1 18 1 35 1 48 1 51 1 60 1 85 1 90 1 94 1 111 1 114 1 127 1 156 1 182 1 190 1 192 1 203 1 204 1 209 1 216 1 221 1 242 1 252 1 256 1 264 1 270 1 275 1 279 1 282 1 285 1 295 1 315 1 317 1 367 1 368 1 376 1 377 1 395 1 403 1 412 1 423 1 450 1 454 1 461 1 485 1 488 1 502 1 515 1 516 1 
1 223 2 1 7 1 18 2 22 1 23 1 32 1 34 1 36 1 39 1 45 1 48 1 54 1 60 2 87 1 90 1 100 1 106 1 119 1 143 1 145 1 147 1 408 1 377 1 211 1 495 1 494 1 358 1 194 2 480 1 236 1 198 1 351 1 425 2 479 1 429 1 277 1 350 1 364 1 309 1 416 1 311 2 322 1 284 1 224 1 407 2 310 1 359 1 405 2 356 1 468 1 250 1 165 1 242 1 300 1 335 1 200 1 192 1 303 1 154 1 296 2 19 1 33 1 43 1 46 1 55 1 71 1 89 1 91 1 118 1 151 1 162 1 168 1 191 1 193 1 199 1 203 1 206 1 208 1 220 1 225 1 229 1 235 1 238 1 245 1 252 1 274 1 278 1 286 1 287 1 291 1 299 1 315 1 316 1 323 1 342 1 353 1 361 1 388 1 397 1 399 1 437 1 438 1 456 1 458 1 462 1 467 1 493 1 498 1 508 1 514 1 521 1 
1 199 11 1 32 1 52 1 54 1 57 1 64 1 68 1 82 1 87 1 88 1 92 1 99 1 117 1 121 1 146 1 428 2 233 1 322 1 429 1 229 1 448 1 192 1 345 1 463 2 232 1 493 1 359 1 457 1 231 1 281 1 464 1 357 1 287 1 379 1 460 1 251 2 399 1 368 1 431 1 294 1 249 1 301 1 437 1 203 1 199 1 316 1 221 1 462 1 409 1 335 1 425 1 403 1 163 1 222 1 497 1 244 1 168 1 366 1 387 1 424 1 445 1 349 1 435 1 492 1 23 1 34 1 39 1 41 1 49 1 63 1 71 1 80 1 81 1 95 1 98 1 100 1 108 1 126 1 140 1 150 1 159 1 184 1 190 1 194 1 217 1 241 1 258 1 264 1 270 1 272 1 291 1 293 1 299 1 303 1 315 1 326 1 332 1 342 1 360 1 372 1 375 1 378 1 385 1 413 1 416 1 430 1 441 1 444 1 447 1 451 1 453 1 454 1 478 1 483 1 519 1 520 1 
1 207 10 1 14 2 15 1 20 1 36 1 55 1 72 1 81 1 88 1 89 1 92 1 98 1 111 1 119 1 135 1 137 1 140 1 328 1 358 2 298 1 425 1 225 1 396 1 471 1 183 1 305 1 352 1 373 1 267 1 365 1 282 1 415 1 473 1 447 1 452 1 260 1 252 1 469 2 246 1 345 2 444 1 187 1 333 1 308 1 382 1 331 1 191 1 390 2 389 1 327 2 196 1 409 1 300 1 455 1 251 1 306 1 207 1 311 1 371 1 206 1 261 1 7 1 9 1 13 1 28 1 30 1 35 1 37 1 58 1 59 1 62 1 63 1 86 1 94 1 96 1 116 1 120 1 139 1 148 1 156 1 175 1 182 1 201 1 202 1 236 1 257 1 264 1 286 1 293 1 304 1 309 1 313 1 315 1 320 1 329 1 337 1 359 1 372 1 378 1 397 1 421 1 437 1 442 1 453 1 472 1 491 1 493 1 505 1 516 1 
1 206 12 1 29 1 34 1 45 1 51 1 52 1 62 1 98 1 104 2 105 1 111 1 115 1 116 1 377 1 486 1 428 2 491 1 302 1 469 1 300 1 213 1 243 1 190 1 291 1 426 1 211 1 431 1 471 1 234 1 413 2 370 1 242 1 227 1 422 2 273 1 352 1 405 1 159 1 198 1 336 1 481 1 443 1 277 1 182 1 338 1 386 2 464 1 384 1 344 1 432 1 4 1 5 1 14 1 17 1 18 1 25 1 32 1 39 1 57 1 58 1 59 1 66 1 68 1 86 1 124 1 134 1 143 1 146 1 154 1 155 1 179 1 185 1 191 1 192 1 196 1 205 1 206 1 224 1 226 1 239 1 257 1 274 1 281 1 286 1 289 1 299 1 312 1 318 1 345 1 347 1 354 1 355 1 367 1 390 1 410 1 414 1 424 1 437 1 442 1 444 1 451 1 452 1 457 1 459 1 463 1 466 1 468 1 477 1 479 1 480 1 497 1 498 1 
1 186 3 2 18 2 27 2 28 1 32 1 42 2 70 1 73 1 82 1 85 1 99 1 103 1 113 1 116 2 118 1 150 1 197 1 492 1 354 1 259 1 281 1 218 1 451 1 265 1 230 1 382 1 468 1 204 1 495 1 443 1 393 1 415 1 459 1 225 1 447 1 460 1 214 1 260 1 255 1 212 1 363 1 314 1 361 1 246 1 180 1 403 1 247 1 276 1 436 1 172 1 227 1 414 1 175 1 7 1 10 1 13 1 39 1 50 1 54 1 72 1 74 1 77 1 79 1 80 1 84 1 92 1 95 1 101 1 104 1 108 1 119 1 136 1 140 1 153 1 164 1 181 1 191 1 192 1 194 1 196 1 207 1 208 1 242 1 248 1 251 1 261 1 271 1 280 1 292 1 323 1 328 1 335 1 350 1 351 1 372 1 390 1 395 1 399 1 428 1 440 1 448 1 450 1 453 1 455 1 458 1 463 1 473 1 480 1 483 1 487 1 489 1 502 1 
1 196 10 1 15 2 24 1 36 1 38 1 41 1 47 2 63 2 66 1 79 1 88 1 95 1 96 1 118 1 123 1 126 1 127 1 135 1 138 1 141 1 147 2 198 1 276 1 344 1 433 2 382 1 246 1 251 1 247 1 375 2 491 1 189 1 481 1 298 1 307 1 245 1 275 1 329 1 157 1 412 2 216 2 211 1 435 1 195 1 367 1 319 1 303 1 461 1 279 1 451 1 230 1 338 1 201 1 417 1 379 1 425 1 164 2 497 1 480 1 484 1 6 1 8 1 43 1 45 1 48 1 51 1 57 1 60 1 61 1 62 1 64 1 72 1 110 1 116 1 117 1 121 1 122 1 124 1 153 1 171 1 182 1 217 1 229 1 233 1 235 1 239 1 292 1 300 1 306 1 322 1 325 1 335 1 336 1 337 1 339 1 351 1 373 1 388 1 389 1 391 1 401 1 403 1 423 1 427 1 434 1 438 1 439 1 443 1 448 1 459 1 470 1 471 1 482 1 488 1 493 1 
1 211 10 1 15 1 18 1 41 1 46 1 51 1 59 1 66 1 78 1 86 1 97 1 103 1 104 1 108 1 147 1 263 1 366 1 461 1 251 1 423 1 285 1 191 1 302 1 405 1 272 1 212 1 326 2 452 1 406 1 377 1 342 1 266 1 241 1 491 2 385 1 322 1 199 1 343 1 403 1 214 1 337 1 411 1 444 1 459 1 220 2 471 1 372 1 442 1 443 1 369 1 425 1 414 1 375 1 11 1 14 1 16 1 31 1 37 1 49 1 50 1 71 1 105 1 136 1 137 1 139 1 140 1 149 1 152 1 179 1 186 1 194 1 211 1 226 1 234 1 249 1 258 1 279 1 290 1 293 1 295 1 298 1 308 1 309 1 312 1 318 1 324 1 340 1 347 1 362 1 368 1 370 1 378 1 395 1 402 1 413 1 415 1 420 1 422 1 437 1 439 1 478 1 501 1 502 1 
1 204 5 1 8 1 20 1 21 1 25 2 33 1 38 1 40 1 41 1 52 1 59 1 86 1 87 1 92 1 98 1 100 1 101 1 102 1 106 1 120 1 136 1 141 1 155 1 263 1 310 2 270 1 306 1 483 1 485 1 447 1 420 1 424 1 372 1 443 1 482 1 299 1 213 1 293 1 204 1 333 2 196 1 359 1 305 1 257 2 406 1 287 1 474 1 491 1 362 1 225 1 282 1 468 1 459 1 431 2 241 1 404 1 460 1 174 1 272 1 445 1 265 1 463 1 387 1 367 1 203 1 6 1 13 1 14 1 15 1 32 1 35 1 36 1 48 1 53 1 67 1 80 1 83 1 88 1 90 1 96 1 99 1 113 1 114 1 121 1 145 1 185 1 198 1 205 1 216 1 228 1 233 1 234 1 235 1 237 1 268 1 271 1 275 1 301 1 302 1 307 1 309 1 316 1 339 1 352 1 355 1 357 1 373 1 392 1 393 1 394 1 397 1 414 1 416 1 428 1 429 1 448 1 451 1 458 1 497 1 499 1 505 1 510 1 
1 200 3 1 4 1 7 1 14 1 16 1 33 1 35 1 39 2 56 1 59 1 69 1 79 1 86 1 87 1 92 1 101 1 104 1 106 1 115 1 120 1 127 1 139 1 140 1 146 2 380 1 287 1 407 1 426 1 448 1 343 1 231 1 369 1 298 1 240 1 239 1 477 1 399 1 334 1 478 1 229 1 359 1 497 1 321 1 416 1 200 1 498 1 491 1 220 1 489 1 202 1 204 1 256 1 253 1 362 2 193 1 224 1 392 1 356 2 439 1 278 1 167 1 444 1 194 2 309 1 473 1 365 1 207 2 5 1 12 1 13 1 20 1 24 1 27 1 37 1 46 1 54 1 55 1 68 1 96 1 122 1 125 1 126 1 160 1 180 1 191 1 198 1 210 1 215 1 242 1 252 1 265 1 283 1 285 1 308 1 312 1 316 1 323 1 327 1 333 1 358 1 366 1 367 1 375 1 377 1 383 1 384 1 408 1 414 1 428 1 438 1 446 1 457 1 469 1 471 1 480 1 
1 184 4 1 6 1 9 1 20 1 21 1 23 1 45 1 46 1 53 1 61 1 78 2 79 1 103 1 104 1 106 1 121 1 124 1 146 1 153 1 276 1 283 1 350 1 455 1 361 1 381 1 310 1 456 1 251 2 288 1 485 1 313 1 371 1 482 1 349 2 220 1 434 1 329 1 303 2 232 2 322 1 186 1 357 2 181 1 315 1 335 1 413 1 406 1 471 1 223 1 353 1 263 1 295 1 240 1 216 1 266 1 229 1 1 1 2 1 17 1 25 1 41 1 47 1 49 1 63 1 73 1 82 1 90 1 94 1 102 1 122 1 128 1 135 1 147 1 148 1 151 1 160 1 168 1 179 1 237 1 241 1 256 1 260 1 282 1 290 1 294 1 309 1 318 1 320 1 328 1 359 1 360 1 362 1 367 1 372 1 399 1 416 1 417 1 421 1 442 1 443 1 459 1 477 1 491 1 510 1 518 1 
1 207 3 1 32 1 33 1 37 1 48 1 55 1 60 2 72 1 73 1 86 1 113 2 115 1 116 1 121 1 122 1 146 1 149 1 293 1 398 1 265 2 397 1 256 1 492 1 471 1 194 1 275 1 334 1 299 1 393 1 288 1 373 1 244 1 376 1 232 2 262 1 365 1 348 1 227 2 448 1 209 2 328 1 216 1 390 1 237 2 281 1 208 1 336 1 322 1 372 1 255 1 469 1 488 1 198 1 239 1 250 1 476 1 356 1 340 1 438 1 357 1 301 1 173 1 367 1 188 1 436 1 179 1 185 1 164 1 6 1 7 1 36 1 61 1 65 1 68 1 71 1 74 1 79 1 80 1 90 1 93 1 97 1 98 1 99 1 100 1 107 1 117 1 124 1 129 1 158 1 159 1 172 1 181 1 183 1 199 1 201 1 204 1 212 1 220 1 229 1 238 1 274 1 276 1 279 1 280 1 290 1 316 1 318 1 342 1 355 1 371 1 379 1 385 1 394 1 409 1 412 1 415 1 417 1 425 1 429 1 439 1 452 1 468 1 484 1 500 1 519 1 
1 201 1 1 6 1 11 1 13 2 16 1 18 1 31 1 44 1 47 1 53 1 57 1 63 1 66 1 79 1 80 1 81 1 84 1 86 1 89 1 100 1 107 1 129 2 130 1 143 1 148 1 257 1 488 2 188 1 334 1 364 1 274 1 369 1 439 1 184 1 208 2 368 1 201 1 267 1 338 1 426 1 252 1 280 1 457 1 307 1 162 1 373 1 245 2 428 1 194 1 446 1 344 1 377 1 279 1 225 1 347 2 475 1 206 1 303 1 350 2 453 1 462 1 185 1 429 2 232 1 268 2 323 1 329 1 309 1 360 1 326 1 20 1 22 1 25 1 28 1 37 1 52 1 87 1 88 1 96 1 101 1 104 1 110 1 114 1 116 1 118 1 123 1 165 1 179 1 198 1 199 1 211 1 233 1 234 1 235 1 246 1 258 1 261 1 262 1 269 1 273 1 281 1 298 1 324 1 327 1 348 1 351 1 355 1 358 1 359 1 382 1 387 1 390 1 396 1 414 1 422 1 427 1 442 1 445 1 447 1 458 1 459 1 463 1 479 1 480 1 486 1 495 1 521 1 
1 211 3 1 5 1 29 1 40 1 41 1 42 1 45 1 49 1 67 1 88 1 121 1 146 1 161 1 433 1 498 1 481 1 212 1 462 1 314 1 444 1 422 1 421 1 333 1 218 1 370 2 229 1 321 2 352 2 383 1 454 1 327 1 342 1 343 1 496 1 196 1 163 1 365 2 378 1 230 2 174 1 313 1 250 1 475 1 457 1 258 1 207 2 416 1 486 1 2 1 6 1 22 1 23 1 27 1 34 1 35 1 43 1 53 1 54 1 64 1 69 1 87 1 90 1 104 1 113 1 123 1 129 1 150 1 164 1 202 1 222 1 224 1 226 1 234 1 240 1 245 1 249 1 263 1 268 1 286 1 289 1 292 1 298 1 310 1 311 1 317 1 335 1 340 1 346 1 347 1 355 1 363 1 375 1 394 1 402 1 410 1 419 1 430 1 434 1 436 1 437 1 452 1 458 1 460 1 465 1 490 1 493 1 494 1 508 1 512 1 515 1 
1 195 3 1 17 2 28 1 31 1 38 1 50 1 78 1 86 1 100 2 102 1 110 2 149 1 151 1 162 1 425 1 193 1 400 1 292 1 492 1 461 1 316 1 239 1 373 1 261 1 401 1 319 1 377 1 323 1 327 2 354 1 416 1 464 1 405 1 431 1 192 2 421 2 390 2 314 1 457 1 462 1 232 1 487 1 317 1 213 1 379 1 432 1 345 1 270 1 4 1 11 1 18 1 24 1 25 1 32 1 33 1 34 1 41 1 48 1 52 1 54 1 77 1 98 1 115 1 124 1 125 1 128 1 166 1 167 1 169 1 172 1 187 1 191 1 197 1 198 1 210 1 212 1 223 1 225 1 228 1 234 1 242 1 267 1 272 1 279 1 285 1 286 1 299 1 304 1 335 1 339 1 348 1 353 1 383 1 385 1 398 1 403 1 407 1 411 1 418 1 460 1 472 1 475 1 478 1 496 1 500 1 501 1 
1 206 9 2 11 1 25 1 39 1 48 1 54 1 56 1 75 1 79 2 80 1 89 1 107 1 114 1 116 2 118 1 155 2 160 1 407 1 216 1 472 1 384 1 223 1 482 1 418 1 266 1 447 1 462 1 200 1 171 1 228 1 263 2 229 1 490 1 265 1 487 1 351 1 429 1 489 1 198 1 361 1 463 2 255 1 272 1 399 1 287 1 262 1 1 1 3 1 6 1 18 1 41 1 66 1 67 1 93 1 95 1 102 1 109 1 115 1 122 1 154 1 162 1 181 1 193 1 201 1 204 1 243 1 245 1 249 1 252 1 290 1 291 1 296 1 316 1 322 1 329 1 350 1 356 1 368 1 372 1 376 1 389 1 390 1 396 1 401 1 402 1 406 1 410 1 413 1 427 1 430 1 440 1 442 1 448 1 455 1 478 1 485 1 492 1 494 1 498 1 501 1 513 1 
1 208 5 1 7 1 8 1 19 1 20 1 29 1 47 1 51 2 52 1 58 1 64 1 70 1 86 1 93 1 123 1 124 1 127 1 150 1 461 2 331 1 327 1 485 1 463 1 267 1 379 1 266 1 464 1 371 1 350 1 257 1 290 2 345 1 307 1 319 1 250 1 260 1 197 1 256 1 280 2 212 1 258 1 347 1 208 1 348 1 454 2 434 1 222 1 252 1 440 1 406 1 322 1 263 1 324 1 448 2 367 1 227 1 393 1 273 1 413 1 330 1 196 1 21 1 22 1 26 1 39 1 40 1 57 1 59 1 62 1 72 1 75 1 82 1 128 1 161 1 171 1 173 1 185 1 188 1 202 1 213 1 214 1 217 1 226 1 242 1 253 1 276 1 283 1 289 1 310 1 320 1 321 1 337 1 346 1 356 1 381 1 386 1 391 1 395 1 404 1 410 1 418 1 420 1 425 1 428 1 449 1 474 1 475 1 478 1 495 1 517 1 
1 193 7 1 11 1 27 1 40 1 51 1 64 2 65 1 84 1 87 1 91 1 95 1 111 1 121 2 123 2 133 1 388 1 463 1 190 1 235 1 449 2 467 1 312 1 284 1 220 1 244 1 476 2 398 1 404 1 374 1 167 1 408 2 272 1 395 1 331 1 430 1 387 1 490 1 469 1 483 1 283 1 379 1 332 1 367 1 293 1 320 1 252 1 308 1 223 1 351 1 446 1 276 1 399 1 445 1 1 1 3 1 4 1 21 1 22 1 30 1 44 1 48 1 67 1 72 1 73 1 81 1 86 1 103 1 120 1 132 1 134 1 137 1 163 1 171 1 172 1 191 1 201 1 211 1 222 1 238 1 247 1 248 1 253 1 257 1 262 1 267 1 269 1 273 1 279 1 329 1 352 1 354 1 361 1 366 1 380 1 421 1 423 1 426 1 429 1 444 1 451 1 452 1 461 1 484 1 500 1 512 1 
1 199 20 1 21 1 46 1 64 1 74 1 77 2 86 1 87 1 91 1 95 1 102 1 109 1 111 1 112 1 117 1 129 2 158 1 166 1 426 1 490 1 480 1 314 2 487 1 293 1 237 2 493 1 295 2 393 1 197 1 298 1 431 1 360 1 466 1 172 2 273 1 330 1 171 1 323 1 223 1 449 1 365 2 404 1 478 1 492 1 427 1 250 1 14 1 15 1 18 1 44 1 65 1 67 1 70 1 73 1 75 1 88 1 114 1 123 1 127 1 132 1 134 1 137 1 163 1 190 1 198 1 203 1 211 1 215 1 239 1 247 1 248 1 255 1 275 1 305 1 306 1 331 1 337 1 341 1 351 1 369 1 371 1 372 1 376 1 398 1 403 1 425 1 430 1 443 1 444 1 446 1 471 1 475 1 484 1 485 1 491 1 497 1 498 1 519 1 
1 194 6 2 13 2 15 1 23 1 29 1 34 1 54 1 81 1 91 1 112 1 119 2 127 2 132 2 137 1 151 1 293 1 450 1 376 2 218 1 489 1 245 1 415 1 221 1 362 1 236 1 283 1 417 1 395 1 257 1 227 1 382 1 251 1 170 1 204 1 320 2 456 1 214 1 198 1 235 1 175 1 389 1 401 1 197 2 301 1 370 1 365 1 234 1 421 1 280 1 343 1 353 1 297 2 434 1 390 1 9 1 17 1 21 1 24 1 26 1 28 1 32 1 37 1 40 1 48 1 51 1 52 1 55 1 65 1 80 1 89 1 93 1 115 1 118 1 121 1 124 1 126 1 136 1 138 1 146 1 150 1 159 1 169 1 189 1 196 1 203 1 205 1 212 1 247 1 258 1 259 1 260 1 261 1 277 1 284 1 302 1 303 1 328 1 330 1 363 1 375 1 391 1 394 1 402 1 405 1 425 1 429 1 442 1 447 1 448 1 477 1 479 1 481 1 484 1 488 1 495 1 496 1 511 1 520 1 
1 195 6 1 9 1 14 1 43 1 55 1 60 1 65 1 80 1 94 1 95 2 97 2 98 1 109 1 127 1 132 2 283 1 406 1 388 1 277 2 299 1 409 1 221 1 281 2 493 1 443 1 434 1 329 1 460 1 492 1 448 1 199 1 341 1 380 2 245 1 438 1 261 1 235 1 466 1 396 1 171 1 273 1 363 1 326 1 410 1 256 1 241 1 194 1 475 1 471 1 477 2 13 1 15 1 20 1 21 1 27 1 35 1 53 1 57 1 67 1 76 1 78 1 82 1 87 1 96 1 100 1 117 1 118 1 123 1 128 1 134 1 137 1 147 1 163 1 168 1 180 1 195 1 215 1 216 1 226 1 227 1 228 1 230 1 239 1 257 1 264 1 267 1 284 1 315 1 317 1 352 1 367 1 378 1 398 1 432 1 437 1 442 1 464 1 467 1 472 1 476 1 479 1 484 1 497 1 512 1 
1 219 3 1 4 1 6 1 10 1 12 1 14 1 19 1 27 1 28 2 54 1 57 1 65 1 81 1 93 1 100 2 109 2 110 2 112 2 120 1 133 1 168 1 300 2 358 2 202 2 468 1 478 1 251 1 226 1 205 1 326 1 227 1 315 1 230 1 390 1 291 1 406 1 214 1 225 2 444 1 394 1 287 1 276 1 364 1 381 1 496 1 469 1 461 1 344 1 372 1 274 2 353 1 261 1 355 1 280 1 384 2 296 2 422 1 453 1 254 2 490 1 375 1 393 2 413 1 363 1 349 1 443 1 174 2 481 1 5 1 20 1 38 1 62 1 74 1 75 1 77 1 82 1 91 1 98 1 108 1 121 1 188 1 198 1 199 1 201 1 210 1 211 1 217 1 221 1 248 1 262 1 265 1 270 1 272 1 284 1 293 1 298 1 312 1 313 1 327 1 337 1 360 1 366 1 398 1 399 1 404 1 405 1 410 1 436 1 440 1 462 1 464 1 465 1 475 1 482 1 495 1 515 1 
1 205 28 1 41 1 59 1 81 1 85 1 88 1 94 1 104 1 117 1 129 1 134 1 164 1 167 1 169 1 241 1 357 2 424 1 455 1 457 2 465 1 215 1 212 1 303 1 483 2 491 1 217 1 425 1 428 2 236 1 410 1 315 1 178 1 328 1 221 1 397 1 481 1 265 1 238 1 367 2 249 1 323 1 459 1 306 1 466 1 269 1 387 1 478 1 403 2 261 1 336 1 289 1 294 1 286 1 285 1 331 2 240 1 449 1 475 1 3 1 17 1 22 1 42 1 44 1 50 1 60 1 65 1 70 1 72 1 82 1 96 1 101 1 121 1 123 1 135 1 155 1 165 1 166 1 188 1 202 1 204 1 220 1 228 1 229 1 230 1 232 1 235 1 248 1 251 1 258 1 267 1 270 1 274 1 280 1 293 1 302 1 304 1 310 1 313 1 321 1 333 1 341 1 351 1 365 1 392 1 402 1 404 1 407 1 411 1 419 1 422 1 447 1 462 1 469 1 489 1 493 1 515 1 
1 209 3 1 17 1 24 2 53 1 90 1 98 1 105 1 117 2 139 1 141 1 144 1 154 1 167 2 247 2 322 1 221 1 308 1 298 1 266 1 432 1 299 1 237 1 447 1 434 1 429 1 373 1 205 1 340 1 305 1 400 1 381 1 485 1 445 1 287 1 209 1 449 1 401 1 461 1 456 1 203 1 403 2 261 1 184 1 241 1 441 1 426 1 361 1 323 1 359 1 392 1 219 1 248 1 312 1 302 1 489 1 257 1 424 1 2 1 4 1 5 1 12 1 18 1 25 1 36 1 39 1 70 1 72 1 73 1 74 1 89 1 99 1 127 1 160 1 163 1 166 1 177 1 212 1 223 1 227 1 256 1 262 1 297 1 301 1 303 1 304 1 306 1 315 1 319 1 325 1 328 1 335 1 351 1 355 1 375 1 376 1 377 1 378 1 384 1 395 1 397 1 404 1 408 1 410 1 412 1 417 1 431 1 452 1 464 1 474 1 486 1 495 1 497 1 508 1 
1 189 6 1 22 1 26 1 29 1 36 2 37 1 53 1 61 1 84 1 87 1 94 1 103 1 115 1 135 1 140 1 142 1 160 1 393 2 467 1 463 1 233 1 466 2 464 1 203 1 276 1 307 1 435 1 367 1 353 1 304 1 312 1 253 1 486 1 383 1 297 1 289 1 465 1 448 1 475 1 370 1 235 1 240 1 382 1 403 1 365 1 217 1 335 1 458 1 337 1 415 1 176 1 210 1 352 1 5 1 11 1 14 1 17 1 19 1 24 1 27 1 58 1 62 1 68 1 69 1 75 1 83 1 98 1 110 1 111 1 113 1 129 1 131 1 165 1 182 1 187 1 216 1 241 1 244 1 271 1 272 1 277 1 280 1 285 1 287 1 298 1 299 1 303 1 308 1 317 1 325 1 328 1 381 1 388 1 390 1 417 1 418 1 420 1 434 1 436 1 450 1 461 1 471 1 472 1 490 1 516 1 
1 216 6 1 8 1 18 1 21 1 24 1 28 1 42 1 46 1 52 1 54 1 59 1 64 2 82 2 83 1 94 1 131 1 136 1 157 1 162 1 170 2 302 1 357 1 358 2 229 1 205 1 264 1 207 1 227 1 440 1 477 1 287 1 464 1 212 1 421 1 228 2 461 1 482 1 303 1 271 1 378 1 182 1 432 1 410 1 248 1 353 1 351 1 377 1 292 1 279 1 455 2 284 1 304 1 257 1 274 2 498 1 323 1 296 1 190 1 198 1 334 1 494 1 404 2 496 1 499 1 439 1 57 1 58 1 69 1 73 1 74 1 75 1 97 1 110 1 119 1 124 1 132 1 145 1 178 1 221 1 222 1 230 1 243 1 251 1 258 1 269 1 285 1 293 1 317 1 344 1 346 1 354 1 359 1 369 1 371 1 376 1 384 1 419 1 422 1 438 1 443 1 454 1 456 1 468 1 474 1 503 1 
1 209 15 1 38 1 41 2 55 1 57 1 73 1 74 1 82 1 94 1 98 1 99 1 107 1 108 1 113 2 114 1 119 1 126 1 131 1 132 1 133 1 134 1 135 1 154 1 168 1 222 1 369 1 439 1 263 1 280 1 311 1 352 1 334 1 483 1 416 2 358 1 445 1 457 1 357 1 447 1 353 1 413 1 344 1 435 1 233 1 249 1 419 1 405 1 496 1 343 1 422 1 443 1 436 1 216 1 330 2 367 2 255 1 479 1 466 1 319 1 285 1 12 1 13 1 18 1 39 1 49 1 62 1 76 1 77 1 92 1 95 1 123 1 145 1 152 1 189 1 203 1 207 1 224 1 227 1 242 1 244 1 248 1 256 1 258 1 260 1 265 1 269 1 270 1 283 1 300 1 302 1 303 1 305 1 321 1 324 1 328 1 332 1 338 1 341 1 346 1 375 1 389 1 391 1 411 1 437 1 448 1 454 1 471 1 512 1 
1 210 5 1 11 1 12 1 27 1 45 1 62 1 68 2 95 1 98 1 112 1 115 1 143 1 173 1 280 1 384 1 425 1 309 1 495 1 390 1 263 1 319 1 400 2 398 1 240 1 296 2 299 1 434 1 351 1 411 1 227 1 419 1 236 1 238 1 497 1 262 1 379 1 311 2 285 1 362 1 438 1 408 1 318 1 402 1 279 2 371 1 321 1 199 1 243 1 388 1 375 2 484 1 180 1 4 1 6 1 16 1 25 1 37 1 43 1 65 1 77 1 86 1 102 1 118 1 128 1 146 1 204 1 205 1 209 1 221 1 225 1 229 1 241 1 245 1 254 1 261 1 264 1 288 1 292 1 293 1 305 1 312 1 329 1 334 1 350 1 353 1 358 1 364 1 377 1 378 1 380 1 383 1 392 1 413 1 429 1 436 1 450 1 452 1 455 1 476 1 486 1 492 1 498 1 501 1 
1 205 1 2 3 1 15 1 37 1 46 1 63 1 66 1 68 1 75 1 78 1 95 1 99 1 144 1 145 1 414 1 377 1 340 1 227 1 229 1 373 1 307 1 355 1 393 1 301 2 250 1 215 1 479 1 436 1 180 1 408 1 416 1 237 1 389 1 240 1 372 1 419 1 415 1 274 1 187 1 196 1 261 2 496 1 388 1 483 1 359 1 259 1 351 1 334 1 309 1 298 2 7 1 17 1 20 1 23 1 42 1 45 1 50 1 55 1 62 1 65 1 84 1 85 1 88 1 96 1 97 1 106 1 111 1 120 1 121 1 123 1 127 1 128 1 131 1 141 1 143 1 147 1 172 1 198 1 209 1 211 1 265 1 266 1 267 1 272 1 277 1 283 1 286 1 290 1 297 1 316 1 321 1 325 1 326 1 330 1 336 1 338 1 353 1 376 1 383 1 392 1 402 1 420 1 445 1 457 1 459 1 462 1 466 1 486 1 497 1 503 1 504 1 505 1 516 1 
1 214 1 1 6 1 10 1 12 1 32 2 37 1 39 1 44 1 50 1 55 1 71 1 80 1 84 1 103 1 104 1 124 1 127 1 132 1 147 2 171 1 451 1 383 1 250 1 211 1 418 1 400 1 286 1 469 1 206 1 440 1 291 1 323 1 228 1 426 1 300 1 324 1 444 1 376 1 221 1 265 1 410 1 183 2 391 1 229 1 283 1 443 2 486 1 399 1 254 1 425 1 253 1 233 1 494 1 389 1 199 1 303 1 232 1 361 1 9 1 34 1 40 1 47 1 57 1 58 1 67 1 72 1 77 1 78 1 83 1 90 1 97 1 99 1 115 1 129 1 134 1 136 1 138 1 174 1 188 1 189 1 207 1 219 1 235 1 242 1 258 1 261 1 312 1 314 1 315 1 328 1 330 1 333 1 335 1 344 1 348 1 351 1 371 1 373 1 377 1 414 1 417 1 419 1 447 1 453 1 481 1 482 1 484 1 496 1 507 1 509 1 520 1 
1 209 10 1 15 1 86 1 87 1 94 2 97 1 113 1 115 1 127 1 146 1 149 1 160 1 309 1 314 1 402 2 234 1 296 1 416 2 344 2 253 1 445 1 222 1 307 1 345 1 218 1 419 1 473 1 207 1 387 1 456 1 391 1 297 1 476 1 356 1 471 1 252 2 215 2 417 2 469 1 403 1 443 1 279 1 353 1 361 1 220 1 213 1 229 2 4 1 35 1 71 1 95 1 111 1 117 1 122 1 153 1 156 1 159 1 161 1 199 1 214 1 233 1 246 1 249 1 276 1 283 1 287 1 288 1 291 1 294 1 304 1 315 1 324 1 332 1 346 1 347 1 351 1 357 1 363 1 374 1 376 1 389 1 393 1 394 1 398 1 409 1 410 1 424 1 432 1 437 1 441 1 448 1 451 1 454 1 468 1 470 1 487 1 488 1 493 1 
1 212 42 2 51 1 56 1 65 1 69 1 73 1 78 2 84 1 85 1 86 1 89 2 95 1 98 1 104 1 112 1 115 1 118 1 119 1 122 1 132 1 136 1 140 1 142 1 145 1 154 1 176 1 177 1 249 1 288 1 466 1 182 1 383 1 271 1 394 2 419 1 461 1 476 1 215 1 429 2 292 1 463 1 416 1 409 1 421 1 480 1 210 1 499 1 471 1 251 1 184 1 291 1 348 1 293 1 284 1 314 1 282 1 402 1 193 1 331 1 345 1 335 1 290 1 359 1 459 1 1 1 13 1 20 1 28 1 45 1 50 1 60 1 66 1 120 1 135 1 137 1 141 1 158 1 169 1 185 1 186 1 190 1 191 1 207 1 226 1 233 1 244 1 247 1 274 1 276 1 294 1 301 1 333 1 340 1 347 1 349 1 364 1 374 1 379 1 430 1 436 1 438 1 443 1 445 1 456 1 460 1 465 1 488 1 495 1 500 1 510 1 511 1 
1 204 4 1 28 1 29 2 32 2 33 1 36 1 45 1 68 1 73 1 82 1 88 1 99 1 101 1 125 1 144 1 149 1 159 1 372 1 252 2 359 1 223 1 308 1 237 1 314 1 296 1 371 1 334 1 220 1 351 1 458 1 490 1 258 1 343 2 212 1 489 1 209 1 301 1 310 1 481 1 413 1 187 1 407 1 207 1 396 1 389 2 381 1 463 1 406 1 426 1 399 1 486 1 346 1 208 1 311 1 467 1 405 1 484 1 388 1 235 1 268 1 194 1 335 1 302 1 461 1 474 1 460 1 410 1 222 1 11 1 12 1 16 1 31 1 43 1 60 1 61 1 67 1 75 1 77 1 106 1 111 1 114 1 117 1 132 1 154 1 160 1 164 1 183 1 186 1 238 1 254 1 259 1 271 1 279 1 283 1 293 1 317 1 319 1 322 1 339 1 347 1 360 1 383 1 391 1 418 1 419 1 435 1 442 1 443 1 466 1 469 1 485 1 
1 204 33 1 36 1 42 1 62 1 63 1 74 1 93 1 104 2 110 2 113 1 114 2 118 2 119 1 120 1 127 1 133 1 144 1 147 1 153 1 174 1 180 1 237 1 283 1 314 1 243 2 429 1 228 1 242 1 288 1 238 1 227 1 342 1 250 1 348 1 245 2 231 1 301 1 335 1 321 1 489 1 494 1 311 1 354 1 262 2 297 1 395 1 481 1 497 1 467 1 394 1 493 1 305 1 199 1 455 1 392 1 337 1 438 1 201 1 338 1 439 1 234 1 192 1 4 1 6 1 10 1 16 1 26 1 31 1 41 1 43 1 73 1 91 1 98 1 100 1 109 1 117 1 121 1 126 1 130 1 135 1 138 1 149 1 152 1 155 1 173 1 185 1 186 1 193 1 213 1 224 1 225 1 226 1 252 1 253 1 254 1 265 1 294 1 300 1 303 1 306 1 318 1 345 1 366 1 386 1 458 1 469 1 476 1 477 1 486 1 492 1 495 1 
1 201 6 1 9 1 14 2 24 1 30 1 33 1 36 2 41 1 46 1 51 1 57 1 58 1 60 1 87 1 88 1 101 1 119 1 131 1 141 1 152 1 178 2 480 1 432 1 219 2 225 1 430 1 278 2 393 1 249 1 476 1 431 1 297 1 376 1 208 2 217 1 479 1 436 1 358 1 477 1 277 1 279 1 488 1 323 1 253 1 258 1 446 1 301 1 355 1 466 1 252 1 440 1 246 1 409 2 386 1 494 1 185 1 464 1 338 1 313 1 306 2 356 2 316 1 406 1 384 1 343 2 261 1 364 1 254 1 17 1 18 1 27 1 28 1 29 1 31 1 56 1 70 1 84 1 97 1 102 1 108 1 109 1 110 1 114 1 123 1 125 1 137 1 138 1 139 1 160 1 181 1 184 1 186 1 215 1 240 1 242 1 251 1 262 1 268 1 269 1 270 1 273 1 283 1 295 1 311 1 318 1 320 1 324 1 335 1 336 1 347 1 361 1 366 1 378 1 397 1 407 1 434 1 441 1 454 1 478 1 492 1 497 1 500 1 520 1 
1 209 1 1 23 1 29 1 31 1 34 1 38 1 40 1 41 1 49 1 52 1 56 2 67 1 72 1 85 1 87 1 88 1 93 1 101 1 112 2 135 1 146 2 148 1 161 1 172 1 180 1 383 1 410 1 245 1 388 1 394 1 212 1 423 1 281 1 216 1 332 2 390 1 483 1 263 1 228 1 440 2 268 1 287 1 363 1 193 1 274 1 340 1 432 1 499 1 243 1 434 1 426 1 339 1 262 1 292 1 185 1 471 1 307 1 310 1 391 1 475 1 417 1 305 2 270 1 318 1 316 1 191 1 460 1 367 1 442 1 289 2 312 1 455 1 7 1 15 1 21 1 35 1 62 1 73 1 79 1 96 1 98 1 110 1 111 1 122 1 140 1 151 1 183 1 194 1 219 1 220 1 221 1 234 1 251 1 252 1 264 1 267 1 269 1 278 1 282 1 284 1 322 1 341 1 357 1 366 1 368 1 369 1 408 1 409 1 416 1 421 1 446 1 452 1 456 1 467 1 480 1 481 1 484 1 486 1 488 1 492 1 500 1 
1 214 9 1 12 1 20 2 26 1 27 1 28 1 30 2 34 1 44 2 50 1 51 1 54 1 81 1 85 2 94 1 100 1 101 1 102 1 104 1 107 1 111 1 118 1 119 1 123 1 160 1 161 1 183 1 184 1 339 1 472 1 313 2 246 1 456 2 423 1 336 1 449 1 272 1 454 1 219 1 391 1 383 1 244 1 322 1 332 1 483 1 461 1 364 2 226 1 425 1 323 1 435 1 428 1 374 1 213 1 333 1 236 1 251 1 204 1 263 1 200 1 466 1 239 1 389 2 432 1 319 1 248 1 23 1 29 1 37 1 48 1 68 1 75 1 78 1 79 1 84 1 135 1 139 1 153 1 157 1 165 1 180 1 182 1 188 1 196 1 198 1 202 1 214 1 216 1 222 1 225 1 238 1 282 1 285 1 288 1 290 1 301 1 308 1 311 1 316 1 328 1 355 1 368 1 384 1 426 1 443 1 473 1 478 1 499 1 504 1 
1 209 11 2 16 1 17 1 19 1 20 1 30 2 41 1 49 1 58 2 65 1 66 2 67 1 76 1 88 1 92 2 113 1 115 1 122 1 133 1 144 1 148 1 159 1 226 1 396 1 246 1 464 1 442 1 410 1 480 1 475 1 323 1 275 2 264 2 358 1 269 1 443 2 245 1 302 1 263 1 303 1 495 1 273 2 221 1 423 1 225 1 318 1 460 1 487 1 272 1 397 2 476 1 326 1 486 1 462 1 259 1 261 1 306 1 280 1 438 1 285 1 9 1 24 1 35 1 36 1 38 1 46 1 56 1 68 1 83 1 87 1 94 1 95 1 97 1 103 1 117 1 137 1 142 1 145 1 156 1 180 1 181 1 182 1 183 1 196 1 219 1 227 1 235 1 239 1 255 1 276 1 279 1 294 1 301 1 315 1 329 1 337 1 351 1 385 1 387 1 388 1 403 1 408 1 436 1 447 1 453 1 471 1 473 1 489 1 492 1 501 1 
1 217 3 2 17 1 21 1 36 1 43 1 47 2 51 1 67 1 69 1 70 1 83 1 94 1 95 1 97 1 101 1 103 1 122 2 129 1 152 1 177 1 181 1 430 2 257 1 479 1 461 2 425 1 276 1 451 1 244 1 251 1 323 2 470 1 248 1 338 1 329 1 327 1 415 2 322 1 275 1 239 1 435 1 231 1 396 1 255 1 423 1 443 1 351 1 409 2 464 1 402 2 300 1 475 1 420 1 392 1 210 1 15 1 49 1 50 1 61 1 89 1 93 1 98 1 100 1 106 1 116 1 125 1 133 1 136 1 143 1 145 1 148 1 163 1 173 1 190 1 215 1 223 1 226 1 236 1 242 1 254 1 261 1 269 1 271 1 273 1 278 1 294 1 330 1 335 1 340 1 341 1 344 1 347 1 356 1 374 1 377 1 380 1 381 1 384 1 393 1 395 1 403 1 456 1 460 1 468 1 469 1 481 1 492 1 498 1 501 1 513 1 519 1 
1 219 7 1 9 1 20 1 25 1 26 1 36 1 59 1 61 1 65 2 71 2 86 1 90 1 97 1 102 1 111 2 112 1 117 1 120 1 126 1 135 1 139 1 145 1 160 1 161 1 394 1 409 2 375 1 276 1 300 1 416 1 249 1 440 1 265 1 334 1 283 1 292 1 331 1 384 1 399 1 279 1 495 1 396 1 395 1 441 1 364 1 436 1 386 1 443 1 435 1 406 1 417 2 223 1 332 1 239 1 221 1 273 1 232 1 234 1 337 1 476 2 192 1 372 1 11 1 12 1 32 1 37 1 44 1 69 1 73 1 81 1 87 1 93 1 94 1 96 1 106 1 165 1 170 1 171 1 178 1 185 1 199 1 230 1 231 1 242 1 244 1 245 1 247 1 258 1 262 1 291 1 301 1 305 1 308 1 338 1 347 1 370 1 379 1 387 1 390 1 403 1 407 1 423 1 424 1 430 1 444 1 448 1 452 1 453 1 460 1 469 1 488 1 490 1 491 1 510 1 
1 198 6 1 12 1 13 1 16 1 19 1 31 2 34 1 54 1 55 1 62 1 89 1 97 1 104 1 126 1 142 1 146 1 155 1 313 1 434 2 314 1 247 1 407 1 259 1 452 2 334 1 391 1 199 1 471 1 359 1 361 1 484 1 235 1 222 1 217 1 347 1 498 1 364 1 488 1 288 1 349 1 265 1 234 1 227 2 409 1 447 1 445 1 439 1 204 2 392 2 402 1 255 1 468 1 325 1 226 1 420 1 287 1 320 1 230 1 363 1 331 2 263 1 435 1 238 1 408 2 221 1 351 1 243 1 11 1 43 1 56 1 71 1 81 1 83 1 92 1 98 1 112 1 117 1 168 1 175 1 178 1 203 1 220 1 233 1 266 1 277 1 289 1 311 1 321 1 322 1 335 1 340 1 344 1 353 1 358 1 360 1 373 1 374 1 382 1 383 1 418 1 424 1 425 1 467 1 473 1 476 1 477 1 479 1 482 1 507 1 
1 214 5 1 28 1 29 1 43 1 52 1 58 1 63 1 69 1 71 1 77 1 92 1 94 2 99 1 102 1 106 1 111 1 116 1 122 1 146 2 153 1 166 1 174 1 455 1 396 1 423 1 401 1 480 1 426 1 390 1 481 1 449 1 297 2 432 1 291 1 191 1 382 1 289 1 433 1 281 2 235 1 379 1 372 1 459 2 262 1 228 1 327 1 463 1 203 1 333 1 266 2 296 1 226 1 384 1 292 1 361 1 413 1 219 1 243 1 211 1 420 1 3 1 21 1 34 1 66 1 68 1 117 1 126 1 133 1 137 1 141 1 145 1 148 1 149 1 151 1 167 1 180 1 187 1 193 1 196 1 199 1 217 1 246 1 255 1 259 1 276 1 285 1 298 1 299 1 306 1 311 1 314 1 321 1 331 1 340 1 399 1 406 1 410 1 411 1 414 1 418 1 429 1 441 1 445 1 446 1 454 1 464 1 470 1 482 1 505 1 511 1 
1 192 2 1 3 2 10 1 17 1 20 1 26 1 45 1 48 1 58 1 63 2 76 2 78 1 85 2 91 1 96 1 121 1 127 1 152 1 156 1 184 1 190 1 412 1 446 1 360 1 428 1 396 1 411 1 249 1 491 1 309 1 329 1 221 1 310 1 486 2 397 1 236 1 279 1 370 1 344 1 223 1 457 1 403 1 407 1 422 2 463 1 325 1 197 1 337 1 229 1 382 1 259 1 367 1 476 1 244 1 241 1 420 1 387 1 330 1 425 1 448 1 7 1 18 1 25 1 31 1 51 1 59 1 61 1 64 1 82 1 94 1 106 1 107 1 110 1 112 1 116 1 131 1 147 1 150 1 153 1 154 1 158 1 163 1 166 1 180 1 192 1 232 1 238 1 256 1 257 1 263 1 278 1 286 1 295 1 296 1 302 1 305 1 317 1 326 1 354 1 395 1 400 1 424 1 431 1 442 1 443 1 469 1 480 1 498 1 513 1 
1 201 2 1 13 1 24 1 27 1 28 1 31 1 58 1 63 1 64 1 70 1 74 1 75 1 87 1 100 1 115 1 139 1 143 1 150 1 151 1 163 2 182 1 188 1 281 1 356 1 312 1 399 1 348 1 249 1 354 1 411 1 438 1 253 1 451 1 377 1 410 1 462 1 291 1 301 1 342 1 309 1 463 1 247 2 388 1 345 2 207 1 328 1 221 1 201 1 477 1 276 1 248 2 467 1 368 2 3 1 7 1 37 1 42 1 45 1 54 1 80 1 81 1 106 1 107 1 111 1 121 1 129 1 130 1 131 1 142 1 144 1 149 1 153 1 154 1 191 1 197 1 228 1 234 1 241 1 283 1 285 1 286 1 295 1 296 1 306 1 315 1 316 1 317 1 327 1 331 1 350 1 352 1 353 1 367 1 373 1 380 1 383 1 397 1 432 1 439 1 440 1 453 1 457 1 471 1 482 1 494 1 498 1 508 1 
1 213 1 2 4 1 17 1 26 1 37 1 74 1 85 1 91 1 95 1 110 1 116 1 127 1 130 1 158 1 163 1 180 1 184 1 469 1 345 2 226 1 232 1 425 2 371 1 285 1 397 1 412 2 297 1 296 1 440 1 259 1 312 1 314 1 492 1 392 2 305 1 288 1 334 1 337 1 369 1 399 1 400 1 495 1 342 1 481 1 385 2 449 1 276 1 480 1 407 2 401 2 324 1 298 1 245 1 274 2 451 1 452 1 2 1 20 1 27 1 41 1 58 1 64 1 72 1 80 1 84 1 93 1 98 1 104 1 122 1 125 1 150 1 164 1 182 1 190 1 206 1 244 1 275 1 279 1 282 1 300 1 303 1 315 1 318 1 340 1 343 1 347 1 348 1 350 1 358 1 378 1 381 1 384 1 389 1 390 1 396 1 405 1 410 1 411 1 423 1 429 1 431 1 433 1 441 1 446 1 454 1 456 1 462 1 478 1 485 1 494 1 496 1 
1 194 15 1 24 1 25 1 39 1 60 1 77 1 78 1 84 1 88 1 101 1 138 2 150 2 158 2 160 1 161 1 169 1 181 1 462 1 303 1 356 1 419 1 371 1 368 1 296 1 466 2 347 1 339 1 275 1 397 2 468 1 406 1 229 1 477 1 464 1 195 1 206 1 314 2 375 1 287 1 254 1 364 1 204 1 456 1 268 2 224 1 205 1 198 2 467 1 5 1 7 1 12 1 17 1 19 1 22 1 32 1 47 1 62 1 75 1 90 1 93 1 95 1 100 1 127 1 128 1 137 1 139 1 142 1 151 1 154 1 156 1 184 1 201 1 218 1 227 1 238 1 245 1 247 1 255 1 306 1 312 1 322 1 329 1 346 1 349 1 357 1 379 1 382 1 385 1 386 1 402 1 410 1 413 1 416 1 447 1 448 1 458 1 463 1 469 1 476 1 483 1 490 1 494 1 506 1 517 1 518 1 521 1 
1 207 9 1 19 1 35 1 40 1 43 1 54 1 65 1 68 1 70 1 110 1 120 1 137 1 144 1 155 1 194 1 338 1 429 2 301 1 461 1 418 1 222 1 229 1 412 1 390 1 386 1 460 1 361 1 409 2 434 1 420 1 349 1 253 1 260 1 487 1 490 1 207 1 357 1 277 1 495 1 467 2 231 1 392 1 276 1 428 1 213 1 483 1 225 1 436 1 321 1 5 1 11 1 13 1 15 1 18 1 24 1 53 1 57 1 58 1 62 1 67 1 69 1 87 1 107 1 123 1 132 1 134 1 138 1 148 1 169 1 201 1 224 1 226 1 235 1 239 1 240 1 242 1 243 1 252 1 257 1 269 1 284 1 286 1 292 1 299 1 304 1 316 1 325 1 328 1 335 1 356 1 360 1 364 1 366 1 382 1 385 1 388 1 394 1 396 1 405 1 438 1 440 1 443 1 447 1 459 1 464 1 474 1 480 1 481 1 499 1 510 1 
1 201 1 1 3 1 6 2 7 1 17 1 23 1 24 1 34 2 46 1 47 1 51 1 57 1 76 1 77 1 78 1 80 1 82 1 85 1 86 1 87 1 95 1 104 1 121 1 123 1 130 1 152 1 157 1 162 1 165 1 177 1 481 1 268 1 478 1 440 2 230 1 495 2 474 1 242 1 256 1 232 1 425 1 354 1 277 1 385 1 357 1 364 2 374 1 202 1 304 1 199 1 421 2 423 1 335 2 308 1 472 1 269 1 264 2 19 1 36 1 39 1 41 1 48 1 53 1 84 1 91 1 92 1 114 1 115 1 142 1 148 1 153 1 154 1 168 1 185 1 186 1 190 1 245 1 257 1 261 1 292 1 314 1 327 1 330 1 334 1 348 1 370 1 376 1 392 1 394 1 448 1 451 1 468 1 470 1 471 1 473 1 497 1 500 1 503 1 507 1 516 1 518 1 
1 202 2 1 26 1 30 1 46 1 54 1 55 1 57 1 63 1 65 1 66 1 69 2 78 1 101 1 105 1 107 1 110 1 148 1 154 1 165 1 167 1 168 2 191 1 286 1 350 1 492 2 346 1 309 1 381 1 325 1 225 1 352 1 250 1 259 1 458 2 471 1 441 1 380 1 242 1 415 1 450 1 293 1 244 1 270 1 232 2 394 1 405 1 326 1 283 1 278 1 272 1 314 1 427 2 6 1 18 1 23 1 33 1 42 1 62 1 86 1 94 1 113 1 115 1 120 1 124 1 134 1 144 1 163 1 192 1 200 1 221 1 222 1 223 1 237 1 239 1 246 1 261 1 277 1 282 1 284 1 296 1 300 1 311 1 334 1 341 1 364 1 370 1 398 1 400 1 430 1 431 1 432 1 439 1 448 1 461 1 464 1 468 1 470 1 473 1 495 1 502 1 519 1 
1 198 5 1 26 1 29 1 30 1 33 1 55 2 63 1 80 2 99 1 100 2 101 1 113 1 129 1 130 1 137 1 150 1 153 1 155 1 160 1 164 1 168 1 174 1 194 2 483 2 374 1 313 1 417 2 427 1 255 1 419 1 440 1 296 1 441 1 243 1 494 1 226 1 263 1 493 1 274 1 267 1 455 1 391 1 373 1 277 1 245 1 456 1 425 1 442 1 443 1 228 1 2 1 43 1 48 1 69 1 70 1 81 1 83 1 85 1 105 1 111 1 142 1 157 1 158 1 161 1 163 1 167 1 170 1 177 1 185 1 213 1 229 1 232 1 242 1 251 1 295 1 305 1 307 1 332 1 334 1 336 1 346 1 348 1 375 1 379 1 386 1 393 1 405 1 406 1 408 1 409 1 418 1 420 1 429 1 432 1 437 1 454 1 473 1 492 1 499 1 510 1 
1 212 2 1 10 1 11 1 14 2 18 1 32 1 33 1 34 1 40 1 44 1 67 1 74 1 79 1 80 1 85 2 86 1 88 1 103 2 116 2 119 1 120 2 126 1 127 1 151 1 156 1 169 1 176 1 178 1 182 1 189 1 196 1 381 1 485 1 307 1 284 1 232 2 426 1 457 1 299 1 437 1 294 1 241 1 434 1 343 2 204 1 435 1 499 1 398 1 387 1 428 2 470 2 351 1 473 2 456 1 371 1 9 1 19 1 22 1 23 1 26 1 31 1 43 1 50 1 54 1 59 1 68 1 70 1 92 1 93 1 97 1 100 1 102 1 113 1 130 1 134 1 138 1 141 1 145 1 150 1 160 1 161 1 170 1 179 1 188 1 190 1 222 1 227 1 246 1 249 1 252 1 256 1 267 1 269 1 271 1 274 1 291 1 308 1 312 1 323 1 329 1 334 1 355 1 356 1 369 1 383 1 392 1 396 1 399 1 419 1 422 1 424 1 442 1 450 1 462 1 465 1 477 1 502 1 503 1 507 1 
1 215 2 1 6 1 8 1 16 1 17 1 36 2 37 1 38 1 47 1 50 2 61 1 66 1 69 1 87 1 88 1 90 1 97 1 101 2 102 1 104 1 109 1 113 1 114 1 123 1 126 1 137 1 138 1 139 1 140 1 145 2 150 1 158 1 164 1 185 1 257 1 242 1 370 2 246 1 342 1 360 1 264 1 470 1 320 1 451 1 366 1 419 1 302 1 313 1 292 2 395 1 270 1 279 1 374 1 485 1 465 1 254 1 458 1 207 1 423 1 398 1 384 1 288 1 341 1 472 1 297 1 422 1 300 2 255 1 291 1 5 1 7 1 11 1 24 1 72 1 74 1 82 1 85 1 124 1 127 1 197 1 201 1 202 1 236 1 237 1 245 1 252 1 276 1 283 1 285 1 286 1 294 1 304 1 316 1 319 1 334 1 343 1 358 1 362 1 373 1 378 1 396 1 401 1 406 1 411 1 414 1 416 1 435 1 445 1 453 1 478 1 494 1 499 1 506 1 513 1 519 1 
1 213 2 1 3 1 8 1 9 2 40 1 51 1 58 1 60 1 61 2 63 1 65 1 80 1 86 2 95 1 96 1 102 1 116 1 117 1 134 1 135 1 138 1 139 1 144 2 155 1 161 1 182 1 192 1 262 1 472 1 224 1 333 1 228 2 437 1 295 1 419 1 289 1 334 1 399 2 235 1 438 1 467 1 390 1 356 1 380 1 340 1 433 1 394 1 376 2 440 1 496 1 498 1 268 2 210 1 285 1 441 1 435 2 236 1 258 2 420 1 455 1 18 1 25 1 35 1 50 1 56 1 59 1 69 1 84 1 88 1 148 1 152 1 160 1 164 1 166 1 170 1 194 1 195 1 200 1 211 1 227 1 240 1 241 1 250 1 263 1 264 1 265 1 271 1 274 1 277 1 291 1 306 1 309 1 322 1 329 1 336 1 350 1 354 1 373 1 386 1 400 1 434 1 451 1 452 1 478 1 481 1 482 1 487 1 504 1 516 1 
1 205 6 1 11 1 15 1 31 1 33 1 50 1 76 1 83 1 90 1 106 1 110 1 113 1 115 1 118 1 127 1 129 1 158 1 170 2 196 1 400 1 373 1 464 1 393 1 231 1 345 1 251 2 412 2 441 1 498 1 249 1 443 1 404 1 334 1 273 1 240 2 448 1 471 1 213 1 407 1 499 1 267 1 244 1 416 1 365 1 423 1 282 2 234 2 438 1 241 1 474 1 459 1 307 1 367 1 298 2 469 1 5 1 17 1 21 1 47 1 54 1 57 1 63 1 89 1 92 1 107 1 112 1 114 1 135 1 142 1 144 1 145 1 152 1 162 1 165 1 171 1 185 1 200 1 207 1 215 1 216 1 220 1 224 1 235 1 253 1 255 1 258 1 274 1 302 1 312 1 314 1 343 1 368 1 375 1 380 1 391 1 397 1 418 1 419 1 432 1 435 1 439 1 445 1 466 1 467 1 473 1 479 1 485 1 494 1 
1 193 16 1 22 1 30 1 34 1 35 1 40 1 48 1 52 1 53 1 66 1 85 1 90 1 93 1 99 1 101 1 114 1 115 1 119 1 123 1 124 1 143 1 151 1 157 1 172 1 173 1 190 1 438 1 244 1 302 1 325 1 434 1 276 1 228 1 389 1 481 1 400 1 316 1 311 1 237 1 437 1 282 1 206 1 230 1 262 1 350 1 445 1 433 2 280 1 383 1 267 1 256 1 487 1 303 1 465 1 467 1 498 1 450 1 456 1 449 1 379 1 463 1 3 1 8 1 9 1 14 1 28 1 32 1 41 1 71 1 76 1 89 1 91 1 105 1 108 1 126 1 149 1 150 1 167 1 168 1 175 1 189 1 204 1 216 1 258 1 269 1 274 1 305 1 315 1 330 1 337 1 341 1 347 1 348 1 353 1 360 1 385 1 388 1 393 1 396 1 399 1 407 1 436 1 453 1 454 1 460 1 468 1 471 1 472 1 475 1 484 1 485 1 489 1 
1 202 14 1 18 1 20 1 36 1 53 1 56 1 59 1 64 1 80 1 85 1 87 1 124 1 133 2 154 1 157 1 158 1 168 1 185 1 189 2 194 1 199 1 448 1 343 1 259 1 260 2 367 1 252 1 454 1 410 1 472 1 236 1 340 1 338 1 418 1 321 2 432 1 235 1 364 1 256 1 370 1 255 1 468 2 462 1 213 1 214 1 310 1 369 1 278 1 266 1 427 1 354 1 380 1 327 1 257 2 351 1 212 2 23 1 30 1 37 1 39 1 54 1 78 1 107 1 111 1 114 1 149 1 160 1 164 1 171 1 176 1 203 1 216 1 222 1 244 1 270 1 279 1 288 1 305 1 306 1 309 1 311 1 319 1 320 1 329 1 331 1 368 1 374 1 396 1 425 1 428 1 446 1 447 1 459 1 467 1 470 1 480 1 484 1 495 1 498 1 502 1 
1 200 1 1 25 1 32 1 36 1 39 1 43 1 47 1 52 1 56 1 61 1 62 2 72 1 78 1 85 1 90 1 94 1 96 1 103 1 110 1 119 1 126 1 132 1 137 1 170 1 172 1 174 1 194 1 448 1 407 1 303 1 291 2 464 2 404 1 360 1 494 1 330 1 459 1 475 1 480 1 429 1 453 1 340 1 427 1 460 1 287 1 393 1 466 2 498 1 269 1 414 1 258 1 372 1 311 1 247 2 249 1 301 1 4 1 9 1 10 1 21 1 22 1 28 1 33 1 41 1 51 1 55 1 60 1 64 1 73 1 82 1 86 1 89 1 101 1 122 1 133 1 139 1 153 1 157 1 168 1 176 1 209 1 235 1 240 1 248 1 286 1 289 1 305 1 306 1 308 1 312 1 318 1 335 1 369 1 387 1 394 1 396 1 397 1 401 1 419 1 432 1 438 1 447 1 449 1 457 1 483 1 484 1 488 1 491 1 495 1 497 1 508 1 
1 218 1 1 4 1 10 1 11 1 19 1 39 1 50 1 57 1 83 2 85 1 102 1 103 1 109 1 111 1 116 1 118 2 121 1 127 1 134 1 136 1 144 1 148 1 149 1 152 1 161 1 178 1 194 1 203 1 332 1 308 2 257 1 496 1 461 1 317 1 397 1 467 1 412 1 334 1 492 1 211 2 207 1 216 1 395 2 282 1 265 1 306 1 362 2 290 1 466 1 463 1 403 1 491 1 381 1 339 1 13 1 23 1 41 1 61 1 69 1 73 1 84 1 137 1 139 1 143 1 150 1 153 1 193 1 232 1 236 1 242 1 254 1 263 1 278 1 279 1 280 1 289 1 307 1 319 1 338 1 342 1 348 1 352 1 367 1 383 1 387 1 396 1 434 1 437 1 441 1 445 1 470 1 473 1 475 1 481 1 482 1 487 1 495 1 498 1 506 1 512 1 521 1 
1 174 2 1 5 1 14 1 16 1 28 1 39 1 40 1 75 1 79 2 81 1 95 2 106 1 114 2 119 1 120 1 127 1 130 1 147 1 152 1 158 2 162 2 174 1 179 1 181 1 192 1 195 1 200 1 206 1 310 1 433 1 495 1 489 2 442 1 372 1 409 1 311 1 374 1 230 1 299 1 443 1 471 1 395 1 377 1 370 1 287 1 215 2 381 2 262 1 424 1 298 1 355 1 423 1 451 1 379 1 239 1 461 1 238 1 393 2 438 1 401 1 222 1 329 1 308 1 9 1 22 1 29 1 47 1 51 1 69 1 77 1 83 1 90 1 91 1 97 1 98 1 100 1 104 1 118 1 121 1 134 1 141 1 154 1 175 1 178 1 180 1 202 1 212 1 214 1 234 1 242 1 249 1 269 1 292 1 306 1 307 1 315 1 319 1 325 1 340 1 344 1 346 1 349 1 359 1 369 1 388 1 389 1 394 1 403 1 444 1 453 1 478 1 480 1 485 1 
1 183 10 1 11 1 12 1 15 1 22 1 50 1 64 1 68 1 73 2 75 1 77 1 88 1 89 2 130 1 132 1 138 1 145 1 160 1 161 2 165 1 181 1 183 2 372 1 413 2 418 1 265 1 260 1 388 1 360 1 289 1 297 2 481 1 270 2 314 1 399 1 243 1 331 1 426 2 327 1 348 1 247 1 282 2 302 2 274 1 305 1 279 1 369 1 277 1 232 1 344 2 378 1 4 1 6 1 7 1 21 1 24 1 25 1 36 1 40 1 45 1 62 1 65 1 76 1 80 1 97 1 108 1 111 1 134 1 148 1 150 1 154 1 210 1 213 1 221 1 230 1 251 1 252 1 278 1 300 1 320 1 338 1 352 1 386 1 431 1 433 1 441 1 445 1 449 1 455 1 460 1 464 1 469 1 506 1 
1 200 12 1 26 1 46 1 48 2 64 1 69 1 90 1 104 1 120 2 126 2 131 1 144 1 148 1 160 2 172 1 181 1 250 1 354 1 265 1 278 1 493 1 306 1 414 1 381 1 358 1 251 1 311 1 396 1 443 1 353 1 471 1 237 1 496 1 346 1 2 1 5 1 15 1 21 1 22 1 31 1 40 1 51 1 66 1 71 1 80 1 88 1 99 1 121 1 135 1 138 1 141 1 149 1 176 1 177 1 205 1 211 1 213 1 230 1 232 1 247 1 253 1 258 1 272 1 275 1 317 1 334 1 338 1 340 1 341 1 342 1 344 1 348 1 376 1 385 1 403 1 407 1 411 1 420 1 424 1 432 1 434 1 448 1 451 1 468 1 473 1 486 1 498 1 503 1 504 1 506 1 519 1 521 1 
1 205 10 1 16 1 25 1 49 1 60 1 62 1 65 1 70 1 75 1 77 1 81 1 91 1 107 1 108 1 128 1 136 2 138 1 145 1 173 1 180 1 187 1 201 1 349 1 231 1 370 1 486 1 261 1 277 1 354 1 342 1 443 2 422 1 359 1 480 2 241 1 282 1 456 1 431 1 237 1 286 1 485 1 418 1 455 1 297 1 473 1 337 1 266 1 298 1 327 1 423 1 3 1 12 1 18 1 26 1 29 1 32 1 33 1 38 1 39 1 42 1 64 1 69 1 72 1 84 1 86 1 96 1 100 1 109 1 110 1 117 1 120 1 130 1 142 1 158 1 163 1 170 1 208 1 211 1 225 1 259 1 265 1 269 1 278 1 285 1 288 1 291 1 313 1 328 1 344 1 347 1 353 1 367 1 382 1 385 1 389 1 394 1 397 1 408 1 409 1 426 1 437 1 460 1 467 1 468 1 470 1 474 1 475 1 478 1 494 1 508 1 
1 215 4 1 27 1 33 1 62 1 72 1 78 1 81 1 83 1 85 1 91 1 97 1 109 1 132 1 140 1 141 1 145 1 150 1 153 1 155 1 178 1 190 1 206 2 288 1 454 1 268 1 404 1 235 1 295 1 424 1 325 1 443 1 327 1 466 1 457 1 337 1 290 2 276 1 486 2 428 1 339 1 497 1 392 1 431 1 245 2 313 1 490 1 289 1 472 1 330 1 252 1 396 1 334 1 344 1 331 2 308 2 489 2 447 1 483 1 432 2 480 2 18 1 29 1 59 1 101 1 102 1 114 1 124 1 128 1 129 1 148 1 156 1 161 1 166 1 167 1 170 1 177 1 201 1 209 1 210 1 217 1 256 1 260 1 285 1 294 1 296 1 307 1 368 1 389 1 399 1 400 1 407 1 409 1 420 1 427 1 435 1 437 1 438 1 442 1 451 1 463 1 476 1 477 1 479 1 498 1 518 1 
1 222 9 1 20 1 28 1 40 1 44 1 49 2 50 1 52 1 53 2 62 2 66 1 73 1 79 1 84 1 87 1 115 1 118 1 125 1 127 2 144 2 154 1 156 1 162 1 165 1 171 1 174 1 181 1 184 1 204 2 489 1 339 1 453 2 289 1 337 1 479 1 403 1 464 2 318 1 413 1 480 1 432 1 411 1 357 1 458 1 344 1 265 1 220 1 455 2 491 1 383 1 250 1 258 1 369 1 15 1 19 1 24 1 36 1 51 1 57 1 69 1 76 1 90 1 92 1 130 1 160 1 163 1 168 1 172 1 207 1 216 1 238 1 246 1 257 1 266 1 279 1 287 1 288 1 295 1 302 1 303 1 321 1 328 1 333 1 370 1 380 1 387 1 396 1 398 1 400 1 404 1 407 1 419 1 425 1 430 1 433 1 442 1 444 1 451 1 466 1 474 1 483 1 485 1 492 1 
1 214 5 1 29 1 37 1 38 1 46 1 48 1 54 1 57 1 58 1 88 1 97 1 98 1 100 1 110 1 114 1 122 1 128 1 131 1 133 1 137 1 147 1 153 1 157 1 163 1 179 1 185 1 195 1 202 1 204 1 472 2 347 1 241 1 327 2 436 1 305 1 400 1 216 1 333 1 378 1 266 2 367 1 267 1 410 1 247 1 439 1 392 1 487 1 365 1 227 1 451 2 429 1 299 1 368 1 351 1 401 2 3 1 8 1 11 1 31 1 56 1 61 1 66 1 69 1 72 1 78 1 89 1 106 1 107 1 115 1 130 1 165 1 182 1 198 1 208 1 209 1 236 1 238 1 240 1 243 1 251 1 254 1 257 1 265 1 275 1 304 1 319 1 324 1 325 1 337 1 342 1 357 1 364 1 372 1 375 1 377 1 379 1 382 1 388 1 390 1 391 1 403 1 405 1 407 1 411 1 422 1 427 1 432 1 441 1 449 1 452 1 460 1 464 1 494 1 
1 211 26 1 49 1 55 1 60 1 63 2 65 1 68 1 70 1 75 1 98 2 104 1 126 1 145 2 154 1 156 1 168 1 170 1 204 1 302 1 309 1 414 1 242 1 464 1 319 1 290 2 360 1 460 1 287 1 453 1 485 1 250 1 237 1 243 1 354 1 298 1 300 1 341 1 219 1 364 1 383 1 282 1 409 1 457 1 392 2 386 1 394 1 336 2 254 1 467 1 433 2 423 1 331 1 358 1 322 1 263 1 268 1 326 2 1 1 12 1 14 1 16 1 19 1 28 1 34 1 37 1 53 1 78 1 89 1 94 1 95 1 109 1 119 1 165 1 179 1 185 1 207 1 226 1 241 1 248 1 253 1 265 1 276 1 293 1 296 1 301 1 306 1 314 1 332 1 335 1 347 1 355 1 356 1 357 1 372 1 373 1 390 1 401 1 426 1 438 1 443 1 446 1 455 1 470 1 483 1 487 1 488 1 490 1 499 1 502 1 510 1 512 1 
1 162 11 1 30 1 46 1 51 1 55 1 65 1 70 1 71 2 72 1 94 2 112 1 122 1 136 1 143 1 171 1 177 1 179 2 180 1 207 2 326 1 312 1 461 1 480 1 321 1 304 1 406 1 251 1 487 1 347 1 475 1 401 1 387 1 253 1 421 1 414 1 320 1 315 1 274 1 485 1 248 2 469 2 226 1 451 1 420 1 278 1 280 1 356 1 357 2 285 1 361 1 229 1 352 1 287 1 249 1 276 1 307 1 441 1 216 1 260 1 415 1 7 1 23 1 31 1 58 1 61 1 63 1 81 1 83 1 106 1 109 1 123 1 132 1 148 1 158 1 167 1 169 1 183 1 187 1 202 1 239 1 242 1 243 1 250 1 292 1 295 1 301 1 310 1 329 1 339 1 360 1 370 1 376 1 381 1 386 1 397 1 400 1 405 1 427 1 431 1 433 1 458 1 471 1 493 1 495 1 510 1 
1 204 13 1 31 1 37 1 43 1 64 1 77 1 81 1 92 1 95 1 97 1 102 1 106 1 108 2 121 1 132 1 138 1 139 1 155 2 159 1 160 1 164 1 175 1 184 1 206 1 213 1 215 1 246 1 455 1 329 1 386 1 487 1 250 1 242 1 484 1 291 1 324 2 474 1 295 2 462 1 463 1 219 1 332 1 488 1 460 1 284 1 475 1 423 1 428 2 476 1 499 1 440 1 404 1 396 1 306 1 433 1 261 1 251 1 298 1 403 1 424 1 466 1 326 1 6 1 14 1 15 1 22 1 33 1 38 1 46 1 55 1 62 1 66 1 73 1 82 1 91 1 101 1 116 1 117 1 148 1 149 1 157 1 169 1 173 1 185 1 202 1 203 1 204 1 212 1 240 1 252 1 253 1 255 1 257 1 260 1 265 1 275 1 279 1 280 1 286 1 308 1 318 1 322 1 333 1 345 1 369 1 381 1 391 1 395 1 398 1 407 1 436 1 449 1 452 1 453 1 456 1 469 1 473 1 479 1 489 1 494 1 502 1 503 1 
1 220 20 1 43 1 51 1 58 1 81 1 83 1 103 2 114 1 122 1 123 1 125 1 128 1 134 1 135 2 141 1 171 1 173 1 183 1 189 1 467 1 348 1 342 1 346 2 447 1 382 1 435 1 487 1 302 1 388 1 421 2 264 1 298 1 454 1 283 2 453 1 271 1 310 1 403 1 245 1 243 1 274 1 255 1 499 1 316 2 455 1 363 1 488 1 400 1 338 2 233 1 1 1 16 1 21 1 24 1 34 1 50 1 55 1 57 1 68 1 84 1 92 1 98 1 100 1 109 1 111 1 118 1 120 1 130 1 137 1 140 1 142 1 143 1 151 1 155 1 165 1 170 1 190 1 211 1 222 1 238 1 253 1 272 1 304 1 306 1 318 1 324 1 328 1 341 1 370 1 389 1 401 1 402 1 406 1 407 1 411 1 414 1 419 1 423 1 432 1 434 1 436 1 438 1 441 1 448 1 449 1 459 1 462 1 473 1 476 1 483 1 491 1 497 1 498 1 500 1 517 1 518 1 
1 200 3 2 18 2 21 1 31 1 36 1 39 1 40 1 42 1 57 1 72 1 86 1 87 1 100 2 103 1 109 1 113 1 119 2 121 1 123 1 130 1 133 2 154 1 162 1 168 1 179 1 459 1 271 1 378 1 244 1 437 1 499 2 456 1 321 1 352 1 392 1 369 1 430 1 431 1 421 2 340 1 268 1 301 1 279 1 248 1 315 1 370 1 289 1 292 1 286 2 483 1 391 1 221 1 445 1 252 1 237 1 468 1 371 1 246 1 366 1 245 1 1 1 8 1 24 1 25 1 52 1 55 1 62 1 64 1 68 1 70 1 73 1 91 1 129 1 147 1 194 1 224 1 282 1 288 1 290 1 294 1 304 1 310 1 316 1 328 1 346 1 353 1 354 1 355 1 359 1 361 1 363 1 368 1 379 1 385 1 387 1 415 1 416 1 435 1 438 1 442 1 450 1 484 1 491 1 494 1 497 1 509 1 
1 197 12 1 22 1 26 1 29 1 40 2 43 1 47 1 48 1 59 1 60 1 79 1 89 1 95 1 98 1 101 1 113 1 121 1 127 1 129 1 132 2 137 1 140 1 172 1 183 2 185 1 190 1 214 1 216 1 451 2 411 1 389 2 245 1 279 1 337 1 392 1 371 1 363 1 249 1 322 1 257 1 350 1 393 1 261 1 294 1 356 1 413 1 347 1 282 1 397 1 455 1 434 1 247 1 399 1 447 1 454 1 281 1 264 1 277 1 424 1 380 2 394 1 238 1 334 1 269 1 265 1 446 1 406 1 10 1 11 1 13 1 17 1 27 1 51 1 57 1 67 1 74 1 92 1 96 1 100 1 106 1 115 1 116 1 120 1 141 1 178 1 184 1 186 1 244 1 246 1 260 1 278 1 284 1 292 1 300 1 319 1 321 1 344 1 351 1 354 1 378 1 385 1 387 1 396 1 414 1 415 1 421 1 425 1 427 1 428 1 435 1 456 1 461 1 462 1 478 1 493 1 499 1 
1 192 4 1 27 1 34 1 40 1 41 1 50 1 51 1 57 1 61 1 81 1 87 1 103 1 129 1 137 1 140 1 156 2 158 1 159 1 166 1 179 1 181 1 212 1 291 1 398 1 340 1 303 1 262 2 399 1 441 2 264 1 408 1 427 1 380 1 362 1 394 1 316 1 293 1 308 1 295 1 348 1 353 1 234 1 416 1 403 1 225 1 232 1 244 1 387 1 481 1 305 1 285 1 2 1 9 1 17 1 25 1 30 1 36 1 39 1 54 1 66 1 78 1 84 1 85 1 94 1 110 1 121 1 139 1 142 1 144 1 150 1 160 1 171 1 184 1 189 1 202 1 222 1 231 1 236 1 309 1 329 1 347 1 351 1 354 1 356 1 364 1 377 1 384 1 385 1 406 1 413 1 415 1 429 1 430 1 436 1 440 1 442 1 445 1 460 1 463 1 464 1 465 1 482 1 514 1 
1 203 2 1 42 1 53 1 70 1 78 2 79 1 95 1 103 2 105 1 106 1 109 2 111 2 120 1 122 1 139 1 151 1 168 1 169 1 171 1 172 1 178 1 186 1 188 1 189 1 191 1 192 1 218 1 257 1 317 1 464 2 278 1 247 1 325 2 297 1 274 1 488 1 334 1 477 1 495 1 267 1 459 2 223 1 379 1 462 2 328 1 388 1 258 1 428 1 272 1 395 1 326 1 443 1 355 1 420 1 397 2 438 1 233 1 5 1 9 1 19 1 24 1 39 1 41 1 43 1 57 1 112 1 113 1 116 1 123 1 141 1 149 1 170 1 174 1 176 1 184 1 197 1 208 1 245 1 251 1 252 1 256 1 259 1 264 1 266 1 273 1 287 1 291 1 293 1 306 1 315 1 321 1 332 1 348 1 365 1 370 1 385 1 402 1 409 1 412 1 418 1 422 1 430 1 431 1 457 1 482 1 485 1 490 1 510 1 516 1 
1 193 17 1 30 1 33 1 40 2 44 1 49 1 57 1 75 1 101 2 104 1 109 1 122 2 131 1 138 1 140 1 151 1 165 1 175 1 179 1 181 1 189 1 195 1 207 1 279 1 362 1 275 1 272 1 372 1 476 1 461 1 368 2 409 1 290 1 412 2 266 1 287 1 410 2 458 1 494 1 443 2 329 1 450 1 336 1 459 1 435 1 225 1 351 1 357 1 405 1 289 2 309 1 303 1 320 1 415 1 10 1 19 1 31 1 32 1 36 1 41 1 43 1 51 1 52 1 53 1 68 1 72 1 76 1 82 1 92 1 106 1 112 1 118 1 135 1 162 1 166 1 174 1 185 1 197 1 199 1 204 1 217 1 220 1 260 1 283 1 299 1 301 1 305 1 312 1 319 1 325 1 327 1 330 1 341 1 348 1 359 1 392 1 393 1 394 1 395 1 413 1 421 1 426 1 442 1 464 1 471 1 473 1 482 1 490 1 515 1 
1 193 9 1 10 2 15 1 19 2 21 1 40 1 43 1 52 1 66 1 86 1 88 1 140 1 159 1 164 1 166 1 167 1 181 1 188 1 191 1 221 1 411 2 284 1 251 1 475 1 376 1 317 1 286 1 332 1 457 1 384 1 354 2 259 1 487 2 309 1 377 1 263 2 294 1 233 1 380 1 291 1 300 1 446 1 491 1 472 1 460 1 485 1 343 1 337 1 452 1 331 1 477 2 351 1 253 1 277 1 321 1 356 1 378 1 429 1 297 1 252 1 439 2 314 1 365 1 496 1 278 1 497 1 406 1 474 1 479 1 7 1 18 1 20 1 22 1 25 1 26 1 42 1 57 1 81 1 92 1 100 1 112 1 125 1 133 1 137 1 141 1 142 1 163 1 172 1 187 1 197 1 250 1 290 1 298 1 301 1 310 1 318 1 347 1 349 1 368 1 393 1 394 1 400 1 420 1 432 1 463 1 470 1 488 1 493 1 507 1 519 1 
1 201 3 2 6 1 8 1 11 1 39 1 40 1 43 1 45 1 49 1 66 1 72 1 80 1 100 2 105 1 107 1 112 1 121 1 131 1 135 1 138 2 141 2 150 1 158 1 194 1 201 1 375 1 351 1 465 2 403 1 318 1 443 1 392 2 254 1 452 1 493 2 487 1 484 1 474 1 485 2 372 1 445 1 323 1 397 1 454 1 450 1 476 1 393 1 352 1 265 1 391 1 399 1 257 1 253 1 229 1 308 1 294 1 276 1 336 2 488 1 389 1 362 1 365 1 246 1 402 2 34 1 38 1 50 1 60 1 88 1 92 1 98 1 104 1 113 1 118 1 125 1 130 1 134 1 153 1 162 1 175 1 182 1 195 1 202 1 218 1 238 1 251 1 278 1 281 1 288 1 305 1 306 1 315 1 322 1 332 1 348 1 349 1 355 1 360 1 368 1 380 1 386 1 394 1 400 1 410 1 414 1 418 1 431 1 456 1 459 1 464 1 491 1 
1 199 4 1 7 1 40 2 82 1 83 1 87 2 88 1 96 1 124 1 131 1 140 1 152 1 154 1 157 1 161 1 170 2 183 1 186 1 195 1 197 1 220 1 222 1 472 1 272 1 321 1 488 1 326 2 374 1 294 2 327 1 400 1 325 1 397 1 491 2 337 1 435 2 262 1 358 1 363 1 366 1 273 1 300 1 457 1 347 1 252 1 486 1 480 2 371 1 378 1 395 1 485 1 8 1 10 1 24 1 25 1 26 1 49 1 55 1 65 1 71 1 79 1 81 1 91 1 100 1 104 1 105 1 110 1 115 1 127 1 133 1 147 1 150 1 163 1 176 1 182 1 185 1 210 1 228 1 235 1 243 1 253 1 275 1 277 1 330 1 344 1 345 1 359 1 360 1 370 1 373 1 375 1 406 1 408 1 416 1 419 1 421 1 430 1 439 1 465 1 469 1 481 1 490 1 496 1 504 1 505 1 507 1 
1 200 8 1 16 1 33 1 37 1 47 1 60 2 71 1 87 1 89 1 96 1 100 1 104 1 113 1 116 1 118 1 119 1 121 1 123 1 126 1 132 1 135 1 136 1 138 2 148 1 170 1 185 1 186 1 189 1 190 1 193 1 198 1 215 1 288 1 453 1 357 1 321 1 289 1 379 1 441 1 346 1 472 1 473 2 451 1 373 1 491 2 465 1 317 2 396 2 383 1 460 1 362 1 269 1 400 1 467 1 229 1 342 1 355 1 347 1 295 1 413 1 350 1 282 1 281 1 12 1 20 1 39 1 40 1 45 1 48 1 50 1 53 1 56 1 74 1 76 1 77 1 91 1 106 1 143 1 153 1 156 1 162 1 165 1 169 1 180 1 182 1 187 1 195 1 214 1 227 1 242 1 255 1 256 1 259 1 286 1 311 1 315 1 324 1 343 1 356 1 367 1 372 1 375 1 386 1 393 1 407 1 416 1 418 1 426 1 429 1 434 1 439 1 454 1 477 1 485 1 486 1 493 1 517 1 
1 208 1 1 7 1 11 1 22 1 29 2 45 1 50 1 59 1 99 1 107 2 111 1 118 1 120 1 122 1 125 1 141 2 144 1 153 1 154 1 160 2 165 1 168 1 170 1 174 1 176 1 177 1 182 1 189 2 213 1 368 1 388 1 379 1 365 1 268 1 326 1 230 1 474 1 347 1 335 1 279 2 455 1 492 1 457 2 476 1 392 1 293 1 449 1 481 1 346 1 242 2 463 1 459 2 472 1 498 1 350 1 238 1 427 2 349 1 489 1 371 1 343 1 400 1 280 1 250 1 419 1 305 1 4 1 5 1 10 1 12 1 33 1 34 1 43 1 55 1 63 1 71 1 86 1 94 1 97 1 103 1 138 1 148 1 169 1 172 1 175 1 186 1 194 1 199 1 201 1 226 1 233 1 263 1 289 1 297 1 312 1 313 1 314 1 315 1 327 1 352 1 354 1 361 1 362 1 375 1 390 1 406 1 407 1 439 1 440 1 441 1 444 1 460 1 468 1 500 1 504 1 
1 189 2 1 3 1 24 1 28 2 31 1 35 1 37 2 47 1 49 2 52 1 71 1 76 1 77 1 78 1 80 1 92 1 99 1 113 1 130 1 138 1 146 1 164 1 174 2 178 1 182 1 184 1 190 1 198 1 201 2 203 1 345 1 310 1 272 1 305 1 407 1 267 1 408 1 313 1 369 1 388 1 289 1 278 1 490 1 494 1 326 1 333 1 293 1 311 1 283 1 498 1 398 1 470 1 457 1 455 1 335 1 446 1 365 1 295 1 491 1 440 1 362 2 256 2 477 1 352 1 316 1 11 1 29 1 30 1 38 1 41 1 43 1 54 1 60 1 70 1 102 1 104 1 108 1 110 1 116 1 119 1 129 1 131 1 143 1 157 1 163 1 169 1 171 1 192 1 225 1 261 1 271 1 284 1 285 1 298 1 315 1 339 1 349 1 357 1 396 1 404 1 412 1 415 1 419 1 456 1 459 1 467 1 474 1 475 1 483 1 492 1 509 1 
1 207 11 1 17 1 34 1 39 1 57 1 68 1 75 1 80 1 85 1 90 1 110 2 118 1 127 1 128 1 136 2 141 1 147 1 149 1 151 1 158 1 159 1 162 1 164 1 174 1 177 1 178 1 179 2 191 1 194 1 195 1 215 1 224 1 226 1 412 2 388 1 420 1 490 1 313 1 492 1 429 1 458 2 269 1 363 1 383 1 484 1 377 1 423 1 461 1 396 1 445 1 246 1 337 2 320 1 361 1 459 2 346 1 351 1 334 1 1 1 7 1 10 1 20 1 21 1 28 1 37 1 40 1 43 1 58 1 69 1 77 1 84 1 92 1 97 1 103 1 105 1 111 1 114 1 122 1 139 1 146 1 150 1 155 1 160 1 171 1 176 1 198 1 241 1 257 1 274 1 278 1 286 1 292 1 302 1 304 1 318 1 340 1 342 1 344 1 347 1 348 1 380 1 394 1 397 1 399 1 402 1 421 1 430 1 449 1 462 1 477 1 486 1 497 1 
1 205 2 1 15 1 20 1 59 1 61 1 63 1 67 1 78 1 86 1 87 1 118 1 119 1 122 1 135 1 146 1 154 1 155 1 162 2 170 1 189 1 196 1 203 1 207 1 227 1 487 1 322 1 485 1 275 1 466 2 410 1 454 2 331 1 376 2 237 2 313 1 231 1 384 1 359 2 289 1 342 2 436 1 382 2 361 1 370 1 399 1 413 2 483 1 443 1 311 1 283 2 404 1 366 1 8 1 14 1 19 1 45 1 46 1 48 1 49 1 52 1 64 1 68 1 72 1 73 1 79 1 80 1 100 1 107 1 113 1 115 1 123 1 130 1 169 1 171 1 174 1 188 1 208 1 209 1 234 1 242 1 269 1 277 1 279 1 281 1 316 1 330 1 337 1 345 1 347 1 355 1 360 1 363 1 383 1 388 1 392 1 398 1 409 1 418 1 428 1 435 1 438 1 442 1 445 1 468 1 469 1 471 1 475 1 493 1 499 1 
1 206 2 1 6 1 18 1 28 1 51 2 53 1 70 1 72 2 75 2 90 1 115 1 116 1 125 1 139 1 151 1 158 1 182 1 187 1 195 1 202 1 210 1 230 1 418 1 441 1 430 1 463 1 397 1 413 1 355 1 235 1 464 1 427 1 424 1 303 1 316 1 239 1 454 1 304 1 280 1 360 1 422 1 440 2 348 1 479 1 279 1 340 1 335 1 269 1 414 1 434 1 352 1 14 1 20 1 26 1 27 1 45 1 63 1 78 1 80 1 95 1 100 1 104 1 109 1 122 1 130 1 132 1 133 1 136 1 142 1 147 1 188 1 220 1 233 1 243 1 261 1 268 1 278 1 283 1 294 1 295 1 296 1 306 1 309 1 313 1 322 1 324 1 334 1 346 1 378 1 390 1 391 1 392 1 403 1 406 1 439 1 442 1 456 1 457 1 459 1 474 1 480 1 486 1 493 1 494 1 505 1 
1 218 18 1 24 1 25 1 32 2 36 1 49 1 53 1 55 1 61 1 67 1 71 2 72 1 73 1 80 1 85 1 86 1 101 1 104 2 106 1 122 1 140 2 143 1 151 1 159 2 160 2 161 1 163 1 178 1 188 1 193 1 196 1 197 2 199 2 208 1 220 1 337 1 426 1 402 1 318 2 297 1 460 1 310 1 306 1 356 1 452 1 287 1 374 1 367 1 395 1 472 1 267 1 314 1 400 2 327 1 468 1 333 1 404 1 429 1 309 1 397 1 245 1 489 1 237 2 9 1 10 1 13 1 17 1 19 1 38 1 63 1 79 1 88 1 93 1 111 1 116 1 133 1 139 1 145 1 146 1 171 1 191 1 198 1 206 1 209 1 234 1 261 1 262 1 271 1 273 1 279 1 292 1 307 1 319 1 323 1 324 1 338 1 341 1 345 1 351 1 376 1 378 1 389 1 390 1 399 1 409 1 433 1 434 1 458 1 461 1 463 1 464 1 496 1 502 1 505 1 509 1 
1 190 2 1 3 1 8 2 12 1 15 1 26 1 47 1 48 1 53 2 72 1 88 2 93 2 99 1 102 1 107 1 111 1 116 1 120 1 121 2 132 1 133 1 146 1 149 1 151 1 173 1 175 1 178 1 217 1 221 1 223 1 334 1 279 1 440 1 345 1 379 1 342 1 363 1 422 1 452 1 282 1 453 1 492 1 353 1 313 1 324 1 450 1 387 1 335 1 389 1 355 1 360 1 458 1 263 1 298 1 375 2 435 1 462 1 244 1 325 1 380 2 287 1 275 1 285 2 240 1 305 1 7 1 14 1 22 1 25 1 37 1 52 1 59 1 63 1 87 1 101 1 110 1 113 1 129 1 137 1 139 1 147 1 155 1 157 1 161 1 179 1 180 1 189 1 227 1 231 1 239 1 248 1 266 1 268 1 315 1 338 1 343 1 358 1 359 1 373 1 377 1 385 1 392 1 438 1 467 1 469 1 470 1 473 1 477 1 480 1 487 1 497 1 498 1 518 1 
1 221 2 2 3 1 12 1 22 1 23 2 53 1 58 1 60 2 63 1 72 1 76 1 79 1 87 1 88 1 89 1 90 1 97 1 99 1 114 2 116 1 119 1 121 1 142 1 143 1 147 1 153 1 168 1 179 1 182 1 188 1 189 1 202 2 220 1 416 1 446 1 397 1 320 1 380 2 468 1 377 1 451 1 398 1 296 1 286 1 464 1 411 1 403 1 434 1 262 1 284 2 294 1 246 2 307 2 420 1 362 1 353 1 388 1 237 1 238 1 321 1 493 1 378 1 395 1 372 1 438 1 476 1 386 1 482 1 1 1 4 1 35 1 48 1 49 1 65 1 103 1 105 1 123 1 131 1 146 1 156 1 157 1 161 1 162 1 163 1 184 1 192 1 207 1 230 1 232 1 235 1 244 1 268 1 270 1 290 1 293 1 303 1 322 1 328 1 341 1 344 1 348 1 350 1 357 1 364 1 367 1 381 1 391 1 404 1 410 1 412 1 423 1 425 1 433 1 436 1 447 1 453 1 466 1 477 1 478 1 489 1 496 1 
1 206 3 1 8 1 9 1 12 1 15 1 20 1 26 2 29 1 32 1 39 1 53 1 62 1 65 1 71 1 113 1 116 1 117 1 122 1 125 1 131 1 136 1 145 1 166 1 168 1 169 1 173 1 181 1 189 1 190 1 201 1 204 1 211 1 231 1 465 1 359 2 482 1 339 2 378 1 269 1 332 1 481 1 282 1 344 1 429 1 336 2 351 1 431 2 412 1 393 1 307 1 445 1 377 1 278 1 388 1 324 1 263 1 254 1 446 1 304 2 460 1 407 2 498 1 439 1 413 1 28 1 38 1 40 1 42 1 69 1 74 1 80 1 83 1 86 1 90 1 98 1 102 1 114 1 127 1 129 1 133 1 144 1 150 1 155 1 157 1 161 1 171 1 178 1 186 1 195 1 202 1 205 1 225 1 234 1 242 1 270 1 274 1 289 1 291 1 302 1 308 1 315 1 318 1 320 1 321 1 337 1 340 1 341 1 354 1 371 1 374 1 382 1 383 1 400 1 426 1 440 1 444 1 458 1 487 1 495 1 508 1 
1 186 5 1 11 1 14 1 19 1 23 1 26 1 33 1 42 1 49 1 65 1 77 1 82 1 111 1 142 1 145 1 150 1 168 1 171 1 176 1 185 1 191 1 201 1 204 1 413 1 446 1 237 1 497 1 361 1 436 1 266 1 391 1 288 1 269 1 241 1 316 1 322 1 459 1 286 1 335 1 478 1 334 1 426 1 487 1 319 1 312 1 395 1 375 1 473 1 265 2 457 1 293 1 302 1 448 1 332 1 349 1 354 1 476 1 488 1 6 1 7 1 12 1 18 1 30 1 37 1 54 1 56 1 59 1 66 1 71 1 73 1 75 1 93 1 98 1 99 1 101 1 103 1 120 1 126 1 144 1 148 1 152 1 187 1 200 1 206 1 213 1 220 1 273 1 274 1 284 1 292 1 298 1 321 1 337 1 342 1 344 1 353 1 357 1 360 1 362 1 372 1 379 1 382 1 386 1 389 1 402 1 434 1 471 1 486 1 518 1 
1 208 16 1 17 1 31 1 32 1 38 1 41 1 46 2 60 1 61 1 74 1 75 2 106 1 122 2 123 1 129 1 130 1 132 2 138 1 140 1 144 1 160 2 167 2 172 1 177 1 181 1 182 1 203 1 209 1 210 1 214 1 218 1 230 2 232 2 234 1 236 1 312 1 482 2 342 1 399 1 481 1 324 1 465 1 483 1 447 2 344 1 309 2 313 1 339 1 265 2 411 1 240 2 325 1 435 1 249 1 439 1 306 1 359 1 424 1 387 1 340 1 449 2 284 2 463 1 245 1 263 2 303 2 330 1 311 1 252 1 478 1 273 1 414 1 24 1 39 1 52 1 55 1 62 1 67 1 82 1 97 1 99 1 101 1 102 1 103 1 139 1 147 1 157 1 159 1 197 1 200 1 274 1 285 1 291 1 298 1 299 1 341 1 358 1 380 1 384 1 428 1 430 1 448 1 471 1 477 1 514 1 515 1 
1 185 19 1 20 1 23 1 33 1 37 1 50 1 55 1 65 2 70 2 85 1 90 1 106 1 110 1 122 1 136 1 145 1 171 1 176 1 182 1 189 1 207 1 219 1 227 1 234 1 316 1 274 1 462 1 356 2 448 1 314 1 312 1 472 1 459 1 364 1 427 1 332 1 483 2 345 1 393 1 444 1 460 1 267 1 305 1 284 1 457 1 475 1 254 1 433 1 1 1 22 1 26 1 27 1 28 1 31 1 52 1 59 1 62 1 64 1 87 1 131 1 143 1 144 1 150 1 160 1 166 1 181 1 185 1 191 1 194 1 212 1 213 1 217 1 224 1 245 1 252 1 293 1 294 1 300 1 308 1 323 1 331 1 338 1 342 1 355 1 370 1 382 1 403 1 405 1 415 1 420 1 422 1 423 1 431 1 447 1 449 1 456 1 467 1 470 1 477 1 478 1 496 1 519 1 
1 223 3 1 13 1 21 1 25 1 36 1 45 1 54 1 56 1 72 2 88 1 102 1 113 1 114 1 139 1 142 1 158 1 160 1 163 1 185 1 187 1 188 1 207 1 231 1 413 1 323 1 420 2 488 1 347 1 275 1 444 1 451 1 276 1 327 1 353 1 427 1 324 2 267 1 462 1 249 1 350 1 362 2 322 1 352 1 404 1 342 1 388 1 269 1 375 1 297 1 283 2 373 2 486 1 468 1 291 1 30 1 32 1 41 1 49 1 71 1 80 1 92 1 99 1 115 1 131 1 132 1 145 1 153 1 155 1 167 1 169 1 186 1 195 1 197 1 215 1 233 1 245 1 272 1 277 1 279 1 281 1 282 1 284 1 333 1 340 1 348 1 351 1 358 1 359 1 361 1 367 1 370 1 371 1 376 1 381 1 382 1 384 1 387 1 391 1 402 1 410 1 412 1 426 1 428 1 442 1 450 1 467 1 472 1 476 1 485 1 506 1 510 1 
1 192 33 1 35 1 46 1 51 1 52 1 55 2 71 1 72 1 80 1 83 1 97 1 102 1 118 1 135 1 145 1 146 1 148 1 158 1 159 1 171 1 173 1 176 1 177 1 202 2 233 1 237 2 383 2 408 1 323 1 481 1 473 1 421 1 295 1 454 2 248 1 304 1 373 1 419 1 486 1 416 2 437 1 311 1 302 1 489 2 470 1 354 1 307 1 333 1 289 1 242 2 474 1 251 1 339 1 444 1 321 1 32 1 50 1 54 1 62 1 85 1 93 1 121 1 123 1 136 1 138 1 139 1 141 1 162 1 183 1 195 1 201 1 205 1 213 1 216 1 277 1 291 1 299 1 300 1 310 1 315 1 325 1 338 1 340 1 348 1 358 1 365 1 371 1 372 1 379 1 380 1 395 1 396 1 410 1 420 1 424 1 455 1 460 1 463 1 477 1 478 1 479 1 490 1 500 1 510 1 520 1 
1 205 2 1 6 1 7 1 50 1 59 1 66 1 67 1 68 1 81 1 88 2 95 1 106 1 107 1 129 1 133 1 156 1 157 1 169 1 171 1 172 1 191 1 199 1 202 1 210 1 213 1 236 1 452 1 461 1 299 2 381 1 323 1 446 1 243 1 430 1 438 2 280 1 344 1 333 1 402 1 487 1 488 2 491 1 394 2 373 1 342 1 331 1 395 1 242 1 287 1 291 1 383 1 499 1 433 1 450 1 363 1 362 1 358 1 442 1 8 1 34 1 38 1 42 1 55 1 60 1 74 1 79 1 110 1 120 1 122 1 135 1 144 1 146 1 148 1 151 1 159 1 173 1 176 1 192 1 201 1 214 1 229 1 245 1 268 1 276 1 290 1 295 1 306 1 307 1 309 1 315 1 321 1 324 1 338 1 340 1 341 1 343 1 348 1 349 1 354 1 365 1 368 1 370 1 387 1 390 1 397 1 399 1 400 1 439 1 445 1 447 1 457 1 460 1 462 1 473 1 480 1 509 1 
1 210 15 2 17 1 33 1 40 1 54 1 57 1 68 1 90 1 101 1 106 1 113 1 120 1 128 1 129 1 136 1 144 1 148 1 150 1 153 1 182 1 196 1 197 1 200 1 214 1 216 1 227 2 240 2 241 1 382 1 476 1 358 1 336 1 477 1 300 1 482 2 268 1 433 2 408 1 419 1 418 1 375 1 454 1 353 1 313 1 279 1 384 1 387 1 292 1 296 1 343 1 356 1 314 1 323 1 253 1 333 2 278 1 352 1 361 1 348 2 498 1 256 1 311 1 251 1 414 1 481 1 351 1 478 1 289 1 13 1 29 1 37 1 53 1 58 1 67 1 69 1 72 1 87 1 95 1 100 1 104 1 112 1 119 1 124 1 125 1 126 1 138 1 141 1 149 1 154 1 158 1 163 1 165 1 175 1 178 1 183 1 187 1 188 1 195 1 198 1 206 1 207 1 215 1 226 1 230 1 235 1 282 1 299 1 303 1 318 1 325 1 326 1 334 1 340 1 355 1 364 1 372 1 380 1 383 1 390 1 392 1 396 1 403 1 425 1 444 1 459 1 470 1 474 1 485 1 493 1 502 1 505 1 509 1 520 1 
1 201 1 1 14 1 16 1 19 1 31 1 38 1 65 1 75 1 98 1 103 1 107 1 129 1 136 1 143 2 153 1 176 1 182 2 184 1 189 1 190 1 198 1 208 1 214 1 217 1 241 1 351 1 336 1 468 1 410 1 436 1 404 1 318 1 394 1 406 1 421 1 481 2 473 1 274 1 295 1 439 1 344 1 271 1 435 1 338 1 378 2 444 1 383 1 395 1 352 1 310 1 370 1 341 2 276 1 427 1 480 1 379 1 257 1 10 1 43 1 63 1 78 1 84 1 100 1 108 1 126 1 135 1 142 1 164 1 174 1 195 1 213 1 215 1 225 1 231 1 261 1 281 1 286 1 294 1 296 1 299 1 306 1 313 1 315 1 319 1 334 1 349 1 363 1 365 1 374 1 377 1 381 1 398 1 401 1 408 1 412 1 419 1 429 1 430 1 450 1 472 1 495 1 498 1 509 1 512 1 
1 209 17 1 18 1 24 1 34 1 36 1 45 1 48 1 57 1 77 1 90 1 96 1 103 1 109 2 115 1 121 1 126 1 140 1 148 1 151 1 160 1 166 1 185 1 187 1 191 1 197 1 202 1 203 1 218 1 220 1 233 1 417 1 465 1 498 1 306 1 319 1 318 1 298 1 386 1 391 1 285 1 375 1 462 1 304 1 252 1 253 1 486 1 492 1 427 1 493 1 454 1 353 1 250 1 370 1 449 2 352 1 338 1 457 1 470 1 6 1 66 1 87 1 95 1 97 1 125 1 130 1 137 1 173 1 175 1 180 1 188 1 193 1 204 1 219 1 234 1 280 1 301 1 303 1 307 1 310 1 321 1 327 1 328 1 329 1 351 1 356 1 361 1 373 1 383 1 387 1 393 1 395 1 396 1 401 1 403 1 406 1 413 1 422 1 424 1 428 1 429 1 430 1 431 1 438 1 441 1 447 1 467 1 468 1 469 1 479 1 485 1 500 1 510 1 
1 210 2 1 11 1 22 1 23 1 29 2 31 1 38 2 45 2 54 1 55 1 61 1 78 1 99 1 106 1 125 1 133 1 135 1 155 1 161 2 168 1 169 1 182 2 184 1 186 1 193 1 198 1 211 2 217 1 218 1 219 1 232 1 237 1 450 1 416 2 294 1 392 1 373 1 333 1 358 1 341 1 251 1 438 1 444 1 334 1 303 1 281 1 376 1 459 1 260 1 346 1 269 1 405 1 291 1 430 1 463 1 434 1 477 1 4 1 10 1 21 1 30 1 52 1 56 1 57 1 63 1 70 1 74 1 108 1 109 1 110 1 117 1 123 1 129 1 130 1 131 1 141 1 143 1 145 1 148 1 150 1 162 1 164 1 176 1 188 1 194 1 196 1 200 1 221 1 238 1 239 1 241 1 282 1 286 1 296 1 298 1 304 1 306 1 317 1 321 1 327 1 343 1 344 1 347 1 357 1 363 1 366 1 367 1 370 1 381 1 383 1 387 1 393 1 401 1 413 1 414 1 419 1 422 1 427 1 466 1 473 1 480 1 495 1 497 1 503 1 
1 190 11 1 19 1 27 1 32 1 37 2 61 2 77 1 84 2 103 1 111 1 112 1 129 1 133 1 138 1 152 1 154 1 155 1 183 1 185 1 186 1 200 1 216 1 218 1 224 1 229 1 234 2 498 1 396 1 311 1 481 1 419 2 406 1 289 1 315 1 402 2 333 1 476 1 440 1 487 1 496 1 252 1 321 1 462 1 393 1 469 1 491 1 368 2 322 1 339 2 261 1 299 1 485 1 358 1 422 1 307 1 343 1 1 1 26 1 30 1 43 1 67 1 68 1 80 1 90 1 99 1 104 1 107 1 114 1 142 1 143 1 161 1 179 1 190 1 197 1 199 1 212 1 219 1 288 1 303 1 305 1 308 1 323 1 327 1 335 1 342 1 351 1 363 1 370 1 372 1 373 1 378 1 387 1 388 1 409 1 410 1 415 1 428 1 431 1 443 1 448 1 449 1 450 1 454 1 456 1 458 1 480 1 484 1 495 1 
1 214 2 1 16 1 17 1 18 1 29 2 39 1 50 1 54 1 64 1 94 1 118 1 126 2 139 1 140 1 154 1 155 1 172 2 189 1 192 2 205 2 208 1 213 1 219 1 221 1 326 2 467 2 450 1 359 1 469 1 493 1 442 1 349 1 475 1 290 1 490 1 276 1 343 1 478 1 404 2 314 1 365 1 346 1 380 1 376 1 379 1 425 2 419 2 345 1 399 1 430 1 412 2 403 1 428 1 333 1 272 1 340 1 6 1 22 1 24 1 25 1 26 1 32 1 35 1 56 1 61 1 71 1 72 1 80 1 93 1 148 1 166 1 167 1 168 1 180 1 188 1 194 1 209 1 281 1 283 1 288 1 297 1 301 1 313 1 317 1 318 1 321 1 354 1 367 1 382 1 385 1 389 1 395 1 398 1 408 1 418 1 420 1 424 1 440 1 446 1 455 1 460 1 480 1 483 1 486 1 513 1 
1 203 2 2 9 2 27 1 37 1 44 1 47 1 48 1 58 1 61 1 62 1 77 1 80 1 95 1 99 1 102 1 110 2 113 2 146 1 172 1 174 1 185 1 187 1 192 2 215 2 218 1 240 1 382 1 344 1 387 1 496 1 291 1 455 1 487 1 437 1 289 2 273 1 456 1 466 1 331 1 351 1 357 1 412 1 341 1 294 2 445 2 388 1 354 1 390 1 440 1 375 1 322 1 290 1 278 1 401 1 339 2 474 1 343 1 475 2 276 1 313 1 480 1 251 1 336 1 352 1 261 1 299 1 305 1 431 2 460 1 405 1 15 1 24 1 26 1 30 1 33 1 40 1 46 1 50 1 52 1 53 1 70 1 75 1 87 1 89 1 98 1 112 1 121 1 132 1 140 1 143 1 154 1 166 1 167 1 170 1 171 1 175 1 205 1 214 1 233 1 250 1 275 1 285 1 287 1 327 1 364 1 370 1 373 1 378 1 404 1 407 1 410 1 415 1 427 1 435 1 436 1 459 1 473 1 476 1 481 1 482 1 488 1 490 1 493 1 495 1 507 1 512 1 
1 231 11 2 14 2 18 1 32 1 58 1 63 1 65 1 69 1 83 1 84 1 85 1 86 2 100 1 104 1 108 1 115 1 132 2 139 1 151 1 171 1 175 1 180 1 183 1 188 1 191 1 192 1 202 1 205 1 215 1 219 1 237 1 239 1 428 1 277 1 310 1 359 1 456 1 370 1 490 1 451 1 255 1 288 1 299 1 290 1 388 1 454 1 384 1 344 1 340 1 416 1 301 1 375 1 279 1 286 1 489 1 487 1 463 2 257 2 426 1 484 1 333 1 401 1 372 1 13 1 17 1 20 1 36 1 42 1 50 1 54 1 72 1 96 1 118 1 130 1 136 1 142 1 147 1 156 1 162 1 164 1 179 1 199 1 207 1 276 1 283 1 294 1 321 1 328 1 331 1 332 1 338 1 343 1 350 1 358 1 364 1 369 1 390 1 392 1 394 1 397 1 403 1 408 1 442 1 446 1 450 1 466 1 467 1 472 1 473 1 475 1 482 1 497 1 519 1 
1 214 3 1 4 1 7 2 15 1 37 1 53 2 67 2 73 2 95 1 98 1 111 1 119 2 122 2 124 1 135 1 138 1 143 1 150 1 160 1 162 1 165 1 167 1 177 1 178 1 182 1 197 1 209 1 212 1 214 1 216 1 227 1 244 1 358 1 384 1 452 1 494 1 326 2 476 1 422 1 281 1 324 1 345 1 464 1 399 1 409 1 309 1 338 1 469 1 397 1 425 1 447 1 480 1 313 1 495 1 484 1 489 1 344 1 332 2 333 1 453 1 305 1 459 1 1 1 16 1 18 1 24 1 25 1 28 1 34 1 38 1 43 1 44 1 49 1 55 1 58 1 59 1 70 1 72 1 84 1 91 1 97 1 104 1 134 1 146 1 147 1 201 1 215 1 223 1 248 1 252 1 261 1 265 1 267 1 279 1 284 1 291 1 292 1 297 1 299 1 303 1 323 1 329 1 335 1 357 1 360 1 361 1 394 1 424 1 431 1 436 1 457 1 461 1 514 1 516 1 
1 209 1 1 17 1 20 1 22 2 24 1 81 1 83 1 93 1 107 1 113 1 114 1 119 1 128 1 131 1 133 1 151 2 152 1 155 1 156 1 159 2 168 1 170 1 180 1 185 1 187 1 202 2 209 1 215 1 216 1 223 1 240 1 242 1 245 1 248 1 418 1 413 1 378 1 337 2 404 1 318 1 352 1 345 2 453 1 330 1 326 1 369 1 467 1 295 1 438 1 499 1 315 1 261 1 492 1 408 2 362 1 407 1 425 1 450 1 294 1 265 1 397 1 466 2 303 1 5 1 11 1 16 1 29 1 33 1 44 1 51 1 56 1 57 1 62 1 64 1 66 1 102 1 110 1 111 1 122 1 144 1 154 1 171 1 174 1 183 1 184 1 198 1 208 1 213 1 221 1 224 1 253 1 256 1 259 1 264 1 282 1 300 1 304 1 323 1 334 1 341 1 346 1 347 1 356 1 360 1 373 1 386 1 401 1 411 1 422 1 423 1 465 1 491 1 494 1 496 1 518 1 
1 199 9 2 10 1 12 1 15 1 19 1 25 1 64 1 65 1 79 1 110 1 116 1 125 1 137 2 138 1 152 1 161 1 165 1 166 1 179 2 181 2 183 1 204 1 211 1 218 1 223 1 225 1 237 1 244 1 246 1 291 1 326 2 432 1 460 1 366 2 403 1 471 1 324 1 329 1 438 1 466 2 347 1 312 1 451 1 391 1 343 1 284 2 422 2 473 2 260 1 367 1 368 1 420 1 302 1 268 1 275 1 264 1 11 1 14 1 16 1 38 1 45 1 54 1 62 1 66 1 69 1 75 1 91 1 97 1 99 1 112 1 119 1 130 1 131 1 134 1 149 1 150 1 158 1 164 1 182 1 184 1 195 1 199 1 200 1 208 1 216 1 221 1 238 1 250 1 283 1 285 1 289 1 295 1 314 1 325 1 351 1 365 1 393 1 406 1 409 1 421 1 423 1 435 1 442 1 456 1 457 1 470 1 479 1 484 1 485 1 489 1 490 1 491 1 498 1 507 1 
1 193 24 1 48 1 50 2 68 1 73 1 87 1 89 1 90 1 96 1 103 2 105 1 111 2 112 1 118 1 134 1 135 1 147 1 158 1 173 1 178 1 179 1 183 1 192 1 195 1 215 1 223 1 224 1 242 1 244 1 444 2 354 1 381 1 382 1 346 1 409 1 325 1 282 1 404 1 349 1 422 1 255 1 477 1 459 1 357 1 302 1 309 1 494 1 411 1 345 1 443 1 408 1 310 1 379 1 331 1 455 2 387 1 350 1 7 1 9 1 11 1 12 1 13 1 17 1 33 1 53 1 54 1 74 1 95 1 108 1 109 1 119 1 122 1 129 1 139 1 145 1 165 1 166 1 182 1 202 1 209 1 214 1 216 1 217 1 225 1 251 1 260 1 296 1 301 1 314 1 326 1 327 1 334 1 338 1 342 1 344 1 348 1 371 1 377 1 388 1 410 1 428 1 450 1 452 1 465 1 475 1 476 1 485 1 492 1 520 1 
1 211 1 1 2 1 7 1 27 1 28 1 42 1 49 1 50 1 53 1 63 1 87 1 98 1 112 1 133 1 134 1 144 1 170 2 178 1 183 1 194 1 200 1 214 1 224 1 235 1 238 1 390 1 306 1 376 1 288 1 299 1 424 2 372 1 256 1 261 2 412 1 336 1 303 1 432 1 379 1 373 1 471 1 437 1 3 1 13 1 15 1 17 1 34 1 37 1 38 1 40 1 48 1 58 1 62 1 70 1 75 1 85 1 88 1 90 1 100 1 105 1 106 1 110 1 123 1 126 1 128 1 129 1 131 1 141 1 142 1 176 1 181 1 182 1 187 1 206 1 213 1 274 1 283 1 285 1 322 1 332 1 346 1 347 1 352 1 357 1 363 1 374 1 384 1 400 1 410 1 419 1 420 1 426 1 427 1 440 1 452 1 453 1 460 1 463 1 470 1 478 1 482 1 502 1 520 1 
1 218 1 1 21 1 28 1 44 1 90 1 95 1 98 1 107 1 112 1 114 1 122 1 134 1 138 1 148 1 149 1 154 1 160 1 164 1 175 1 187 1 189 1 198 1 200 1 204 1 217 1 249 1 253 1 304 1 301 1 464 1 386 1 346 2 344 1 366 1 330 1 396 1 257 1 433 1 335 1 283 1 456 1 435 1 309 1 486 1 258 1 329 1 295 1 368 1 468 1 268 1 489 1 431 1 389 1 451 1 363 2 372 1 262 1 409 2 287 1 311 1 444 1 358 1 312 1 18 1 29 1 37 1 49 1 61 1 83 1 110 1 113 1 117 1 118 1 120 1 121 1 123 1 126 1 127 1 136 1 147 1 167 1 186 1 190 1 194 1 202 1 216 1 226 1 269 1 281 1 282 1 288 1 300 1 308 1 314 1 316 1 321 1 324 1 327 1 331 1 343 1 350 1 362 1 369 1 398 1 407 1 413 1 421 1 424 1 425 1 437 1 447 1 463 1 483 1 488 1 492 1 
1 215 9 1 10 1 13 1 15 1 18 1 23 2 44 2 49 1 58 1 61 1 62 1 65 1 77 1 90 1 94 2 101 1 110 1 124 1 128 2 133 1 135 1 147 1 158 1 160 1 165 1 169 1 196 1 203 1 204 1 228 2 242 1 254 1 420 1 458 1 490 1 292 2 485 1 413 1 469 1 301 1 361 1 328 1 449 1 314 1 359 1 364 1 258 1 368 1 327 1 430 1 459 1 419 1 472 1 483 1 467 1 470 1 446 2 2 1 3 1 5 1 16 1 17 1 32 1 39 1 47 1 52 1 59 1 63 1 64 1 82 1 85 1 95 1 115 1 121 1 130 1 131 1 142 1 143 1 146 1 148 1 149 1 159 1 172 1 175 1 191 1 199 1 211 1 221 1 226 1 251 1 287 1 300 1 302 1 304 1 317 1 321 1 324 1 351 1 383 1 384 1 386 1 389 1 402 1 403 1 414 1 416 1 417 1 421 1 422 1 440 1 457 1 463 1 471 1 473 1 476 1 503 1 508 1 
1 227 1 2 13 1 32 2 34 1 39 1 45 1 91 1 93 1 97 1 108 1 109 1 117 2 120 1 121 1 125 1 135 1 139 2 148 1 157 2 161 1 165 1 168 1 172 1 174 1 187 1 200 1 204 2 206 1 219 1 221 1 224 1 243 1 249 2 255 1 435 1 491 1 301 1 309 1 427 1 317 1 399 2 422 1 297 2 370 1 499 1 324 1 295 1 346 1 292 1 415 1 458 2 481 2 424 1 352 1 320 2 447 2 391 1 330 1 378 1 259 2 308 1 328 1 414 1 273 1 341 1 6 1 12 1 14 1 43 1 50 1 106 1 107 1 115 1 128 1 132 1 138 1 140 1 152 1 153 1 166 1 169 1 191 1 195 1 196 1 212 1 213 1 216 1 229 1 264 1 284 1 293 1 296 1 337 1 356 1 363 1 392 1 409 1 423 1 440 1 445 1 452 1 454 1 464 1 467 1 485 1 488 1 501 1 506 1 511 1 
1 184 4 1 11 1 12 1 23 1 25 1 26 1 27 1 31 1 45 1 64 1 65 1 69 1 82 2 90 2 91 1 92 1 112 2 147 1 162 1 165 1 181 1 183 1 201 2 205 1 212 1 221 1 255 1 256 1 321 1 353 1 464 2 435 1 330 1 317 1 309 1 442 1 414 2 463 1 461 1 315 1 424 1 316 1 428 1 312 1 313 1 389 1 342 1 329 1 403 1 390 1 412 1 22 1 24 1 43 1 84 1 86 1 88 1 93 1 101 1 103 1 117 1 129 1 131 1 151 1 156 1 161 1 168 1 171 1 174 1 175 1 178 1 188 1 202 1 203 1 209 1 261 1 268 1 284 1 294 1 297 1 310 1 327 1 335 1 362 1 370 1 377 1 399 1 401 1 422 1 423 1 425 1 443 1 448 1 459 1 473 1 483 1 
1 213 5 1 8 1 30 2 37 1 71 1 74 1 81 1 84 1 94 2 98 1 99 2 113 1 114 2 118 1 119 1 126 1 134 1 144 1 154 1 177 1 186 1 189 1 191 1 193 1 197 1 204 1 223 1 257 2 312 1 334 1 297 1 354 2 415 1 409 2 483 2 340 1 414 1 424 1 402 1 398 1 444 1 379 1 440 2 417 1 452 1 386 1 497 1 266 1 428 1 264 1 473 1 400 1 412 1 439 1 2 1 10 1 13 1 17 1 29 1 32 1 44 1 69 1 93 1 96 1 97 1 109 1 112 1 121 1 128 1 139 1 145 1 168 1 181 1 190 1 210 1 221 1 226 1 251 1 262 1 270 1 333 1 339 1 350 1 352 1 362 1 365 1 369 1 370 1 385 1 394 1 395 1 422 1 426 1 435 1 437 1 442 1 447 1 449 1 453 1 468 1 476 1 479 1 488 1 492 1 501 1 507 1 
1 206 10 1 12 1 20 1 27 1 29 1 32 1 34 1 37 1 38 1 40 1 52 1 56 1 59 1 65 1 76 1 81 1 84 1 94 1 98 1 126 1 130 1 131 1 134 1 152 1 154 1 165 1 195 1 204 2 208 1 215 1 245 1 252 1 368 1 334 2 470 1 408 1 448 1 306 1 296 1 373 2 263 1 335 1 484 1 380 1 313 1 479 1 308 1 406 2 327 1 401 1 325 1 24 1 28 1 36 1 46 1 61 1 78 1 82 1 102 1 122 1 124 1 125 1 144 1 159 1 168 1 175 1 211 1 216 1 219 1 222 1 253 1 261 1 267 1 269 1 286 1 287 1 295 1 302 1 309 1 314 1 322 1 326 1 349 1 353 1 355 1 367 1 376 1 377 1 393 1 394 1 405 1 410 1 419 1 429 1 464 1 473 1 482 1 488 1 498 1 506 1 516 1 
1 204 12 2 21 1 34 1 49 1 62 1 68 1 80 1 115 1 125 2 133 1 135 1 152 1 163 1 169 1 170 1 171 1 172 1 177 2 183 1 186 1 210 1 216 1 219 1 246 1 248 1 251 1 254 2 374 1 328 1 296 1 382 1 288 1 264 1 352 1 440 1 361 1 469 1 297 1 404 1 323 1 499 1 425 1 371 1 411 1 369 1 445 1 434 1 463 1 347 1 14 1 15 1 16 1 35 1 37 1 41 1 47 1 58 1 61 1 74 1 81 1 82 1 88 1 106 1 109 1 124 1 141 1 145 1 147 1 154 1 161 1 168 1 176 1 178 1 187 1 196 1 197 1 228 1 231 1 232 1 243 1 250 1 258 1 260 1 262 1 271 1 272 1 273 1 304 1 305 1 331 1 337 1 358 1 365 1 367 1 375 1 381 1 385 1 387 1 388 1 396 1 397 1 400 1 413 1 414 1 416 1 427 1 466 1 468 1 471 1 472 1 473 1 476 1 480 1 485 1 486 1 488 1 502 1 509 1 
1 230 3 1 7 2 12 1 14 2 21 1 23 1 28 2 39 1 47 2 58 1 66 1 70 1 71 1 89 1 90 1 95 1 98 1 107 1 108 1 110 2 113 2 119 1 135 1 143 1 160 1 164 1 176 1 182 2 184 1 190 1 201 1 203 1 207 1 220 2 225 1 234 1 255 1 386 1 344 2 389 1 326 1 484 1 319 1 388 1 324 1 387 1 442 1 318 1 497 2 493 2 346 1 337 1 375 1 311 1 287 1 421 1 270 1 323 1 293 1 25 1 43 1 51 1 57 1 60 1 63 1 73 1 86 1 105 1 123 1 128 1 131 1 161 1 166 1 170 1 172 1 183 1 188 1 232 1 259 1 261 1 263 1 265 1 268 1 289 1 296 1 297 1 300 1 308 1 314 1 315 1 321 1 322 1 341 1 349 1 354 1 403 1 410 1 415 1 419 1 420 1 423 1 424 1 434 1 443 1 447 1 454 1 460 1 462 1 467 1 471 1 492 1 495 1 512 1 515 1 
1 207 41 1 46 1 58 1 66 2 82 1 87 1 94 2 110 1 118 1 119 1 120 1 121 1 142 1 147 1 156 1 157 1 159 1 164 2 165 1 175 1 176 1 184 1 185 1 186 1 189 1 198 1 214 1 223 2 233 1 235 1 237 2 260 1 496 1 332 1 394 1 461 1 486 2 330 1 327 1 430 1 349 1 382 1 462 1 265 1 452 1 428 1 434 1 480 1 294 1 424 1 335 1 387 1 347 1 336 1 450 1 362 1 291 1 449 1 321 1 302 1 408 1 351 2 320 2 419 1 469 1 468 1 279 1 350 2 402 1 19 1 24 1 31 1 38 1 39 1 45 1 49 1 63 1 68 1 72 1 77 1 88 1 91 1 101 1 107 1 162 1 191 1 201 1 206 1 227 1 262 1 266 1 274 1 292 1 324 1 338 1 354 1 403 1 411 1 414 1 417 1 457 1 463 1 472 1 474 1 484 1 492 1 494 1 508 1 511 1 512 1 
1 205 4 1 12 1 18 1 20 1 28 2 52 1 71 1 77 1 97 1 103 1 110 1 120 1 147 1 174 1 186 2 196 2 200 1 217 1 219 1 220 1 252 1 259 1 261 1 371 1 347 1 351 1 290 1 360 1 377 1 386 1 411 2 338 1 340 1 359 1 294 1 408 1 322 1 478 1 272 1 426 1 428 1 387 1 314 1 401 1 380 1 427 1 304 1 327 1 398 1 368 2 305 1 364 1 451 1 13 1 14 1 26 1 30 1 33 1 54 1 57 1 72 1 85 1 86 1 99 1 101 1 112 1 113 1 115 1 117 1 118 1 128 1 135 1 136 1 149 1 151 1 152 1 169 1 176 1 184 1 201 1 221 1 251 1 257 1 273 1 279 1 281 1 303 1 315 1 319 1 323 1 332 1 350 1 361 1 362 1 369 1 385 1 404 1 405 1 435 1 437 1 452 1 466 1 467 1 469 1 470 1 491 1 496 1 513 1 
1 206 14 1 21 1 24 1 57 1 69 1 90 2 91 1 93 1 96 1 97 2 102 1 105 1 113 1 122 1 137 2 148 1 154 1 157 1 160 2 164 1 171 1 178 1 188 1 189 1 206 1 208 1 209 1 212 1 219 1 224 1 236 2 237 2 251 1 263 1 403 1 342 1 467 1 443 1 499 1 420 1 352 1 330 1 334 1 423 1 451 1 472 1 379 1 381 1 313 1 496 1 446 1 452 1 277 1 372 1 435 1 12 1 31 1 37 1 38 1 41 1 81 1 92 1 104 1 123 1 125 1 132 1 134 1 135 1 158 1 170 1 175 1 177 1 182 1 201 1 210 1 213 1 214 1 216 1 250 1 262 1 293 1 294 1 295 1 297 1 298 1 300 1 303 1 329 1 339 1 346 1 376 1 382 1 422 1 430 1 434 1 438 1 441 1 444 1 456 1 457 1 482 1 484 1 488 1 491 1 507 1 512 1 
1 223 1 2 3 1 10 1 15 1 38 1 50 1 53 1 54 1 60 1 63 1 67 1 69 1 72 1 84 1 105 2 116 1 128 1 129 1 134 2 156 1 159 1 164 1 165 1 172 1 190 2 204 1 210 1 213 2 222 1 236 1 259 1 332 1 319 1 451 1 376 1 336 1 426 1 453 1 458 1 346 2 293 1 363 1 280 1 324 1 298 2 382 1 329 1 450 1 498 2 468 2 311 1 418 1 297 1 367 1 417 1 437 1 6 1 17 1 23 1 32 1 33 1 39 1 40 1 52 1 55 1 58 1 70 1 75 1 77 1 90 1 91 1 95 1 108 1 114 1 122 1 125 1 131 1 133 1 148 1 177 1 189 1 212 1 221 1 233 1 263 1 267 1 270 1 296 1 317 1 331 1 337 1 347 1 353 1 355 1 364 1 371 1 375 1 378 1 384 1 399 1 427 1 439 1 441 1 452 1 457 1 472 1 478 1 479 1 489 1 493 1 494 1 497 1 512 1 
1 188 3 2 25 1 28 1 35 1 52 1 55 1 62 1 66 1 67 1 73 1 75 2 90 1 105 1 118 1 132 1 152 1 161 1 165 1 198 1 202 1 203 1 213 1 221 1 228 1 232 1 238 1 239 1 470 1 395 1 370 1 447 2 378 1 427 1 333 1 336 1 390 1 297 1 276 1 487 1 404 2 360 1 471 1 337 1 353 1 351 1 380 2 323 1 425 1 280 1 313 1 374 1 426 1 311 1 422 2 37 1 38 1 40 1 65 1 70 1 76 1 86 1 101 1 111 1 116 1 123 1 125 1 130 1 139 1 140 1 163 1 166 1 169 1 171 1 177 1 184 1 199 1 250 1 260 1 266 1 300 1 308 1 309 1 318 1 322 1 324 1 340 1 345 1 357 1 385 1 401 1 412 1 418 1 429 1 432 1 444 1 449 1 496 1 515 1 
1 208 35 1 47 1 56 1 71 1 74 1 77 1 80 1 85 1 86 2 92 1 96 1 100 1 107 1 116 1 125 1 126 1 128 1 133 1 137 1 161 2 181 1 184 1 194 2 196 1 201 2 211 1 214 1 218 1 227 1 242 1 252 1 255 1 351 1 475 1 460 1 270 1 398 1 277 1 418 1 496 1 315 1 278 1 334 1 362 1 370 1 327 1 304 1 404 1 410 1 451 1 314 1 335 1 403 2 347 1 374 1 372 1 295 1 488 1 412 1 269 1 393 1 427 1 498 1 426 1 357 1 8 1 9 1 19 1 38 1 45 1 46 1 55 1 69 1 73 1 81 1 84 1 94 1 95 1 110 1 118 1 127 1 142 1 146 1 148 1 157 1 162 1 183 1 231 1 233 1 234 1 241 1 258 1 262 1 281 1 282 1 283 1 285 1 307 1 330 1 354 1 359 1 375 1 389 1 391 1 432 1 434 1 443 1 457 1 463 1 493 1 506 1 520 1 521 1 
1 222 8 1 13 1 23 1 31 1 33 1 36 1 45 1 47 2 52 1 69 1 78 1 95 1 103 1 118 1 124 1 125 1 126 1 128 1 133 1 137 1 138 2 171 1 186 1 196 1 205 1 219 1 226 1 229 1 231 1 235 1 236 1 239 1 245 1 268 1 434 1 469 1 418 2 351 1 350 2 446 1 316 1 362 1 388 1 458 1 438 1 445 1 330 1 324 2 320 1 370 1 449 1 380 1 420 1 307 1 491 1 284 1 376 1 407 2 337 1 424 1 287 1 398 1 278 1 4 1 7 1 19 1 24 1 74 1 85 1 101 1 104 1 141 1 143 1 161 1 166 1 174 1 175 1 183 1 184 1 187 1 195 1 199 1 203 1 207 1 210 1 230 1 255 1 260 1 271 1 275 1 300 1 312 1 313 1 314 1 325 1 331 1 343 1 352 1 356 1 358 1 359 1 363 1 367 1 368 1 383 1 386 1 395 1 396 1 415 1 423 1 435 1 441 1 447 1 448 1 489 1 492 1 502 1 
1 211 16 1 23 1 26 1 37 1 41 2 43 1 55 2 67 1 69 1 70 1 73 1 80 1 89 2 103 1 115 1 116 1 138 2 145 1 157 1 163 1 184 1 197 1 200 1 208 2 262 1 268 1 482 1 484 1 331 1 351 1 488 1 418 1 324 1 458 1 281 2 271 1 312 1 379 1 300 1 486 1 437 1 487 1 412 1 347 1 382 1 411 1 434 1 498 1 393 2 282 1 11 1 30 1 47 1 56 1 68 1 84 1 88 1 92 1 102 1 110 1 114 1 118 1 124 1 149 1 151 1 170 1 171 1 175 1 183 1 204 1 234 1 235 1 259 1 266 1 272 1 278 1 306 1 314 1 319 1 321 1 332 1 354 1 361 1 363 1 364 1 368 1 372 1 380 1 381 1 383 1 410 1 417 1 430 1 432 1 442 1 452 1 462 1 485 1 508 1 
1 189 17 1 38 1 43 1 46 1 48 1 50 1 55 1 58 1 70 1 71 1 72 1 98 2 102 1 111 1 117 1 128 1 146 1 174 1 180 1 217 1 218 1 243 1 270 1 462 1 439 1 420 1 406 1 445 1 477 1 489 1 467 1 375 1 494 1 461 2 475 2 322 1 326 1 366 1 354 2 409 1 348 1 405 1 376 1 300 1 340 1 391 1 281 1 430 1 323 1 456 1 424 1 4 1 11 1 14 1 16 1 19 1 25 1 47 1 54 1 91 1 100 1 104 1 108 1 121 1 154 1 157 1 173 1 181 1 187 1 199 1 201 1 228 1 232 1 261 1 269 1 276 1 296 1 306 1 307 1 313 1 314 1 330 1 357 1 363 1 368 1 396 1 397 1 408 1 414 1 426 1 428 1 443 1 448 1 450 1 452 1 453 1 464 1 482 1 511 1 520 1 
1 208 1 1 8 2 15 1 19 1 30 1 34 1 36 1 39 1 40 2 46 1 47 1 51 1 64 1 74 1 76 1 87 1 88 1 91 1 97 1 100 1 102 1 103 1 112 1 116 1 119 2 130 1 133 1 135 1 141 1 156 1 157 1 164 1 166 1 185 1 186 1 197 1 221 1 222 1 225 1 228 1 247 1 264 1 421 1 363 1 420 1 333 1 361 1 490 2 442 2 384 1 378 1 443 1 349 1 473 1 284 1 457 1 335 1 455 1 493 2 367 1 296 1 352 1 447 1 323 1 298 1 482 1 344 1 444 1 327 1 301 1 438 1 467 1 456 1 479 1 368 1 3 1 4 1 12 1 41 1 59 1 62 1 67 1 68 1 71 1 75 1 86 1 96 1 98 1 117 1 151 1 163 1 170 1 173 1 177 1 209 1 217 1 239 1 261 1 270 1 275 1 290 1 297 1 319 1 339 1 340 1 341 1 347 1 358 1 366 1 369 1 373 1 374 1 382 1 383 1 397 1 411 1 431 1 462 1 466 1 497 1 498 1 499 1 506 1 516 1 
1 216 5 1 9 1 25 1 29 1 31 1 32 2 33 1 38 1 40 1 66 1 70 1 73 1 77 1 78 1 80 2 84 1 106 1 107 1 121 1 122 1 126 1 145 1 153 1 165 1 167 1 169 1 186 2 188 1 202 1 225 1 237 1 248 1 257 1 411 1 486 1 469 1 312 2 384 1 408 1 341 2 280 1 278 1 370 1 397 1 321 1 459 1 425 1 444 1 360 1 485 2 463 1 432 1 332 1 298 1 437 1 315 1 427 1 429 1 498 1 343 1 3 1 10 1 17 1 21 1 49 1 55 1 59 1 65 1 87 1 100 1 101 1 105 1 114 1 134 1 161 1 166 1 183 1 187 1 221 1 232 1 236 1 261 1 264 1 283 1 286 1 292 1 300 1 314 1 328 1 361 1 362 1 371 1 401 1 402 1 403 1 409 1 420 1 449 1 458 1 470 1 476 1 477 1 512 1 
1 204 4 2 5 1 19 1 25 2 31 1 32 1 44 1 49 1 58 1 59 1 64 1 69 2 70 1 72 1 78 1 79 1 80 1 89 1 94 2 96 1 108 1 114 1 120 1 121 1 122 2 124 1 135 1 138 1 145 1 161 1 170 2 174 2 177 1 184 1 193 2 198 1 208 1 215 1 217 1 221 1 238 1 243 1 320 1 302 1 333 1 332 1 457 1 488 1 480 1 436 1 441 1 422 1 313 1 282 1 340 2 317 1 356 1 463 1 355 1 466 1 489 1 405 2 314 1 339 1 2 1 29 1 33 1 43 1 45 1 52 1 54 1 93 1 97 1 102 1 116 1 131 1 150 1 153 1 160 1 171 1 180 1 199 1 201 1 202 1 203 1 229 1 235 1 236 1 237 1 254 1 263 1 277 1 279 1 283 1 284 1 298 1 299 1 301 1 306 1 307 1 312 1 325 1 331 1 341 1 349 1 375 1 392 1 409 1 439 1 456 1 470 1 475 1 490 1 495 1 503 1 506 1 515 1 
1 205 12 1 14 1 38 2 46 1 57 1 80 1 83 1 112 1 115 1 120 1 127 1 129 1 130 1 144 1 155 1 160 1 186 2 187 1 194 1 222 1 230 1 233 1 239 1 252 1 396 1 486 2 403 2 360 1 346 2 484 1 417 1 496 1 395 1 413 1 420 1 471 1 282 1 453 1 314 1 356 1 341 1 286 1 412 1 323 1 351 1 353 1 385 1 451 2 432 1 361 1 376 2 365 1 307 1 7 1 22 1 30 1 51 1 69 1 89 1 104 1 140 1 149 1 157 1 167 1 193 1 209 1 213 1 216 1 225 1 248 1 269 1 272 1 281 1 283 1 299 1 310 1 326 1 328 1 339 1 342 1 344 1 366 1 372 1 375 1 378 1 407 1 409 1 410 1 418 1 424 1 460 1 462 1 469 1 483 1 497 1 
1 216 7 1 14 1 22 1 29 1 30 1 43 1 45 2 51 1 68 1 73 1 74 1 91 1 94 1 102 1 109 1 118 1 119 1 123 1 125 1 131 1 134 1 136 1 139 1 148 1 149 2 154 1 155 1 159 1 166 1 170 1 173 1 187 1 188 1 192 1 193 1 195 1 203 1 211 1 215 1 224 1 239 1 243 1 247 1 248 1 267 1 307 1 342 1 451 1 304 1 434 1 474 1 371 1 455 1 446 1 319 1 299 1 351 1 495 1 486 1 425 1 317 1 485 1 489 1 281 1 418 2 35 1 41 1 55 1 78 1 88 1 93 1 99 1 124 1 137 1 160 1 165 1 179 1 180 1 186 1 190 1 200 1 214 1 241 1 249 1 271 1 282 1 300 1 309 1 311 1 312 1 328 1 330 1 337 1 344 1 346 1 349 1 354 1 356 1 372 1 379 1 380 1 389 1 419 1 426 1 445 1 460 1 461 1 478 1 480 1 482 1 490 1 499 1 
1 180 7 2 10 1 17 1 43 1 50 1 69 1 77 1 95 1 104 1 120 2 132 1 150 1 153 1 169 2 183 1 195 1 196 1 198 1 208 1 210 1 219 1 223 1 249 1 265 1 268 1 324 1 419 1 424 1 349 1 427 1 325 1 320 1 470 1 343 1 361 2 440 1 426 1 311 1 327 1 459 1 356 1 364 1 499 1 360 1 479 1 312 1 282 1 374 1 318 1 357 1 299 1 453 1 24 1 48 1 57 1 85 1 87 1 90 1 93 1 102 1 110 1 116 1 123 1 124 1 140 1 144 1 168 1 173 1 177 1 189 1 197 1 201 1 225 1 230 1 239 1 240 1 274 1 278 1 280 1 283 1 285 1 300 1 301 1 302 1 309 1 322 1 328 1 332 1 345 1 359 1 362 1 379 1 384 1 400 1 401 1 420 1 428 1 439 1 443 1 445 1 460 1 472 1 482 1 495 1 517 1 
1 196 4 2 15 1 17 2 19 2 26 1 27 1 33 1 45 1 59 1 61 1 72 1 73 1 83 1 87 1 116 1 118 1 121 1 125 1 131 2 133 2 135 1 143 2 158 1 183 2 197 1 204 1 209 1 215 1 221 1 223 1 228 1 235 1 242 1 248 1 268 1 269 1 273 1 375 1 492 1 475 1 414 1 416 1 410 1 367 1 412 1 446 1 358 1 421 1 325 1 481 1 483 1 458 1 352 1 402 1 460 1 341 1 489 1 403 1 490 1 338 1 471 1 373 1 422 2 308 1 482 1 359 2 342 2 407 1 9 1 12 1 30 1 40 1 44 1 49 1 56 1 65 1 97 1 105 1 112 1 114 1 128 1 132 1 150 1 184 1 187 1 191 1 206 1 208 1 210 1 219 1 224 1 229 1 231 1 270 1 277 1 279 1 280 1 311 1 312 1 316 1 343 1 348 1 349 1 370 1 371 1 380 1 391 1 393 1 405 1 411 1 448 1 449 1 450 1 480 1 487 1 491 1 500 1 504 1 
1 229 5 1 20 1 28 1 29 1 31 1 32 1 41 1 42 1 52 1 55 2 62 2 70 1 73 1 84 1 88 2 96 1 114 1 117 1 122 1 131 1 155 1 161 1 174 1 176 2 179 1 183 1 188 1 191 1 200 1 208 1 218 1 219 1 222 1 227 2 231 1 233 1 242 1 249 1 263 1 478 2 318 2 392 1 397 1 490 1 313 1 477 1 476 1 421 1 493 1 335 1 419 2 457 2 310 1 382 1 439 1 440 1 436 1 3 1 22 1 26 1 37 1 39 1 44 1 46 1 48 1 51 1 57 1 67 1 87 1 91 1 97 1 115 1 125 1 128 1 136 1 149 1 156 1 160 1 163 1 166 1 181 1 186 1 193 1 204 1 206 1 212 1 216 1 230 1 232 1 239 1 250 1 264 1 274 1 278 1 281 1 283 1 289 1 290 1 323 1 330 1 339 1 345 1 353 1 357 1 364 1 379 1 386 1 387 1 426 1 431 1 432 1 445 1 450 1 459 1 462 1 481 1 487 1 491 1 515 1 519 1 
1 184 8 1 22 1 24 1 25 1 33 2 34 1 40 2 44 1 45 1 51 1 64 2 86 1 105 1 116 1 121 1 125 1 127 2 148 2 161 1 165 2 168 1 170 1 175 1 176 1 186 1 203 1 215 1 227 1 231 1 241 1 266 1 267 1 273 1 301 1 337 1 447 1 399 1 476 1 470 1 400 1 474 1 331 1 432 1 358 1 440 1 404 1 450 1 312 1 496 1 413 1 460 1 334 1 453 1 406 1 386 2 455 1 10 1 13 1 30 1 35 1 52 1 54 1 55 1 63 1 81 1 95 1 99 1 101 1 129 1 130 1 133 1 144 1 154 1 160 1 171 1 173 1 206 1 216 1 244 1 277 1 278 1 307 1 315 1 323 1 336 1 347 1 359 1 362 1 368 1 369 1 380 1 387 1 393 1 418 1 419 1 421 1 431 1 437 1 443 1 446 1 459 1 463 1 481 1 
1 204 1 1 2 1 4 1 8 1 9 1 15 1 32 2 41 1 42 1 52 1 53 1 56 1 58 1 59 1 87 1 88 1 99 1 110 1 124 1 126 1 146 1 147 1 151 1 154 1 160 1 169 2 184 1 190 2 192 1 219 1 226 1 245 1 250 1 270 2 271 1 276 1 306 2 304 1 495 1 374 2 353 1 363 2 455 1 334 1 385 1 427 1 400 1 402 2 398 1 452 1 285 1 347 1 474 1 480 1 318 1 376 1 368 1 407 1 294 1 403 1 414 1 422 1 3 1 10 1 29 1 31 1 33 1 54 1 70 1 72 1 76 1 81 1 82 1 97 1 105 1 114 1 130 1 145 1 148 1 153 1 161 1 224 1 230 1 239 1 243 1 247 1 255 1 264 1 268 1 275 1 279 1 291 1 317 1 329 1 336 1 342 1 352 1 356 1 359 1 365 1 383 1 392 1 395 1 401 1 424 1 436 1 437 1 445 1 459 1 460 1 461 1 479 1 481 1 493 1 
1 217 9 1 15 1 22 1 29 1 48 1 78 1 92 1 93 1 109 1 116 1 123 1 148 1 152 1 157 1 180 1 202 2 203 1 206 1 208 2 210 1 214 1 219 1 226 1 233 1 235 1 253 1 270 1 274 1 275 1 277 1 349 1 416 1 388 1 490 1 445 1 470 1 371 1 376 1 364 1 324 1 437 2 362 1 360 2 289 1 421 1 288 1 304 1 350 1 414 2 336 1 307 1 334 1 344 2 465 1 393 2 489 2 401 1 488 1 482 2 13 1 18 1 28 1 43 1 45 1 67 1 74 1 75 1 105 1 106 1 113 1 124 1 131 1 142 1 146 1 149 1 159 1 184 1 185 1 193 1 197 1 218 1 239 1 242 1 245 1 251 1 255 1 268 1 276 1 284 1 319 1 321 1 347 1 366 1 370 1 378 1 381 1 383 1 390 1 394 1 404 1 406 1 409 1 430 1 441 1 444 1 446 1 451 1 478 1 
1 202 2 1 20 1 59 1 65 1 68 1 71 1 73 1 74 2 86 1 89 1 90 1 117 1 120 2 126 1 129 1 136 1 138 1 159 1 166 1 168 1 169 1 178 1 182 1 188 1 197 1 217 2 228 1 230 2 239 2 255 1 398 1 387 1 498 1 478 1 376 1 432 1 287 1 482 1 491 2 385 1 331 2 295 2 406 1 425 1 435 1 431 1 341 1 348 1 447 1 1 1 33 1 36 1 39 1 42 1 43 1 54 1 60 1 80 1 82 1 100 1 140 1 158 1 165 1 175 1 177 1 179 1 181 1 183 1 192 1 200 1 222 1 231 1 247 1 249 1 252 1 254 1 268 1 273 1 274 1 275 1 277 1 279 1 284 1 285 1 296 1 306 1 316 1 320 1 351 1 358 1 375 1 393 1 395 1 399 1 427 1 428 1 438 1 444 1 450 1 464 1 485 1 489 1 494 1 499 1 
1 190 9 1 12 1 17 1 25 1 26 1 36 1 39 1 42 2 49 1 56 1 62 1 71 1 76 1 82 1 96 1 114 2 122 1 142 1 148 2 150 1 166 1 174 1 180 1 199 1 216 1 223 1 234 2 237 2 238 1 252 2 269 1 272 1 405 1 339 1 338 1 337 1 490 1 353 1 324 1 399 1 385 1 422 1 391 1 430 2 330 2 461 1 479 1 462 1 335 1 366 1 340 1 476 1 441 1 497 1 7 1 16 1 22 1 27 1 34 1 50 1 69 1 79 1 83 1 92 1 93 1 101 1 108 1 117 1 119 1 124 1 133 1 140 1 168 1 169 1 170 1 184 1 195 1 197 1 219 1 228 1 236 1 239 1 250 1 257 1 258 1 274 1 282 1 283 1 321 1 325 1 331 1 334 1 360 1 417 1 418 1 428 1 439 1 444 1 449 1 459 1 460 1 469 1 487 1 492 1 499 1 506 1 
1 196 8 2 11 1 15 1 20 1 23 1 36 2 47 1 49 1 64 1 98 1 99 1 106 1 111 1 112 2 156 1 171 1 175 1 176 1 186 1 193 1 201 1 215 1 220 1 233 2 244 1 281 1 400 1 395 1 424 1 478 1 320 2 408 1 429 1 346 1 430 1 475 1 434 1 421 2 364 1 397 1 350 1 326 1 455 1 411 1 427 1 464 1 367 2 338 1 463 1 419 2 423 2 401 1 440 1 12 1 18 1 19 1 25 1 31 1 33 1 35 1 40 1 53 1 76 1 77 1 84 1 86 1 92 1 107 1 114 1 120 1 124 1 134 1 145 1 149 1 158 1 163 1 173 1 174 1 185 1 190 1 192 1 200 1 210 1 211 1 228 1 237 1 248 1 252 1 254 1 268 1 277 1 283 1 293 1 307 1 327 1 329 1 336 1 354 1 357 1 372 1 384 1 388 1 390 1 398 1 406 1 420 1 432 1 436 1 438 1 442 1 476 1 493 1 511 1 
1 203 1 1 2 1 3 1 12 1 29 1 34 1 39 1 43 1 45 1 49 1 57 1 62 1 67 1 71 2 72 2 110 1 116 1 129 1 136 1 142 1 171 1 178 1 197 1 210 1 218 2 223 1 234 1 236 1 249 1 275 1 323 1 379 1 421 1 381 2 388 1 457 1 476 2 371 1 412 1 314 2 332 1 495 2 463 1 405 1 456 1 417 1 429 1 455 1 368 1 461 1 357 2 347 2 352 1 338 1 383 2 492 1 462 1 440 2 382 1 350 1 395 1 7 1 8 1 18 1 24 1 42 1 53 1 55 1 65 1 84 1 93 1 102 1 104 1 105 1 112 1 131 1 150 1 152 1 153 1 162 1 163 1 177 1 191 1 192 1 195 1 200 1 205 1 216 1 226 1 229 1 243 1 245 1 260 1 273 1 333 1 335 1 346 1 369 1 397 1 400 1 408 1 410 1 414 1 415 1 459 1 460 1 475 1 489 1 491 1 493 1 499 1 503 1 505 1 
1 221 9 1 12 1 46 2 62 1 64 1 67 1 72 1 77 1 78 1 81 2 83 1 87 1 92 1 93 2 103 1 109 1 110 1 128 1 132 2 134 1 151 1 157 1 158 1 164 1 170 1 172 1 174 1 184 1 189 1 194 1 205 1 207 1 214 1 215 1 222 1 232 1 233 1 241 1 255 1 262 1 269 1 283 1 434 1 408 1 446 1 493 1 366 1 331 1 418 1 416 1 440 1 335 1 349 1 343 1 491 1 465 1 313 1 496 1 472 1 386 1 401 2 374 2 363 2 371 1 324 1 350 1 367 1 10 1 18 1 19 1 22 1 27 1 35 1 36 1 38 1 47 1 53 1 60 1 61 1 76 1 84 1 86 1 96 1 117 1 143 1 150 1 173 1 179 1 212 1 221 1 248 1 256 1 260 1 289 1 315 1 316 1 323 1 339 1 356 1 381 1 393 1 409 1 436 1 449 1 451 1 469 1 482 1 497 1 500 1 508 1 
1 215 13 1 17 2 21 2 32 1 36 2 38 1 46 1 48 1 55 1 77 1 80 1 98 1 99 1 126 1 134 1 137 1 145 1 146 1 159 1 160 1 180 1 182 1 189 1 193 1 200 1 211 1 226 1 236 1 249 1 254 1 261 1 282 1 325 1 365 1 442 2 479 1 477 1 468 1 370 1 336 1 355 1 290 1 448 1 379 1 453 1 451 1 298 1 303 1 432 1 351 1 424 1 375 1 493 2 387 2 463 1 434 1 454 1 6 1 28 1 53 1 56 1 65 1 66 1 74 1 79 1 86 1 87 1 91 1 103 1 113 1 122 1 129 1 132 1 139 1 141 1 142 1 176 1 179 1 185 1 204 1 210 1 212 1 218 1 224 1 246 1 247 1 255 1 335 1 340 1 345 1 349 1 357 1 373 1 377 1 386 1 391 1 395 1 406 1 411 1 415 1 417 1 418 1 420 1 422 1 430 1 433 1 438 1 447 1 449 1 465 1 476 1 480 1 497 1 500 1 509 1 518 1 
1 194 3 2 4 1 33 1 38 1 51 1 58 1 68 1 79 1 83 1 86 1 88 1 93 1 108 1 109 1 118 2 119 1 171 1 173 1 184 2 190 1 201 1 208 1 211 1 212 1 218 1 222 2 226 1 228 1 230 1 240 1 242 1 246 1 248 2 282 1 402 1 317 1 332 1 428 1 326 2 410 1 437 1 295 1 327 2 322 1 368 1 435 1 495 1 336 1 465 1 453 1 398 1 293 1 395 1 409 1 423 1 380 1 419 1 457 1 405 1 17 1 22 1 31 1 49 1 53 1 77 1 92 1 112 1 117 1 122 1 125 1 139 1 153 1 162 1 165 1 189 1 205 1 206 1 227 1 235 1 252 1 262 1 279 1 287 1 323 1 328 1 333 1 349 1 354 1 361 1 366 1 386 1 393 1 412 1 416 1 418 1 448 1 450 1 458 1 462 1 464 1 470 1 487 1 
1 209 19 1 27 2 34 1 46 1 56 1 59 2 61 1 64 2 77 2 83 1 90 1 101 1 108 1 113 2 138 1 146 1 165 2 180 1 206 1 211 2 214 2 222 1 247 1 248 1 249 1 264 1 288 1 409 2 469 1 331 1 294 1 466 1 390 1 395 1 343 1 480 1 478 1 420 1 344 2 488 2 293 1 375 1 349 1 323 1 341 1 447 1 342 1 372 1 479 1 482 1 303 1 351 2 322 1 21 1 31 1 74 1 75 1 97 1 104 1 107 1 125 1 133 1 135 1 141 1 156 1 159 1 160 1 164 1 177 1 185 1 218 1 223 1 234 1 241 1 272 1 279 1 301 1 304 1 325 1 327 1 334 1 336 1 359 1 380 1 383 1 384 1 392 1 397 1 405 1 411 1 416 1 417 1 421 1 429 1 432 1 443 1 444 1 445 1 449 1 450 1 464 1 465 1 495 1 498 1 514 1 
1 200 14 1 20 1 23 1 24 2 30 1 48 1 49 1 50 2 59 2 75 2 85 2 94 1 97 1 98 2 101 1 139 1 153 1 170 1 178 1 180 1 190 1 192 1 200 1 205 2 216 1 220 1 223 1 239 1 241 1 245 1 248 1 252 1 263 1 336 1 463 1 321 1 400 1 354 1 439 2 327 1 374 1 380 1 495 1 488 1 377 1 375 2 425 1 433 1 361 1 482 1 466 1 485 1 475 1 473 1 456 2 414 1 394 1 438 1 320 1 370 2 6 1 42 1 43 1 44 1 52 1 55 1 62 1 72 1 78 1 79 1 90 1 93 1 128 1 130 1 147 1 150 1 151 1 164 1 179 1 188 1 199 1 201 1 210 1 221 1 235 1 237 1 240 1 250 1 281 1 334 1 335 1 341 1 342 1 348 1 351 1 358 1 365 1 393 1 398 1 415 1 424 1 427 1 441 1 442 1 455 1 457 1 467 1 476 1 477 1 493 1 
1 201 5 2 13 1 24 1 29 1 49 2 65 1 70 2 71 1 75 2 82 2 85 1 93 1 97 1 98 1 100 1 102 1 107 1 118 1 147 1 148 1 163 1 174 1 180 1 184 1 188 1 190 1 200 2 218 1 242 1 256 2 257 1 346 1 446 1 394 1 339 1 435 1 487 1 380 1 367 1 417 1 399 2 396 1 371 1 365 1 448 1 348 2 482 2 459 1 329 1 499 1 486 1 408 1 2 1 11 1 20 1 35 1 40 1 50 1 57 1 83 1 92 1 94 1 105 1 112 1 115 1 116 1 125 1 126 1 154 1 155 1 162 1 176 1 195 1 196 1 207 1 215 1 219 1 229 1 232 1 236 1 250 1 263 1 273 1 299 1 302 1 325 1 327 1 345 1 352 1 361 1 366 1 382 1 386 1 389 1 402 1 411 1 416 1 428 1 434 1 453 1 467 1 473 1 480 1 484 1 489 1 519 1 
1 193 7 1 10 1 19 1 25 1 33 1 35 1 60 1 63 1 68 1 74 1 76 1 78 1 97 1 101 1 107 1 111 1 118 1 124 2 126 1 133 1 147 1 157 1 160 1 166 1 167 1 168 1 180 1 197 1 220 1 227 1 228 1 236 1 262 1 266 1 289 1 290 1 496 1 362 1 354 2 480 1 359 1 341 2 329 1 343 1 328 2 459 1 330 1 376 1 443 1 413 1 356 2 481 2 377 1 482 1 374 1 2 1 4 1 8 1 21 1 34 1 52 1 54 1 66 1 80 1 81 1 103 1 108 1 117 1 123 1 125 1 128 1 130 1 132 1 145 1 151 1 152 1 156 1 170 1 171 1 174 1 176 1 181 1 214 1 221 1 234 1 238 1 257 1 265 1 285 1 310 1 311 1 322 1 331 1 337 1 349 1 371 1 375 1 407 1 409 1 411 1 424 1 426 1 439 1 440 1 447 1 455 1 463 1 492 1 508 1 513 1 514 1 
1 192 1 1 7 1 11 1 23 2 29 1 34 2 43 1 48 1 59 1 73 1 75 1 78 1 79 1 96 1 108 1 116 1 123 1 147 1 148 1 151 1 171 1 199 1 219 1 223 1 224 1 225 2 234 1 245 1 248 2 251 1 263 1 264 1 281 1 290 1 361 1 386 1 326 1 465 1 371 1 450 1 388 1 456 1 417 1 369 1 439 1 385 1 358 1 406 1 445 2 392 1 46 1 63 1 67 1 70 1 81 1 84 1 93 1 94 1 104 1 112 1 115 1 124 1 130 1 131 1 134 1 136 1 144 1 159 1 179 1 180 1 182 1 186 1 187 1 200 1 211 1 218 1 231 1 238 1 243 1 249 1 258 1 265 1 300 1 312 1 328 1 336 1 340 1 343 1 359 1 365 1 375 1 394 1 410 1 421 1 429 1 440 1 452 1 453 1 461 1 466 1 470 1 475 1 477 1 481 1 490 1 510 1 519 1 
1 193 16 1 22 1 25 1 36 1 41 1 48 1 66 1 67 1 72 1 78 1 82 2 95 1 104 2 106 1 109 1 111 2 129 2 139 1 159 1 167 2 201 1 211 1 216 2 220 1 226 1 228 1 240 1 243 1 251 1 255 1 257 1 268 1 283 2 289 1 368 1 453 1 375 1 484 1 449 1 454 1 468 1 471 1 447 1 446 1 459 1 491 1 426 1 441 1 433 1 367 1 397 1 329 1 403 1 296 1 5 1 14 1 18 1 35 1 38 1 46 1 63 1 74 1 76 1 88 1 122 1 125 1 149 1 156 1 183 1 191 1 192 1 198 1 212 1 215 1 231 1 241 1 252 1 260 1 265 1 323 1 335 1 338 1 344 1 353 1 355 1 356 1 358 1 359 1 365 1 366 1 374 1 389 1 393 1 400 1 407 1 422 1 424 1 425 1 448 1 462 1 464 1 467 1 489 1 496 1 509 1 
1 198 5 1 11 1 16 2 20 1 48 1 60 1 61 1 72 2 74 1 91 1 98 1 107 1 109 1 120 1 130 1 140 1 150 2 170 2 174 1 176 2 179 1 181 1 190 1 193 1 194 1 198 1 234 1 242 1 260 1 261 1 272 1 295 1 369 1 378 1 341 1 362 1 419 1 411 1 298 1 402 1 328 1 427 1 469 1 349 1 382 1 371 1 444 1 449 1 332 2 397 1 347 1 408 1 365 1 468 1 436 1 463 1 497 1 488 1 334 1 302 1 417 1 345 1 306 1 360 1 1 1 3 1 4 1 6 1 30 1 32 1 33 1 45 1 49 1 75 1 78 1 90 1 95 1 96 1 100 1 132 1 136 1 164 1 191 1 192 1 197 1 211 1 214 1 231 1 243 1 245 1 253 1 257 1 262 1 266 1 271 1 283 1 312 1 327 1 330 1 346 1 351 1 352 1 376 1 379 1 390 1 392 1 409 1 422 1 450 1 455 1 459 1 471 1 485 1 487 1 512 1 513 1 516 1 521 1 
1 203 11 1 19 1 22 1 24 1 35 2 36 1 38 1 43 1 44 2 56 1 58 1 75 1 76 1 77 1 103 1 112 1 129 1 142 1 143 1 168 2 173 1 179 1 182 1 183 1 190 2 193 1 200 1 208 2 210 1 221 1 223 1 232 1 239 1 257 2 259 1 261 1 266 1 267 1 374 1 356 2 330 1 369 1 384 1 409 1 476 1 354 1 372 1 403 1 300 1 419 1 452 2 463 1 427 1 332 1 340 1 351 1 304 1 461 1 473 1 368 1 400 1 4 1 12 1 16 1 25 1 27 1 31 1 32 1 33 1 34 1 42 1 57 1 68 1 81 1 89 1 90 1 96 1 97 1 118 1 127 1 130 1 141 1 172 1 177 1 227 1 247 1 250 1 258 1 262 1 265 1 272 1 316 1 318 1 329 1 341 1 346 1 385 1 405 1 412 1 417 1 422 1 433 1 442 1 445 1 471 1 472 1 478 1 479 1 509 1 511 1 513 1 
1 215 15 1 16 1 30 1 31 1 32 1 45 1 52 1 57 1 58 2 60 1 62 1 75 1 94 1 99 1 108 2 114 1 121 1 131 1 136 1 152 1 155 1 158 1 167 1 172 1 177 2 193 1 202 2 207 1 210 1 214 1 216 1 217 1 233 1 244 1 266 2 272 1 273 1 288 1 296 1 381 1 484 1 432 1 481 1 396 2 457 1 380 1 425 1 458 1 369 1 333 1 474 1 359 1 429 1 444 1 394 1 356 1 374 1 329 1 480 2 367 1 441 1 340 1 327 1 411 1 14 1 20 1 25 1 37 1 50 1 54 1 66 1 72 1 74 1 79 1 81 1 105 1 126 1 129 1 130 1 141 1 144 1 156 1 161 1 162 1 170 1 173 1 190 1 223 1 228 1 236 1 237 1 245 1 265 1 274 1 308 1 309 1 331 1 336 1 344 1 352 1 373 1 382 1 393 1 399 1 400 1 401 1 419 1 437 1 447 1 460 1 488 1 489 1 492 1 498 1 499 1 515 1 
1 218 5 1 6 1 18 1 20 2 26 1 29 1 34 1 47 1 52 1 97 1 99 1 102 1 104 1 113 1 114 1 115 1 122 1 144 1 157 1 160 1 169 1 172 1 176 1 199 1 207 1 213 1 241 2 246 1 248 1 249 1 254 1 276 1 277 1 425 1 388 1 475 1 466 1 363 1 490 1 463 1 357 1 379 2 497 1 316 1 375 1 440 1 331 1 399 1 361 1 392 1 432 1 453 1 320 1 397 1 485 1 14 1 72 1 75 1 77 1 78 1 91 1 95 1 105 1 106 1 127 1 139 1 150 1 151 1 153 1 163 1 173 1 190 1 195 1 222 1 237 1 240 1 242 1 243 1 250 1 274 1 275 1 292 1 302 1 305 1 336 1 339 1 340 1 347 1 366 1 369 1 371 1 373 1 377 1 383 1 389 1 391 1 404 1 406 1 410 1 424 1 426 1 430 1 433 1 434 1 435 1 444 1 448 1 455 1 456 1 468 1 471 1 472 1 479 1 488 1 493 1 494 1 507 1 
1 212 7 1 20 1 22 1 23 2 35 1 42 1 65 1 67 1 75 1 80 1 81 1 84 1 107 2 118 1 120 1 123 1 125 1 127 1 128 1 132 1 135 1 145 2 147 1 150 1 152 1 153 1 170 2 178 1 187 1 188 1 200 2 214 1 223 1 225 1 242 1 270 1 271 1 297 1 458 2 451 2 347 1 346 1 448 1 432 1 331 1 383 1 449 1 379 1 457 1 366 1 417 1 484 1 309 1 378 1 410 1 303 1 403 1 388 2 409 1 428 1 411 1 339 1 39 1 69 1 86 1 89 1 138 1 139 1 141 1 142 1 155 1 175 1 182 1 193 1 197 1 208 1 219 1 238 1 240 1 251 1 255 1 256 1 262 1 265 1 267 1 269 1 273 1 276 1 277 1 294 1 335 1 353 1 363 1 376 1 397 1 400 1 402 1 406 1 421 1 431 1 435 1 439 1 450 1 460 1 467 1 470 1 475 1 491 1 505 1 514 1 
1 203 6 1 12 1 20 1 27 1 30 1 36 1 52 1 61 1 63 1 75 1 80 1 88 1 91 1 97 1 99 1 108 1 110 1 111 1 122 1 129 1 131 2 134 1 149 1 151 1 160 1 168 1 177 2 181 1 182 1 183 1 192 1 195 1 205 1 218 1 249 1 255 1 256 1 257 1 272 1 280 1 337 1 328 1 387 1 445 1 466 1 418 1 361 1 359 1 334 1 449 1 351 1 426 1 413 1 409 1 432 1 484 1 346 1 492 1 332 1 8 1 10 1 13 1 22 1 29 1 50 1 55 1 65 1 67 1 86 1 114 1 126 1 137 1 143 1 157 1 172 1 180 1 185 1 186 1 188 1 214 1 215 1 222 1 223 1 244 1 247 1 253 1 274 1 277 1 290 1 312 1 342 1 348 1 349 1 366 1 376 1 378 1 399 1 402 1 403 1 408 1 412 1 415 1 420 1 423 1 433 1 436 1 443 1 485 1 510 1 
1 222 13 1 24 1 33 1 51 2 66 2 75 1 77 1 79 1 85 2 86 1 88 1 90 1 97 1 100 1 105 1 112 1 120 1 123 1 124 1 138 1 143 1 147 1 153 1 156 1 172 1 174 1 181 1 186 1 200 1 203 1 208 2 214 1 217 1 236 1 240 1 252 1 253 1 263 1 274 1 296 1 416 1 332 1 401 1 455 1 362 1 491 1 375 1 358 2 353 2 402 1 391 1 498 1 436 1 478 1 329 2 485 1 487 1 321 1 337 1 469 1 426 1 312 1 356 1 499 1 4 1 9 1 25 1 31 1 60 1 68 1 103 1 114 1 131 1 142 1 157 1 168 1 171 1 175 1 191 1 202 1 212 1 229 1 235 1 256 1 260 1 277 1 292 1 299 1 307 1 311 1 336 1 348 1 355 1 361 1 384 1 386 1 394 1 398 1 404 1 413 1 415 1 419 1 440 1 442 1 445 1 452 1 479 1 486 1 490 1 512 1 
1 218 3 1 7 1 17 1 22 1 25 1 29 1 40 2 68 1 74 1 88 1 92 1 99 1 109 2 131 1 133 1 143 1 146 1 150 1 155 1 159 2 161 1 171 1 174 1 178 1 186 1 194 1 203 1 205 1 220 1 222 1 231 1 237 2 245 1 251 1 254 1 288 1 290 1 300 1 463 1 346 1 332 1 481 2 382 1 490 1 439 1 385 1 377 1 394 1 451 1 419 1 376 1 358 2 374 1 378 1 393 1 388 1 424 1 333 1 421 1 495 1 437 1 484 1 487 1 406 2 486 1 11 1 47 1 48 1 50 1 64 1 65 1 69 1 100 1 101 1 105 1 119 1 120 1 123 1 125 1 134 1 151 1 168 1 172 1 173 1 175 1 182 1 193 1 212 1 234 1 242 1 244 1 246 1 250 1 264 1 265 1 304 1 305 1 307 1 319 1 330 1 334 1 357 1 359 1 398 1 399 1 411 1 412 1 423 1 425 1 440 1 447 1 497 1 505 1 
1 190 28 1 32 2 46 1 47 2 56 1 60 1 66 1 82 1 90 1 91 1 95 1 98 1 104 1 122 1 127 1 139 1 141 1 173 1 174 1 196 1 215 1 231 1 235 2 240 1 244 1 255 1 264 1 268 1 276 1 281 1 282 1 297 1 433 1 402 1 499 1 473 1 455 1 333 1 406 1 329 1 457 1 348 1 353 1 438 1 458 1 463 1 440 1 443 1 383 1 494 1 336 1 400 2 469 1 357 1 316 1 436 1 447 1 395 2 346 1 22 1 24 1 26 1 30 1 58 1 73 1 78 1 80 1 116 1 137 1 147 1 152 1 163 1 171 1 172 1 179 1 195 1 200 1 213 1 217 1 218 1 229 1 245 1 251 1 256 1 261 1 290 1 303 1 332 1 340 1 361 1 362 1 382 1 394 1 398 1 408 1 409 1 413 1 417 1 419 1 422 1 426 1 470 1 481 1 490 1 
1 181 8 1 10 1 16 1 22 1 27 1 30 1 34 1 36 2 48 1 55 1 59 1 84 2 91 2 112 1 129 1 136 2 145 2 146 1 152 1 157 1 172 1 182 1 184 2 193 1 208 1 213 1 220 1 227 1 228 1 233 1 238 1 248 1 250 1 264 1 356 1 499 1 454 1 350 1 312 1 403 1 445 1 428 1 310 1 457 2 369 2 383 1 496 1 318 1 389 1 425 1 367 1 397 1 5 1 9 1 11 1 25 1 41 1 57 1 67 1 78 1 79 1 97 1 100 1 108 1 113 1 142 1 143 1 147 1 167 1 175 1 176 1 188 1 191 1 198 1 203 1 204 1 205 1 222 1 224 1 246 1 261 1 299 1 303 1 311 1 342 1 345 1 370 1 371 1 373 1 374 1 384 1 404 1 407 1 421 1 439 1 441 1 456 1 460 1 463 1 480 1 482 1 492 1 494 1 503 1 
1 198 7 1 10 1 19 1 25 1 27 1 32 1 51 1 55 1 56 1 61 1 67 1 69 1 97 2 106 1 107 1 121 1 124 1 142 1 148 1 152 1 157 1 171 1 183 2 186 1 206 1 209 1 216 1 232 1 237 1 244 1 254 1 260 1 281 2 296 1 435 2 465 1 389 1 428 1 344 2 458 1 442 1 425 1 331 1 452 1 408 1 333 1 437 1 379 1 493 1 402 1 457 1 446 1 313 1 375 1 390 1 426 1 471 1 416 1 6 1 23 1 46 1 49 1 50 1 62 1 81 1 86 1 99 1 126 1 130 1 134 1 136 1 138 1 146 1 155 1 167 1 172 1 182 1 190 1 192 1 194 1 201 1 204 1 205 1 207 1 214 1 217 1 221 1 224 1 231 1 241 1 243 1 245 1 270 1 271 1 274 1 283 1 314 1 319 1 335 1 348 1 353 1 359 1 362 1 366 1 388 1 409 1 410 1 427 1 450 1 453 1 460 1 466 1 469 1 482 1 483 1 489 1 492 1 517 1 
1 222 6 2 7 1 27 1 30 1 41 1 48 1 69 1 93 1 95 1 96 1 102 1 107 1 119 1 123 1 124 2 127 1 135 1 142 1 146 1 155 1 161 1 165 1 173 1 177 1 179 1 184 1 199 1 202 1 215 1 234 2 235 1 240 1 246 1 269 1 275 1 276 1 282 1 442 1 352 1 475 1 449 1 361 1 377 1 399 1 469 1 396 1 493 2 486 2 362 1 373 1 479 2 404 1 310 1 14 1 16 1 17 1 21 1 35 1 47 1 51 1 81 1 85 1 87 1 88 1 91 1 98 1 99 1 105 1 132 1 136 1 137 1 148 1 157 1 198 1 206 1 207 1 211 1 232 1 241 1 244 1 268 1 271 1 274 1 280 1 285 1 302 1 303 1 342 1 347 1 353 1 365 1 374 1 381 1 390 1 392 1 395 1 414 1 431 1 433 1 436 1 443 1 451 1 457 1 458 1 461 1 462 1 464 1 465 1 468 1 498 1 504 1 517 1 
1 201 16 1 52 1 53 1 57 1 76 1 80 1 91 1 104 1 105 1 113 1 124 2 126 1 141 1 144 1 152 1 166 1 172 1 181 1 196 1 206 2 207 1 211 2 220 1 224 1 257 1 260 1 278 1 369 1 453 1 431 1 398 1 426 1 469 1 448 1 416 1 480 1 401 1 386 2 359 1 331 2 406 1 362 2 374 1 397 2 459 1 379 1 334 1 411 1 309 1 335 2 351 1 7 1 14 1 43 1 54 1 55 1 61 1 82 1 96 1 115 1 123 1 128 1 130 1 146 1 156 1 158 1 173 1 185 1 188 1 199 1 205 1 216 1 235 1 238 1 246 1 255 1 262 1 267 1 298 1 314 1 347 1 348 1 349 1 350 1 365 1 390 1 395 1 399 1 400 1 403 1 405 1 407 1 427 1 435 1 439 1 440 1 457 1 474 1 475 1 491 1 493 1 
1 206 9 1 13 1 14 1 39 1 44 1 93 1 98 2 111 2 113 1 114 1 120 1 125 1 126 1 127 2 135 1 136 1 148 1 149 1 150 1 158 1 161 1 176 1 177 1 179 1 191 1 192 1 197 1 214 1 222 1 223 1 232 1 237 2 250 1 253 1 255 1 257 1 258 1 300 1 308 1 416 1 456 1 363 1 360 1 378 2 318 1 420 1 479 1 491 1 436 1 415 1 493 1 426 1 391 1 427 1 402 1 337 1 430 1 321 2 316 1 478 1 462 1 320 1 375 1 317 1 25 1 32 1 34 1 41 1 50 1 53 1 61 1 77 1 78 1 87 1 106 1 110 1 117 1 143 1 152 1 156 1 157 1 159 1 201 1 204 1 220 1 231 1 241 1 260 1 267 1 276 1 277 1 298 1 314 1 348 1 368 1 371 1 372 1 374 1 390 1 405 1 423 1 428 1 431 1 438 1 444 1 464 1 467 1 486 1 499 1 
1 206 3 1 14 1 15 1 35 1 42 1 46 1 51 1 55 1 58 1 83 1 89 1 93 1 105 1 113 1 118 1 120 2 130 1 131 1 132 1 138 1 149 1 150 1 157 2 159 1 181 1 184 1 191 1 204 1 207 1 217 1 228 1 232 1 243 1 249 1 253 1 279 1 305 1 307 1 338 1 464 2 414 1 373 1 434 1 431 1 490 1 334 1 347 2 406 1 467 1 343 1 402 1 351 1 428 1 444 1 480 1 484 1 312 1 424 1 455 1 320 1 393 1 2 1 5 1 6 1 7 1 37 1 50 1 53 1 54 1 57 1 61 1 69 1 70 1 84 1 102 1 103 1 128 1 143 1 148 1 162 1 165 1 171 1 215 1 218 1 223 1 240 1 244 1 258 1 275 1 293 1 332 1 358 1 364 1 369 1 370 1 394 1 398 1 404 1 405 1 419 1 422 1 437 1 441 1 460 1 461 1 472 1 473 1 474 1 499 1 503 1 506 1 518 1 
1 216 5 1 14 1 16 2 36 2 53 1 65 1 76 1 84 1 85 1 88 1 90 1 92 1 96 1 106 1 112 1 116 1 117 1 118 1 128 1 137 1 150 2 152 1 175 1 176 2 181 1 182 1 203 1 205 1 207 1 209 1 228 1 230 1 237 1 240 1 242 1 246 1 255 1 262 1 266 1 267 1 277 1 383 1 332 1 345 1 386 1 465 1 351 2 352 1 375 1 340 1 320 1 495 1 421 1 499 1 406 1 321 1 422 1 339 1 397 1 325 1 441 2 439 1 408 1 3 1 12 1 22 1 32 1 33 1 38 1 43 1 44 1 48 1 71 1 104 1 121 1 126 1 147 1 162 1 183 1 185 1 189 1 190 1 197 1 204 1 226 1 276 1 278 1 293 1 302 1 305 1 313 1 349 1 350 1 384 1 388 1 396 1 403 1 412 1 414 1 415 1 432 1 434 1 435 1 436 1 437 1 455 1 476 1 481 1 486 1 514 1 
1 180 11 2 17 1 20 2 27 1 40 1 46 1 58 1 73 1 77 1 120 1 125 1 136 1 137 1 141 2 166 1 172 1 173 1 184 1 192 1 193 1 215 1 236 1 237 1 238 1 252 1 255 1 258 1 259 1 270 1 273 2 277 1 280 1 302 1 305 1 310 1 454 2 423 1 448 1 411 1 353 1 399 1 315 1 373 1 368 1 412 1 488 1 409 1 405 1 345 2 380 1 323 1 342 1 449 1 316 1 319 1 324 1 495 1 355 1 327 1 8 1 15 1 18 1 29 1 47 1 61 1 70 1 80 1 86 1 97 1 127 1 132 1 133 1 138 1 139 1 143 1 153 1 156 1 158 1 170 1 176 1 178 1 194 1 199 1 202 1 205 1 222 1 227 1 269 1 274 1 276 1 278 1 294 1 296 1 301 1 326 1 340 1 369 1 378 1 386 1 401 1 408 1 421 1 429 1 450 1 453 1 462 1 469 1 474 1 483 1 491 1 511 1 
1 176 15 1 70 1 80 1 81 1 84 1 86 1 91 1 100 1 105 1 107 1 116 1 121 1 122 2 144 1 159 1 162 1 183 1 185 2 189 1 198 1 200 1 211 1 228 1 229 1 230 1 233 1 237 1 242 1 248 1 250 1 258 1 260 1 265 1 267 1 274 1 279 1 287 1 306 1 359 1 475 1 442 1 460 1 481 1 438 2 426 1 350 1 454 1 322 2 487 1 429 1 482 1 392 1 484 1 449 1 352 1 414 1 450 1 494 1 342 1 435 1 3 1 7 1 17 1 25 1 30 1 47 1 51 1 61 1 65 1 67 1 78 1 110 1 140 1 146 1 152 1 170 1 171 1 210 1 227 1 231 1 243 1 247 1 269 1 271 1 311 1 323 1 338 1 345 1 348 1 356 1 373 1 377 1 390 1 397 1 402 1 405 1 415 1 417 1 428 1 446 1 455 1 461 1 469 1 496 1 505 1 
1 215 19 1 31 1 48 1 65 1 69 1 79 1 89 1 105 1 106 1 125 1 132 1 135 1 136 2 140 1 143 1 154 1 162 1 163 1 167 2 179 1 180 1 181 1 182 1 189 1 193 1 194 2 197 1 208 1 223 1 232 1 238 1 242 1 247 1 256 1 264 1 268 1 274 1 275 1 286 2 356 1 357 2 353 1 466 2 375 1 382 1 364 1 414 1 390 1 324 1 326 1 482 2 359 1 475 1 497 1 347 1 480 2 479 1 379 1 407 2 12 1 15 1 42 1 62 1 85 1 95 1 96 1 112 1 113 1 121 1 124 1 134 1 148 1 178 1 190 1 196 1 202 1 214 1 227 1 252 1 253 1 255 1 260 1 262 1 269 1 270 1 271 1 273 1 306 1 308 1 309 1 337 1 342 1 349 1 361 1 370 1 371 1 376 1 380 1 386 1 401 1 411 1 419 1 423 1 424 1 432 1 442 1 458 1 474 1 490 1 502 1 510 1 
1 198 11 1 15 2 26 1 29 1 32 1 56 1 58 1 80 1 83 1 87 1 90 1 101 1 109 1 110 1 115 1 136 1 139 1 141 1 159 1 170 1 171 1 215 1 218 1 246 1 251 1 258 1 268 1 273 1 312 1 488 1 480 1 399 1 498 1 404 1 372 1 361 1 321 1 445 1 499 1 351 1 455 1 353 1 395 1 31 1 34 1 38 1 44 1 48 1 52 1 63 1 65 1 77 1 89 1 102 1 103 1 104 1 117 1 130 1 135 1 138 1 144 1 147 1 149 1 150 1 151 1 152 1 169 1 172 1 178 1 179 1 186 1 192 1 193 1 203 1 207 1 221 1 224 1 226 1 227 1 228 1 233 1 235 1 240 1 241 1 243 1 262 1 264 1 280 1 287 1 325 1 352 1 359 1 397 1 401 1 405 1 407 1 408 1 415 1 424 1 434 1 441 1 452 1 459 1 461 1 466 1 471 1 475 1 486 1 
1 200 26 1 30 1 49 1 50 1 58 1 61 1 72 1 73 1 80 1 84 1 86 1 89 1 91 1 95 2 112 1 114 1 133 1 136 1 144 1 149 1 151 1 163 1 183 1 184 1 203 1 217 2 220 1 228 1 231 1 236 1 238 1 258 1 269 1 299 1 304 1 309 1 312 1 495 1 363 1 464 1 456 1 443 1 432 1 408 1 470 1 439 1 486 1 473 1 459 1 384 1 383 1 318 1 423 1 427 1 387 1 449 2 415 1 401 1 377 1 353 1 16 1 18 1 19 1 22 1 25 1 33 1 43 1 56 1 66 1 88 1 92 1 94 1 138 1 140 1 150 1 157 1 158 1 160 1 164 1 177 1 185 1 192 1 195 1 200 1 218 1 230 1 255 1 278 1 283 1 287 1 297 1 320 1 331 1 357 1 364 1 385 1 424 1 437 1 474 1 487 1 488 1 491 1 513 1 
1 220 3 1 14 1 21 1 24 1 32 2 34 1 44 1 58 1 64 1 68 1 70 1 81 1 91 1 95 1 103 1 110 1 111 1 127 1 144 1 163 1 206 1 221 1 223 1 226 2 257 1 258 1 274 1 276 1 289 1 309 1 357 1 454 1 442 1 406 1 319 1 360 1 341 1 404 2 465 1 496 1 379 1 321 1 475 2 340 1 426 1 458 1 476 1 421 1 347 2 495 1 446 1 485 1 407 1 322 2 483 1 4 1 19 1 27 1 42 1 43 1 75 1 88 1 89 1 92 1 94 1 97 1 105 1 109 1 113 1 118 1 120 1 132 1 138 1 141 1 149 1 162 1 169 1 173 1 174 1 181 1 191 1 192 1 209 1 245 1 247 1 256 1 266 1 281 1 326 1 339 1 353 1 365 1 371 1 373 1 378 1 382 1 387 1 401 1 408 1 413 1 416 1 417 1 418 1 419 1 430 1 432 1 444 1 445 1 447 1 448 1 449 1 452 1 457 1 464 1 469 1 479 1 481 1 
1 204 3 1 10 1 18 1 49 1 50 1 54 1 57 1 60 1 83 1 86 1 88 2 90 1 101 1 106 1 111 2 119 1 134 2 137 1 145 1 176 1 184 1 186 1 212 1 224 1 232 2 243 1 244 1 251 1 262 1 277 1 279 2 281 1 305 1 309 1 316 1 392 2 384 1 416 1 387 1 424 1 498 1 402 1 446 1 460 1 340 1 385 1 425 1 380 2 399 1 390 1 408 1 406 1 6 1 17 1 27 1 32 1 40 1 44 1 46 1 56 1 73 1 93 1 94 1 103 1 109 1 129 1 153 1 156 1 159 1 160 1 182 1 183 1 193 1 205 1 216 1 217 1 223 1 229 1 235 1 242 1 247 1 267 1 297 1 342 1 346 1 354 1 355 1 383 1 386 1 404 1 409 1 414 1 447 1 458 1 480 1 481 1 483 1 491 1 516 1 
1 203 15 1 31 1 36 1 60 1 67 1 74 2 76 1 88 1 92 2 100 1 114 1 119 1 129 1 136 1 138 1 147 1 155 1 163 1 165 1 175 1 176 1 185 1 214 1 236 1 244 1 262 1 266 1 276 1 312 1 317 1 374 1 450 1 483 1 455 1 365 1 433 1 421 1 360 2 476 1 385 1 419 1 452 2 325 1 388 2 386 1 441 1 473 1 413 1 456 2 418 1 376 1 437 1 444 2 329 1 470 1 9 1 35 1 39 1 43 1 55 1 61 1 65 1 77 1 90 1 91 1 96 1 103 1 111 1 133 1 142 1 172 1 181 1 200 1 204 1 206 1 207 1 213 1 219 1 222 1 232 1 243 1 264 1 270 1 272 1 282 1 303 1 306 1 321 1 340 1 342 1 355 1 373 1 396 1 405 1 410 1 411 1 448 1 454 1 458 1 463 1 465 1 481 1 493 1 503 1 505 1 508 1 518 1 
1 184 6 1 13 2 15 1 18 1 25 1 31 1 35 1 43 2 45 1 48 2 55 1 58 1 63 1 69 1 70 1 72 1 75 1 82 1 84 1 89 1 103 1 144 1 166 1 168 2 189 1 200 1 215 1 222 1 229 1 234 1 257 2 263 2 269 1 274 1 277 1 285 2 291 1 299 1 309 1 310 1 311 1 392 1 433 1 363 1 452 1 443 1 382 1 386 1 370 1 400 1 469 1 470 1 498 1 379 1 410 1 329 1 423 1 447 1 359 1 434 1 334 1 405 1 353 1 2 1 3 1 39 1 47 1 65 1 85 1 111 1 129 1 136 1 152 1 159 1 165 1 183 1 204 1 208 1 235 1 283 1 316 1 321 1 357 1 366 1 387 1 399 1 403 1 415 1 416 1 426 1 432 1 435 1 445 1 471 1 479 1 495 1 501 1 502 1 506 1 509 1 
1 200 54 1 56 1 61 1 73 1 89 1 112 1 117 1 128 1 134 1 144 1 158 1 162 2 176 1 182 1 195 1 204 2 215 1 218 1 223 1 225 1 226 1 234 1 240 1 246 1 258 1 263 1 273 1 291 1 302 1 309 2 311 1 315 1 317 1 379 1 444 1 463 1 477 1 426 1 351 1 349 2 485 1 458 1 434 1 370 1 456 1 363 1 361 1 486 1 497 1 388 2 392 1 356 1 411 2 402 1 416 1 479 1 338 1 12 1 14 1 27 1 49 1 60 1 68 1 74 1 75 1 103 1 110 1 116 1 126 1 127 1 133 1 148 1 165 1 171 1 175 1 177 1 189 1 190 1 212 1 219 1 221 1 235 1 236 1 241 1 244 1 245 1 247 1 249 1 255 1 256 1 262 1 270 1 282 1 284 1 319 1 320 1 373 1 376 1 395 1 398 1 408 1 409 1 410 1 414 1 449 1 454 1 457 1 461 1 473 1 500 1 510 1 520 1 
1 214 4 1 14 1 16 2 17 1 22 1 24 1 27 2 32 1 40 2 53 2 56 1 81 1 91 1 101 1 113 1 117 1 120 1 150 1 151 1 156 1 159 1 160 1 165 1 172 1 185 1 187 1 214 1 219 1 230 1 236 1 239 1 246 1 248 1 264 1 271 1 289 1 290 1 313 2 317 2 347 1 418 1 449 1 459 2 473 1 454 2 440 2 360 1 461 1 330 1 380 1 410 1 453 1 389 1 491 1 435 2 462 2 15 1 34 1 44 1 58 1 62 1 64 1 68 1 112 1 115 1 121 1 128 1 134 1 135 1 140 1 155 1 164 1 181 1 184 1 189 1 194 1 201 1 216 1 224 1 231 1 234 1 254 1 260 1 262 1 267 1 277 1 293 1 323 1 325 1 328 1 353 1 365 1 369 1 384 1 425 1 426 1 466 1 469 1 476 1 477 1 479 1 481 1 486 1 488 1 507 1 
1 213 4 1 18 1 22 2 23 1 33 1 39 1 42 2 64 1 67 1 69 1 73 1 74 2 75 1 80 2 103 1 106 1 107 1 119 2 131 1 140 1 145 1 149 1 161 1 163 1 167 1 171 1 172 1 174 1 178 1 183 1 185 1 186 1 187 2 224 1 239 1 240 1 241 1 242 1 261 1 262 1 267 1 271 1 272 1 275 1 286 1 290 1 312 1 470 1 451 1 370 1 455 1 377 1 432 1 463 1 368 1 425 1 391 1 481 1 378 1 437 2 17 1 44 1 45 1 52 1 55 1 58 1 89 1 96 1 108 1 114 1 130 1 132 1 134 1 150 1 154 1 158 1 199 1 232 1 238 1 246 1 250 1 251 1 264 1 279 1 280 1 287 1 289 1 295 1 313 1 322 1 333 1 345 1 352 1 362 1 367 1 381 1 384 1 395 1 408 1 411 1 426 1 427 1 429 1 431 1 438 1 444 1 449 1 457 1 474 1 484 1 496 1 498 1 499 1 514 1 
1 196 6 1 20 1 28 1 31 1 32 1 36 2 45 1 46 1 51 1 64 2 76 1 84 1 85 1 87 1 89 1 94 1 95 1 105 1 108 1 117 2 121 1 122 1 128 1 140 1 165 1 178 1 193 1 216 2 233 1 235 1 237 1 239 2 250 1 252 1 257 1 262 1 266 1 269 2 270 1 277 1 282 1 284 1 287 1 312 1 314 1 384 1 422 1 410 1 400 1 398 2 404 1 391 1 471 1 357 1 370 1 337 1 482 1 415 1 433 1 396 1 438 1 394 1 1 1 25 1 30 1 35 1 43 1 56 1 62 1 65 1 69 1 71 1 77 1 83 1 92 1 96 1 131 1 137 1 146 1 148 1 156 1 161 1 175 1 179 1 183 1 213 1 217 1 226 1 231 1 232 1 241 1 255 1 256 1 263 1 267 1 328 1 348 1 351 1 364 1 366 1 371 1 385 1 386 1 399 1 401 1 411 1 430 1 431 1 434 1 439 1 443 1 463 1 472 1 495 1 496 1 516 1 
1 196 8 2 15 1 22 1 25 1 48 1 68 2 75 1 105 2 138 1 146 1 147 1 149 1 189 1 191 1 197 1 203 1 211 1 221 2 225 1 233 1 237 1 253 1 260 1 277 1 278 1 288 1 311 1 319 1 460 1 471 1 388 1 401 1 370 1 484 2 380 1 379 1 412 1 493 1 361 1 377 1 2 1 9 1 46 1 51 1 52 1 62 1 65 1 67 1 73 1 76 1 78 1 83 1 95 1 100 1 109 1 118 1 134 1 155 1 172 1 173 1 177 1 195 1 207 1 213 1 222 1 240 1 242 1 252 1 269 1 274 1 284 1 290 1 292 1 315 1 322 1 352 1 363 1 372 1 389 1 398 1 405 1 409 1 419 1 434 1 444 1 461 1 468 1 475 1 486 1 490 1 492 1 494 1 501 1 504 1 
1 199 13 1 14 1 15 2 29 1 31 1 68 1 71 1 76 1 84 1 102 1 104 1 108 1 123 1 126 1 132 1 156 2 161 1 169 1 170 1 186 1 197 1 214 2 215 1 216 1 221 1 225 2 227 1 228 1 247 2 250 2 251 1 252 2 262 1 271 1 285 1 289 2 294 1 314 1 421 1 444 1 465 1 450 2 396 1 454 1 352 1 335 1 334 1 432 1 438 1 459 1 461 1 393 2 360 1 411 1 499 2 333 1 361 1 11 1 17 1 18 1 23 1 26 1 27 1 37 1 53 1 62 1 69 1 72 1 97 1 101 1 111 1 112 1 114 1 124 1 143 1 151 1 177 1 191 1 242 1 253 1 260 1 275 1 312 1 317 1 330 1 340 1 356 1 366 1 379 1 383 1 386 1 390 1 392 1 394 1 408 1 425 1 427 1 429 1 431 1 435 1 436 1 453 1 464 1 480 1 483 1 485 1 491 1 492 1 505 1 509 1 
1 193 17 1 23 1 24 1 35 1 37 1 49 1 64 1 66 1 73 1 81 2 82 1 83 1 85 1 98 1 105 1 147 1 148 1 152 2 162 1 163 2 165 1 187 1 190 1 204 1 208 1 210 1 211 1 213 2 225 1 232 1 239 1 256 1 260 1 263 1 264 1 268 1 272 1 277 1 289 2 291 1 298 1 312 1 403 1 456 2 447 1 433 1 496 1 445 1 415 1 412 1 357 1 465 1 426 1 392 1 455 1 448 1 328 1 427 1 418 2 444 1 2 1 6 1 8 1 15 1 26 1 32 1 45 1 51 1 59 1 61 1 87 1 110 1 119 1 146 1 158 1 161 1 170 1 192 1 196 1 222 1 227 1 244 1 245 1 246 1 248 1 253 1 255 1 258 1 285 1 290 1 292 1 296 1 354 1 358 1 360 1 362 1 378 1 385 1 399 1 410 1 438 1 469 1 470 1 477 1 480 1 499 1 504 1 519 1 520 1 
1 188 7 1 8 1 9 1 12 1 15 1 33 1 40 1 53 1 56 2 61 1 74 1 91 1 98 2 99 2 109 1 114 1 131 2 134 1 135 2 152 1 160 1 171 1 192 1 221 1 256 1 257 1 261 1 293 2 296 1 301 1 327 1 401 2 417 1 440 2 382 1 330 1 420 2 428 1 483 1 386 2 329 1 462 2 408 1 342 1 331 1 352 1 6 1 13 1 14 1 17 1 28 1 35 1 36 1 37 1 43 1 46 1 48 1 60 1 62 1 75 1 76 1 84 1 88 1 101 1 111 1 118 1 133 1 141 1 144 1 146 1 154 1 159 1 168 1 172 1 173 1 175 1 178 1 185 1 195 1 210 1 212 1 217 1 218 1 234 1 244 1 249 1 273 1 275 1 276 1 277 1 289 1 294 1 322 1 324 1 333 1 338 1 362 1 367 1 380 1 396 1 402 1 405 1 410 1 424 1 427 1 431 1 452 1 454 1 455 1 465 1 469 1 486 1 492 1 495 1 
1 197 10 2 32 1 34 1 86 1 89 1 96 1 104 1 108 1 115 1 137 1 144 1 147 2 148 1 155 1 159 1 161 1 169 1 187 1 191 1 207 1 216 1 222 1 252 1 255 1 258 1 266 1 292 1 293 1 295 1 298 1 302 2 304 1 319 1 320 1 328 1 455 1 371 1 403 1 406 1 473 1 452 1 388 2 420 1 366 1 394 1 443 1 445 2 369 2 391 1 374 1 337 1 446 2 344 1 449 1 341 1 348 1 354 1 1 1 12 1 20 1 21 1 47 1 60 1 76 1 77 1 78 1 105 1 125 1 129 1 134 1 152 1 164 1 166 1 176 1 186 1 194 1 199 1 201 1 204 1 215 1 220 1 244 1 250 1 265 1 281 1 285 1 297 1 331 1 360 1 372 1 377 1 387 1 412 1 421 1 425 1 447 1 453 1 454 1 474 1 480 1 483 1 485 1 487 1 491 1 495 1 497 1 502 1 504 1 
1 202 1 1 13 1 26 1 33 1 36 1 43 2 84 1 89 1 111 1 113 1 120 1 126 2 133 2 135 1 139 1 165 1 167 1 175 2 191 1 205 1 211 1 237 1 251 1 255 1 257 1 258 1 263 1 265 1 269 1 284 2 293 1 297 1 322 1 328 1 331 1 488 1 474 1 440 1 437 1 431 1 387 1 462 1 419 1 407 1 375 1 420 1 384 1 336 1 478 1 392 1 390 1 432 1 355 1 471 1 442 1 498 1 345 1 333 1 3 1 21 1 32 1 41 1 49 1 62 1 69 1 87 1 123 1 138 1 140 1 144 1 147 1 168 1 177 1 178 1 187 1 196 1 203 1 222 1 225 1 230 1 268 1 271 1 276 1 279 1 296 1 303 1 326 1 348 1 363 1 374 1 382 1 383 1 404 1 405 1 416 1 427 1 445 1 454 1 457 1 459 1 466 1 468 1 477 1 484 1 494 1 505 1 
1 208 8 1 21 1 24 1 33 1 35 1 52 1 74 1 76 1 78 1 79 1 83 1 95 1 97 1 101 1 107 1 110 1 111 1 134 1 140 1 145 1 152 1 165 1 166 1 171 2 180 1 188 1 189 2 208 1 211 2 214 1 223 1 230 1 241 1 248 1 253 1 270 1 280 1 283 2 287 1 290 1 299 1 300 1 306 1 308 2 328 1 330 1 493 1 362 1 398 1 439 1 483 1 367 1 339 1 418 1 466 1 492 1 389 1 412 1 471 1 338 1 403 1 428 1 414 1 498 1 378 1 481 1 386 1 388 1 376 1 390 1 459 1 457 1 7 1 13 1 37 1 38 1 50 1 54 1 59 1 61 1 62 1 63 1 64 1 80 1 93 1 96 1 108 1 109 1 119 1 128 1 148 1 167 1 190 1 192 1 204 1 238 1 249 1 255 1 261 1 266 1 269 1 274 1 284 1 293 1 298 1 316 1 329 1 343 1 374 1 392 1 401 1 416 1 424 1 435 1 464 1 470 1 476 1 484 1 485 1 489 1 495 1 518 1 
1 210 10 1 29 1 35 1 36 1 41 1 46 1 55 1 63 1 73 1 78 1 83 1 116 1 120 1 132 1 137 1 147 1 148 1 166 1 184 2 185 1 188 1 206 1 216 1 223 1 235 1 236 1 238 1 250 2 263 1 266 1 273 1 274 1 286 1 289 1 296 2 297 1 301 1 302 1 303 1 311 1 474 1 376 1 409 2 436 1 414 1 377 1 341 1 416 1 477 1 492 2 438 1 450 1 398 1 356 1 335 1 433 1 478 1 403 1 439 1 5 1 7 1 23 1 31 1 47 1 58 1 61 1 74 1 75 1 76 1 77 1 80 1 81 1 87 1 103 1 106 1 117 1 121 1 126 1 140 1 145 1 146 1 151 1 175 1 179 1 198 1 214 1 221 1 224 1 249 1 254 1 264 1 270 1 277 1 304 1 310 1 334 1 336 1 340 1 351 1 367 1 372 1 379 1 381 1 394 1 396 1 427 1 440 1 446 1 462 1 467 1 469 1 486 1 506 1 509 1 515 1 
1 202 4 1 12 1 16 1 18 2 20 1 32 1 35 1 45 2 53 1 62 1 104 2 111 1 112 1 115 1 118 1 121 1 149 1 152 1 157 2 162 1 185 1 190 1 201 1 213 1 228 1 232 1 240 1 241 1 242 2 245 1 246 1 247 1 249 1 250 1 267 1 272 1 274 1 298 1 303 1 304 1 306 1 326 1 330 1 390 1 440 1 406 1 336 1 461 1 495 1 365 1 441 1 419 2 462 1 491 1 375 1 438 1 470 1 471 2 494 1 382 1 490 1 420 1 408 1 399 2 8 1 9 1 28 1 41 1 85 1 86 1 93 1 99 1 107 1 114 1 117 1 126 1 128 1 141 1 148 1 158 1 171 1 178 1 180 1 212 1 216 1 239 1 259 1 286 1 289 1 323 1 328 1 334 1 335 1 342 1 364 1 369 1 376 1 387 1 410 1 413 1 433 1 450 1 463 1 479 1 485 1 488 1 492 1 506 1 515 1 
1 216 13 1 19 1 25 1 50 1 56 1 63 1 65 1 82 1 96 1 103 1 113 1 145 1 158 1 160 1 161 1 174 1 175 1 177 1 181 1 188 1 189 1 193 1 201 1 202 1 206 1 211 1 219 1 221 1 229 1 233 1 236 1 245 1 259 1 260 2 265 1 268 1 280 1 281 1 282 1 296 1 301 1 308 1 310 1 320 1 326 1 432 1 414 1 487 1 462 1 407 1 428 1 397 1 470 1 391 1 426 1 377 1 440 1 416 2 337 1 349 1 398 1 417 1 1 1 10 1 14 1 16 1 18 1 42 1 44 1 48 1 51 1 55 1 60 1 68 1 89 1 104 1 107 1 109 1 110 1 119 1 120 1 122 1 126 1 176 1 196 1 197 1 198 1 199 1 200 1 209 1 231 1 242 1 243 1 251 1 253 1 284 1 290 1 291 1 303 1 332 1 333 1 366 1 382 1 400 1 402 1 437 1 446 1 457 1 473 1 482 1 490 1 500 1 505 1 511 1 
1 209 16 1 19 1 23 1 24 1 29 1 34 1 38 1 41 1 69 1 74 1 76 1 81 1 115 2 129 1 136 1 145 1 150 1 151 1 159 1 173 1 180 1 181 1 182 1 196 2 227 1 228 1 231 1 233 1 236 1 255 1 260 1 263 1 268 1 272 1 279 1 284 1 287 1 308 2 326 1 332 1 436 1 401 2 414 1 431 1 382 2 389 1 471 1 372 1 397 1 477 1 423 1 461 1 474 2 457 1 499 1 406 1 432 2 493 1 491 1 483 2 481 1 421 1 480 1 478 1 366 1 380 1 26 1 31 1 48 1 51 1 55 1 61 1 68 1 71 1 86 1 91 1 92 1 96 1 111 1 126 1 130 1 144 1 147 1 154 1 155 1 162 1 163 1 172 1 178 1 183 1 187 1 189 1 195 1 205 1 214 1 246 1 250 1 258 1 286 1 288 1 291 1 295 1 300 1 306 1 333 1 338 1 349 1 355 1 383 1 393 1 411 1 420 1 428 1 440 1 452 1 455 1 459 1 460 1 466 1 473 1 492 1 518 1 
1 219 1 1 5 1 9 1 14 1 22 1 25 1 26 1 44 1 49 2 52 1 56 1 76 1 78 1 83 1 88 1 92 2 99 1 100 1 108 1 109 1 116 1 128 1 130 1 133 1 135 1 140 2 146 1 153 1 160 1 171 1 185 1 214 2 222 1 224 2 235 2 242 1 243 1 248 1 254 1 263 1 266 1 267 1 282 1 288 1 289 1 291 1 304 1 330 1 333 1 409 1 442 1 380 2 370 1 410 1 420 2 340 1 378 1 348 1 389 2 485 1 463 1 8 1 32 1 38 1 41 1 45 1 54 1 59 1 70 1 77 1 87 1 90 1 97 1 120 1 138 1 147 1 155 1 177 1 183 1 198 1 201 1 280 1 281 1 285 1 290 1 294 1 298 1 299 1 302 1 332 1 337 1 369 1 372 1 376 1 381 1 384 1 387 1 398 1 411 1 426 1 444 1 446 1 455 1 478 1 497 1 499 1 
1 205 4 2 10 1 21 2 32 1 33 2 38 1 40 1 43 1 71 2 77 1 79 1 86 1 95 1 99 1 114 1 120 1 129 1 156 1 173 1 182 1 188 1 191 1 193 1 210 1 211 1 212 1 219 1 223 1 225 1 229 2 232 1 251 2 262 1 267 1 269 1 280 1 284 1 301 1 302 1 309 1 324 1 329 1 334 1 492 1 449 1 484 2 419 1 490 2 395 1 427 1 391 1 393 1 474 1 377 1 443 1 498 2 347 2 453 1 485 1 480 1 461 1 496 1 425 1 463 2 15 1 19 1 36 1 62 1 66 1 68 1 74 1 78 1 83 1 111 1 112 1 127 1 131 1 134 1 152 1 155 1 165 1 167 1 170 1 186 1 203 1 213 1 230 1 235 1 236 1 257 1 261 1 266 1 276 1 293 1 314 1 336 1 343 1 344 1 355 1 372 1 384 1 390 1 398 1 430 1 434 1 439 1 442 1 471 1 488 1 489 1 493 1 502 1 
1 176 26 1 35 1 37 1 41 1 47 1 48 1 63 1 65 1 67 1 72 1 90 1 92 1 111 1 124 1 140 2 146 1 153 1 155 1 161 1 182 1 183 1 187 1 195 1 204 1 217 2 243 1 244 1 250 1 264 1 278 1 284 1 285 1 286 1 310 1 321 1 331 1 404 1 489 2 429 1 401 1 432 1 464 1 438 2 485 1 481 1 487 1 453 1 396 1 457 2 446 1 496 2 370 1 477 1 484 1 391 1 410 1 386 1 397 1 358 1 463 1 456 1 412 1 454 1 4 1 5 1 6 1 27 1 45 1 49 1 60 1 64 1 66 1 73 1 80 1 95 1 112 1 126 1 128 1 130 1 131 1 175 1 177 1 188 1 206 1 208 1 209 1 232 1 233 1 238 1 240 1 241 1 249 1 253 1 263 1 295 1 313 1 328 1 335 1 349 1 359 1 375 1 379 1 392 1 393 1 398 1 421 1 440 1 459 1 466 1 475 1 476 1 480 1 512 1 518 1 
1 203 22 1 36 1 62 1 76 1 82 1 91 1 95 1 96 2 111 1 114 1 119 1 126 2 128 1 130 2 131 1 132 1 134 1 141 2 144 1 184 1 185 1 194 1 206 1 211 1 212 1 235 2 237 1 240 1 246 2 248 2 274 1 284 1 292 1 300 1 311 1 331 1 438 1 380 1 473 1 474 1 486 1 450 1 432 1 342 1 492 1 389 1 410 1 490 1 467 1 421 1 452 1 426 1 348 1 423 1 436 1 358 1 6 1 7 1 10 1 13 1 20 1 31 1 63 1 73 1 81 1 100 1 105 1 135 1 136 1 148 1 155 1 157 1 163 1 181 1 215 1 228 1 259 1 265 1 272 1 275 1 279 1 287 1 299 1 317 1 374 1 378 1 379 1 385 1 392 1 395 1 398 1 409 1 412 1 413 1 416 1 418 1 425 1 441 1 442 1 454 1 457 1 470 1 489 1 491 1 495 1 503 1 518 1 
1 206 3 1 4 1 6 1 14 1 18 1 22 1 37 1 44 1 45 1 48 1 54 2 57 1 71 1 73 1 77 1 81 1 82 2 83 1 120 1 130 1 135 1 138 2 160 1 172 1 177 1 184 1 201 1 204 1 205 1 218 1 220 1 231 1 237 1 247 1 249 1 259 1 264 1 271 1 274 2 284 1 297 1 298 1 311 1 317 1 318 1 336 1 416 1 463 1 484 1 429 1 381 1 407 1 460 1 397 1 384 1 445 1 442 1 430 1 418 1 487 1 359 1 436 1 486 1 357 2 409 2 385 1 421 1 474 1 11 1 12 1 39 1 41 1 42 1 47 1 65 1 75 1 76 1 80 1 85 1 108 1 109 1 121 1 127 1 132 1 156 1 162 1 180 1 187 1 189 1 190 1 193 1 207 1 209 1 229 1 235 1 239 1 240 1 241 1 242 1 267 1 272 1 288 1 294 1 299 1 304 1 312 1 319 1 326 1 332 1 341 1 346 1 351 1 353 1 411 1 426 1 446 1 450 1 477 1 488 1 507 1 
1 191 3 1 26 1 32 1 47 1 63 1 72 1 81 1 94 1 96 1 97 1 101 1 104 1 109 1 116 1 125 1 135 1 140 1 143 1 145 1 169 1 200 1 214 1 243 2 245 1 248 1 257 1 273 2 275 1 278 1 283 1 290 1 293 2 296 1 317 1 329 1 332 1 494 1 487 1 385 1 490 2 460 2 379 2 439 1 424 1 481 1 427 1 381 1 377 1 417 1 403 1 484 1 471 1 28 1 39 1 45 1 51 1 55 1 57 1 85 1 89 1 93 1 98 1 103 1 112 1 127 1 129 1 144 1 167 1 171 1 175 1 184 1 187 1 197 1 203 1 209 1 217 1 222 1 232 1 234 1 235 1 237 1 241 1 251 1 262 1 272 1 274 1 291 1 297 1 340 1 345 1 391 1 392 1 402 1 412 1 442 1 447 1 451 1 456 1 463 1 467 1 468 1 475 1 477 1 483 1 492 1 517 1 
1 197 26 1 36 1 40 1 45 1 59 1 72 2 83 1 87 1 94 2 104 1 109 1 120 1 134 1 140 1 156 1 162 1 182 1 192 1 193 1 200 1 210 1 217 1 226 1 230 2 233 1 237 1 239 1 241 1 258 1 265 1 276 1 278 2 290 1 312 1 313 1 328 1 339 1 385 1 451 2 476 1 482 2 422 2 391 1 495 1 464 1 475 1 354 1 381 1 460 1 477 1 394 1 444 1 384 1 8 1 35 1 43 1 51 1 71 1 86 1 113 1 118 1 150 1 151 1 160 1 206 1 209 1 213 1 229 1 236 1 238 1 246 1 253 1 275 1 281 1 291 1 301 1 305 1 307 1 314 1 318 1 319 1 333 1 348 1 363 1 364 1 382 1 396 1 398 1 400 1 418 1 436 1 439 1 447 1 457 1 481 1 490 1 493 1 496 1 497 1 507 1 
1 219 18 1 21 1 27 1 30 1 47 1 65 1 92 1 94 1 97 2 104 1 107 1 128 1 132 1 141 1 142 1 148 2 156 1 158 1 162 1 168 1 175 1 181 2 183 2 199 2 204 1 223 1 227 1 242 1 246 1 247 1 248 1 252 1 273 1 277 1 287 1 290 1 293 1 310 1 467 1 441 2 348 1 346 1 456 1 391 1 474 1 349 1 362 1 383 1 390 1 452 1 394 1 365 1 462 1 406 2 487 2 421 1 4 1 19 1 24 1 51 1 64 1 71 1 73 1 79 1 81 1 82 1 84 1 91 1 101 1 106 1 120 1 135 1 193 1 200 1 202 1 226 1 233 1 241 1 245 1 249 1 255 1 269 1 278 1 294 1 331 1 337 1 357 1 358 1 359 1 360 1 364 1 378 1 396 1 397 1 403 1 404 1 405 1 410 1 413 1 415 1 418 1 430 1 439 1 447 1 450 1 460 1 463 1 466 1 469 1 480 1 484 1 485 1 488 1 489 1 493 1 516 1 518 1 
1 214 3 1 6 1 11 1 12 1 22 1 25 1 41 1 43 1 48 1 66 1 67 1 88 1 90 2 93 1 96 2 113 1 127 1 153 1 155 1 161 1 170 1 175 1 179 2 191 1 208 2 211 1 212 1 235 1 237 1 241 1 243 1 248 1 249 1 250 1 255 1 262 2 272 1 282 2 290 2 306 2 329 1 417 1 491 1 353 1 391 1 416 1 497 2 383 2 394 1 381 1 388 1 441 1 359 1 349 1 351 1 453 1 374 1 476 1 438 1 461 1 398 1 4 1 38 1 46 1 57 1 74 1 75 1 76 1 79 1 85 1 86 1 91 1 102 1 120 1 121 1 124 1 133 1 174 1 178 1 187 1 189 1 207 1 209 1 210 1 219 1 225 1 229 1 234 1 236 1 245 1 253 1 275 1 276 1 295 1 298 1 337 1 345 1 346 1 379 1 413 1 429 1 430 1 436 1 444 1 451 1 452 1 457 1 485 1 495 1 499 1 
1 212 4 1 6 1 24 1 36 1 48 1 59 2 68 1 92 1 106 1 114 1 119 1 133 2 143 1 149 1 151 1 152 2 163 1 165 1 179 1 180 1 192 2 193 2 202 1 228 1 233 1 238 1 247 1 250 1 251 2 253 1 296 1 311 1 312 2 330 1 457 1 398 1 494 2 475 1 347 1 407 1 385 1 488 1 363 1 356 2 453 2 452 1 370 1 1 1 2 1 14 1 15 1 18 1 22 1 23 1 43 1 46 1 47 1 64 1 66 1 74 1 76 1 78 1 107 1 109 1 111 1 135 1 153 1 182 1 216 1 225 1 230 1 232 1 267 1 277 1 279 1 288 1 292 1 305 1 313 1 323 1 341 1 344 1 364 1 394 1 402 1 409 1 412 1 413 1 418 1 436 1 446 1 463 1 481 1 482 1 491 1 516 1 
1 207 6 1 16 1 20 1 32 1 43 1 44 1 62 1 66 1 73 1 74 1 77 1 80 1 99 1 102 1 110 1 124 1 125 1 134 1 145 1 148 1 181 1 197 1 209 1 217 2 226 1 227 1 229 1 245 1 247 1 253 1 255 2 257 1 262 1 266 2 275 2 285 1 292 1 300 1 301 1 303 1 304 1 343 1 404 1 483 2 382 1 394 2 458 1 397 1 381 1 430 1 355 1 474 1 385 1 453 1 359 2 357 1 376 1 349 1 496 1 3 1 11 1 42 1 48 1 53 1 60 1 64 1 67 1 72 1 81 1 86 1 92 1 139 1 140 1 141 1 162 1 165 1 174 1 175 1 179 1 194 1 198 1 207 1 218 1 231 1 251 1 254 1 265 1 276 1 286 1 296 1 297 1 318 1 340 1 344 1 363 1 392 1 405 1 409 1 417 1 418 1 420 1 435 1 436 1 440 1 443 1 449 1 499 1 515 1 
1 200 4 1 8 1 34 1 51 1 52 1 61 1 69 1 78 1 87 1 92 1 101 1 108 1 115 1 135 1 137 1 138 2 148 1 161 2 165 1 189 1 194 1 213 1 215 1 219 1 225 1 226 1 227 1 239 1 252 1 261 1 263 1 264 1 268 1 270 1 281 1 286 2 296 1 300 1 310 2 314 1 317 2 322 1 337 2 345 1 485 1 416 1 442 1 383 1 427 2 403 1 364 1 386 1 349 1 440 1 15 1 25 1 27 1 28 1 29 1 32 1 38 1 40 1 49 1 50 1 66 1 80 1 85 1 93 1 94 1 102 1 104 1 111 1 112 1 116 1 132 1 142 1 153 1 156 1 162 1 179 1 180 1 181 1 183 1 187 1 188 1 193 1 203 1 210 1 214 1 220 1 223 1 229 1 230 1 245 1 251 1 254 1 266 1 272 1 280 1 282 1 299 1 307 1 308 1 351 1 355 1 359 1 363 1 376 1 377 1 379 1 380 1 381 1 387 1 391 1 405 1 419 1 446 1 460 1 469 1 472 1 473 1 495 1 
1 193 19 1 40 1 45 1 63 1 80 1 87 1 89 1 100 1 107 1 132 1 136 1 143 2 148 1 160 1 165 1 180 1 182 1 192 1 208 1 217 1 220 1 231 1 242 2 271 1 283 1 292 2 304 1 329 1 336 1 339 1 343 1 405 1 443 1 485 1 487 2 418 1 419 1 403 1 382 1 459 1 437 1 404 1 365 1 491 1 479 1 460 1 439 1 381 1 387 1 480 1 4 1 8 1 13 1 28 1 35 1 39 1 69 1 72 1 78 1 84 1 95 1 110 1 125 1 133 1 138 1 139 1 161 1 163 1 178 1 193 1 196 1 198 1 203 1 206 1 209 1 221 1 222 1 224 1 229 1 234 1 239 1 240 1 241 1 253 1 278 1 291 1 301 1 302 1 306 1 308 1 309 1 313 1 324 1 330 1 342 1 353 1 354 1 368 1 371 1 375 1 376 1 391 1 412 1 414 1 421 1 430 1 442 1 462 1 470 1 473 1 492 1 498 1 
1 184 5 1 10 1 11 1 15 1 20 1 47 1 49 1 52 1 78 1 85 1 104 1 107 1 109 1 125 2 126 1 134 1 146 1 151 1 159 2 170 1 189 1 195 1 210 1 227 1 236 1 247 1 253 1 263 1 272 1 277 1 282 1 287 1 290 1 296 1 321 2 334 1 343 1 344 1 346 1 347 1 400 1 423 1 408 1 493 2 384 1 447 1 358 1 467 1 415 1 489 1 407 1 482 1 446 1 428 2 390 1 435 1 373 1 451 1 12 1 24 1 35 1 54 1 55 1 70 1 75 1 86 1 90 1 97 1 98 1 132 1 139 1 180 1 194 1 207 1 223 1 224 1 228 1 241 1 243 1 260 1 262 1 274 1 276 1 278 1 288 1 289 1 293 1 301 1 308 1 311 1 314 1 335 1 338 1 359 1 387 1 416 1 417 1 429 1 442 1 455 1 459 1 475 1 483 1 
1 193 3 1 30 1 57 1 68 1 69 1 74 1 78 1 102 1 119 2 123 1 129 1 142 1 143 1 149 1 150 1 159 1 161 2 165 1 197 1 203 1 219 1 226 1 227 1 239 1 253 1 263 2 269 2 282 1 285 1 286 1 287 1 305 1 313 1 415 1 443 1 458 1 383 2 454 1 417 1 429 1 389 1 414 1 411 1 491 1 468 1 357 1 481 1 487 2 366 1 365 1 449 1 403 1 13 1 20 1 24 1 25 1 37 1 45 1 53 1 64 1 106 1 108 1 121 1 125 1 134 1 135 1 140 1 147 1 148 1 154 1 164 1 176 1 192 1 193 1 201 1 234 1 249 1 255 1 259 1 264 1 308 1 311 1 380 1 394 1 407 1 410 1 413 1 426 1 427 1 431 1 432 1 445 1 448 1 470 1 480 1 493 1 
1 212 1 1 8 1 13 2 19 1 41 1 59 1 79 2 83 1 84 1 90 1 131 2 142 2 150 1 164 1 166 1 174 1 176 1 177 1 181 1 187 1 189 1 199 1 204 1 213 1 222 1 223 1 224 1 229 1 235 1 242 1 243 1 248 1 263 2 264 1 267 1 268 1 269 1 270 1 275 1 276 1 288 1 290 2 297 1 301 1 308 1 310 1 311 2 315 1 321 1 344 1 486 1 377 1 428 1 380 1 388 1 389 1 498 1 440 1 441 1 473 2 443 1 385 1 456 1 401 1 451 1 421 1 469 2 393 1 12 1 23 1 24 1 26 1 28 1 29 1 42 1 45 1 52 1 53 1 62 1 74 1 88 1 92 1 94 1 95 1 98 1 100 1 110 1 112 1 139 1 154 1 155 1 161 1 167 1 171 1 172 1 178 1 179 1 186 1 219 1 220 1 232 1 239 1 244 1 246 1 252 1 256 1 283 1 291 1 296 1 324 1 332 1 340 1 347 1 366 1 395 1 433 1 435 1 453 1 472 1 474 1 479 1 496 1 504 1 507 1 513 1 516 1 
1 205 4 1 6 1 11 1 21 2 29 1 69 1 71 1 75 2 84 2 92 1 103 1 105 1 106 1 115 1 117 1 127 1 138 1 139 1 149 1 152 1 153 1 162 2 173 1 175 1 197 1 215 1 218 1 224 1 228 1 231 1 239 1 242 1 243 1 244 1 248 1 251 1 257 1 261 1 265 1 272 1 278 1 286 1 307 1 311 1 313 1 326 1 328 1 423 1 492 1 498 1 480 1 385 1 354 1 367 1 497 1 494 1 8 1 16 1 41 1 51 1 70 1 77 1 78 1 79 1 82 1 87 1 90 1 93 1 97 1 102 1 108 1 157 1 166 1 169 1 192 1 206 1 208 1 227 1 254 1 259 1 269 1 281 1 292 1 296 1 298 1 315 1 323 1 325 1 388 1 392 1 397 1 398 1 403 1 409 1 425 1 451 1 458 1 475 1 477 1 478 1 481 1 493 1 509 1 516 1 
1 191 8 1 24 2 35 2 36 1 47 1 50 2 64 1 86 1 92 1 93 1 120 1 128 1 130 1 132 1 148 1 159 1 168 1 170 1 173 1 174 1 175 1 179 1 209 1 220 1 233 1 234 1 239 1 242 1 244 1 258 1 267 1 275 1 281 1 284 1 302 2 304 1 312 1 314 1 315 1 316 1 320 1 344 1 401 1 459 1 451 1 365 1 448 1 433 1 420 1 494 1 479 1 496 1 447 1 419 1 15 1 43 1 66 1 95 1 102 1 104 1 105 1 113 1 116 1 119 1 126 1 134 1 138 1 150 1 163 1 176 1 177 1 189 1 192 1 203 1 210 1 218 1 236 1 260 1 266 1 279 1 295 1 300 1 306 1 307 1 317 1 322 1 340 1 348 1 354 1 373 1 388 1 392 1 393 1 395 1 397 1 404 1 412 1 413 1 423 1 428 1 429 1 435 1 454 1 462 1 474 1 498 1 516 1 517 1 
1 203 2 1 13 1 14 2 17 2 26 2 35 1 37 1 41 1 42 1 51 1 59 1 65 1 72 2 77 2 98 1 101 1 103 1 129 1 139 1 140 1 154 1 163 1 182 1 192 1 196 1 204 1 209 1 210 1 214 1 223 2 236 1 240 1 248 1 253 1 259 2 271 2 291 1 293 2 297 1 329 1 342 1 352 1 423 1 402 1 431 1 395 1 458 1 460 1 401 1 441 2 364 1 450 1 433 1 479 1 448 1 422 1 384 1 435 1 5 1 7 1 9 1 15 1 30 1 31 1 36 1 49 1 52 1 61 1 62 1 76 1 82 1 85 1 91 1 107 1 119 1 125 1 148 1 153 1 166 1 174 1 191 1 201 1 218 1 219 1 220 1 227 1 235 1 241 1 247 1 262 1 263 1 268 1 270 1 276 1 285 1 289 1 318 1 327 1 348 1 353 1 367 1 386 1 389 1 391 1 398 1 399 1 414 1 416 1 419 1 420 1 426 1 476 1 497 1 500 1 506 1 
1 190 9 1 13 1 17 1 19 1 23 1 30 1 33 1 38 1 47 1 54 2 56 1 59 1 69 1 73 1 77 1 108 2 115 1 118 1 131 2 143 1 170 1 177 1 183 1 207 1 221 1 226 1 231 1 233 1 274 1 288 1 312 1 330 1 346 1 440 1 387 1 457 1 496 1 415 1 427 2 462 2 397 1 444 1 418 1 391 1 435 1 411 1 381 1 2 1 3 1 7 1 21 1 27 1 34 1 64 1 68 1 74 1 79 1 84 1 89 1 95 1 123 1 129 1 153 1 157 1 160 1 161 1 162 1 172 1 185 1 199 1 214 1 218 1 224 1 230 1 238 1 242 1 260 1 266 1 295 1 302 1 318 1 319 1 335 1 337 1 347 1 380 1 386 1 393 1 394 1 424 1 428 1 432 1 437 1 439 1 447 1 464 1 473 1 480 1 485 1 498 1 505 1 
1 199 34 1 36 1 45 1 47 1 51 1 57 1 70 1 74 1 81 2 86 1 95 1 105 1 110 1 115 1 117 1 149 1 150 1 158 2 160 1 179 1 183 2 192 1 194 1 201 1 215 1 219 1 223 1 232 1 238 2 242 1 274 1 275 1 277 1 293 2 297 2 298 1 302 1 305 1 314 1 321 1 332 1 345 2 386 1 441 1 471 1 382 2 474 1 421 1 418 2 404 2 475 1 449 1 413 1 499 1 419 1 428 1 460 1 468 1 37 1 63 1 99 1 106 1 111 1 118 1 128 1 132 1 145 1 164 1 165 1 187 1 195 1 199 1 214 1 220 1 226 1 244 1 251 1 257 1 269 1 276 1 281 1 287 1 295 1 313 1 326 1 362 1 376 1 379 1 403 1 408 1 409 1 412 1 417 1 424 1 429 1 440 1 457 1 479 1 481 1 483 1 491 1 495 1 506 1 
1 184 11 1 13 1 19 1 24 2 29 1 40 1 48 1 54 1 74 1 86 1 99 1 104 1 113 2 118 1 138 1 151 1 159 2 160 1 171 2 174 1 175 1 195 1 196 1 212 1 215 2 222 1 226 1 248 1 253 1 268 1 277 1 286 2 299 1 304 1 314 2 317 1 324 1 327 1 340 2 346 1 350 1 415 1 453 1 482 1 401 1 463 1 476 1 466 1 454 1 425 1 363 1 427 1 478 1 465 1 441 1 389 2 423 1 445 1 377 1 7 1 17 1 20 1 55 1 61 1 67 1 69 1 72 1 77 1 79 1 83 1 105 1 109 1 136 1 143 1 157 1 179 1 184 1 194 1 213 1 214 1 228 1 234 1 236 1 245 1 250 1 254 1 267 1 271 1 279 1 285 1 288 1 303 1 316 1 320 1 343 1 365 1 385 1 394 1 399 1 402 1 404 1 412 1 414 1 422 1 430 1 440 1 481 1 489 1 
1 209 1 1 11 1 14 1 24 1 26 2 28 2 37 1 41 1 55 1 57 1 58 1 65 2 67 1 75 1 83 1 86 1 92 1 97 2 114 1 115 1 124 1 135 1 140 1 145 2 150 1 152 2 170 2 174 2 175 1 183 1 186 1 209 1 214 1 225 1 241 1 242 1 245 1 246 1 250 1 255 1 278 1 280 1 294 1 302 2 303 2 338 1 339 1 349 1 438 1 418 1 427 1 462 1 401 1 415 1 481 1 421 1 440 1 410 1 424 1 453 1 457 1 491 1 363 2 13 1 45 1 56 1 62 1 74 1 84 1 133 1 137 1 139 1 158 1 161 1 176 1 189 1 193 1 200 1 233 1 237 1 239 1 240 1 249 1 261 1 269 1 272 1 283 1 291 1 295 1 310 1 327 1 343 1 364 1 390 1 395 1 403 1 404 1 407 1 439 1 446 1 454 1 467 1 470 1 471 1 473 1 474 1 476 1 478 1 490 1 494 1 507 1 
1 206 1 1 11 2 13 1 24 1 37 1 43 2 44 1 63 1 66 1 67 1 70 1 74 1 76 1 90 1 110 1 111 1 115 1 122 1 124 1 132 1 139 1 150 1 151 1 157 1 158 1 172 1 177 1 180 1 181 1 189 1 210 1 230 2 235 2 237 1 247 1 249 1 256 1 264 1 278 2 293 1 298 1 301 1 308 1 313 1 314 1 320 1 340 1 344 1 346 2 480 1 475 1 445 1 495 1 458 1 401 1 431 1 460 1 389 1 364 1 455 1 464 1 447 1 396 1 444 1 360 1 397 1 18 1 23 1 47 1 48 1 73 1 77 1 79 1 113 1 116 1 127 1 133 1 144 1 152 1 159 1 161 1 174 1 207 1 218 1 222 1 225 1 233 1 239 1 268 1 269 1 277 1 280 1 281 1 290 1 294 1 295 1 303 1 306 1 315 1 338 1 343 1 347 1 349 1 374 1 383 1 385 1 391 1 394 1 399 1 429 1 440 1 450 1 484 1 487 1 494 1 500 1 509 1 
1 200 17 1 18 1 20 1 24 1 33 1 35 1 42 1 44 1 48 2 86 1 94 1 109 2 116 1 128 2 137 1 161 1 167 1 191 1 200 1 205 1 208 1 214 1 231 1 233 1 264 1 267 1 273 1 275 1 277 1 282 2 296 1 309 1 317 1 319 2 322 1 326 1 359 1 480 1 428 2 467 1 429 1 449 1 494 1 439 1 459 2 468 2 464 1 493 1 477 1 407 1 433 1 419 1 8 1 13 1 15 1 23 1 26 1 47 1 56 1 63 1 64 1 82 1 115 1 130 1 151 1 159 1 170 1 181 1 189 1 195 1 203 1 215 1 224 1 225 1 230 1 236 1 250 1 251 1 284 1 327 1 329 1 343 1 362 1 368 1 393 1 403 1 408 1 415 1 416 1 422 1 442 1 445 1 451 1 452 1 453 1 466 1 473 1 497 1 515 1 
1 219 2 1 15 1 52 1 61 1 62 1 103 2 104 1 109 1 112 1 121 1 124 2 145 1 147 1 154 1 159 1 164 1 172 1 178 1 179 1 189 1 190 1 195 1 215 1 229 1 230 1 236 1 242 1 256 1 261 1 272 1 275 1 277 2 291 1 294 1 299 1 301 1 307 1 315 1 321 1 325 1 326 1 479 1 447 2 458 1 457 1 412 1 468 1 499 1 366 1 418 1 445 1 417 1 373 1 7 1 9 1 12 1 13 1 39 1 41 1 44 1 54 1 64 1 74 1 88 1 89 1 102 1 111 1 113 1 115 1 120 1 132 1 150 1 166 1 183 1 218 1 227 1 239 1 244 1 250 1 264 1 270 1 273 1 289 1 292 1 302 1 304 1 314 1 362 1 367 1 387 1 391 1 401 1 407 1 414 1 421 1 427 1 435 1 437 1 440 1 441 1 444 1 455 1 465 1 470 1 476 1 478 1 480 1 482 1 485 1 494 1 495 1 497 1 509 1 
1 206 8 1 9 1 19 1 22 1 29 1 33 1 38 2 58 1 67 1 81 1 89 1 91 1 97 1 100 1 102 1 110 1 117 1 120 1 123 1 124 1 137 1 139 1 141 1 145 1 149 2 157 1 158 2 168 1 176 1 206 2 220 1 222 1 224 1 226 1 228 2 234 1 239 2 241 1 251 1 263 1 268 1 269 1 282 1 293 1 296 1 302 1 307 1 308 2 331 1 343 1 419 1 390 1 468 1 413 1 480 1 365 1 453 1 498 1 370 1 405 1 394 1 18 1 23 1 35 1 45 1 47 1 51 1 52 1 56 1 69 1 80 1 82 1 88 1 95 1 98 1 105 1 111 1 146 1 156 1 159 1 200 1 227 1 236 1 255 1 258 1 259 1 264 1 273 1 277 1 280 1 304 1 306 1 323 1 327 1 328 1 356 1 360 1 361 1 389 1 398 1 404 1 406 1 407 1 411 1 412 1 432 1 434 1 446 1 459 1 465 1 469 1 471 1 482 1 484 1 
1 202 5 1 12 1 14 1 23 1 40 1 45 1 49 1 59 1 73 1 82 1 88 2 94 1 104 1 108 1 110 1 117 1 138 1 140 1 142 1 144 1 154 1 169 1 170 1 184 1 189 1 217 1 219 1 225 1 229 1 233 1 241 1 255 2 266 1 272 1 281 2 287 2 299 1 309 1 316 1 320 1 321 1 345 1 357 1 358 2 484 1 401 1 461 1 406 2 447 1 467 1 422 1 402 1 440 1 416 1 389 2 468 1 479 1 373 1 493 1 367 1 377 1 372 1 419 1 2 1 4 1 32 1 47 1 52 1 56 1 60 1 62 1 69 1 70 1 77 1 87 1 89 1 91 1 119 1 128 1 129 1 130 1 131 1 134 1 162 1 168 1 179 1 218 1 230 1 243 1 245 1 246 1 254 1 257 1 269 1 270 1 271 1 300 1 325 1 330 1 342 1 346 1 347 1 364 1 404 1 407 1 409 1 411 1 415 1 427 1 454 1 458 1 459 1 462 1 466 1 471 1 476 1 491 1 496 1 
1 205 12 1 14 1 34 1 38 1 43 1 48 2 50 2 53 2 59 1 63 1 73 1 77 1 88 1 89 1 91 1 92 1 99 1 100 1 134 1 135 1 150 1 161 1 170 1 183 1 185 2 188 1 189 1 194 1 196 2 204 1 214 1 238 1 256 1 264 1 277 1 282 1 285 1 314 1 347 1 354 1 359 1 485 1 420 1 438 2 408 1 447 1 436 1 482 1 457 1 430 2 419 1 494 1 10 1 15 1 17 1 18 1 28 1 33 1 35 1 40 1 69 1 93 1 98 1 146 1 176 1 180 1 195 1 197 1 213 1 220 1 234 1 242 1 248 1 249 1 266 1 270 1 279 1 310 1 316 1 324 1 333 1 342 1 343 1 345 1 358 1 363 1 392 1 403 1 410 1 422 1 433 1 435 1 456 1 465 1 472 1 484 1 487 1 508 1 511 1 
1 193 4 1 6 1 14 1 28 1 34 1 39 2 50 1 55 1 56 1 57 1 67 1 74 1 85 2 94 1 100 1 108 2 116 1 130 1 137 1 140 1 145 1 152 1 158 1 160 1 162 2 167 2 168 1 173 1 202 1 213 1 223 1 224 1 227 1 228 1 247 1 275 1 288 1 292 1 296 1 319 1 333 1 343 1 348 1 350 1 353 1 362 1 442 1 451 1 498 1 415 1 448 1 444 1 412 1 436 1 386 1 416 1 450 1 499 1 2 1 5 1 8 1 18 1 30 1 41 1 47 1 69 1 79 1 80 1 83 1 84 1 92 1 111 1 133 1 146 1 171 1 221 1 240 1 241 1 243 1 252 1 259 1 261 1 281 1 291 1 294 1 295 1 307 1 308 1 317 1 322 1 357 1 368 1 396 1 397 1 400 1 421 1 441 1 486 1 502 1 512 1 
1 202 21 1 22 1 27 1 50 1 52 1 72 1 84 1 94 1 104 1 110 1 118 1 132 1 136 1 145 1 151 1 156 1 200 1 218 1 225 1 230 1 252 2 255 1 271 1 284 1 287 1 300 1 329 1 335 1 350 1 361 1 424 1 494 1 479 1 497 2 456 2 439 1 472 2 423 2 416 1 370 1 466 1 474 1 477 2 465 1 393 1 493 1 398 1 475 1 417 1 434 1 4 1 10 1 15 1 20 1 29 1 34 1 58 1 60 1 75 1 80 1 85 1 112 1 133 1 148 1 158 1 166 1 170 1 182 1 183 1 184 1 195 1 245 1 272 1 275 1 282 1 289 1 292 1 295 1 299 1 301 1 306 1 320 1 324 1 326 1 334 1 351 1 375 1 380 1 413 1 414 1 420 1 428 1 429 1 431 1 440 1 447 1 450 1 481 1 483 1 488 1 491 1 492 1 514 1 519 1 520 1 
1 215 12 1 15 1 16 1 21 1 22 1 31 2 48 1 50 1 60 1 63 1 67 1 76 1 82 1 92 1 107 1 132 1 141 1 144 1 148 1 155 1 157 1 160 1 165 1 166 1 171 2 173 1 175 2 184 1 191 1 202 1 204 1 213 1 232 1 252 1 266 1 272 1 278 1 285 2 287 1 292 1 295 1 298 1 305 1 331 1 352 1 363 1 438 1 482 1 470 1 425 1 405 1 433 1 485 1 423 1 480 1 422 1 483 1 434 2 453 1 415 1 441 1 491 1 449 1 455 1 373 1 369 1 474 1 18 1 27 1 29 1 46 1 54 1 91 1 100 1 103 1 111 1 121 1 123 1 125 1 128 1 130 1 145 1 146 1 149 1 153 1 158 1 159 1 169 1 192 1 206 1 210 1 226 1 234 1 239 1 245 1 247 1 260 1 261 1 269 1 323 1 328 1 332 1 354 1 361 1 370 1 376 1 382 1 397 1 412 1 417 1 437 1 442 1 443 1 444 1 448 1 456 1 460 1 461 1 468 1 492 1 493 1 495 1 505 1 508 1 
1 219 4 1 17 1 18 1 22 1 28 1 36 1 38 1 47 1 50 1 53 1 61 1 64 1 71 1 76 1 82 1 90 2 97 1 104 2 114 1 121 1 128 1 146 1 147 2 151 1 161 1 192 2 194 1 213 1 222 2 227 1 246 2 252 1 255 1 256 1 260 1 264 2 272 1 281 1 286 1 289 1 295 1 297 1 312 1 323 1 418 1 422 1 403 1 396 1 435 1 466 1 467 1 372 1 410 1 458 1 443 1 484 1 386 1 433 1 437 1 11 1 45 1 46 1 51 1 55 1 65 1 74 1 75 1 86 1 91 1 95 1 99 1 100 1 107 1 116 1 126 1 131 1 148 1 149 1 156 1 164 1 184 1 185 1 202 1 204 1 211 1 218 1 223 1 224 1 241 1 269 1 270 1 271 1 280 1 309 1 348 1 360 1 365 1 374 1 375 1 419 1 446 1 449 1 472 1 476 1 489 1 491 1 
1 199 3 1 5 1 11 1 16 1 19 1 31 1 35 1 47 1 63 1 69 1 72 1 80 2 90 1 96 1 97 1 109 1 136 1 145 1 156 1 158 1 161 1 175 1 193 1 204 1 208 1 212 1 218 1 228 1 251 1 261 1 294 1 296 1 297 1 298 1 305 2 308 1 329 2 367 1 405 1 484 1 430 1 428 1 481 1 452 1 439 1 444 1 422 1 469 1 490 1 411 1 370 1 421 1 471 1 400 1 436 1 38 1 39 1 41 1 44 1 75 1 79 1 89 1 93 1 167 1 174 1 184 1 199 1 205 1 207 1 216 1 249 1 255 1 259 1 264 1 272 1 280 1 286 1 299 1 310 1 312 1 322 1 333 1 336 1 388 1 396 1 397 1 399 1 408 1 425 1 432 1 437 1 461 1 464 1 465 1 466 1 472 1 482 1 486 1 493 1 508 1 
1 210 13 1 26 1 38 1 42 1 44 1 46 1 55 1 60 1 67 1 69 1 77 1 89 1 108 1 112 1 115 1 124 1 144 1 153 1 162 2 168 1 173 1 191 1 200 2 204 1 207 1 210 1 218 1 230 1 243 1 244 1 249 1 257 1 267 1 268 1 269 1 273 1 288 1 291 2 320 1 321 1 323 1 324 1 325 1 336 1 338 1 345 1 362 1 366 1 369 1 423 1 494 1 430 2 470 1 496 1 372 1 488 1 420 1 400 1 389 1 457 1 425 1 433 1 10 1 12 1 27 1 30 1 53 1 54 1 70 1 71 1 84 1 85 1 106 1 111 1 113 1 120 1 121 1 131 1 148 1 156 1 188 1 196 1 197 1 212 1 215 1 217 1 221 1 225 1 238 1 239 1 241 1 245 1 246 1 248 1 258 1 259 1 278 1 282 1 305 1 310 1 314 1 367 1 375 1 397 1 398 1 419 1 427 1 435 1 437 1 444 1 450 1 459 1 469 1 482 1 490 1 505 1 
1 202 10 1 18 1 28 1 32 1 58 1 77 1 90 1 91 1 92 2 93 1 100 1 115 1 120 1 125 1 135 1 138 2 147 1 152 1 159 1 165 1 176 1 181 1 193 1 194 1 199 1 218 1 219 1 225 1 227 1 261 1 264 1 276 1 282 1 286 1 287 1 292 1 294 1 296 1 329 1 457 1 424 1 400 2 407 1 415 1 481 1 381 1 448 1 399 1 1 1 4 1 16 1 37 1 48 1 55 1 69 1 71 1 75 1 80 1 88 1 106 1 112 1 134 1 137 1 144 1 146 1 160 1 167 1 174 1 178 1 235 1 239 1 240 1 253 1 266 1 273 1 278 1 293 1 299 1 305 1 309 1 314 1 317 1 324 1 348 1 380 1 386 1 406 1 408 1 410 1 414 1 418 1 433 1 454 1 458 1 462 1 463 1 464 1 474 1 484 1 492 1 509 1 511 1 
1 180 4 1 9 1 11 1 13 1 15 1 31 2 58 2 62 1 82 2 85 1 87 1 97 2 113 1 125 1 131 2 156 1 157 1 160 1 170 1 177 1 181 1 188 1 190 1 205 1 207 1 208 1 222 1 224 1 234 1 249 1 254 1 255 1 265 1 268 1 290 1 297 1 315 1 335 1 363 1 368 1 370 1 413 1 427 1 494 1 374 1 404 1 387 1 454 1 429 1 450 1 433 1 3 1 43 1 55 1 64 1 66 1 68 1 89 1 99 1 100 1 101 1 102 1 107 1 109 1 115 1 117 1 119 1 129 1 132 1 151 1 152 1 154 1 159 1 164 1 167 1 213 1 214 1 226 1 236 1 240 1 242 1 246 1 270 1 275 1 276 1 285 1 309 1 325 1 329 1 332 1 336 1 337 1 378 1 392 1 403 1 412 1 423 1 426 1 455 1 457 1 464 1 476 1 509 1 
1 208 8 1 21 1 23 1 27 1 33 1 35 1 49 1 53 1 61 1 67 1 78 1 82 1 86 1 107 2 121 1 123 1 146 1 149 1 152 1 160 1 161 1 163 1 172 1 177 1 198 1 202 1 226 1 239 2 240 1 241 1 245 1 254 1 260 2 278 1 307 1 310 1 312 1 349 1 361 1 363 1 367 1 490 1 457 1 383 1 487 1 451 2 442 1 492 1 445 1 427 1 471 1 1 1 2 1 13 1 24 1 30 1 31 1 34 1 72 1 97 1 100 1 139 1 143 1 147 1 155 1 157 1 178 1 189 1 192 1 200 1 201 1 214 1 225 1 233 1 244 1 246 1 248 1 251 1 272 1 288 1 298 1 299 1 305 1 313 1 317 1 319 1 321 1 353 1 374 1 393 1 409 1 421 1 426 1 431 1 444 1 458 1 462 1 466 1 470 1 474 1 494 1 505 1 511 1 517 1 
1 217 34 2 39 2 43 1 46 1 47 2 58 1 82 1 91 1 95 1 97 1 99 1 109 1 111 1 118 1 127 1 131 1 140 1 144 1 147 1 166 1 185 1 196 1 198 1 200 1 207 1 225 1 232 1 261 1 267 1 268 1 277 1 281 2 287 2 291 1 293 1 297 1 298 1 303 1 308 1 319 1 329 1 344 1 372 1 461 1 408 1 410 1 497 1 405 1 376 1 417 2 385 1 427 1 380 1 3 1 10 1 12 1 23 1 33 1 37 1 45 1 55 1 59 1 66 1 83 1 87 1 92 1 96 1 101 1 119 1 138 1 142 1 145 1 179 1 180 1 187 1 189 1 204 1 235 1 243 1 254 1 272 1 295 1 305 1 307 1 309 1 330 1 331 1 339 1 359 1 368 1 373 1 377 1 381 1 389 1 393 1 438 1 444 1 445 1 452 1 471 1 491 1 
1 216 12 1 17 2 19 1 23 1 28 1 39 1 47 1 50 1 73 1 82 1 87 1 92 2 95 1 100 1 106 1 108 1 110 2 116 2 121 2 131 1 155 2 156 1 170 1 176 2 188 1 194 1 224 1 233 2 236 1 239 1 242 1 244 1 248 1 249 1 262 1 271 1 278 1 288 1 290 1 291 2 295 1 299 1 302 1 306 1 309 1 311 1 314 1 330 1 333 1 498 2 438 1 479 1 488 1 442 1 469 1 376 1 436 1 391 1 477 1 382 1 381 1 30 1 33 1 43 1 52 1 57 1 59 1 74 1 77 1 78 1 81 1 94 1 145 1 151 1 158 1 162 1 168 1 172 1 175 1 198 1 202 1 213 1 225 1 226 1 227 1 261 1 266 1 268 1 274 1 275 1 283 1 293 1 294 1 338 1 348 1 366 1 368 1 370 1 383 1 390 1 396 1 409 1 411 1 413 1 428 1 433 1 444 1 446 1 463 1 492 1 499 1 510 1 
1 202 8 2 11 1 17 1 30 2 33 1 48 1 53 1 55 1 64 1 68 1 80 1 81 1 86 1 89 2 94 1 98 1 106 1 132 1 134 1 143 1 160 1 168 2 178 1 183 1 201 2 223 1 230 2 245 1 247 1 254 1 266 1 269 1 271 1 275 2 281 1 282 1 283 1 293 1 303 1 319 1 331 1 332 1 346 1 374 1 375 1 489 1 493 1 444 1 450 1 491 1 427 1 431 1 422 1 415 1 430 1 378 1 382 1 463 1 387 1 435 2 471 1 465 1 9 1 25 1 31 1 36 1 49 1 51 1 67 1 69 1 78 1 100 1 104 1 118 1 122 1 129 1 136 1 149 1 164 1 167 1 172 1 174 1 177 1 179 1 196 1 209 1 215 1 232 1 239 1 260 1 265 1 296 1 300 1 301 1 314 1 321 1 333 1 336 1 347 1 348 1 356 1 367 1 380 1 388 1 391 1 402 1 414 1 426 1 441 1 448 1 453 1 459 1 468 1 490 1 521 1 
1 202 3 1 6 1 12 1 18 1 20 1 23 1 25 1 29 1 35 2 50 1 52 1 56 1 59 1 63 1 72 1 82 1 98 1 103 1 104 1 110 1 115 1 120 1 124 1 125 1 130 2 133 1 140 1 145 1 150 1 153 1 156 1 161 1 163 1 174 1 177 1 192 1 207 1 223 1 229 1 234 1 235 1 264 1 291 1 293 1 303 1 307 1 316 1 323 1 325 1 332 1 334 1 337 1 341 1 351 1 357 1 363 1 452 1 437 1 439 1 497 2 469 1 386 1 383 1 396 1 393 1 455 1 14 1 16 1 37 1 40 1 43 1 54 1 62 1 67 1 69 1 79 1 121 1 135 1 138 1 141 1 149 1 158 1 172 1 176 1 178 1 187 1 213 1 220 1 233 1 243 1 253 1 258 1 260 1 288 1 299 1 313 1 329 1 347 1 374 1 426 1 436 1 446 1 449 1 456 1 457 1 472 1 488 1 514 1 521 1 
1 214 14 1 29 1 33 1 40 2 52 2 65 2 66 1 67 1 69 1 70 1 77 1 87 1 99 1 101 1 106 1 109 1 114 1 117 1 133 1 140 1 162 1 174 1 208 1 213 1 218 1 223 1 225 1 234 1 235 1 243 2 251 1 257 1 267 1 272 1 296 1 300 1 303 1 309 2 323 1 331 1 336 1 376 1 447 1 488 1 454 2 455 1 386 1 433 1 487 2 452 1 492 1 444 1 481 1 473 1 434 1 404 1 408 1 448 2 445 2 3 1 4 1 15 1 19 1 38 1 43 1 44 1 45 1 53 1 55 1 61 1 82 1 83 1 90 1 119 1 135 1 137 1 151 1 152 1 156 1 169 1 172 1 176 1 183 1 193 1 200 1 219 1 231 1 232 1 246 1 248 1 266 1 275 1 282 1 301 1 312 1 317 1 327 1 339 1 343 1 372 1 390 1 410 1 412 1 426 1 441 1 446 1 456 1 464 1 470 1 478 1 483 1 491 1 496 1 500 1 509 1 515 1 
1 218 1 1 13 1 21 1 30 2 34 1 39 1 48 1 49 1 51 1 52 1 56 1 66 1 67 1 74 1 75 1 83 1 84 2 89 1 109 1 126 1 133 2 147 1 151 1 155 1 163 1 165 1 166 1 176 1 190 1 203 1 207 1 221 1 226 1 227 1 233 1 243 1 247 1 253 1 254 1 259 1 265 1 270 1 286 1 288 1 299 2 300 1 306 1 308 1 314 1 317 1 320 1 321 1 325 1 341 2 454 1 383 1 466 1 430 1 456 2 380 1 451 1 424 1 438 1 450 1 469 1 417 1 389 1 498 1 429 1 489 1 461 1 443 1 4 1 7 1 12 1 15 1 41 1 47 1 50 1 61 1 70 1 107 1 118 1 134 1 146 1 160 1 180 1 188 1 194 1 198 1 213 1 218 1 236 1 240 1 276 1 277 1 279 1 296 1 326 1 332 1 338 1 339 1 344 1 347 1 356 1 407 1 410 1 426 1 427 1 440 1 447 1 453 1 467 1 468 1 492 1 496 1 499 1 511 1 
1 197 21 1 22 1 26 1 41 1 50 1 54 2 59 1 70 2 83 1 87 1 120 1 135 1 136 1 140 1 144 1 148 1 149 1 158 1 169 2 197 1 201 1 204 1 219 2 220 1 223 1 233 2 234 2 247 1 260 1 264 1 267 2 269 1 289 1 291 1 292 1 298 1 312 1 318 2 322 1 325 1 335 1 336 2 339 1 351 1 374 1 379 1 481 1 476 1 436 1 416 1 456 1 466 1 438 1 439 1 483 1 462 1 406 1 417 1 437 1 418 1 471 1 494 1 16 1 17 1 31 1 36 1 47 1 57 1 58 1 60 1 64 1 88 1 95 1 99 1 112 1 127 1 130 1 134 1 137 1 143 1 147 1 166 1 176 1 187 1 192 1 202 1 212 1 224 1 229 1 237 1 240 1 242 1 270 1 276 1 278 1 280 1 290 1 314 1 328 1 347 1 350 1 355 1 366 1 371 1 376 1 388 1 399 1 402 1 408 1 409 1 414 1 419 1 423 1 427 1 455 1 459 1 460 1 463 1 484 1 499 1 504 1 510 1 513 1 515 1 
1 185 3 1 10 1 30 1 44 1 53 1 54 2 55 1 56 1 60 1 79 2 92 1 94 1 116 1 127 1 137 1 149 1 159 1 170 1 172 1 181 1 197 1 199 1 206 1 207 2 209 1 241 1 253 1 265 1 286 2 298 1 340 1 341 1 342 1 344 1 346 1 348 1 355 1 371 1 375 1 414 1 451 1 483 1 450 1 415 1 476 1 418 1 455 2 441 2 391 1 388 1 447 1 428 1 387 2 472 2 9 1 23 1 29 1 37 1 59 1 67 1 78 1 91 1 97 1 110 1 112 1 115 1 117 1 121 1 123 1 124 1 125 1 126 1 128 1 133 1 138 1 165 1 173 1 187 1 193 1 215 1 216 1 234 1 239 1 243 1 245 1 261 1 270 1 282 1 287 1 307 1 323 1 332 1 336 1 347 1 374 1 392 1 394 1 432 1 484 1 494 1 497 1 
1 213 3 1 6 2 16 1 30 1 31 1 40 1 45 2 46 1 57 1 60 2 72 2 77 1 101 1 109 2 118 1 128 1 134 1 138 1 146 2 152 1 154 1 155 1 168 1 173 1 190 1 191 1 217 1 230 2 242 1 248 1 253 1 261 1 263 1 266 1 270 1 279 1 286 1 296 1 303 1 314 1 320 1 328 1 333 1 335 2 346 1 348 1 356 2 375 1 376 1 449 1 478 1 427 1 498 1 486 2 475 1 448 1 435 1 464 2 434 1 461 2 383 1 384 2 412 1 423 1 18 1 20 1 41 1 47 1 63 1 66 1 70 1 73 1 76 1 79 1 80 1 93 1 114 1 145 1 161 1 189 1 194 1 195 1 210 1 213 1 235 1 236 1 238 1 239 1 247 1 265 1 272 1 292 1 298 1 304 1 317 1 330 1 334 1 342 1 367 1 386 1 396 1 398 1 416 1 417 1 426 1 462 1 474 1 499 1 
1 194 2 1 12 1 19 1 21 1 41 1 56 1 59 1 63 1 70 1 79 1 80 1 88 1 95 1 97 1 108 1 110 1 114 1 116 1 118 1 123 2 129 1 133 1 136 2 138 1 143 1 145 1 146 1 162 1 173 1 178 1 180 1 184 1 185 1 203 1 212 1 214 1 226 1 229 1 240 2 241 1 243 1 286 2 300 1 304 1 305 1 311 1 316 1 343 1 344 2 347 1 350 2 373 1 377 1 379 1 382 1 387 1 385 1 457 1 430 1 466 1 432 1 427 1 433 1 439 1 437 1 489 1 7 1 25 1 32 1 40 1 43 1 61 1 68 1 69 1 74 1 83 1 85 1 111 1 122 1 131 1 158 1 163 1 176 1 177 1 181 1 189 1 192 1 199 1 206 1 230 1 235 1 242 1 244 1 245 1 256 1 269 1 270 1 272 1 281 1 282 1 290 1 299 1 318 1 326 1 330 1 335 1 359 1 375 1 396 1 409 1 410 1 413 1 419 1 420 1 447 1 462 1 465 1 492 1 
1 207 14 1 24 2 31 2 35 1 52 2 61 1 65 1 80 1 85 1 98 1 100 1 101 1 104 2 105 1 116 1 128 1 130 1 132 1 145 2 153 1 164 1 170 2 176 1 183 1 188 1 190 1 200 1 223 1 230 1 242 1 249 1 250 1 272 1 273 1 297 1 316 1 318 1 324 1 330 1 340 1 342 1 349 1 354 1 382 2 477 1 485 1 443 1 446 1 425 1 423 1 389 2 490 1 489 1 435 1 426 1 17 1 19 1 28 1 38 1 41 1 58 1 63 1 71 1 84 1 117 1 135 1 136 1 137 1 138 1 140 1 143 1 158 1 172 1 174 1 185 1 187 1 193 1 220 1 237 1 239 1 254 1 256 1 266 1 277 1 285 1 290 1 302 1 305 1 311 1 322 1 323 1 336 1 337 1 411 1 412 1 434 1 436 1 437 1 462 1 467 1 468 1 471 1 475 1 481 1 486 1 487 1 499 1 513 1 
1 193 12 2 22 1 31 1 35 1 40 1 45 1 71 1 79 1 86 1 88 1 94 1 103 1 111 1 112 1 115 1 127 1 133 2 137 1 149 1 156 1 193 2 196 1 275 1 281 1 283 1 284 1 294 1 303 1 318 1 319 1 340 1 341 1 342 1 345 1 346 1 351 1 352 1 374 1 383 1 469 1 451 1 483 1 439 1 467 1 477 1 392 1 430 1 493 1 475 1 485 1 499 1 390 1 445 1 433 2 455 1 400 1 3 1 11 1 16 1 33 1 47 1 49 1 55 1 56 1 64 1 66 1 84 1 101 1 124 1 126 1 147 1 148 1 151 1 160 1 163 1 186 1 194 1 195 1 203 1 209 1 210 1 218 1 219 1 220 1 221 1 233 1 247 1 259 1 261 1 264 1 267 1 297 1 316 1 324 1 327 1 339 1 357 1 359 1 393 1 412 1 422 1 440 1 448 1 456 1 489 1 502 1 515 1 
1 218 1 1 12 1 23 1 31 2 34 1 42 1 80 1 92 1 97 1 99 2 102 2 106 1 127 1 137 2 153 2 183 1 188 1 195 1 214 1 216 1 234 1 244 1 255 1 259 1 262 1 264 1 280 2 287 1 294 1 308 2 311 1 319 1 320 1 328 2 331 1 338 1 347 1 356 1 365 1 368 1 377 1 378 1 451 1 477 1 389 1 469 1 429 1 418 1 483 1 417 1 400 1 481 1 391 1 15 1 37 1 40 1 46 1 47 1 52 1 67 1 101 1 114 1 121 1 124 1 141 1 147 1 165 1 182 1 194 1 198 1 201 1 208 1 215 1 224 1 226 1 236 1 251 1 256 1 269 1 279 1 288 1 289 1 292 1 302 1 312 1 314 1 318 1 324 1 326 1 354 1 355 1 371 1 382 1 395 1 398 1 410 1 422 1 423 1 437 1 442 1 456 1 471 1 474 1 482 1 484 1 489 1 499 1 
1 188 5 1 11 2 27 2 29 1 30 1 43 1 44 1 50 1 51 1 62 1 72 1 78 1 86 1 89 2 93 1 115 2 122 1 127 1 131 1 134 1 141 1 149 2 151 1 157 1 166 1 171 1 179 1 191 1 199 1 215 1 220 1 233 1 237 1 242 1 248 1 253 1 262 1 263 1 264 1 283 1 288 2 301 1 316 1 318 1 330 1 348 1 355 1 372 1 376 1 381 2 383 1 473 1 484 1 487 1 472 1 478 1 425 1 447 1 453 1 463 1 420 2 476 2 474 1 391 1 404 1 3 1 22 1 38 1 41 1 56 1 73 1 83 1 95 1 103 1 107 1 126 1 144 1 161 1 186 1 188 1 205 1 206 1 212 1 218 1 219 1 239 1 241 1 244 1 245 1 246 1 261 1 279 1 280 1 317 1 320 1 329 1 333 1 336 1 347 1 349 1 361 1 397 1 399 1 422 1 426 1 442 1 448 1 459 1 468 1 
1 211 5 1 11 1 12 2 15 1 18 1 31 1 89 1 95 1 97 1 106 1 108 2 117 1 120 1 132 1 137 1 146 1 166 1 169 1 176 1 177 1 181 1 184 1 192 1 208 1 217 1 221 1 227 1 228 1 229 1 234 1 235 1 239 1 248 1 249 1 262 1 269 1 282 1 286 1 294 1 299 1 300 2 303 1 319 2 321 2 325 1 329 2 331 1 344 1 351 1 381 1 464 1 479 1 414 1 416 2 424 1 490 1 484 1 473 1 10 1 24 1 27 1 32 1 33 1 36 1 38 1 40 1 63 1 67 1 76 1 101 1 105 1 111 1 119 1 124 1 130 1 141 1 150 1 155 1 173 1 186 1 195 1 203 1 207 1 213 1 230 1 246 1 253 1 261 1 285 1 306 1 311 1 352 1 353 1 369 1 376 1 380 1 398 1 415 1 421 1 423 1 447 1 451 1 466 1 471 1 518 1 
1 203 1 1 17 2 37 1 38 1 48 1 55 1 70 1 72 1 83 1 88 2 100 1 105 1 107 1 111 1 113 1 119 1 128 1 133 1 146 1 152 1 168 1 177 1 178 1 181 2 185 2 203 1 219 2 224 1 233 1 255 1 258 1 262 1 305 1 306 1 322 1 331 1 335 1 336 2 339 1 350 1 351 1 357 2 359 1 363 2 370 1 379 1 384 2 386 1 475 2 416 2 490 1 437 2 446 1 456 1 460 1 493 1 415 1 496 1 488 1 426 1 15 1 20 1 22 1 24 1 27 1 29 1 31 1 36 1 47 1 52 1 66 1 71 1 74 1 76 1 130 1 155 1 164 1 175 1 179 1 193 1 207 1 210 1 211 1 217 1 232 1 236 1 247 1 256 1 268 1 276 1 292 1 295 1 299 1 325 1 354 1 362 1 374 1 394 1 404 1 419 1 420 1 435 1 441 1 445 1 459 1 463 1 473 1 481 1 489 1 497 1 498 1 518 1 
1 193 17 1 44 1 55 1 67 1 73 1 89 1 94 1 124 1 125 1 128 1 136 2 140 1 147 1 152 2 160 1 163 2 168 1 170 1 176 1 184 1 190 1 195 1 201 1 248 1 254 1 258 1 267 1 290 1 306 1 314 1 318 1 330 1 331 1 333 1 343 1 349 1 362 1 385 1 418 1 417 1 441 1 489 2 475 1 482 1 446 1 473 1 419 1 443 1 425 1 492 1 3 1 4 1 10 1 15 1 35 1 41 1 59 1 63 1 65 1 95 1 97 1 101 1 106 1 115 1 123 1 127 1 129 1 130 1 134 1 135 1 153 1 154 1 161 1 164 1 173 1 188 1 193 1 213 1 214 1 227 1 231 1 232 1 241 1 242 1 249 1 282 1 285 1 296 1 307 1 308 1 309 1 313 1 326 1 337 1 358 1 375 1 378 1 416 1 422 1 430 1 433 1 440 1 461 1 493 1 499 1 
1 210 2 1 5 2 17 1 42 1 44 1 60 1 70 1 72 1 73 1 88 1 92 1 100 1 108 2 110 1 117 1 126 1 129 1 146 1 149 1 178 1 179 1 184 1 185 1 189 1 198 1 218 1 224 1 236 1 244 1 252 1 257 1 271 1 284 1 302 1 309 1 323 1 324 1 329 1 334 1 337 1 338 1 342 1 343 1 344 1 355 1 375 1 381 1 386 1 387 1 442 1 441 1 394 2 451 1 481 1 400 1 417 1 421 2 454 1 1 1 7 1 12 1 29 1 56 1 68 1 75 1 94 1 107 1 113 1 118 1 123 1 135 1 155 1 165 1 168 1 175 1 181 1 202 1 213 1 216 1 231 1 234 1 239 1 268 1 278 1 288 1 299 1 341 1 347 1 348 1 354 1 359 1 361 1 376 1 397 1 428 1 434 1 471 1 483 1 492 1 498 1 519 1 
1 192 1 1 9 2 12 1 16 2 28 2 30 1 31 1 44 1 51 1 53 1 62 1 70 2 93 1 99 2 115 1 132 1 138 1 140 1 146 1 158 1 172 1 182 1 187 1 189 2 193 2 195 1 211 1 213 1 214 2 218 1 219 1 224 2 227 1 245 1 279 1 294 1 299 1 313 1 318 2 320 1 321 1 327 1 330 1 385 1 469 1 467 1 428 1 427 1 484 1 422 1 421 1 442 1 438 1 400 1 491 1 439 2 480 1 396 1 17 1 21 1 48 1 50 1 55 1 64 1 68 1 100 1 104 1 108 1 118 1 129 1 136 1 157 1 171 1 176 1 177 1 196 1 199 1 222 1 230 1 231 1 233 1 242 1 249 1 257 1 274 1 281 1 290 1 296 1 307 1 326 1 331 1 338 1 339 1 341 1 346 1 352 1 353 1 364 1 372 1 381 1 419 1 453 1 516 1 
1 206 3 1 16 1 28 1 52 2 68 1 73 1 76 1 103 2 105 1 119 1 129 1 132 1 143 1 154 1 160 1 165 1 167 1 170 2 173 2 177 1 183 1 202 1 205 1 207 2 219 1 224 1 235 1 238 1 246 1 268 1 270 2 282 2 303 1 310 1 326 2 337 1 351 1 366 1 377 1 441 2 397 1 489 1 451 1 471 1 469 1 490 1 491 1 440 1 7 1 11 1 15 1 17 1 27 1 30 1 41 1 56 1 82 1 87 1 88 1 115 1 116 1 142 1 147 1 157 1 179 1 187 1 198 1 203 1 222 1 223 1 226 1 244 1 245 1 252 1 260 1 278 1 280 1 283 1 287 1 289 1 291 1 295 1 298 1 335 1 338 1 353 1 355 1 360 1 373 1 374 1 385 1 401 1 423 1 430 1 432 1 443 1 449 1 457 1 506 1 519 1 
1 202 8 1 14 1 15 1 28 1 30 1 33 1 35 1 41 2 43 1 49 1 59 1 66 1 70 1 72 1 77 1 82 1 99 1 107 1 125 1 127 1 135 1 170 1 180 2 182 1 184 1 188 1 197 1 201 1 214 1 219 1 220 1 241 2 243 1 263 1 291 1 292 1 298 1 303 1 324 1 329 1 342 1 343 1 344 1 346 2 362 1 391 2 482 1 420 1 428 1 396 2 468 1 418 2 424 2 437 1 474 1 488 1 439 1 399 1 4 1 29 1 60 1 63 1 69 1 109 1 134 1 140 1 141 1 142 1 145 1 157 1 160 1 162 1 168 1 179 1 195 1 196 1 205 1 207 1 210 1 222 1 223 1 224 1 229 1 249 1 250 1 259 1 260 1 282 1 294 1 302 1 304 1 310 1 326 1 332 1 345 1 350 1 355 1 357 1 359 1 381 1 389 1 406 1 435 1 438 1 446 1 478 1 483 1 485 1 492 1 510 1 519 1 
1 203 1 1 5 1 8 1 36 1 52 1 53 1 83 1 87 2 101 1 102 1 104 2 113 1 166 1 168 1 182 1 188 1 200 1 206 2 207 1 221 1 225 1 232 1 234 1 236 1 241 1 243 1 267 1 275 1 285 1 286 1 289 1 290 1 304 2 315 1 337 1 354 1 428 1 475 1 440 1 460 1 398 1 402 1 485 1 3 1 4 1 6 1 14 1 23 1 45 1 47 1 57 1 59 1 64 1 69 1 71 1 76 1 89 1 100 1 114 1 116 1 119 1 120 1 126 1 133 1 149 1 154 1 156 1 165 1 172 1 187 1 191 1 216 1 222 1 240 1 244 1 247 1 259 1 269 1 281 1 283 1 288 1 307 1 308 1 321 1 323 1 339 1 351 1 353 1 358 1 386 1 408 1 450 1 461 1 464 1 476 1 482 1 487 1 488 1 495 1 507 1 514 1 518 1 
1 193 2 1 9 1 11 1 13 1 22 1 27 2 43 1 49 1 55 1 70 1 78 1 91 1 103 1 122 1 123 1 132 2 133 1 138 1 139 1 142 1 148 1 152 1 169 1 181 1 186 1 187 1 188 1 190 1 191 1 209 1 211 1 216 1 226 2 229 1 246 1 255 1 275 1 292 1 298 2 307 1 324 1 326 1 338 1 359 1 368 1 377 1 392 1 394 2 489 1 418 1 428 1 444 1 468 1 432 1 457 1 465 1 456 1 440 1 491 2 417 1 467 1 479 1 410 1 15 1 28 1 29 1 52 1 68 1 75 1 76 1 107 1 119 1 140 1 141 1 143 1 147 1 161 1 164 1 193 1 195 1 199 1 200 1 203 1 204 1 205 1 206 1 212 1 219 1 228 1 240 1 242 1 244 1 261 1 269 1 271 1 311 1 319 1 328 1 332 1 342 1 343 1 365 1 369 1 375 1 382 1 383 1 406 1 419 1 426 1 431 1 449 1 454 1 470 1 477 1 496 1 497 1 498 1 
1 195 2 1 4 1 10 1 12 2 14 1 31 1 35 1 59 1 76 1 77 1 78 1 81 1 89 1 121 1 129 1 144 1 147 2 160 1 171 1 186 2 191 1 193 1 194 2 206 1 219 1 221 2 224 1 225 1 231 1 232 1 234 1 250 1 251 1 273 1 279 1 285 1 295 1 296 1 299 1 305 1 308 2 311 1 334 1 335 1 338 1 340 1 346 1 355 1 359 1 393 1 431 1 490 1 481 1 484 1 456 1 400 1 487 1 453 1 498 2 404 1 436 2 424 1 5 1 33 1 46 1 51 1 58 1 75 1 84 1 90 1 93 1 102 1 114 1 119 1 124 1 133 1 146 1 150 1 152 1 157 1 172 1 183 1 192 1 202 1 205 1 210 1 215 1 229 1 241 1 249 1 261 1 271 1 272 1 286 1 290 1 300 1 313 1 315 1 343 1 352 1 353 1 365 1 367 1 369 1 370 1 387 1 391 1 405 1 428 1 445 1 451 1 457 1 
1 199 1 1 7 1 21 1 23 1 34 1 73 1 75 1 77 1 98 1 105 1 109 1 121 1 122 2 133 1 149 1 160 1 166 1 176 1 199 1 200 1 220 1 228 1 234 1 259 1 264 1 268 1 269 1 281 1 283 1 289 1 308 1 324 2 331 1 332 1 334 1 344 1 345 1 366 1 395 1 485 1 402 2 447 2 421 1 437 1 9 1 14 1 25 1 28 1 41 1 58 1 64 1 69 1 71 1 79 1 99 1 107 1 110 1 111 1 115 1 118 1 129 1 145 1 163 1 167 1 169 1 170 1 179 1 197 1 212 1 216 1 230 1 243 1 247 1 255 1 285 1 291 1 302 1 303 1 304 1 310 1 321 1 325 1 336 1 337 1 338 1 339 1 342 1 352 1 354 1 362 1 370 1 382 1 386 1 388 1 408 1 410 1 411 1 419 1 428 1 432 1 435 1 445 1 457 1 462 1 468 1 470 1 471 1 479 1 501 1 
1 205 10 2 30 1 36 1 40 1 42 2 46 2 51 1 64 1 69 1 75 2 78 1 81 1 82 1 83 1 109 1 119 1 122 1 123 1 125 1 133 1 135 1 145 1 147 1 151 1 158 1 164 1 166 1 178 1 181 1 188 1 192 1 193 1 201 2 208 1 219 1 220 1 224 1 230 1 237 1 247 1 250 1 257 2 280 1 284 1 292 2 299 1 307 1 312 1 315 1 318 1 333 2 371 1 394 1 499 1 472 2 473 1 464 1 460 1 458 1 400 1 498 2 425 1 490 1 485 1 406 1 408 1 436 1 471 1 29 1 49 1 56 1 61 1 63 1 89 1 94 1 105 1 118 1 120 1 141 1 150 1 154 1 159 1 170 1 190 1 199 1 203 1 211 1 229 1 232 1 241 1 258 1 266 1 283 1 298 1 301 1 303 1 308 1 320 1 324 1 327 1 354 1 357 1 359 1 369 1 380 1 387 1 422 1 442 1 466 1 489 1 513 1 
1 200 1 1 2 1 6 1 18 1 23 1 24 1 27 1 68 1 69 1 74 2 81 2 84 1 104 1 105 1 112 1 126 2 137 1 146 1 163 1 172 1 176 2 178 1 193 1 202 1 203 1 213 1 217 1 225 1 226 1 227 1 232 2 259 1 280 1 281 1 285 1 291 1 297 1 304 2 320 1 324 1 349 1 369 1 370 1 371 2 385 1 386 1 391 1 392 1 397 1 399 1 428 1 430 1 437 2 494 1 432 1 474 1 468 1 489 1 429 1 447 1 449 1 493 1 470 1 411 1 438 1 452 1 486 2 402 1 9 1 16 1 21 1 30 1 32 1 40 1 42 1 44 1 66 1 76 1 88 1 103 1 113 1 121 1 141 1 144 1 191 1 197 1 201 1 211 1 212 1 215 1 223 1 224 1 235 1 241 1 254 1 261 1 277 1 286 1 295 1 298 1 300 1 308 1 334 1 342 1 365 1 427 1 453 1 459 1 480 1 488 1 490 1 491 1 508 1 518 1 
1 224 14 1 15 1 17 2 18 1 25 1 29 1 31 1 48 1 59 1 65 1 72 1 75 1 87 1 95 1 99 1 101 1 114 1 125 2 139 1 163 1 168 1 172 1 190 1 193 2 207 1 213 2 215 1 248 1 249 1 260 1 264 1 282 1 285 1 287 2 302 1 308 1 316 1 325 1 328 2 335 2 338 1 351 1 353 1 354 1 357 1 358 1 359 1 363 1 450 1 425 2 476 1 463 1 445 1 436 1 10 1 13 1 16 1 30 1 43 1 64 1 66 1 68 1 69 1 76 1 91 1 105 1 108 1 112 1 118 1 120 1 121 1 126 1 132 1 148 1 155 1 164 1 200 1 205 1 214 1 217 1 243 1 244 1 245 1 251 1 258 1 267 1 273 1 277 1 281 1 298 1 312 1 314 1 315 1 317 1 324 1 331 1 361 1 393 1 404 1 411 1 429 1 430 1 434 1 438 1 442 1 452 1 467 1 482 1 485 1 488 1 521 1 
1 207 9 1 10 2 22 1 34 1 37 2 38 2 41 1 48 1 58 1 62 2 63 1 78 2 81 1 89 1 97 1 103 1 112 2 123 1 124 1 144 1 147 1 176 1 179 2 180 1 187 2 189 1 224 2 232 1 241 1 246 2 259 1 263 1 278 1 281 2 289 1 296 1 302 1 304 1 306 1 309 1 310 1 318 1 321 1 354 1 363 1 395 1 398 2 400 1 466 1 486 1 443 2 453 1 468 1 435 1 433 1 442 1 498 1 459 1 411 1 460 1 438 1 409 1 6 1 7 1 8 1 16 1 20 1 23 1 26 1 52 1 65 1 70 1 73 1 75 1 82 1 95 1 105 1 130 1 135 1 156 1 162 1 164 1 168 1 171 1 177 1 194 1 217 1 221 1 229 1 236 1 239 1 256 1 273 1 292 1 300 1 301 1 313 1 328 1 334 1 341 1 345 1 357 1 376 1 380 1 407 1 439 1 455 1 465 1 475 1 482 1 484 1 487 1 490 1 494 1 504 1 511 1 
1 220 9 1 11 1 22 1 24 2 26 2 31 1 37 1 41 1 51 1 59 1 62 1 67 2 79 1 81 1 90 1 91 1 92 1 108 1 115 1 131 1 132 1 151 1 154 1 156 1 171 2 172 2 173 1 179 1 191 1 206 1 212 1 216 1 217 1 220 1 224 1 234 1 247 1 252 1 258 1 265 1 268 2 275 2 278 1 281 1 295 1 297 1 300 1 305 1 327 1 329 1 331 1 332 1 341 1 347 1 348 1 350 1 368 1 446 1 474 1 447 1 470 1 451 1 437 1 441 1 430 1 478 1 492 1 423 1 415 1 21 1 33 1 42 1 46 1 47 1 58 1 71 1 72 1 75 1 110 1 112 1 126 1 133 1 149 1 155 1 163 1 167 1 186 1 187 1 188 1 207 1 209 1 213 1 231 1 238 1 242 1 244 1 249 1 256 1 262 1 263 1 273 1 301 1 308 1 311 1 320 1 343 1 352 1 356 1 358 1 360 1 364 1 372 1 408 1 438 1 443 1 456 1 461 1 464 1 465 1 475 1 480 1 486 1 494 1 
1 202 1 1 12 1 22 1 23 1 26 2 28 2 34 1 39 1 52 1 56 1 62 1 73 1 76 1 79 1 81 1 91 1 115 1 122 1 132 2 135 1 157 1 166 1 167 1 174 2 202 1 205 1 211 1 216 1 230 1 232 1 239 1 243 1 247 2 251 1 253 1 261 1 267 2 268 1 280 1 307 1 315 1 317 2 324 1 338 1 346 1 348 1 356 2 372 1 378 1 387 1 397 1 476 1 432 1 466 2 491 1 490 1 487 2 485 1 405 1 430 1 497 1 433 1 475 1 2 1 11 1 24 1 32 1 35 1 42 1 61 1 63 1 68 1 86 1 97 1 131 1 146 1 165 1 170 1 171 1 172 1 212 1 228 1 234 1 248 1 264 1 282 1 299 1 302 1 305 1 310 1 318 1 330 1 343 1 353 1 357 1 358 1 362 1 363 1 389 1 401 1 423 1 435 1 444 1 453 1 464 1 467 1 471 1 473 1 480 1 498 1 506 1 
1 191 3 1 10 1 12 1 17 1 18 1 26 1 34 1 39 1 44 1 62 1 66 1 82 1 85 1 88 1 94 2 99 2 122 1 124 1 138 1 149 1 150 2 153 1 156 1 163 1 175 1 181 1 197 1 222 1 245 1 248 1 271 1 274 2 284 1 286 1 289 1 312 1 320 1 348 1 362 1 367 1 369 1 374 1 404 1 487 1 432 1 454 1 456 1 482 1 30 1 33 1 36 1 37 1 43 1 47 1 53 1 70 1 76 1 81 1 116 1 120 1 127 1 131 1 132 1 168 1 170 1 193 1 195 1 198 1 213 1 215 1 238 1 260 1 264 1 278 1 290 1 297 1 308 1 309 1 310 1 313 1 315 1 319 1 325 1 328 1 330 1 343 1 346 1 347 1 397 1 408 1 414 1 415 1 459 1 462 1 465 1 468 1 469 1 484 1 498 1 517 1 
1 205 19 1 27 1 41 1 62 1 70 1 79 1 82 1 87 1 99 1 102 1 110 1 120 1 125 1 126 1 127 1 128 1 130 1 133 1 136 1 141 1 145 1 148 1 156 1 157 1 159 1 165 1 169 1 170 1 181 1 183 1 188 1 194 1 215 1 219 1 223 1 243 1 246 1 260 2 271 1 280 1 283 1 294 1 303 2 304 1 308 1 310 1 311 1 317 1 318 1 329 1 333 1 335 1 343 2 363 2 380 1 399 1 472 1 468 1 437 1 460 1 452 1 462 2 494 1 2 1 3 1 18 1 29 1 33 1 34 1 40 1 47 1 56 1 67 1 73 1 74 1 75 1 80 1 85 1 98 1 122 1 123 1 164 1 190 1 198 1 200 1 217 1 220 1 225 1 227 1 231 1 244 1 252 1 282 1 285 1 288 1 299 1 300 1 362 1 371 1 394 1 396 1 407 1 412 1 433 1 439 1 441 1 444 1 448 1 453 1 457 1 474 1 475 1 509 1 512 1 515 1 
1 189 5 1 9 1 59 1 65 2 81 1 85 1 104 1 125 1 140 1 141 1 142 1 150 2 158 1 164 1 181 1 189 1 191 1 193 2 202 1 205 1 228 1 235 2 251 1 269 2 278 1 281 1 314 2 317 1 330 1 334 1 340 1 345 1 349 1 360 1 371 1 497 1 438 1 435 2 429 1 433 1 467 1 460 1 409 1 444 1 469 1 454 1 428 1 13 1 21 1 35 1 55 1 56 1 90 1 91 1 99 1 111 1 115 1 123 1 130 1 133 1 146 1 163 1 171 1 183 1 188 1 203 1 209 1 211 1 212 1 213 1 216 1 217 1 226 1 227 1 248 1 255 1 275 1 293 1 295 1 305 1 308 1 315 1 350 1 358 1 361 1 362 1 363 1 379 1 402 1 406 1 427 1 440 1 448 1 449 1 461 1 463 1 468 1 471 1 494 1 516 1 
1 203 10 1 18 2 20 1 24 1 30 1 60 1 67 2 69 1 71 2 85 1 93 1 123 1 126 1 130 1 132 1 146 1 150 1 166 2 176 1 177 1 189 2 220 1 228 1 240 1 242 1 251 2 253 1 260 1 263 1 264 1 273 1 285 1 287 1 292 1 296 1 306 1 311 1 316 1 318 1 328 1 333 1 349 1 364 1 374 1 378 1 399 1 436 1 482 1 448 1 467 1 430 1 492 1 449 1 463 1 11 1 16 1 25 1 44 1 45 1 49 1 50 1 52 1 74 1 75 1 86 1 88 1 90 1 99 1 103 1 105 1 106 1 125 1 129 1 131 1 137 1 158 1 172 1 184 1 186 1 198 1 210 1 225 1 243 1 247 1 249 1 271 1 286 1 301 1 304 1 312 1 315 1 317 1 321 1 323 1 326 1 356 1 360 1 369 1 371 1 380 1 395 1 398 1 403 1 405 1 429 1 438 1 445 1 458 1 462 1 471 1 474 1 479 1 484 1 495 1 511 1 515 1 
1 201 11 1 21 1 27 1 36 1 38 1 39 1 41 1 42 1 53 2 57 1 61 1 64 1 68 1 69 1 82 1 83 1 90 1 99 1 105 1 113 1 116 1 117 1 151 1 152 1 169 1 180 1 183 2 187 2 188 2 189 1 195 2 207 1 214 1 222 1 250 1 253 1 255 2 259 2 271 1 289 1 290 2 297 1 300 1 301 1 312 1 332 2 336 1 340 2 402 1 407 1 430 1 441 1 474 1 486 1 433 1 471 2 452 1 495 1 462 2 1 1 5 1 56 1 62 1 63 1 67 1 76 1 78 1 81 1 89 1 104 1 115 1 121 1 129 1 135 1 148 1 160 1 179 1 184 1 198 1 210 1 211 1 221 1 230 1 232 1 246 1 252 1 257 1 273 1 274 1 275 1 282 1 287 1 293 1 296 1 304 1 306 1 318 1 321 1 325 1 339 1 345 1 346 1 352 1 356 1 363 1 373 1 375 1 380 1 383 1 411 1 416 1 426 1 439 1 442 1 449 1 455 1 456 1 459 1 466 1 472 1 473 1 489 1 491 1 519 1 
1 197 5 1 27 1 39 1 42 1 71 1 74 1 80 1 85 1 86 1 96 1 99 1 113 1 117 1 124 1 148 1 149 1 169 1 171 1 174 1 178 1 181 1 184 1 186 1 192 1 204 1 213 1 222 2 230 1 243 1 268 1 278 1 289 1 300 1 320 1 322 1 324 1 336 1 338 1 339 1 358 1 368 1 374 1 396 1 462 1 412 1 485 1 470 1 414 1 477 2 476 1 468 2 446 1 495 1 483 2 432 1 497 1 494 1 489 1 447 1 421 1 2 1 65 1 75 1 81 1 93 1 94 1 98 1 103 1 107 1 112 1 123 1 134 1 142 1 153 1 162 1 164 1 165 1 170 1 172 1 179 1 190 1 193 1 194 1 224 1 234 1 239 1 240 1 246 1 248 1 253 1 254 1 260 1 262 1 270 1 275 1 286 1 294 1 299 1 306 1 319 1 321 1 327 1 328 1 333 1 343 1 350 1 364 1 371 1 378 1 379 1 383 1 386 1 398 1 431 1 445 1 457 1 460 1 496 1 508 1 509 1 
1 208 4 1 7 1 23 1 29 1 42 1 59 1 89 1 92 1 94 2 95 1 123 1 137 1 142 1 144 2 147 1 156 1 176 1 191 1 192 1 212 1 219 1 223 2 234 1 237 1 253 1 261 1 264 2 270 1 273 1 285 1 296 1 298 1 300 1 308 1 312 1 321 2 326 1 350 1 355 1 369 1 400 1 402 1 436 1 475 1 438 1 487 1 414 1 470 1 455 1 9 1 17 1 20 1 45 1 49 1 50 1 56 1 60 1 67 1 77 1 85 1 91 1 114 1 118 1 122 1 131 1 163 1 171 1 175 1 190 1 193 1 200 1 209 1 213 1 217 1 251 1 263 1 272 1 278 1 288 1 290 1 292 1 293 1 303 1 314 1 319 1 323 1 324 1 335 1 336 1 340 1 362 1 363 1 375 1 384 1 398 1 401 1 409 1 425 1 433 1 439 1 459 1 472 1 473 1 477 1 479 1 480 1 489 1 497 1 
1 191 13 1 46 1 47 1 57 2 58 1 72 1 76 1 80 1 100 1 113 1 135 1 142 1 143 2 145 1 155 2 191 1 193 2 195 1 202 2 206 1 222 2 229 2 235 1 247 2 248 1 254 1 258 1 259 1 268 1 270 1 275 1 278 1 286 1 312 1 325 1 327 1 331 1 338 1 361 1 365 1 382 1 410 1 444 1 447 1 481 1 440 1 457 1 469 1 11 1 14 1 25 1 34 1 41 1 54 1 56 1 60 1 62 1 74 1 94 1 95 1 96 1 105 1 109 1 112 1 124 1 149 1 160 1 172 1 221 1 228 1 234 1 239 1 243 1 267 1 289 1 297 1 301 1 303 1 311 1 329 1 339 1 341 1 345 1 348 1 353 1 356 1 357 1 362 1 367 1 372 1 378 1 384 1 385 1 406 1 423 1 442 1 448 1 449 1 458 1 471 1 476 1 489 1 497 1 513 1 520 1 521 1 
1 199 9 1 32 1 34 1 39 1 53 1 71 1 74 1 79 2 80 2 81 2 82 2 89 1 92 1 101 1 105 1 111 1 124 1 134 1 139 2 140 1 142 2 144 2 148 2 149 1 153 2 159 1 165 1 170 1 175 1 181 1 190 1 208 2 212 1 219 1 226 1 230 2 231 1 235 1 236 1 239 1 251 1 256 1 275 1 280 1 293 1 301 1 319 1 356 1 362 1 372 1 466 1 448 1 492 1 494 1 417 1 460 1 435 1 475 1 441 1 487 1 18 1 19 1 31 1 40 1 62 1 88 1 96 1 100 1 106 1 109 1 113 1 121 1 127 1 151 1 156 1 164 1 176 1 194 1 220 1 222 1 244 1 245 1 255 1 261 1 302 1 304 1 317 1 333 1 339 1 343 1 344 1 345 1 350 1 353 1 366 1 375 1 383 1 415 1 436 1 457 1 469 1 472 1 476 1 482 1 
1 208 11 2 15 1 19 1 20 1 23 1 31 1 45 1 49 1 65 1 69 1 74 1 78 1 81 1 91 1 100 2 102 1 117 1 118 1 128 1 135 1 137 1 138 1 143 1 144 1 154 1 156 1 177 1 205 1 209 1 214 1 215 1 231 1 237 1 242 1 257 1 258 2 259 1 278 1 281 1 282 2 291 1 310 1 313 1 314 1 331 1 332 1 334 1 335 1 350 1 381 1 388 1 410 1 411 1 434 1 485 1 447 1 419 1 452 1 417 1 3 1 13 1 18 1 22 1 51 1 58 1 61 1 89 1 93 1 99 1 124 1 125 1 131 1 148 1 153 1 157 1 158 1 161 1 178 1 190 1 200 1 217 1 219 1 224 1 245 1 256 1 261 1 263 1 271 1 286 1 307 1 311 1 318 1 321 1 348 1 354 1 357 1 361 1 366 1 371 1 376 1 380 1 405 1 418 1 421 1 439 1 440 1 445 1 446 1 453 1 456 1 464 1 471 1 491 1 492 1 494 1 499 1 
1 209 3 1 4 1 10 1 22 1 35 1 36 1 43 1 74 1 94 1 99 1 106 1 107 1 108 1 114 1 117 1 125 1 144 1 152 1 154 1 168 1 173 1 177 1 187 2 197 1 215 1 222 1 257 1 259 1 309 1 316 1 324 1 327 1 349 1 350 1 355 1 357 1 358 1 365 1 367 1 371 1 376 1 381 1 389 1 403 1 479 2 454 1 463 1 434 1 452 1 459 1 477 1 491 1 9 1 11 1 15 1 28 1 31 1 32 1 33 1 51 1 55 1 63 1 71 1 78 1 82 1 97 1 121 1 127 1 142 1 143 1 156 1 160 1 218 1 219 1 220 1 228 1 238 1 246 1 248 1 262 1 269 1 286 1 288 1 291 1 301 1 302 1 311 1 313 1 315 1 320 1 343 1 360 1 363 1 388 1 405 1 413 1 460 1 462 1 469 1 487 1 489 1 494 1 508 1 
1 195 6 1 13 1 38 1 43 1 57 1 58 2 68 1 73 1 76 1 77 1 78 1 79 1 89 1 109 1 116 2 137 1 149 1 150 1 158 1 162 1 163 1 175 2 177 1 179 2 180 1 188 1 202 1 220 1 234 1 240 2 245 2 249 1 278 1 282 1 287 1 302 1 306 1 308 1 309 1 318 1 321 1 332 1 334 2 340 1 344 1 347 1 363 1 365 1 366 1 380 1 388 2 389 2 473 2 421 2 420 1 483 1 457 1 479 1 472 1 17 1 23 1 26 1 31 1 59 1 63 1 75 1 85 1 92 1 99 1 118 1 119 1 123 1 128 1 145 1 151 1 157 1 159 1 184 1 194 1 200 1 218 1 225 1 226 1 256 1 261 1 289 1 290 1 292 1 317 1 320 1 330 1 331 1 339 1 349 1 354 1 360 1 382 1 390 1 409 1 426 1 444 1 455 1 459 1 461 1 470 1 475 1 478 1 494 1 498 1 499 1 507 1 512 1 516 1 
1 213 32 1 42 1 53 2 54 1 58 1 68 1 84 1 87 1 103 1 113 1 120 1 121 1 128 2 133 1 139 2 140 1 142 1 143 2 146 1 147 2 148 1 155 1 168 1 179 2 184 1 188 2 198 2 244 1 259 1 266 1 275 1 286 1 292 1 294 1 296 1 300 1 328 1 334 1 341 1 344 1 350 1 361 1 366 1 374 2 379 1 380 1 386 1 390 1 391 1 396 1 413 1 414 1 461 1 420 1 488 1 11 1 19 1 27 1 41 1 57 1 60 1 79 1 83 1 107 1 108 1 124 1 127 1 132 1 144 1 159 1 160 1 172 1 173 1 178 1 256 1 263 1 270 1 284 1 288 1 290 1 297 1 304 1 313 1 317 1 346 1 349 1 356 1 367 1 382 1 421 1 432 1 445 1 454 1 458 1 464 1 477 1 
1 199 1 1 14 1 33 1 40 1 61 1 66 1 77 2 79 1 85 2 92 1 102 1 106 2 110 1 124 1 128 1 139 1 164 1 178 1 195 1 204 1 208 1 210 1 231 1 242 1 251 1 266 1 268 1 269 2 270 1 276 2 287 1 301 1 319 1 322 1 327 2 331 1 340 1 348 1 355 1 356 2 358 1 361 1 368 1 380 1 381 1 386 1 390 1 394 2 396 1 482 2 478 1 445 1 458 1 450 1 483 1 467 1 490 1 486 1 473 2 489 1 444 1 4 1 17 1 26 1 35 1 44 1 45 1 57 1 60 1 69 1 83 1 88 1 90 1 107 1 125 1 130 1 136 1 138 1 147 1 148 1 163 1 165 1 173 1 181 1 189 1 190 1 198 1 202 1 221 1 224 1 226 1 230 1 247 1 267 1 275 1 280 1 284 1 288 1 289 1 317 1 339 1 342 1 343 1 345 1 346 1 371 1 414 1 448 1 469 1 474 1 477 1 488 1 498 1 
1 209 12 1 19 1 35 1 39 1 41 1 61 1 67 1 75 1 98 1 102 1 103 1 109 1 119 1 127 1 144 1 147 2 175 1 176 1 177 1 179 1 180 1 194 1 198 1 200 1 201 1 227 1 240 1 242 1 246 2 247 2 256 1 263 1 277 1 279 2 285 2 289 1 296 1 297 1 303 1 319 1 330 1 333 2 337 1 348 1 353 1 356 1 360 1 362 1 363 1 364 1 390 1 414 1 481 1 456 2 469 1 429 1 430 1 485 1 487 1 421 1 449 2 7 1 8 1 13 1 34 1 46 1 69 1 70 1 71 1 81 1 85 1 106 1 123 1 132 1 162 1 171 1 174 1 178 1 181 1 199 1 202 1 205 1 212 1 217 1 225 1 228 1 243 1 245 1 254 1 260 1 262 1 276 1 280 1 298 1 302 1 304 1 310 1 314 1 317 1 325 1 347 1 354 1 368 1 370 1 380 1 383 1 389 1 392 1 396 1 398 1 422 1 457 1 464 1 476 1 478 1 492 1 494 1 495 1 496 1 503 1 516 1 
1 199 7 1 15 2 36 1 48 1 72 1 73 1 88 1 105 1 117 1 129 1 133 1 157 1 187 1 189 1 190 1 191 1 195 1 201 1 215 1 221 1 229 1 234 1 239 2 252 1 256 1 265 1 269 1 271 1 272 1 275 1 290 1 309 1 328 2 329 1 330 1 333 1 336 2 353 1 364 1 370 1 387 2 394 1 416 1 417 1 424 1 463 1 480 1 465 1 455 2 431 1 496 1 476 1 2 1 16 1 26 1 81 1 90 1 97 1 101 1 108 1 114 1 116 1 121 1 124 1 134 1 143 1 156 1 165 1 173 1 177 1 198 1 209 1 211 1 223 1 238 1 240 1 247 1 254 1 262 1 273 1 277 1 285 1 288 1 301 1 335 1 346 1 354 1 366 1 383 1 389 1 449 1 454 1 462 1 470 1 485 1 487 1 492 1 497 1 503 1 
1 210 3 1 17 1 19 2 22 1 47 1 49 1 56 1 59 1 60 1 62 1 67 1 80 1 90 1 98 2 105 1 109 1 111 1 112 1 119 1 127 1 135 1 137 1 149 2 162 1 163 2 168 1 174 1 180 1 196 2 215 1 217 2 218 2 240 1 243 1 262 1 272 1 278 1 279 1 282 1 285 2 286 1 303 1 311 1 317 1 319 1 326 1 335 1 339 1 340 1 343 1 351 1 356 1 358 1 369 1 391 2 392 1 398 1 410 1 416 2 419 1 462 1 491 1 495 1 467 1 449 1 422 1 432 1 2 1 13 1 25 1 26 1 50 1 61 1 122 1 124 1 125 1 141 1 152 1 159 1 166 1 184 1 219 1 222 1 225 1 229 1 252 1 255 1 256 1 280 1 290 1 294 1 300 1 305 1 312 1 329 1 338 1 348 1 361 1 365 1 373 1 388 1 414 1 417 1 430 1 452 1 453 1 489 1 496 1 503 1 506 1 513 1 
1 193 26 1 45 1 49 1 56 1 58 1 69 1 72 2 81 1 89 1 106 1 113 1 132 2 138 1 139 1 145 1 149 1 153 2 162 1 170 1 175 1 191 2 200 1 210 1 231 1 233 1 246 1 250 1 252 2 253 1 257 1 267 2 274 1 278 2 281 1 284 1 311 1 324 1 342 2 354 1 363 1 367 1 368 1 369 1 376 1 392 1 421 1 448 1 481 1 461 1 458 1 492 2 2 1 5 1 6 1 8 1 19 1 29 1 30 1 33 1 39 1 50 1 52 1 66 1 76 1 79 1 141 1 146 1 156 1 161 1 171 1 174 1 199 1 213 1 221 1 238 1 244 1 245 1 251 1 256 1 258 1 259 1 265 1 288 1 295 1 296 1 297 1 304 1 310 1 357 1 360 1 364 1 385 1 386 1 387 1 390 1 399 1 419 1 425 1 427 1 476 1 480 1 502 1 513 1 
1 213 7 1 18 1 26 1 27 1 29 1 30 1 31 1 33 1 42 1 46 1 53 1 60 1 61 1 77 1 80 1 87 1 100 1 105 1 106 2 108 1 112 2 115 1 124 1 156 1 184 1 185 1 186 1 187 1 190 1 196 1 200 1 202 1 207 1 210 1 214 1 216 1 229 1 265 1 285 2 289 1 312 1 316 1 320 1 335 1 339 1 349 1 352 1 354 1 357 1 366 2 367 1 370 1 382 1 384 1 403 1 460 1 425 1 429 2 479 1 9 1 34 1 45 1 52 1 54 1 58 1 59 1 64 1 68 1 73 1 84 1 85 1 134 1 138 1 140 1 146 1 148 1 149 1 155 1 166 1 188 1 193 1 217 1 234 1 238 1 251 1 252 1 257 1 258 1 262 1 269 1 301 1 303 1 309 1 314 1 353 1 372 1 380 1 386 1 388 1 393 1 404 1 412 1 426 1 458 1 470 1 476 1 503 1 520 1 
1 196 1 1 2 2 6 1 9 2 16 1 20 1 22 1 25 1 26 1 28 1 41 1 43 1 51 1 58 1 59 1 65 1 70 1 76 1 77 1 80 1 86 2 94 1 102 1 124 1 129 1 131 1 142 1 144 1 151 1 157 1 171 1 172 1 207 1 211 1 216 1 219 1 231 1 237 1 254 2 257 1 258 1 259 1 263 1 269 1 271 1 277 1 285 1 288 1 303 1 310 1 318 1 341 1 358 1 366 1 371 1 379 1 388 1 394 2 397 1 420 1 470 1 453 1 469 1 498 1 10 1 15 1 23 1 47 1 49 1 55 1 56 1 64 1 67 1 88 1 96 1 97 1 113 1 116 1 117 1 118 1 141 1 153 1 179 1 188 1 189 1 191 1 199 1 209 1 240 1 244 1 247 1 250 1 255 1 262 1 275 1 281 1 291 1 293 1 295 1 299 1 314 1 315 1 316 1 328 1 331 1 355 1 356 1 433 1 451 1 457 1 474 1 492 1 499 1 514 1 
1 217 1 1 7 1 18 1 21 1 27 1 40 1 46 1 56 1 71 1 73 2 86 1 90 1 100 1 104 1 106 1 107 1 112 1 115 1 118 1 132 1 134 1 150 2 151 1 152 1 155 1 156 1 163 1 171 1 176 1 178 1 185 1 187 1 191 1 193 2 196 1 198 1 247 2 250 1 251 1 261 1 267 1 273 1 276 1 283 1 291 1 298 1 299 1 305 1 306 1 318 1 323 1 337 1 357 1 367 1 370 1 384 1 387 1 390 1 399 1 401 2 423 1 496 1 452 2 455 1 492 2 485 1 433 1 480 1 2 1 9 1 14 1 17 1 26 1 31 1 36 1 49 1 51 1 58 1 61 1 78 1 105 1 117 1 122 1 129 1 148 1 160 1 165 1 167 1 168 1 189 1 204 1 212 1 219 1 234 1 242 1 255 1 258 1 295 1 303 1 322 1 326 1 329 1 339 1 352 1 369 1 411 1 422 1 429 1 458 1 464 1 484 1 520 1 521 1 
1 208 9 1 14 1 22 1 45 1 53 1 54 1 75 1 79 1 92 1 94 1 96 1 98 1 99 2 105 1 108 1 131 1 134 1 145 1 147 1 153 1 158 1 161 1 167 1 172 1 178 1 181 1 184 1 190 1 199 1 208 2 232 1 236 1 249 1 264 1 266 1 267 1 268 1 277 1 295 1 301 1 302 1 306 1 308 1 309 1 313 1 317 1 321 1 327 1 334 1 339 1 384 1 389 1 482 2 460 1 476 1 480 2 465 1 429 1 452 1 5 1 8 1 16 1 18 1 34 1 55 1 59 1 71 1 76 1 85 1 86 1 90 1 93 1 95 1 103 1 104 1 115 1 119 1 125 1 166 1 185 1 210 1 214 1 222 1 226 1 235 1 239 1 254 1 259 1 271 1 276 1 279 1 293 1 299 1 304 1 320 1 322 1 323 1 336 1 340 1 350 1 354 1 372 1 373 1 376 1 377 1 378 1 379 1 382 1 387 1 396 1 409 1 416 1 423 1 432 1 440 1 458 1 479 1 483 1 491 1 494 1 
1 203 16 1 19 1 38 1 40 1 49 1 72 1 83 1 87 1 95 1 99 1 105 2 118 2 167 1 197 2 198 1 204 1 205 1 220 1 227 2 231 1 238 1 239 1 243 1 244 1 257 1 264 1 267 1 268 1 273 1 277 1 281 1 285 1 296 1 297 1 309 1 316 1 327 1 337 1 341 1 347 2 355 2 357 1 358 1 372 1 373 1 374 1 376 1 382 1 383 1 392 1 474 1 428 1 482 1 456 1 429 2 1 1 2 1 15 1 33 1 39 1 48 1 66 1 100 1 120 1 129 1 136 1 137 1 140 1 143 1 148 1 155 1 161 1 164 1 211 1 213 1 215 1 219 1 245 1 248 1 254 1 261 1 266 1 283 1 291 1 306 1 308 1 323 1 326 1 328 1 330 1 332 1 350 1 361 1 363 1 370 1 379 1 380 1 400 1 407 1 422 1 468 1 471 1 479 1 492 1 497 1 512 1 
1 202 17 1 20 1 25 1 27 1 36 1 46 1 48 1 50 1 57 1 59 1 62 1 70 1 79 2 96 1 97 1 103 1 109 1 128 2 136 1 151 2 153 2 161 1 171 2 185 1 191 1 195 1 199 2 211 1 216 2 221 1 247 1 249 1 258 1 259 1 263 1 264 1 289 1 300 1 305 1 306 1 310 1 328 1 331 1 334 1 349 2 351 1 356 1 360 2 369 1 381 1 392 1 394 1 395 1 396 1 400 1 407 1 427 1 497 1 436 1 446 1 24 1 29 1 32 1 54 1 55 1 64 1 85 1 102 1 114 1 121 1 126 1 127 1 138 1 140 1 148 1 154 1 157 1 158 1 165 1 204 1 219 1 230 1 237 1 239 1 244 1 246 1 253 1 271 1 277 1 283 1 284 1 292 1 309 1 313 1 335 1 353 1 355 1 366 1 375 1 391 1 397 1 398 1 430 1 460 1 471 1 472 1 488 1 494 1 
1 204 3 1 15 1 24 1 34 1 53 1 56 1 58 1 61 1 79 1 87 1 89 2 91 1 94 1 99 1 103 1 119 1 139 2 150 1 151 1 161 2 164 1 172 1 180 2 182 1 195 2 205 1 213 1 223 1 229 1 232 1 235 1 273 1 285 1 286 1 298 1 313 1 338 1 340 1 350 1 360 1 372 1 379 1 386 1 400 1 407 1 419 1 423 2 426 1 427 2 470 1 473 1 471 1 494 1 441 1 460 1 432 2 13 1 36 1 38 1 49 1 63 1 82 1 84 1 129 1 157 1 160 1 166 1 168 1 176 1 190 1 193 1 198 1 220 1 226 1 243 1 244 1 260 1 267 1 290 1 294 1 312 1 323 1 326 1 344 1 349 1 353 1 356 1 359 1 366 1 401 1 408 1 425 1 445 1 447 1 462 1 476 1 477 1 482 1 502 1 513 1 515 1 521 1 
1 195 11 1 16 1 22 1 66 1 77 1 105 1 111 1 113 1 114 1 121 1 136 1 166 1 183 1 187 2 218 1 231 1 241 1 245 1 247 1 256 1 263 1 271 1 284 2 285 1 309 1 340 1 346 1 364 2 369 1 370 2 376 1 379 1 383 1 385 1 400 1 403 1 404 1 408 1 409 1 419 1 495 1 463 1 442 1 467 1 493 1 489 1 498 1 443 1 447 1 9 1 10 1 28 1 29 1 31 1 35 1 44 1 46 1 51 1 57 1 58 1 63 1 64 1 65 1 70 1 80 1 96 1 97 1 102 1 120 1 127 1 132 1 139 1 151 1 162 1 164 1 167 1 180 1 188 1 197 1 212 1 220 1 221 1 225 1 229 1 237 1 243 1 244 1 265 1 270 1 282 1 288 1 299 1 317 1 324 1 337 1 343 1 344 1 348 1 357 1 390 1 393 1 401 1 421 1 428 1 444 1 459 1 471 1 472 1 477 1 484 1 510 1 521 1 
1 196 2 2 9 1 10 1 11 1 18 1 27 1 32 1 42 1 63 1 74 2 77 1 78 1 79 2 82 1 86 1 95 1 96 1 101 1 114 1 115 1 116 1 120 1 139 1 151 1 153 1 157 2 163 1 167 1 183 1 210 1 211 1 218 1 235 2 248 2 255 1 283 1 308 1 310 1 330 1 335 1 354 1 359 1 376 1 397 1 420 1 491 1 481 1 497 1 493 1 492 1 432 1 7 1 17 1 30 1 43 1 45 1 51 1 52 1 70 1 89 1 94 1 97 1 112 1 118 1 125 1 136 1 143 1 147 1 148 1 172 1 191 1 193 1 197 1 208 1 215 1 221 1 224 1 238 1 244 1 246 1 250 1 272 1 279 1 280 1 300 1 307 1 309 1 323 1 324 1 326 1 328 1 350 1 366 1 373 1 396 1 410 1 439 1 465 1 466 1 473 1 485 1 488 1 512 1 514 1 
1 211 4 1 21 1 37 1 41 1 51 1 56 1 57 1 67 1 77 2 83 1 105 1 108 2 124 1 125 1 130 1 134 1 136 1 139 1 148 1 153 1 163 1 172 1 174 1 183 1 184 1 185 1 190 1 204 1 211 2 212 1 252 1 254 1 273 1 275 1 280 1 283 1 288 1 298 1 299 1 300 1 301 1 316 1 323 1 326 1 330 1 334 1 335 2 338 1 339 1 383 1 396 1 400 1 404 1 405 1 410 1 421 1 429 2 431 1 466 1 436 1 478 1 499 1 487 1 438 1 435 1 480 1 464 1 479 2 486 1 493 1 5 1 7 1 31 1 39 1 48 1 49 1 62 1 81 1 91 1 120 1 169 1 179 1 192 1 197 1 198 1 202 1 205 1 209 1 213 1 217 1 223 1 267 1 268 1 270 1 279 1 285 1 290 1 311 1 314 1 317 1 320 1 350 1 355 1 362 1 369 1 381 1 393 1 398 1 417 1 426 1 442 1 455 1 456 1 467 1 472 1 473 1 496 1 514 1 518 1 
1 218 1 1 7 1 9 1 12 1 19 1 22 1 35 2 40 1 42 1 54 1 78 1 91 1 92 1 93 1 102 2 106 2 118 1 143 1 149 1 155 2 162 1 190 1 201 1 203 2 207 1 214 2 216 1 238 1 241 1 242 2 255 1 291 1 295 1 304 1 319 1 320 1 324 1 327 1 332 1 353 1 354 1 360 1 367 1 368 1 370 1 372 1 378 1 383 1 385 2 402 1 404 1 407 1 409 1 425 1 473 1 477 1 445 2 465 2 3 1 5 1 6 1 8 1 25 1 27 1 34 1 37 1 52 1 63 1 64 1 72 1 75 1 96 1 108 1 110 1 113 1 128 1 133 1 141 1 145 1 147 1 148 1 193 1 208 1 212 1 215 1 232 1 234 1 288 1 297 1 299 1 301 1 307 1 333 1 351 1 364 1 371 1 375 1 390 1 406 1 411 1 424 1 443 1 444 1 452 1 460 1 471 1 485 1 518 1 
1 193 8 1 20 1 28 1 32 1 37 1 40 1 45 1 52 1 100 1 102 1 104 1 112 1 116 1 141 1 146 1 147 1 159 1 165 1 168 1 169 1 172 1 176 1 184 1 189 2 195 1 199 1 203 1 219 1 231 1 234 1 245 1 261 1 263 1 269 1 270 1 276 1 285 1 287 1 288 1 310 1 320 1 321 1 366 1 367 2 378 1 382 1 414 1 415 1 465 1 491 1 443 1 439 1 488 1 470 1 453 1 472 1 3 1 14 1 17 1 34 1 36 1 46 1 56 1 59 1 66 1 71 1 75 1 77 1 93 1 96 1 98 1 114 1 138 1 155 1 162 1 173 1 183 1 201 1 206 1 209 1 217 1 226 1 232 1 236 1 262 1 265 1 268 1 292 1 299 1 311 1 315 1 324 1 325 1 337 1 362 1 384 1 391 1 401 1 436 1 460 1 466 1 482 1 493 1 518 1 
1 200 5 2 14 1 16 2 35 1 47 1 50 1 64 1 65 1 84 1 88 1 102 1 105 1 109 1 112 1 113 1 114 1 116 1 123 1 151 1 155 1 173 1 175 1 185 1 187 1 188 1 189 1 199 1 201 2 217 1 222 1 225 2 233 1 237 1 243 1 255 1 257 1 258 1 265 1 283 1 289 1 292 1 306 2 313 1 322 2 349 1 354 1 355 1 368 1 376 2 382 1 384 1 402 1 407 2 413 1 432 1 436 1 452 1 492 1 2 1 9 1 20 1 28 1 30 1 33 1 37 1 42 1 52 1 63 1 83 1 92 1 101 1 115 1 125 1 128 1 138 1 181 1 200 1 202 1 211 1 218 1 219 1 230 1 248 1 252 1 259 1 264 1 269 1 299 1 300 1 308 1 311 1 320 1 326 1 331 1 346 1 351 1 353 1 361 1 364 1 370 1 389 1 394 1 398 1 404 1 437 1 471 1 474 1 487 1 488 1 511 1 
1 185 9 1 15 1 49 1 53 1 58 1 64 1 65 1 101 1 106 1 111 1 121 1 129 2 134 2 154 1 160 1 175 1 177 1 183 1 188 1 195 1 213 1 230 1 236 1 243 1 274 1 279 1 296 1 302 1 304 1 309 1 332 1 335 1 339 1 340 1 364 1 365 1 369 1 375 1 380 1 397 2 399 1 401 1 408 1 411 1 428 1 432 1 435 1 467 1 471 1 484 1 440 1 486 1 466 2 489 1 447 1 456 1 444 1 452 2 12 1 16 1 23 1 24 1 34 1 35 1 36 1 45 1 50 1 74 1 91 1 105 1 114 1 115 1 124 1 132 1 162 1 170 1 173 1 176 1 180 1 186 1 203 1 216 1 217 1 220 1 234 1 248 1 250 1 281 1 285 1 287 1 301 1 307 1 311 1 326 1 342 1 344 1 345 1 346 1 377 1 384 1 413 1 434 1 445 1 460 1 482 1 483 1 488 1 521 1 
1 183 8 1 22 1 42 1 46 1 50 1 56 2 70 1 83 1 93 1 94 1 103 1 111 1 112 1 116 1 121 1 139 1 151 1 199 1 201 1 203 1 218 1 240 1 248 1 254 1 266 1 270 1 273 1 282 2 289 1 303 1 306 1 319 1 323 2 330 1 348 1 368 1 377 1 380 1 383 1 389 2 394 1 398 1 400 2 403 1 406 1 464 1 478 1 490 2 475 1 482 1 469 1 1 1 5 1 13 1 14 1 15 1 21 1 24 1 38 1 61 1 64 1 65 1 68 1 97 1 104 1 108 1 109 1 118 1 119 1 126 1 141 1 146 1 150 1 152 1 153 1 156 1 162 1 169 1 175 1 179 1 198 1 206 1 210 1 211 1 255 1 259 1 264 1 280 1 281 1 298 1 310 1 311 1 316 1 334 1 355 1 361 1 367 1 369 1 370 1 384 1 386 1 435 1 438 1 448 1 467 1 485 1 489 1 492 1 497 1 
1 186 34 1 40 1 46 1 68 1 71 2 81 1 97 1 99 1 106 1 123 2 128 1 138 1 160 1 169 1 176 1 182 1 186 1 192 1 201 1 202 1 203 1 207 1 221 1 234 1 241 2 245 1 251 1 252 1 269 1 272 1 291 1 304 1 313 2 324 1 326 1 332 1 333 1 338 2 339 1 344 1 358 1 364 2 367 1 375 1 379 1 380 1 392 1 400 1 402 1 407 1 411 1 432 1 442 1 474 1 453 1 497 1 4 1 6 1 17 1 37 1 47 1 53 1 57 1 73 1 80 1 87 1 94 1 119 1 129 1 132 1 142 1 144 1 150 1 155 1 158 1 174 1 180 1 195 1 205 1 211 1 214 1 217 1 218 1 230 1 233 1 244 1 265 1 283 1 285 1 288 1 309 1 323 1 327 1 374 1 394 1 401 1 403 1 408 1 437 1 446 1 491 1 500 1 
1 204 1 1 7 1 13 2 14 2 16 1 18 1 22 1 23 1 46 1 55 1 66 1 73 1 84 1 94 1 100 1 108 1 112 1 125 1 136 1 158 1 161 1 174 1 175 1 182 1 189 1 213 1 223 2 235 1 237 1 243 1 259 1 271 1 279 1 291 2 294 1 303 1 311 1 316 1 331 1 332 1 341 1 348 1 360 1 366 1 369 1 377 1 380 1 383 1 385 1 392 2 394 1 434 1 490 1 442 1 473 1 5 1 6 1 25 1 37 1 38 1 44 1 67 1 74 1 98 1 103 1 109 1 129 1 141 1 142 1 147 1 155 1 156 1 160 1 192 1 197 1 202 1 225 1 226 1 227 1 231 1 241 1 266 1 274 1 277 1 284 1 293 1 300 1 305 1 308 1 324 1 337 1 342 1 343 1 355 1 358 1 402 1 406 1 409 1 411 1 414 1 431 1 444 1 449 1 474 1 493 1 508 1 515 1 
1 216 12 1 19 1 37 1 44 1 51 1 52 1 55 1 56 1 61 1 64 1 67 1 68 1 69 1 73 1 83 1 87 1 91 1 94 1 97 1 98 1 100 1 101 1 118 1 120 1 126 1 128 1 129 1 132 1 134 1 165 1 174 1 178 1 183 1 184 2 188 1 193 1 196 2 198 1 201 1 216 1 228 1 231 2 233 1 246 1 248 1 259 2 261 1 277 1 279 1 280 1 285 1 286 2 287 1 299 1 304 1 322 2 328 2 330 1 333 1 334 1 347 1 351 1 355 1 358 1 363 1 393 1 395 1 396 1 412 1 436 1 470 1 447 2 493 1 445 1 442 1 453 1 1 1 4 1 10 1 17 1 18 1 35 1 41 1 47 1 71 1 76 1 79 1 84 1 90 1 96 1 111 1 133 1 147 1 154 1 164 1 170 1 192 1 195 1 220 1 227 1 235 1 247 1 254 1 256 1 257 1 293 1 294 1 302 1 303 1 308 1 332 1 335 1 338 1 346 1 356 1 357 1 359 1 361 1 366 1 379 1 385 1 390 1 407 1 414 1 426 1 468 1 475 1 478 1 487 1 495 1 508 1 
1 203 6 2 11 1 16 1 18 1 35 1 39 1 76 1 90 1 95 1 108 1 123 1 127 1 130 1 132 1 139 2 172 1 188 1 197 1 198 1 201 1 202 1 215 1 220 2 226 1 231 1 274 1 284 1 295 1 298 1 311 2 319 1 333 1 343 2 344 1 351 1 354 2 356 1 357 1 367 1 381 2 390 1 391 1 393 2 403 1 409 1 413 1 429 1 483 1 473 1 478 1 469 2 493 1 492 1 26 1 27 1 29 1 46 1 48 1 56 1 59 1 64 1 65 1 67 1 78 1 83 1 84 1 85 1 100 1 124 1 131 1 134 1 138 1 147 1 151 1 179 1 183 1 190 1 193 1 206 1 208 1 213 1 217 1 227 1 244 1 265 1 266 1 269 1 282 1 291 1 305 1 310 1 315 1 339 1 361 1 365 1 376 1 378 1 389 1 406 1 445 1 477 1 496 1 
1 192 16 1 17 1 18 1 22 2 26 1 38 1 42 1 45 1 49 1 77 1 84 1 100 1 103 2 109 1 129 2 133 1 145 1 156 1 184 1 186 1 198 1 207 1 241 1 247 1 258 1 262 1 272 2 288 2 306 1 307 1 313 1 317 1 330 1 336 1 340 1 347 1 365 1 373 1 375 1 391 1 392 1 402 1 430 1 438 1 439 1 440 1 483 1 469 1 450 1 464 1 4 1 10 1 12 1 13 1 15 1 20 1 23 1 27 1 28 1 50 1 51 1 60 1 75 1 88 1 104 1 107 1 124 1 128 1 136 1 152 1 153 1 159 1 161 1 164 1 168 1 169 1 181 1 191 1 199 1 211 1 212 1 218 1 220 1 222 1 230 1 231 1 239 1 249 1 252 1 259 1 270 1 285 1 291 1 297 1 302 1 314 1 337 1 339 1 341 1 348 1 349 1 360 1 367 1 386 1 387 1 399 1 401 1 409 1 412 1 432 1 444 1 453 1 468 1 479 1 489 1 490 1 495 1 
1 205 21 1 26 1 27 1 42 1 44 1 54 1 66 1 73 1 76 1 82 1 95 1 97 1 100 1 109 1 144 1 153 1 154 1 156 1 157 1 169 1 170 1 175 1 178 2 179 1 186 2 187 1 188 1 198 1 202 1 207 1 209 1 210 2 211 1 221 1 222 2 224 1 230 1 253 1 265 1 272 1 293 1 304 1 316 1 320 1 329 1 337 1 348 1 350 1 351 1 368 1 379 1 384 1 390 1 402 2 430 1 434 1 450 1 493 1 495 1 480 1 17 1 25 1 46 1 50 1 68 1 70 1 71 1 90 1 93 1 106 1 107 1 111 1 112 1 118 1 123 1 126 1 130 1 132 1 155 1 159 1 167 1 174 1 180 1 181 1 185 1 191 1 195 1 214 1 246 1 258 1 262 1 268 1 271 1 277 1 280 1 290 1 301 1 307 1 324 1 346 1 367 1 393 1 403 1 433 1 469 1 477 1 501 1 
1 209 1 1 3 2 21 1 27 1 34 1 41 1 46 1 47 1 51 1 62 1 63 2 66 1 78 1 117 1 127 1 130 2 137 1 145 1 152 1 156 1 158 1 162 1 170 1 178 1 238 1 239 1 240 1 243 1 245 1 253 2 255 1 259 1 272 1 273 1 296 1 298 1 310 1 319 2 321 1 326 1 327 1 342 1 355 1 359 1 365 1 369 1 376 1 378 1 396 1 407 1 412 1 418 1 436 1 452 1 469 1 493 1 449 1 458 1 16 1 26 1 28 1 40 1 48 1 69 1 73 1 76 1 80 1 82 1 90 1 91 1 92 1 101 1 105 1 113 1 140 1 142 1 151 1 153 1 166 1 167 1 188 1 207 1 212 1 227 1 235 1 242 1 265 1 267 1 282 1 283 1 284 1 290 1 299 1 309 1 317 1 323 1 325 1 336 1 344 1 361 1 367 1 370 1 373 1 374 1 375 1 404 1 406 1 416 1 430 1 433 1 439 1 442 1 459 1 460 1 470 1 471 1 496 1 509 1 511 1 513 1 516 1 
1 200 8 1 16 1 21 1 25 1 28 1 29 1 35 1 54 1 64 2 75 1 76 1 79 1 93 1 98 1 99 1 112 1 113 1 114 2 118 1 123 2 139 1 141 1 151 1 157 1 166 1 172 1 175 1 179 1 189 1 203 1 218 1 224 1 229 1 235 1 248 2 261 1 269 1 271 1 282 1 294 2 301 1 305 1 315 1 327 1 329 2 340 1 357 1 359 1 361 1 373 1 378 2 385 1 401 1 418 1 433 2 440 1 494 1 457 1 473 1 492 1 3 1 14 1 19 1 20 1 24 1 52 1 53 1 81 1 82 1 120 1 130 1 146 1 161 1 177 1 180 1 190 1 200 1 202 1 206 1 208 1 220 1 230 1 241 1 257 1 276 1 277 1 279 1 281 1 290 1 297 1 302 1 317 1 320 1 330 1 350 1 360 1 374 1 389 1 397 1 398 1 408 1 410 1 414 1 417 1 429 1 436 1 441 1 446 1 452 1 482 1 496 1 498 1 507 1 
1 189 2 1 3 1 13 1 16 1 34 2 38 1 48 1 50 1 54 1 70 1 81 2 98 1 109 1 112 1 113 1 114 1 115 1 141 1 161 1 166 1 183 1 191 1 219 1 223 1 228 1 234 1 235 1 236 1 241 1 256 2 265 1 269 1 276 1 278 1 287 1 292 1 295 1 306 1 317 1 318 1 329 2 338 1 349 1 384 1 389 1 390 1 403 1 410 1 428 1 485 1 457 1 460 1 461 1 459 1 483 1 29 1 51 1 56 1 68 1 71 1 73 1 82 1 86 1 105 1 111 1 123 1 158 1 167 1 184 1 190 1 193 1 204 1 214 1 247 1 249 1 280 1 282 1 313 1 332 1 334 1 336 1 340 1 345 1 347 1 358 1 362 1 368 1 375 1 377 1 378 1 394 1 414 1 438 1 445 1 449 1 452 1 477 1 480 1 489 1 492 1 495 1 513 1 
1 220 4 1 19 1 22 1 23 1 26 1 33 1 43 1 48 1 53 1 67 1 71 1 80 1 86 1 105 1 108 1 125 1 135 1 141 1 144 1 147 1 149 2 152 1 154 1 157 1 164 1 172 1 175 1 189 1 211 1 217 1 219 1 237 2 250 1 257 2 267 2 272 1 280 1 283 1 290 1 295 1 304 1 320 1 327 1 349 1 353 1 359 1 361 2 363 1 364 1 378 1 381 1 387 1 398 2 400 1 403 1 410 1 412 1 414 1 430 1 436 1 440 2 475 1 484 1 448 1 458 1 13 1 15 1 24 1 28 1 34 1 58 1 64 1 69 1 75 1 78 1 82 1 104 1 106 1 119 1 123 1 137 1 151 1 161 1 168 1 171 1 178 1 186 1 194 1 195 1 204 1 205 1 234 1 238 1 241 1 244 1 255 1 259 1 262 1 269 1 288 1 293 1 298 1 303 1 317 1 318 1 329 1 341 1 342 1 343 1 355 1 366 1 379 1 383 1 388 1 429 1 457 1 483 1 500 1 502 1 503 1 506 1 508 1 517 1 
1 198 6 1 29 1 50 1 73 1 83 2 89 1 102 1 105 1 106 1 120 1 125 1 129 1 136 1 151 1 158 1 160 1 165 2 169 1 173 1 191 1 202 1 204 1 205 1 236 1 238 1 260 1 288 1 292 1 300 1 308 1 312 1 327 1 353 1 354 1 365 1 371 1 378 2 382 1 408 1 413 1 422 1 447 1 489 1 487 1 459 1 460 1 471 2 450 1 457 1 3 1 17 1 33 1 63 1 64 1 92 1 101 1 108 1 112 1 135 1 137 1 144 1 147 1 154 1 155 1 157 1 164 1 168 1 175 1 179 1 188 1 194 1 196 1 197 1 209 1 217 1 237 1 246 1 258 1 269 1 271 1 278 1 289 1 295 1 299 1 317 1 319 1 350 1 367 1 376 1 385 1 387 1 406 1 407 1 412 1 418 1 437 1 472 1 483 1 484 1 493 1 
1 207 5 1 8 1 17 1 20 2 39 1 55 1 62 1 74 1 82 2 85 1 88 2 97 2 114 1 123 1 127 1 131 2 132 1 134 1 147 1 166 2 167 1 171 1 172 1 185 1 190 1 193 1 203 1 227 1 237 2 244 2 256 1 263 1 269 1 295 1 296 1 300 1 301 1 307 1 312 1 313 1 316 2 322 1 329 1 337 1 350 1 356 1 360 1 367 1 382 1 400 1 408 1 419 2 421 1 444 1 479 1 450 1 451 1 477 1 1 1 19 1 33 1 38 1 47 1 56 1 98 1 100 1 107 1 115 1 120 1 146 1 165 1 205 1 208 1 213 1 216 1 217 1 229 1 238 1 246 1 259 1 267 1 273 1 278 1 284 1 287 1 288 1 290 1 317 1 321 1 323 1 346 1 368 1 377 1 393 1 396 1 407 1 409 1 412 1 420 1 439 1 446 1 454 1 481 1 483 1 488 1 495 1 501 1 
1 209 4 1 8 1 15 1 26 1 27 1 31 1 38 1 60 1 66 1 67 1 68 1 73 1 102 1 107 1 109 1 115 1 119 1 124 1 130 1 132 1 138 1 144 2 168 1 197 1 203 1 222 1 224 1 233 1 241 1 245 1 247 1 251 1 263 1 266 1 280 1 294 1 313 1 319 1 326 2 332 1 339 1 354 1 365 1 372 1 376 1 379 1 381 1 401 1 418 1 442 1 443 1 448 1 449 1 480 1 490 1 489 1 474 1 451 1 483 2 475 1 481 2 29 1 34 1 46 1 69 1 78 1 81 1 82 1 85 1 88 1 89 1 92 1 96 1 114 1 126 1 136 1 140 1 146 1 149 1 154 1 173 1 176 1 199 1 218 1 239 1 243 1 246 1 249 1 253 1 271 1 278 1 279 1 283 1 289 1 290 1 296 1 300 1 306 1 312 1 333 1 340 1 343 1 359 1 366 1 370 1 395 1 456 1 467 1 477 1 486 1 487 1 491 1 492 1 497 1 509 1 
1 204 2 2 18 1 23 1 26 1 34 1 37 1 39 1 51 1 64 1 68 1 95 1 96 1 99 1 101 1 102 1 129 2 142 1 149 1 154 1 155 1 178 1 187 1 192 1 193 1 200 1 207 1 213 2 215 1 219 2 226 1 234 1 239 1 249 1 252 1 255 1 264 1 265 1 266 1 268 1 275 2 276 1 288 1 300 2 303 1 323 1 342 2 349 1 351 1 353 1 365 1 373 2 379 1 381 1 385 1 386 1 391 1 393 1 403 1 449 1 450 1 478 1 491 2 4 1 8 1 13 1 19 1 22 1 30 1 32 1 38 1 41 1 53 1 59 1 73 1 91 1 97 1 107 1 122 1 123 1 124 1 126 1 138 1 151 1 153 1 157 1 166 1 179 1 196 1 201 1 209 1 211 1 212 1 282 1 287 1 307 1 341 1 344 1 352 1 360 1 388 1 397 1 424 1 454 1 458 1 461 1 471 1 484 1 490 1 497 1 504 1 
1 194 5 2 7 1 9 1 12 1 18 1 22 1 40 1 49 1 59 1 75 1 94 1 104 1 109 1 111 1 118 1 123 1 129 1 133 1 152 1 156 1 189 2 193 1 223 1 224 1 232 1 233 1 241 1 250 1 259 1 263 1 265 1 281 1 297 2 306 1 319 2 320 1 329 1 339 1 343 1 345 1 369 1 377 1 378 1 400 1 406 1 409 1 414 1 415 1 425 2 426 1 435 1 436 2 444 1 482 1 489 1 453 1 462 1 492 1 19 1 20 1 37 1 53 1 56 1 62 1 71 1 79 1 81 1 92 1 95 1 96 1 107 1 108 1 114 1 119 1 139 1 153 1 160 1 162 1 166 1 172 1 176 1 184 1 188 1 201 1 213 1 216 1 253 1 254 1 257 1 264 1 266 1 270 1 271 1 294 1 302 1 315 1 317 1 328 1 335 1 344 1 360 1 374 1 401 1 421 1 433 1 445 1 446 1 458 1 471 1 479 1 486 1 507 1 517 1 
1 191 2 1 4 1 5 1 9 1 14 2 33 1 35 1 39 1 52 1 55 1 58 1 69 1 76 1 94 1 100 1 101 1 103 1 124 2 132 1 161 1 170 1 205 1 212 2 214 1 217 1 226 1 233 1 250 1 251 1 266 1 275 1 277 1 280 1 288 1 289 1 295 1 299 1 308 1 322 1 337 1 338 1 344 1 345 2 346 1 357 1 358 1 362 1 367 1 387 1 397 1 402 1 424 1 434 1 438 1 440 1 452 1 497 1 472 2 479 1 463 1 6 1 12 1 19 1 21 1 24 1 25 1 28 1 57 1 89 1 96 1 97 1 108 1 116 1 117 1 125 1 129 1 142 1 151 1 152 1 154 1 178 1 186 1 188 1 192 1 200 1 203 1 207 1 216 1 234 1 254 1 259 1 271 1 292 1 294 1 306 1 312 1 326 1 329 1 351 1 360 1 376 1 379 1 392 1 400 1 404 1 406 1 414 1 421 1 442 1 471 1 482 1 490 1 494 1 509 1 
1 189 2 1 7 1 20 1 52 1 59 1 63 1 74 2 77 1 80 1 81 1 101 1 108 2 111 2 125 1 127 1 135 1 138 1 143 1 162 1 165 2 185 1 204 1 211 1 217 1 219 1 224 1 230 2 231 1 240 2 242 1 244 1 249 1 288 1 295 1 305 1 312 2 313 1 317 1 322 2 326 1 338 1 350 1 357 1 372 1 378 2 379 1 391 1 405 1 407 1 415 1 484 1 488 1 496 1 489 1 465 1 1 1 5 1 12 1 21 1 30 1 36 1 44 1 54 1 58 1 78 1 89 1 94 1 98 1 119 1 124 1 145 1 149 1 151 1 174 1 175 1 179 1 183 1 190 1 193 1 198 1 203 1 226 1 246 1 257 1 262 1 319 1 321 1 328 1 329 1 330 1 339 1 353 1 358 1 363 1 371 1 396 1 417 1 420 1 449 1 451 1 490 1 502 1 516 1 
1 228 8 1 16 1 24 1 31 1 32 1 45 1 51 1 57 1 68 1 79 1 84 1 90 1 93 1 106 1 116 2 127 1 131 1 149 2 152 1 159 1 171 1 174 2 182 1 184 1 190 1 198 1 201 1 210 1 212 2 216 1 217 1 219 1 227 1 228 1 248 1 253 2 272 1 276 1 280 1 281 1 285 1 286 1 302 1 304 1 310 1 315 1 319 1 323 1 327 1 329 1 359 1 367 1 377 1 378 1 381 2 385 1 411 1 420 2 425 1 488 1 495 2 479 1 464 2 13 1 17 1 34 1 35 1 36 1 37 1 48 1 58 1 67 1 71 1 74 1 76 1 85 1 91 1 92 1 100 1 110 1 139 1 140 1 154 1 164 1 176 1 208 1 214 1 240 1 247 1 291 1 293 1 296 1 299 1 311 1 313 1 328 1 335 1 336 1 349 1 361 1 372 1 380 1 402 1 409 1 416 1 432 1 489 1 496 1 499 1 503 1 516 1 
1 197 7 1 10 1 14 1 19 1 39 1 42 2 48 2 49 1 66 1 71 1 72 1 77 1 92 1 94 1 111 1 118 2 127 1 131 2 159 1 168 1 172 1 179 1 185 2 194 1 198 1 199 1 203 1 210 1 218 1 248 1 249 1 255 1 271 1 272 1 286 1 291 2 294 1 309 1 316 1 319 2 321 1 327 2 338 1 343 1 351 1 366 2 379 2 380 1 389 1 396 1 397 1 405 1 419 2 427 1 436 1 491 2 490 1 498 1 5 1 8 1 11 1 13 1 29 1 30 1 33 1 35 1 52 1 64 1 70 1 75 1 79 1 88 1 96 1 100 1 102 1 121 1 128 1 150 1 174 1 180 1 184 1 187 1 193 1 216 1 219 1 224 1 228 1 231 1 238 1 246 1 252 1 265 1 274 1 299 1 305 1 341 1 364 1 367 1 377 1 378 1 385 1 386 1 403 1 409 1 414 1 432 1 450 1 462 1 495 1 513 1 
1 214 10 1 11 1 12 1 19 1 23 1 48 1 52 1 57 1 60 1 64 1 76 1 78 1 90 1 96 1 98 1 106 1 123 1 126 1 144 1 151 1 161 1 162 1 163 1 171 2 175 1 191 1 199 1 211 1 214 1 223 1 225 1 227 2 228 1 236 1 238 1 244 1 272 1 274 1 279 2 286 1 289 1 298 1 300 1 304 1 305 2 306 1 331 1 335 1 338 2 345 1 355 1 358 1 361 1 364 1 370 1 371 1 373 1 383 1 396 1 412 1 416 1 445 1 446 1 448 1 459 1 489 1 467 1 462 1 469 1 483 1 3 1 8 1 9 1 22 1 40 1 50 1 55 1 59 1 69 1 81 1 89 1 93 1 104 1 113 1 115 1 121 1 132 1 141 1 153 1 158 1 177 1 192 1 205 1 221 1 231 1 241 1 250 1 252 1 256 1 263 1 265 1 266 1 268 1 291 1 307 1 308 1 317 1 321 1 323 1 330 1 334 1 339 1 342 1 344 1 356 1 372 1 377 1 393 1 397 1 398 1 406 1 410 1 413 1 419 1 424 1 447 1 492 1 499 1 510 1 518 1 
1 192 6 1 24 1 27 1 45 1 52 1 56 1 67 1 69 1 72 1 74 1 86 1 89 1 92 1 104 1 112 1 117 1 141 1 145 1 173 1 181 1 197 2 200 1 212 1 222 1 229 2 233 1 256 1 257 2 266 1 269 1 270 1 278 1 298 1 300 2 304 1 306 1 317 1 321 1 346 1 350 1 354 1 359 1 361 1 368 1 399 1 418 1 422 1 444 1 447 1 493 2 483 1 459 1 462 1 497 1 478 1 9 1 18 1 34 1 41 1 44 1 49 1 51 1 62 1 71 1 88 1 95 1 97 1 101 1 130 1 138 1 142 1 150 1 154 1 157 1 161 1 162 1 182 1 194 1 215 1 232 1 235 1 246 1 273 1 289 1 307 1 314 1 318 1 319 1 352 1 363 1 371 1 373 1 408 1 412 1 417 1 423 1 425 1 426 1 451 1 452 1 467 1 474 1 513 1 
1 213 5 1 9 1 13 1 23 1 27 1 43 1 53 1 55 1 62 1 75 1 77 1 84 1 89 1 95 1 99 1 102 1 109 1 131 1 149 1 154 1 156 1 157 1 171 1 180 1 190 2 202 1 205 1 218 1 221 2 222 1 227 2 229 2 236 1 238 1 245 1 250 1 253 1 256 1 273 1 277 1 292 1 293 1 295 1 308 1 316 1 322 2 326 1 331 1 348 1 353 1 360 2 402 1 415 1 446 1 448 1 457 1 458 1 462 2 490 1 464 1 8 1 16 1 20 1 35 1 46 1 47 1 56 1 66 1 68 1 76 1 78 1 85 1 92 1 103 1 120 1 121 1 130 1 153 1 155 1 159 1 161 1 177 1 195 1 204 1 217 1 224 1 228 1 231 1 242 1 248 1 258 1 279 1 280 1 281 1 284 1 286 1 296 1 315 1 330 1 335 1 338 1 349 1 362 1 363 1 370 1 376 1 380 1 387 1 389 1 400 1 405 1 409 1 411 1 416 1 430 1 444 1 463 1 478 1 486 1 494 1 518 1 521 1 
1 206 1 1 9 1 11 1 13 1 28 1 32 1 45 1 46 1 55 1 87 1 102 1 105 1 113 1 151 1 154 1 157 1 169 1 181 1 184 1 186 1 195 1 205 1 214 1 216 1 223 1 226 1 232 1 235 1 238 1 248 1 252 1 268 1 278 1 280 1 313 1 318 1 325 1 340 1 341 2 342 1 348 1 354 1 356 1 359 1 389 1 395 1 399 1 402 1 406 1 407 1 413 1 423 1 426 1 429 1 446 1 448 1 495 1 492 1 497 1 477 1 470 1 15 1 21 1 29 1 35 1 36 1 44 1 48 1 53 1 61 1 62 1 74 1 80 1 91 1 93 1 101 1 106 1 107 1 118 1 125 1 126 1 134 1 162 1 163 1 180 1 187 1 188 1 203 1 208 1 210 1 213 1 220 1 227 1 240 1 241 1 247 1 254 1 262 1 275 1 276 1 277 1 281 1 284 1 286 1 298 1 300 1 305 1 306 1 310 1 335 1 343 1 347 1 367 1 380 1 410 1 415 1 428 1 433 1 434 1 436 1 444 1 489 1 491 1 493 1 498 1 499 1 505 1 521 1 
1 197 14 2 16 1 24 2 32 1 34 1 35 1 37 2 43 1 54 1 56 1 68 1 70 1 73 1 79 1 85 1 103 1 109 1 155 1 156 1 163 1 165 2 170 1 172 1 174 1 180 1 181 1 185 1 187 2 195 1 206 1 207 1 215 1 222 1 229 1 241 1 258 1 263 1 271 2 284 1 286 1 297 1 322 1 326 1 333 1 335 1 337 1 344 1 363 1 374 1 379 1 382 2 417 1 422 1 446 1 477 1 17 1 21 1 47 1 59 1 87 1 88 1 93 1 104 1 116 1 121 1 128 1 132 1 137 1 148 1 149 1 166 1 173 1 197 1 219 1 232 1 250 1 276 1 281 1 294 1 307 1 310 1 313 1 315 1 321 1 325 1 367 1 369 1 390 1 395 1 403 1 407 1 416 1 451 1 490 1 493 1 500 1 521 1 
1 225 1 1 3 2 18 1 29 2 38 1 52 1 53 1 62 1 76 1 78 1 82 1 89 1 99 1 102 1 104 1 111 1 126 1 137 2 139 1 141 1 143 1 151 1 161 1 162 1 163 1 164 1 186 1 192 1 194 1 204 1 216 1 221 2 233 1 238 1 239 1 244 1 246 1 263 1 271 1 284 1 286 1 309 1 322 2 328 2 330 1 333 1 334 1 343 1 355 2 358 1 380 1 406 2 409 2 410 1 421 1 452 1 457 1 458 1 459 2 472 1 490 2 2 1 9 1 13 1 22 1 23 1 30 1 37 1 40 1 54 1 58 1 59 1 68 1 74 1 87 1 97 1 98 1 112 1 119 1 122 1 124 1 150 1 170 1 171 1 177 1 193 1 199 1 217 1 219 1 229 1 241 1 262 1 270 1 272 1 275 1 279 1 289 1 295 1 307 1 312 1 332 1 348 1 353 1 363 1 371 1 373 1 382 1 383 1 384 1 398 1 405 1 408 1 415 1 420 1 429 1 456 1 463 1 469 1 489 1 492 1 495 1 496 1 519 1 
1 225 4 1 8 1 15 1 26 1 31 1 33 1 37 1 40 1 41 1 69 1 71 2 73 1 85 1 88 2 96 2 139 1 144 1 148 1 151 2 157 1 164 2 165 1 166 1 173 1 180 1 181 1 190 1 191 1 192 1 203 1 206 1 216 1 227 1 231 1 237 1 245 1 249 2 258 1 261 1 273 1 274 1 285 1 286 1 288 1 291 1 296 1 297 1 299 1 303 1 304 1 321 1 323 1 336 1 337 2 338 1 340 1 357 1 376 1 387 1 401 1 408 1 415 1 420 1 430 1 453 1 466 1 6 1 17 1 22 1 30 1 42 1 47 1 53 1 59 1 64 1 74 1 102 1 108 1 111 1 135 1 138 1 142 1 153 1 154 1 161 1 194 1 211 1 220 1 223 1 232 1 240 1 254 1 255 1 256 1 263 1 268 1 280 1 293 1 305 1 319 1 324 1 333 1 341 1 343 1 345 1 371 1 375 1 380 1 389 1 407 1 459 1 462 1 507 1 508 1 
1 202 6 1 15 1 16 2 23 1 27 1 57 1 72 1 73 1 88 1 102 1 108 1 132 2 136 1 151 1 153 1 163 1 165 1 173 1 174 1 183 1 186 1 187 1 194 1 202 1 205 2 212 2 214 1 221 2 231 1 234 1 250 1 255 1 258 2 285 1 310 2 316 1 338 1 342 1 359 1 360 1 382 2 388 1 399 1 432 1 437 1 442 1 455 2 459 1 497 1 467 2 477 1 488 1 1 1 10 1 11 1 29 1 32 1 37 1 46 1 50 1 67 1 74 1 103 1 109 1 117 1 130 1 135 1 146 1 147 1 169 1 170 1 172 1 190 1 195 1 197 1 208 1 213 1 220 1 222 1 224 1 232 1 257 1 260 1 271 1 283 1 289 1 290 1 295 1 307 1 309 1 317 1 326 1 331 1 355 1 369 1 371 1 372 1 378 1 395 1 403 1 404 1 414 1 417 1 419 1 425 1 468 1 474 1 475 1 476 1 496 1 503 1 507 1 515 1 
1 186 31 1 34 1 36 1 39 1 47 1 48 1 50 1 56 1 57 1 60 1 64 1 65 1 74 1 85 2 93 1 105 1 107 1 116 1 129 1 133 1 145 1 148 1 171 1 173 1 200 1 203 1 224 2 226 1 235 1 237 1 244 1 282 1 287 1 289 1 294 1 306 1 311 1 317 1 326 1 327 1 357 1 366 1 376 1 396 1 420 1 426 1 433 2 434 1 454 1 493 2 495 1 468 1 484 1 482 1 2 1 9 1 11 1 14 1 20 1 22 1 29 1 41 1 67 1 71 1 73 1 77 1 82 1 83 1 91 1 97 1 99 1 123 1 134 1 138 1 162 1 170 1 180 1 199 1 220 1 225 1 251 1 253 1 288 1 290 1 307 1 319 1 328 1 361 1 362 1 364 1 369 1 383 1 402 1 403 1 405 1 431 1 494 1 514 1 
1 208 10 1 20 1 24 2 46 1 51 1 56 1 61 1 68 1 97 1 98 1 105 1 109 1 117 1 124 1 126 1 127 1 131 1 141 1 149 2 167 1 169 1 171 1 173 2 175 1 180 1 183 1 185 1 194 2 205 2 206 1 211 1 216 1 230 2 248 1 251 2 252 2 274 1 290 1 291 1 299 1 301 1 314 2 331 1 357 1 366 1 368 1 379 1 380 1 383 1 402 1 404 2 413 1 432 1 436 2 463 1 481 2 5 1 8 1 17 1 26 1 30 1 38 1 41 1 52 1 57 1 66 1 70 1 73 1 88 1 94 1 116 1 132 1 143 1 147 1 153 1 177 1 181 1 202 1 212 1 234 1 245 1 249 1 261 1 264 1 272 1 294 1 306 1 315 1 322 1 330 1 335 1 338 1 343 1 360 1 363 1 369 1 373 1 388 1 399 1 409 1 431 1 434 1 469 1 499 1 500 1 
1 208 3 1 17 1 28 1 30 1 34 1 42 1 43 1 50 1 56 2 57 1 68 1 73 1 74 2 77 1 87 1 89 1 91 1 119 1 121 1 132 1 139 2 142 1 143 1 166 1 173 1 181 1 182 1 192 1 194 1 195 2 201 1 203 1 206 1 214 1 217 1 226 1 247 2 251 1 256 1 265 1 271 1 272 1 310 1 339 1 343 1 349 1 360 1 363 1 368 1 385 1 392 1 396 1 407 1 408 1 418 1 421 1 430 1 436 1 457 1 464 2 469 1 493 1 13 1 15 1 21 1 25 1 36 1 44 1 45 1 54 1 72 1 75 1 79 1 83 1 86 1 95 1 100 1 108 1 122 1 131 1 150 1 169 1 184 1 189 1 202 1 204 1 210 1 228 1 233 1 238 1 239 1 244 1 249 1 257 1 262 1 264 1 291 1 292 1 295 1 300 1 309 1 332 1 341 1 358 1 379 1 384 1 401 1 404 1 432 1 437 1 450 1 458 1 474 1 475 1 499 1 
1 192 3 1 4 1 14 1 15 1 27 1 31 1 51 1 72 1 75 1 95 1 104 2 105 1 117 1 121 1 122 1 150 1 154 1 157 1 170 1 189 1 194 1 204 2 218 1 232 1 234 1 239 1 243 1 255 1 263 1 266 2 288 1 295 1 296 1 350 1 356 1 360 2 361 1 362 1 363 1 394 1 396 1 400 1 402 1 406 1 410 2 465 1 470 1 2 1 8 1 19 1 29 1 34 1 36 1 38 1 41 1 48 1 62 1 64 1 67 1 68 1 87 1 111 1 112 1 120 1 126 1 129 1 130 1 141 1 153 1 160 1 174 1 179 1 187 1 196 1 197 1 203 1 209 1 210 1 227 1 230 1 244 1 259 1 261 1 299 1 307 1 325 1 330 1 341 1 367 1 376 1 379 1 384 1 387 1 398 1 405 1 407 1 427 1 440 1 442 1 464 1 473 1 483 1 513 1 
1 205 27 1 30 1 53 1 63 1 65 1 88 1 101 1 115 1 117 1 139 1 144 1 148 1 152 2 153 1 160 1 166 1 170 1 178 1 179 1 193 1 202 1 215 2 246 1 247 1 250 1 256 1 261 1 263 1 269 1 273 1 290 1 296 1 302 1 304 1 307 1 308 1 320 1 351 2 369 1 375 1 377 1 379 1 385 1 386 1 392 1 393 1 407 1 412 1 419 1 424 1 437 1 441 2 442 1 444 1 457 1 467 1 477 1 481 1 475 1 11 1 17 1 29 1 34 1 39 1 42 1 43 1 44 1 50 1 59 1 60 1 73 1 74 1 105 1 123 1 128 1 129 1 158 1 171 1 181 1 182 1 187 1 188 1 191 1 194 1 208 1 216 1 225 1 230 1 233 1 244 1 264 1 275 1 284 1 287 1 306 1 312 1 313 1 317 1 322 1 327 1 328 1 332 1 343 1 347 1 362 1 370 1 405 1 413 1 415 1 418 1 443 1 462 1 466 1 
1 196 5 1 6 1 23 1 30 1 34 1 35 1 42 1 46 1 53 1 73 1 74 1 79 1 95 1 104 1 113 1 114 1 127 1 137 1 147 1 148 1 187 1 199 2 200 1 228 1 240 1 244 1 256 1 260 1 267 1 277 1 280 1 282 1 316 1 319 1 320 1 323 1 333 1 334 1 367 1 370 1 400 1 403 1 410 1 411 1 424 1 429 1 434 1 440 1 460 1 468 1 475 1 471 1 488 2 4 1 7 1 26 1 56 1 70 1 77 1 84 1 89 1 97 1 140 1 155 1 179 1 190 1 196 1 197 1 204 1 206 1 210 1 214 1 223 1 233 1 238 1 242 1 252 1 254 1 264 1 273 1 274 1 289 1 294 1 300 1 304 1 327 1 331 1 339 1 348 1 350 1 358 1 361 1 373 1 378 1 396 1 398 1 416 1 420 1 423 1 444 1 476 1 482 1 500 1 
1 193 17 1 42 1 50 1 65 1 69 1 85 1 89 1 108 1 110 1 118 1 122 1 152 1 153 1 156 1 159 1 160 1 169 1 179 1 180 1 184 1 189 1 197 1 202 1 207 1 209 1 252 1 254 1 267 1 275 1 278 1 295 1 306 1 324 1 325 1 330 1 331 1 333 2 335 1 341 1 356 1 369 1 373 1 376 1 380 1 393 1 399 1 409 2 429 1 436 1 448 2 470 1 481 1 40 1 63 1 84 1 86 1 90 1 92 1 99 1 106 1 119 1 121 1 130 1 134 1 155 1 158 1 167 1 173 1 175 1 186 1 192 1 196 1 203 1 215 1 222 1 230 1 236 1 237 1 256 1 261 1 262 1 296 1 297 1 299 1 315 1 320 1 337 1 358 1 362 1 363 1 374 1 384 1 386 1 388 1 391 1 398 1 404 1 407 1 408 1 412 1 414 1 427 1 428 1 430 1 433 1 435 1 444 1 451 1 452 1 453 1 475 1 480 1 505 1 511 1 
1 183 17 1 25 1 27 1 47 2 73 1 78 1 93 1 98 1 113 1 123 1 131 1 141 1 144 1 146 1 164 1 185 1 196 1 200 1 201 1 204 1 211 1 213 2 223 1 225 1 226 1 227 1 232 1 238 1 256 1 265 1 287 1 366 2 381 2 387 1 399 2 406 1 416 1 434 1 453 2 462 1 480 1 484 1 486 1 7 1 13 1 18 1 20 1 26 1 29 1 37 1 44 1 59 1 87 1 89 1 100 1 101 1 117 1 138 1 152 1 163 1 169 1 173 1 203 1 239 1 243 1 249 1 261 1 263 1 266 1 277 1 297 1 299 1 310 1 324 1 347 1 351 1 364 1 368 1 369 1 377 1 409 1 411 1 413 1 428 1 430 1 432 1 448 1 
1 201 8 1 20 1 22 1 40 1 41 1 45 1 47 2 54 1 67 1 73 1 78 1 97 1 112 1 123 1 124 2 125 1 128 1 136 1 152 1 158 1 179 1 199 2 210 1 226 2 236 1 240 1 243 1 252 2 259 1 272 1 291 1 297 1 304 1 316 1 319 1 322 1 329 1 339 1 351 2 378 1 387 1 388 1 390 1 399 1 416 2 418 2 429 1 433 1 439 1 441 1 445 1 481 1 482 1 475 1 474 1 488 1 492 1 10 1 13 1 15 1 16 1 18 1 21 1 24 1 42 1 46 1 56 1 57 1 66 1 84 1 86 1 89 1 100 1 102 1 108 1 111 1 120 1 126 1 133 1 135 1 142 1 147 1 154 1 185 1 186 1 189 1 196 1 197 1 198 1 202 1 206 1 209 1 216 1 217 1 222 1 233 1 241 1 245 1 248 1 249 1 256 1 258 1 260 1 261 1 292 1 310 1 321 1 334 1 335 1 347 1 348 1 355 1 358 1 360 1 389 1 404 1 409 1 411 1 431 1 432 1 468 1 500 1 507 1 521 1 
1 206 6 2 15 2 16 1 20 1 21 1 30 1 35 1 47 1 49 1 51 2 54 1 56 2 61 1 71 1 75 1 93 1 112 1 113 1 121 1 123 1 126 1 129 1 139 1 157 1 181 1 196 1 202 1 216 1 223 1 224 1 227 1 240 1 248 1 276 1 280 1 281 1 298 1 330 1 332 1 335 2 337 1 339 1 340 1 343 1 346 1 356 1 366 1 367 1 387 1 394 1 400 1 403 1 409 1 427 1 438 1 450 1 473 1 491 1 19 1 36 1 37 1 59 1 67 1 77 1 104 1 107 1 114 1 119 1 135 1 147 1 165 1 172 1 174 1 195 1 210 1 212 1 228 1 231 1 242 1 263 1 308 1 310 1 312 1 314 1 316 1 323 1 329 1 351 1 353 1 358 1 371 1 373 1 382 1 386 1 406 1 408 1 418 1 424 1 435 1 439 1 458 1 464 1 467 1 511 1 
1 208 6 1 14 1 29 1 30 1 35 1 38 1 42 2 43 1 55 1 61 2 69 1 90 2 95 1 112 1 114 1 115 1 122 1 132 1 149 1 161 1 162 1 169 1 171 1 173 1 184 1 186 1 187 1 205 1 215 1 216 1 223 1 238 1 247 1 248 2 268 1 271 2 278 1 285 1 291 1 299 1 307 1 313 1 314 1 317 2 342 1 345 1 356 1 359 1 366 1 382 1 385 1 389 2 390 1 395 1 404 1 411 1 413 1 437 1 447 1 450 1 469 1 470 1 473 1 479 1 480 1 21 1 24 1 32 1 48 1 57 1 63 1 68 1 106 1 109 1 118 1 139 1 144 1 163 1 165 1 167 1 170 1 203 1 206 1 210 1 228 1 230 1 249 1 253 1 274 1 286 1 294 1 300 1 308 1 315 1 325 1 338 1 341 1 349 1 352 1 384 1 402 1 403 1 406 1 416 1 440 1 464 1 467 1 471 1 478 1 487 1 507 1 
1 209 16 1 19 1 22 2 26 1 37 1 48 1 55 1 56 1 60 2 70 1 75 1 78 1 79 1 82 1 92 1 120 1 121 1 128 1 131 1 140 2 144 1 160 1 166 2 179 1 180 1 183 1 186 1 188 2 191 1 216 1 222 1 224 1 227 1 234 1 236 1 242 1 246 1 250 1 279 1 280 1 284 1 286 2 297 1 317 1 319 1 342 1 344 1 357 1 380 1 381 1 387 2 401 1 404 1 410 1 420 1 426 1 477 1 496 1 8 1 18 1 43 1 47 1 49 1 52 1 89 1 102 1 103 1 112 1 115 1 127 1 136 1 169 1 176 1 182 1 189 1 194 1 211 1 217 1 239 1 248 1 253 1 256 1 259 1 261 1 273 1 285 1 288 1 291 1 311 1 322 1 331 1 338 1 354 1 358 1 361 1 363 1 368 1 372 1 395 1 412 1 413 1 419 1 422 1 423 1 429 1 464 1 470 1 479 1 491 1 504 1 510 1 512 1 517 1 
1 206 5 1 9 1 16 1 20 1 25 1 32 1 35 1 49 1 57 1 64 1 75 1 85 1 103 1 114 2 130 2 132 1 137 1 158 1 169 2 174 1 183 1 192 1 194 1 221 1 223 2 228 1 242 1 245 1 253 1 271 1 279 1 288 1 321 1 332 1 335 1 338 1 342 1 360 1 366 2 375 1 384 1 385 1 386 1 410 2 415 1 433 1 449 1 460 1 461 1 464 1 469 1 476 1 499 1 11 1 26 1 40 1 41 1 42 1 44 1 46 1 56 1 63 1 65 1 73 1 76 1 129 1 134 1 138 1 153 1 159 1 168 1 182 1 189 1 199 1 211 1 226 1 229 1 233 1 234 1 237 1 238 1 240 1 273 1 291 1 294 1 322 1 327 1 330 1 340 1 341 1 352 1 396 1 411 1 417 1 418 1 429 1 430 1 441 1 443 1 446 1 450 1 494 1 501 1 507 1 519 1 
1 230 17 1 20 2 24 1 35 1 37 1 56 2 60 1 65 1 68 1 72 1 73 1 76 1 101 1 105 1 122 1 126 1 131 1 135 1 139 1 158 1 167 1 170 1 171 1 196 1 236 1 237 1 242 1 247 1 264 1 279 2 283 1 285 1 290 1 302 1 309 1 330 1 332 1 335 1 357 1 382 1 387 1 403 1 418 1 432 1 437 1 441 1 451 1 458 1 496 1 12 1 25 1 42 1 45 1 53 1 58 1 64 1 79 1 85 1 89 1 93 1 114 1 115 1 118 1 119 1 132 1 145 1 151 1 156 1 163 1 164 1 165 1 183 1 185 1 193 1 200 1 201 1 207 1 210 1 219 1 234 1 238 1 240 1 254 1 266 1 276 1 282 1 297 1 336 1 352 1 358 1 361 1 378 1 394 1 416 1 419 1 440 1 459 1 475 1 480 1 481 1 482 1 490 1 500 1 501 1 503 1 509 1 519 1 
1 189 15 2 47 1 62 1 66 1 68 1 69 1 74 1 79 1 86 1 90 1 93 1 100 1 115 2 133 1 137 1 148 1 150 1 175 1 177 1 183 1 187 1 212 1 223 1 231 1 260 1 272 1 277 1 284 1 288 1 290 1 307 2 309 1 314 1 321 1 348 1 353 1 354 1 361 1 363 1 366 1 375 1 388 1 396 1 415 2 416 1 423 1 432 2 449 1 453 1 455 1 475 1 485 1 482 1 487 1 481 1 8 1 14 1 31 1 40 1 42 1 51 1 56 1 71 1 77 1 82 1 97 1 98 1 106 1 111 1 112 1 120 1 153 1 161 1 168 1 169 1 189 1 202 1 211 1 216 1 240 1 244 1 252 1 259 1 266 1 281 1 297 1 299 1 302 1 317 1 320 1 322 1 333 1 351 1 356 1 398 1 408 1 411 1 426 1 427 1 442 1 452 1 476 1 484 1 512 1 
1 209 17 1 28 1 35 1 36 1 42 1 43 2 49 1 60 1 72 1 73 1 75 1 81 1 92 1 93 1 104 1 105 1 150 1 155 1 167 1 180 1 183 1 186 1 190 1 193 1 205 1 210 2 211 2 212 1 215 1 225 2 243 1 248 1 250 1 263 1 274 1 281 1 290 1 293 1 298 2 308 1 310 1 314 2 315 1 335 1 337 1 348 1 352 1 359 1 360 1 362 1 367 1 392 1 420 1 425 1 426 2 432 1 443 1 450 1 472 1 475 1 496 1 483 1 10 1 18 1 34 1 39 1 46 1 54 1 62 1 68 1 70 1 74 1 82 1 87 1 89 1 98 1 103 1 115 1 120 1 122 1 124 1 128 1 135 1 138 1 145 1 147 1 153 1 154 1 158 1 161 1 184 1 191 1 195 1 204 1 207 1 231 1 233 1 241 1 245 1 246 1 247 1 261 1 276 1 278 1 288 1 292 1 305 1 318 1 326 1 327 1 329 1 338 1 343 1 350 1 355 1 361 1 400 1 403 1 404 1 411 1 422 1 446 1 471 1 478 1 485 1 489 1 501 1 
1 205 2 1 32 1 33 1 62 1 73 1 83 1 89 1 94 1 95 1 97 1 99 1 119 1 121 1 126 1 141 1 146 1 153 1 155 1 162 1 170 1 171 1 181 1 182 1 190 1 193 1 196 1 203 1 208 1 220 1 227 1 235 1 237 1 240 1 242 1 243 2 246 1 257 2 278 1 293 2 298 1 303 2 313 1 323 1 331 1 335 1 338 1 341 1 350 1 358 1 369 1 371 1 378 1 380 1 386 1 391 1 397 1 412 1 419 1 422 1 431 1 450 2 466 2 469 1 471 1 473 1 479 1 492 1 487 1 14 1 21 1 27 1 34 1 38 1 44 1 49 1 60 1 69 1 71 1 79 1 84 1 114 1 124 1 136 1 140 1 144 1 168 1 178 1 184 1 187 1 195 1 201 1 206 1 225 1 248 1 279 1 280 1 281 1 294 1 304 1 311 1 317 1 318 1 319 1 322 1 342 1 345 1 352 1 356 1 357 1 366 1 384 1 389 1 449 1 478 1 
1 205 2 1 17 1 52 1 86 1 89 1 94 1 97 1 105 1 114 1 120 2 133 1 134 1 137 1 146 1 157 1 159 1 164 1 174 1 234 1 235 1 237 2 242 2 270 1 272 1 278 1 282 2 283 1 290 1 291 1 292 2 293 1 313 1 314 2 324 1 342 2 349 1 357 1 364 1 367 1 390 1 394 1 405 1 408 1 418 2 426 2 427 1 437 1 452 1 465 1 473 1 479 1 499 1 18 1 29 1 45 1 51 1 55 1 57 1 61 1 80 1 83 1 92 1 99 1 119 1 144 1 155 1 170 1 178 1 189 1 190 1 192 1 201 1 206 1 220 1 221 1 222 1 248 1 249 1 254 1 260 1 265 1 271 1 276 1 277 1 287 1 305 1 306 1 334 1 345 1 361 1 362 1 369 1 370 1 386 1 395 1 401 1 402 1 413 1 429 1 434 1 436 1 445 1 453 1 470 1 478 1 485 1 495 1 507 1 
1 215 27 1 29 1 34 1 44 1 52 1 54 1 58 1 60 1 61 1 64 1 65 2 70 2 81 1 87 1 93 1 94 1 95 1 99 1 104 1 114 1 117 1 128 1 136 1 141 1 144 1 146 1 157 1 166 1 171 2 175 1 177 1 184 1 185 1 195 1 198 2 211 1 218 1 230 1 237 1 238 2 256 1 259 2 278 1 317 1 319 1 328 1 331 1 335 2 346 2 367 1 380 1 381 1 385 1 386 1 410 2 416 1 418 1 441 1 442 1 446 1 450 2 457 1 458 1 480 1 498 1 488 1 1 1 15 1 17 1 23 1 42 1 48 1 62 1 67 1 73 1 74 1 79 1 88 1 98 1 107 1 116 1 127 1 137 1 139 1 143 1 145 1 151 1 154 1 194 1 205 1 212 1 214 1 217 1 228 1 247 1 255 1 258 1 275 1 306 1 312 1 318 1 326 1 329 1 341 1 349 1 356 1 366 1 378 1 391 1 394 1 426 1 436 1 447 1 448 1 449 1 468 1 484 1 489 1 494 1 495 1 509 1 520 1 
1 212 3 1 19 1 20 1 23 1 36 2 41 1 53 1 57 1 60 1 71 1 76 1 82 1 86 1 112 1 127 1 129 1 137 1 144 1 149 1 155 1 176 1 181 1 189 1 216 1 224 1 229 1 249 1 250 1 260 1 262 1 270 1 275 1 295 1 298 1 300 1 301 1 303 1 310 1 313 1 325 2 337 2 338 1 340 1 341 1 363 1 368 1 369 1 387 1 388 1 392 1 397 1 436 1 447 1 454 1 465 1 472 1 488 1 491 1 499 1 4 1 50 1 52 1 67 1 68 1 85 1 88 1 90 1 100 1 103 1 110 1 113 1 115 1 132 1 141 1 145 1 146 1 160 1 166 1 167 1 168 1 169 1 178 1 184 1 203 1 204 1 205 1 218 1 246 1 252 1 263 1 265 1 292 1 323 1 330 1 331 1 343 1 359 1 362 1 364 1 371 1 380 1 381 1 386 1 402 1 405 1 408 1 425 1 430 1 448 1 451 1 479 1 483 1 504 1 514 1 516 1 
1 214 7 1 21 1 27 1 42 1 45 2 46 2 55 2 58 1 60 1 64 1 79 1 110 1 126 1 132 1 136 2 143 1 145 1 157 1 159 1 165 1 172 1 199 1 200 1 210 1 214 1 215 1 223 1 224 2 225 1 230 1 246 1 256 1 273 2 276 1 291 1 299 1 302 1 317 1 321 1 336 1 337 1 338 1 347 1 348 1 364 1 367 1 384 1 385 1 395 1 398 1 399 1 404 1 410 1 414 1 419 1 425 1 446 1 479 1 486 1 499 1 489 2 23 1 41 1 43 1 67 1 68 1 81 1 82 1 88 1 90 1 92 1 114 1 131 1 133 1 140 1 149 1 164 1 167 1 181 1 193 1 202 1 203 1 207 1 212 1 221 1 226 1 239 1 242 1 244 1 252 1 253 1 257 1 261 1 270 1 283 1 296 1 301 1 326 1 329 1 331 1 333 1 343 1 344 1 355 1 361 1 394 1 401 1 420 1 431 1 433 1 437 1 480 1 482 1 488 1 501 1 507 1 517 1 520 1 
1 208 25 1 30 1 44 1 45 1 50 1 53 1 58 1 63 1 64 1 89 1 97 1 120 2 127 1 128 1 136 1 140 1 143 2 145 1 149 1 153 1 162 1 173 1 178 1 181 1 186 1 191 2 210 1 211 2 225 1 239 1 240 1 244 1 255 1 263 2 270 1 273 1 275 2 276 1 292 1 303 1 307 2 316 1 321 1 339 1 340 1 351 1 382 2 400 2 402 1 409 1 418 1 432 1 436 1 472 1 485 1 489 1 487 1 495 1 498 1 37 1 39 1 46 1 52 1 70 1 77 1 85 1 88 1 90 1 92 1 94 1 96 1 102 1 108 1 109 1 142 1 148 1 161 1 172 1 176 1 177 1 182 1 184 1 209 1 226 1 229 1 231 1 236 1 247 1 261 1 302 1 309 1 311 1 315 1 322 1 325 1 328 1 332 1 365 1 369 1 384 1 403 1 450 1 452 1 459 1 515 1 
1 218 37 1 42 1 54 1 60 1 76 1 77 2 92 1 103 1 108 1 109 1 127 1 131 1 135 2 138 1 146 1 163 1 164 1 167 1 186 1 195 1 203 1 213 1 215 1 216 1 217 1 223 2 224 1 230 1 236 1 241 1 246 1 248 1 249 1 267 1 270 1 292 1 302 1 303 1 313 1 334 1 338 1 340 1 341 1 343 2 348 2 350 2 373 1 378 2 387 1 397 1 404 2 405 1 411 1 413 1 419 1 432 1 448 1 479 1 481 1 486 1 8 1 16 1 23 1 34 1 39 1 41 1 44 1 48 1 52 1 79 1 84 1 121 1 122 1 128 1 137 1 145 1 154 1 179 1 201 1 206 1 214 1 233 1 235 1 278 1 279 1 284 1 289 1 296 1 316 1 329 1 359 1 364 1 384 1 395 1 402 1 415 1 420 1 435 1 440 1 450 1 475 1 495 1 511 1 514 1 515 1 519 1 
1 186 31 1 32 2 46 1 72 2 84 1 90 1 106 1 140 1 160 1 161 2 183 1 189 1 216 1 217 1 221 1 224 1 225 1 236 1 239 1 241 2 268 1 270 1 274 1 282 1 290 2 291 1 296 1 312 1 315 1 330 1 345 1 370 1 375 1 378 1 389 1 394 1 417 1 434 1 454 1 455 1 464 1 470 2 473 1 483 1 484 1 491 1 4 1 12 1 25 1 37 1 41 1 49 1 60 1 62 1 66 1 67 1 69 1 82 1 114 1 146 1 149 1 155 1 168 1 179 1 180 1 184 1 188 1 205 1 214 1 223 1 248 1 255 1 257 1 259 1 260 1 261 1 265 1 298 1 299 1 316 1 322 1 333 1 337 1 340 1 343 1 366 1 377 1 395 1 400 1 401 1 418 1 428 1 431 1 435 1 436 1 449 1 485 1 496 1 
1 192 32 1 40 1 41 1 57 1 65 1 93 1 121 1 128 1 132 1 134 1 148 1 158 1 164 1 168 1 172 1 181 1 182 1 207 2 211 2 212 1 227 1 232 1 240 2 249 1 250 1 255 1 271 1 274 1 276 1 278 1 282 2 338 2 349 1 376 1 379 1 383 1 384 1 390 2 393 1 396 1 400 1 410 1 418 1 430 1 436 1 448 1 450 1 452 1 454 1 457 1 485 2 486 1 497 1 29 1 33 1 49 1 50 1 51 1 62 1 66 1 67 1 69 1 70 1 127 1 130 1 133 1 154 1 171 1 186 1 203 1 216 1 234 1 252 1 266 1 269 1 283 1 286 1 292 1 295 1 298 1 306 1 331 1 337 1 339 1 343 1 357 1 368 1 385 1 386 1 389 1 399 1 409 1 411 1 412 1 415 1 421 1 437 1 442 1 446 1 455 1 460 1 462 1 480 1 483 1 490 1 498 1 512 1 517 1 
1 206 20 1 36 1 44 1 51 2 55 1 66 1 67 1 72 1 80 2 86 2 90 1 92 1 113 1 117 1 138 1 143 1 164 1 166 1 167 1 170 1 181 1 195 1 211 1 228 1 229 1 247 1 249 1 256 1 272 2 278 1 279 1 282 1 284 1 299 1 303 1 310 1 333 1 337 2 339 1 341 2 369 1 373 1 384 1 388 1 389 1 393 1 397 1 399 1 404 1 418 1 437 2 439 1 450 1 456 1 459 1 462 2 498 1 494 1 14 1 48 1 59 1 64 1 73 1 94 1 123 1 127 1 133 1 134 1 142 1 162 1 173 1 188 1 194 1 214 1 221 1 222 1 225 1 240 1 248 1 252 1 274 1 276 1 294 1 302 1 304 1 314 1 325 1 334 1 342 1 358 1 370 1 376 1 400 1 402 1 442 1 451 1 453 1 454 1 461 1 478 1 489 1 496 1 511 1 
1 215 4 1 35 1 37 1 63 1 73 1 79 1 87 1 98 2 100 1 111 1 114 1 116 1 127 1 139 1 153 1 155 1 156 2 157 1 158 1 171 1 191 1 206 1 212 1 223 1 225 2 226 2 228 1 241 1 246 1 257 1 269 1 283 2 287 1 295 1 302 1 309 1 322 1 333 1 335 1 344 1 348 1 350 1 358 1 367 1 376 1 392 1 393 1 396 2 404 1 415 1 421 1 431 1 434 1 451 2 456 2 474 1 484 1 488 1 499 1 10 1 33 1 34 1 45 1 65 1 68 1 75 1 83 1 84 1 86 1 117 1 118 1 121 1 141 1 143 1 144 1 148 1 152 1 159 1 167 1 188 1 205 1 217 1 218 1 224 1 251 1 252 1 264 1 265 1 278 1 279 1 286 1 300 1 308 1 312 1 316 1 318 1 326 1 329 1 339 1 345 1 356 1 363 1 366 1 368 1 374 1 378 1 400 1 409 1 414 1 426 1 438 1 450 1 460 1 476 1 495 1 
1 210 28 1 37 1 43 1 44 1 48 1 51 2 63 1 69 1 89 1 92 1 96 1 100 1 105 1 127 1 140 1 151 1 154 1 160 1 163 1 167 1 169 1 193 1 197 2 206 1 227 1 229 1 233 1 244 1 251 1 278 1 286 1 301 1 331 1 332 2 337 1 339 1 352 1 373 1 378 1 390 1 403 1 408 1 413 1 422 2 425 2 431 1 435 1 441 1 445 1 452 1 460 1 473 1 481 1 496 1 495 2 1 1 8 1 33 1 35 1 38 1 41 1 42 1 50 1 74 1 82 1 86 1 121 1 144 1 164 1 176 1 182 1 183 1 184 1 186 1 187 1 198 1 212 1 228 1 253 1 255 1 259 1 262 1 263 1 269 1 284 1 293 1 298 1 305 1 306 1 325 1 326 1 328 1 333 1 335 1 341 1 348 1 366 1 367 1 371 1 375 1 379 1 383 1 391 1 394 1 414 1 419 1 420 1 424 1 427 1 437 1 446 1 450 1 457 1 462 1 501 1 512 1 
1 211 3 1 39 2 47 1 49 1 54 1 55 1 60 1 63 1 65 1 72 1 76 1 85 1 93 2 96 1 105 1 107 1 130 1 140 1 141 1 142 1 148 1 151 1 167 1 169 1 182 1 198 1 209 1 224 2 234 1 244 1 247 1 262 2 272 2 279 1 287 1 288 2 306 1 307 2 309 1 325 1 331 1 335 1 349 2 360 1 363 1 366 1 376 1 385 1 389 1 400 1 430 1 431 1 432 1 440 1 441 1 443 1 444 1 458 2 465 2 467 1 495 1 496 1 33 1 77 1 131 1 132 1 150 1 152 1 155 1 162 1 171 1 179 1 215 1 219 1 223 1 226 1 230 1 231 1 242 1 248 1 266 1 268 1 281 1 285 1 286 1 291 1 299 1 308 1 319 1 337 1 342 1 343 1 350 1 352 1 367 1 369 1 390 1 434 1 439 1 448 1 460 1 461 1 517 1 
1 205 28 1 32 1 35 1 47 1 48 1 52 1 58 1 59 1 62 1 73 1 81 1 82 1 85 1 93 1 112 2 137 2 141 2 148 1 150 1 174 1 178 1 182 1 183 1 198 1 205 1 222 1 228 1 250 1 253 1 271 1 304 1 313 1 333 1 341 1 345 2 352 1 353 1 360 1 364 1 366 1 370 1 372 1 380 1 400 1 406 1 410 1 413 1 429 1 445 1 490 1 496 1 20 1 44 1 54 1 61 1 70 1 77 1 78 1 89 1 94 1 102 1 105 1 114 1 116 1 119 1 123 1 124 1 129 1 139 1 162 1 164 1 192 1 193 1 194 1 200 1 202 1 210 1 213 1 216 1 218 1 231 1 251 1 263 1 266 1 283 1 299 1 305 1 325 1 330 1 358 1 359 1 361 1 373 1 381 1 402 1 403 1 407 1 414 1 415 1 416 1 419 1 426 1 428 1 453 1 459 1 465 1 477 1 483 1 498 1 502 1 
1 192 1 2 10 1 13 1 33 1 40 1 45 1 62 1 63 1 75 1 87 1 89 1 93 1 103 2 125 1 126 1 146 1 150 1 154 1 176 1 186 1 188 1 193 1 195 1 196 2 207 1 221 1 250 1 276 1 281 1 286 2 289 1 291 1 303 1 311 1 312 1 316 1 317 1 333 1 342 1 359 1 409 1 410 1 421 1 430 1 443 1 455 2 460 1 465 1 486 1 492 2 493 1 6 1 31 1 32 1 41 1 43 1 53 1 56 1 60 1 88 1 90 1 131 1 145 1 161 1 165 1 168 1 170 1 172 1 180 1 182 1 197 1 204 1 205 1 206 1 215 1 235 1 243 1 245 1 246 1 248 1 262 1 274 1 277 1 290 1 320 1 324 1 328 1 329 1 331 1 339 1 344 1 347 1 356 1 361 1 367 1 395 1 408 1 419 1 440 1 442 1 446 1 449 1 456 1 462 1 482 1 483 1 487 1 491 1 
1 200 7 1 23 1 37 1 43 1 60 1 85 2 87 1 89 1 99 1 102 1 106 1 122 1 143 1 146 1 162 1 170 1 174 1 175 1 177 1 201 1 206 1 209 1 223 1 246 1 248 1 263 1 265 1 268 1 275 1 280 1 287 1 293 1 305 1 317 1 327 1 337 1 338 2 346 1 353 1 355 1 370 1 389 1 420 1 425 1 454 1 476 1 478 1 480 1 492 1 493 1 494 1 498 1 9 1 26 1 39 1 53 1 63 1 66 1 73 1 78 1 81 1 86 1 91 1 96 1 97 1 111 1 119 1 142 1 163 1 168 1 178 1 193 1 225 1 232 1 234 1 238 1 251 1 264 1 267 1 295 1 313 1 323 1 324 1 342 1 351 1 363 1 378 1 379 1 396 1 410 1 419 1 421 1 432 1 441 1 444 1 445 1 455 1 462 1 464 1 488 1 490 1 497 1 500 1 
1 199 11 1 30 1 36 1 37 1 52 1 54 1 59 1 64 1 76 1 85 1 87 1 102 1 112 2 113 2 114 1 125 1 126 1 143 1 151 1 155 1 158 1 176 1 182 1 211 1 223 1 236 1 259 1 262 2 284 1 296 1 299 1 314 1 321 1 344 2 352 1 366 2 374 1 377 2 404 1 407 1 410 1 428 1 431 1 438 1 453 1 458 1 460 1 464 1 489 1 1 1 5 1 34 1 44 1 46 1 51 1 53 1 56 1 60 1 84 1 86 1 88 1 95 1 101 1 115 1 118 1 124 1 153 1 157 1 167 1 169 1 172 1 177 1 183 1 196 1 205 1 217 1 218 1 229 1 233 1 245 1 249 1 266 1 272 1 275 1 287 1 288 1 303 1 329 1 336 1 342 1 354 1 360 1 361 1 381 1 389 1 396 1 411 1 412 1 420 1 427 1 437 1 450 1 451 1 496 1 498 1 505 1 506 1 515 1 517 1 
1 206 5 2 45 1 52 1 56 1 66 2 79 2 82 1 92 1 107 1 133 1 134 2 142 1 158 1 162 1 174 1 189 1 201 1 202 1 203 1 205 1 227 1 228 1 235 1 242 1 244 1 246 1 266 2 268 1 270 1 273 1 283 1 302 1 315 1 318 1 320 1 330 1 331 1 337 2 351 1 352 1 362 1 365 1 375 2 379 1 382 1 397 2 399 2 402 1 424 1 430 1 456 1 483 1 486 1 490 1 496 1 499 1 13 1 19 1 23 1 36 1 42 1 44 1 58 1 62 1 65 1 67 1 70 1 73 1 77 1 86 1 94 1 100 1 102 1 116 1 118 1 136 1 137 1 150 1 153 1 164 1 167 1 176 1 187 1 191 1 192 1 204 1 206 1 209 1 211 1 217 1 233 1 243 1 252 1 260 1 272 1 290 1 298 1 307 1 323 1 348 1 353 1 355 1 389 1 391 1 396 1 404 1 405 1 416 1 418 1 445 1 460 1 489 1 494 1 497 1 
1 207 6 2 32 1 34 1 49 1 58 1 61 2 62 1 65 1 73 1 75 1 80 1 83 1 105 1 107 1 123 1 133 1 135 1 139 1 141 1 174 1 180 1 184 1 199 1 202 1 216 1 217 1 218 2 241 1 251 1 257 1 261 1 265 1 277 1 292 1 302 1 304 1 305 1 311 1 315 1 326 2 335 1 356 1 361 1 365 1 385 1 399 1 432 1 477 1 482 1 484 1 485 1 491 1 498 1 2 1 7 1 33 1 38 1 52 1 55 1 56 1 68 1 87 1 88 1 91 1 94 1 99 1 119 1 122 1 126 1 157 1 185 1 195 1 198 1 200 1 214 1 219 1 230 1 272 1 276 1 283 1 284 1 286 1 298 1 309 1 310 1 323 1 327 1 336 1 344 1 346 1 375 1 379 1 380 1 382 1 384 1 386 1 390 1 414 1 416 1 424 1 455 1 457 1 460 1 466 1 467 1 518 1 520 1 
1 0 184 1 438 1 166 1 288 1 244 1 470 1 359 1 103 1 287 1 447 1 378 1 478 1 180 1 354 1 496 1 183 1 461 1 30 1 160 1 240 1 217 1 163 1 196 1 278 1 466 1 147 1 107 1 334 1 321 1 227 1 41 1 473 1 138 1 
1 0 259 1 485 1 398 1 186 1 4 1 492 1 27 1 101 1 443 1 164 1 449 1 477 1 478 1 320 1 325 1 2 1 176 1 112 1 88 1 68 1 145 1 163 1 187 1 156 1 480 1 257 1 82 1 97 1 
1 0 429 1 204 1 232 1 454 1 314 1 337 1 117 1 269 1 329 1 422 1 136 1 98 1 199 1 214 1 102 1 156 1 149 1 197 1 447 1 154 1 261 1 365 1 385 1 216 1 320 1 494 1 242 1 254 1 
1 0 339 1 310 1 286 1 47 1 38 1 64 1 199 1 1 1 174 1 274 1 464 1 421 1 60 1 87 1 423 1 51 1 196 1 478 1 419 1 122 1 5 1 305 1 216 1 245 1 256 1 15 1 177 1 420 1 455 1 209 1 447 1 319 1 25 1 
1 0 201 1 209 1 451 1 177 1 278 1 327 1 71 1 21 1 225 1 380 1 484 1 16 1 402 1 57 1 110 1 476 1 329 1 325 1 146 1 109 1 307 1 38 1 227 1 351 1 185 1 117 1 60 1 
1 0 330 1 373 1 35 1 77 1 231 1 114 1 300 1 471 1 17 1 78 1 370 1 190 1 326 1 111 1 497 1 54 1 225 1 11 1 286 1 232 1 367 1 355 1 303 1 157 1 319 1 460 1 152 1 313 1 177 1 242 1 334 1 
1 0 19 1 284 1 31 1 140 1 497 1 320 1 257 1 194 1 17 1 333 1 354 1 72 1 356 1 421 1 209 1 272 1 332 1 404 1 447 1 393 1 208 1 268 1 104 1 274 1 48 1 1 1 200 1 310 1 239 1 260 1 206 1 
1 0 473 1 482 1 65 1 475 1 199 1 56 1 110 1 299 1 463 1 340 1 252 1 133 1 322 1 25 1 342 1 189 1 223 1 477 1 76 1 464 1 265 1 445 1 121 1 196 1 358 1 259 1 485 1 351 1 416 1 225 1 248 1 395 1 178 1 452 1 
1 0 85 1 463 1 35 1 263 1 162 1 410 1 415 1 18 1 192 1 205 1 235 1 440 1 58 1 293 1 172 1 210 1 400 1 319 1 364 1 1 1 142 1 270 1 367 1 447 1 110 1 125 1 287 1 150 1 256 1 87 1 439 1 369 1 
1 0 114 1 371 1 450 1 31 1 228 1 332 1 444 1 295 1 478 1 69 1 361 1 29 1 288 1 122 1 127 1 297 1 261 1 359 1 483 1 92 1 232 1 178 1 130 1 453 1 91 1 410 1 326 1 218 1 242 1 320 1 372 1 243 1 241 1 406 1 352 1 102 1 378 1 
1 0 105 1 180 1 64 1 394 1 430 1 146 1 198 1 44 1 159 1 215 1 314 1 301 1 240 1 239 1 188 1 127 1 49 1 10 1 81 1 244 1 375 1 195 1 13 1 380 1 294 1 476 1 214 1 321 1 457 1 221 1 157 1 
1 0 103 1 168 1 373 1 402 1 88 1 285 1 71 1 334 1 364 1 371 1 80 1 487 1 257 1 16 1 180 1 190 1 471 1 379 1 51 1 490 1 98 1 271 1 76 1 90 1 65 1 312 1 408 1 39 1 263 1 435 1 297 1 474 1 444 1 96 1 
1 0 416 1 162 1 119 1 365 1 489 1 169 1 302 1 431 1 263 1 273 1 175 1 427 1 262 1 479 1 406 1 476 1 122 1 266 1 166 1 248 1 338 1 492 1 265 1 206 1 72 1 214 1 296 1 1 1 243 1 
1 0 422 1 384 1 247 1 444 1 16 1 399 1 187 1 62 1 42 1 316 1 429 1 83 1 191 1 113 1 458 1 421 1 78 1 200 1 296 1 468 1 351 1 64 1 164 1 456 1 297 1 142 1 144 1 293 1 380 1 74 1 446 1 264 1 412 1 
1 0 145 1 293 1 484 1 150 1 465 1 323 1 300 1 366 1 30 1 88 1 432 1 103 1 48 1 28 1 487 1 290 1 311 1 377 1 237 1 431 1 31 1 79 1 91 1 424 1 395 1 16 1 250 1 220 1 
1 0 16 1 408 1 81 1 30 1 429 1 267 1 346 1 487 1 333 1 237 1 98 1 162 1 378 1 332 1 486 1 279 1 274 1 149 1 131 1 298 1 464 1 360 1 262 1 111 1 380 1 15 1 385 1 497 1 222 1 171 1 170 1 44 1 406 1 34 1 439 1 33 1 
1 0 345 1 484 1 351 1 23 1 343 1 353 1 152 1 260 1 51 1 352 1 85 1 272 1 60 1 70 1 177 1 454 1 221 1 59 1 250 1 455 1 118 1 324 1 149 1 419 1 173 1 318 1 201 1 11 1 392 1 196 1 296 1 407 1 416 1 444 1 
1 0 405 1 277 1 38 1 32 1 341 1 476 1 489 1 452 1 307 1 47 1 306 1 165 1 353 1 86 1 97 1 217 1 35 1 6 1 194 1 493 1 373 1 497 1 65 1 67 1 485 1 226 1 138 1 447 1 136 1 
1 0 41 1 236 1 233 1 62 1 194 1 459 1 217 1 339 1 499 1 432 1 433 1 335 1 319 1 388 1 63 1 288 1 310 1 395 1 457 1 28 1 251 1 159 1 211 1 196 1 331 1 338 1 389 1 97 1 129 1 400 1 343 1 434 1 
1 0 147 1 38 1 197 1 327 1 238 1 478 1 167 1 39 1 8 1 394 1 79 1 223 1 141 1 487 1 393 1 98 1 249 1 366 1 46 1 279 1 87 1 187 1 391 1 160 1 209 1 292 1 462 1 477 1 151 1 67 1 103 1 10 1 294 1 61 1 200 1 142 1 409 1 
1 0 47 1 151 1 44 1 485 1 271 1 425 1 254 1 127 1 366 1 111 1 253 1 268 1 178 1 142 1 59 1 13 1 91 1 96 1 423 1 90 1 168 1 240 1 29 1 242 1 183 1 483 1 321 1 412 1 327 1 499 1 115 1 
1 0 268 1 68 1 296 1 161 1 377 1 24 1 147 1 425 1 146 1 124 1 73 1 194 1 460 1 436 1 473 1 2 1 429 1 401 1 459 1 150 1 430 1 209 1 56 1 39 1 461 1 77 1 412 1 206 1 376 1 
